     Program PWSCF v.6.7MaX starts on  7Jan2022 at  3:21:39

     R & G space division:  proc/nbgrp/npool/nimage =      72
     Reading input from scf_16.in
Warning: card &CELL ignored
Warning: card CELL_DYNAMICS = 'BFGS', ignored
Warning: card CELL_FACTOR = 2.0, ignored
Warning: card PRESS = 0.0, ignored
Warning: card / ignored

     Current dimensions of program PWSCF are:
     Max number of different atomic species (ntypx) = 10
     Max number of k-points (npk) =  40000
     Max angular momentum in pseudopotentials (lmaxx) =  3
     file Pd.pbe-spn-kjpaw_psl.1.0.0.UPF: wavefunction(s)  4S 5S 4D renormalized

     Subspace diagonalization in iterative solution of the eigenvalue problem:
     one sub-group per band group will be used

     Found symmetry operation: I + (  0.2500  0.2500  0.0000)
     This is a supercell, fractional translations are disabled
     Message from routine setup:
     using ibrav=0 with symmetry is DISCOURAGED, use correct ibrav instead

     bravais-lattice index     =            0
     lattice parameter (alat)  =      14.8394  a.u.
     unit-cell volume          =    4799.5294 (a.u.)^3
     number of atoms/cell      =           32
     number of atomic types    =            1
     number of electrons       =       576.00
     number of Kohn-Sham states=          346
     kinetic-energy cutoff     =      71.0000  Ry
     charge density cutoff     =     430.0000  Ry
     scf convergence threshold =      1.0E-06
     mixing beta               =       0.1000
     number of iterations used =           10  TF        mixing
     Exchange-correlation= SLA  PW   PBX  PBC
                           (   1   4   3   4   0   0   0)

     celldm(1)=  14.839420  celldm(2)=   0.000000  celldm(3)=   0.000000
     celldm(4)=   0.000000  celldm(5)=   0.000000  celldm(6)=   0.000000

     crystal axes: (cart. coord. in units of alat)
               a(1) = (   1.000000   0.000000   0.000000 )
               a(2) = (   0.000000   1.000000   0.000000 )
               a(3) = (   0.000000   0.000000   1.468750 )

     reciprocal axes: (cart. coord. in units 2 pi/alat)
               b(1) = (  1.000000  0.000000  0.000000 )
               b(2) = (  0.000000  1.000000  0.000000 )
               b(3) = (  0.000000  0.000000  0.680851 )

     PseudoPot. # 1 for Pd read from file:
     /rds/homes/b/bxp912/pp/Pd.pbe-spn-kjpaw_psl.1.0.0.UPF
     MD5 check sum: 790f2ebce206edfd9790dcb9844eca51
     Pseudo is Projector augmented-wave + core cor, Zval = 18.0
     Generated using &quot;atomic&quot; code by A. Dal Corso  v.6.3
     Shape of augmentation charge: PSQ
     Using radial grid of 1235 points,  6 beta functions with:
                l(1) =   0
                l(2) =   0
                l(3) =   1
                l(4) =   1
                l(5) =   2
                l(6) =   2
     Q(r) pseudized with 0 coefficients

     atomic species   valence    mass     pseudopotential
        Pd            18.00   106.42000     Pd( 1.00)

      8 Sym. Ops. (no inversion) found

   Cartesian axes

     site n.     atom                  positions (alat units)
         1           Pd  tau(   1) = (   0.0000000   0.0000000   0.0000000  )
         2           Pd  tau(   2) = (   0.2500000   0.2500000   0.0000000  )
         3           Pd  tau(   3) = (   0.2500000   0.0000000   0.2500000  )
         4           Pd  tau(   4) = (   0.0000000   0.2500000   0.2500000  )
         5           Pd  tau(   5) = (   0.0000000   0.0000000   0.9687500  )
         6           Pd  tau(   6) = (   0.2500000   0.2500000   0.9687500  )
         7           Pd  tau(   7) = (   0.2500000   0.0000000   1.2187500  )
         8           Pd  tau(   8) = (   0.0000000   0.2500000   1.2187500  )
         9           Pd  tau(   9) = (   0.0000000   0.5000000   0.0000000  )
        10           Pd  tau(  10) = (   0.2500000   0.7500000   0.0000000  )
        11           Pd  tau(  11) = (   0.2500000   0.5000000   0.2500000  )
        12           Pd  tau(  12) = (   0.0000000   0.7500000   0.2500000  )
        13           Pd  tau(  13) = (   0.0000000   0.5000000   0.9687500  )
        14           Pd  tau(  14) = (   0.2500000   0.7500000   0.9687500  )
        15           Pd  tau(  15) = (   0.2500000   0.5000000   1.2187500  )
        16           Pd  tau(  16) = (   0.0000000   0.7500000   1.2187500  )
        17           Pd  tau(  17) = (   0.5000000   0.0000000   0.0000000  )
        18           Pd  tau(  18) = (   0.7500000   0.2500000   0.0000000  )
        19           Pd  tau(  19) = (   0.7500000   0.0000000   0.2500000  )
        20           Pd  tau(  20) = (   0.5000000   0.2500000   0.2500000  )
        21           Pd  tau(  21) = (   0.5000000   0.0000000   0.9687500  )
        22           Pd  tau(  22) = (   0.7500000   0.2500000   0.9687500  )
        23           Pd  tau(  23) = (   0.7500000   0.0000000   1.2187500  )
        24           Pd  tau(  24) = (   0.5000000   0.2500000   1.2187500  )
        25           Pd  tau(  25) = (   0.5000000   0.5000000   0.0000000  )
        26           Pd  tau(  26) = (   0.7500000   0.7500000   0.0000000  )
        27           Pd  tau(  27) = (   0.7500000   0.5000000   0.2500000  )
        28           Pd  tau(  28) = (   0.5000000   0.7500000   0.2500000  )
        29           Pd  tau(  29) = (   0.5000000   0.5000000   0.9687500  )
        30           Pd  tau(  30) = (   0.7500000   0.7500000   0.9687500  )
        31           Pd  tau(  31) = (   0.7500000   0.5000000   1.2187500  )
        32           Pd  tau(  32) = (   0.5000000   0.7500000   1.2187500  )

     number of k points=    75  Marzari-Vanderbilt smearing, width (Ry)=  0.0400
                       cart. coord. in units 2pi/alat
        k(    1) = (   0.0555556   0.0555556   0.0378251), wk =   0.0219479
        k(    2) = (   0.0555556   0.0555556   0.1134752), wk =   0.0219479
        k(    3) = (   0.0555556   0.0555556   0.1891253), wk =   0.0219479
        k(    4) = (   0.0555556   0.0555556   0.2647754), wk =   0.0219479
        k(    5) = (   0.0555556   0.0555556  -0.3404255), wk =   0.0109739
        k(    6) = (   0.0555556   0.1666667   0.0378251), wk =   0.0438957
        k(    7) = (   0.0555556   0.1666667   0.1134752), wk =   0.0438957
        k(    8) = (   0.0555556   0.1666667   0.1891253), wk =   0.0438957
        k(    9) = (   0.0555556   0.1666667   0.2647754), wk =   0.0438957
        k(   10) = (   0.0555556   0.1666667  -0.3404255), wk =   0.0219479
        k(   11) = (   0.0555556   0.2777778   0.0378251), wk =   0.0438957
        k(   12) = (   0.0555556   0.2777778   0.1134752), wk =   0.0438957
        k(   13) = (   0.0555556   0.2777778   0.1891253), wk =   0.0438957
        k(   14) = (   0.0555556   0.2777778   0.2647754), wk =   0.0438957
        k(   15) = (   0.0555556   0.2777778  -0.3404255), wk =   0.0219479
        k(   16) = (   0.0555556   0.3888889   0.0378251), wk =   0.0438957
        k(   17) = (   0.0555556   0.3888889   0.1134752), wk =   0.0438957
        k(   18) = (   0.0555556   0.3888889   0.1891253), wk =   0.0438957
        k(   19) = (   0.0555556   0.3888889   0.2647754), wk =   0.0438957
        k(   20) = (   0.0555556   0.3888889  -0.3404255), wk =   0.0219479
        k(   21) = (   0.0555556  -0.5000000   0.0378251), wk =   0.0219479
        k(   22) = (   0.0555556  -0.5000000   0.1134752), wk =   0.0219479
        k(   23) = (   0.0555556  -0.5000000   0.1891253), wk =   0.0219479
        k(   24) = (   0.0555556  -0.5000000   0.2647754), wk =   0.0219479
        k(   25) = (   0.0555556  -0.5000000  -0.3404255), wk =   0.0109739
        k(   26) = (   0.1666667   0.1666667   0.0378251), wk =   0.0219479
        k(   27) = (   0.1666667   0.1666667   0.1134752), wk =   0.0219479
        k(   28) = (   0.1666667   0.1666667   0.1891253), wk =   0.0219479
        k(   29) = (   0.1666667   0.1666667   0.2647754), wk =   0.0219479
        k(   30) = (   0.1666667   0.1666667  -0.3404255), wk =   0.0109739
        k(   31) = (   0.1666667   0.2777778   0.0378251), wk =   0.0438957
        k(   32) = (   0.1666667   0.2777778   0.1134752), wk =   0.0438957
        k(   33) = (   0.1666667   0.2777778   0.1891253), wk =   0.0438957
        k(   34) = (   0.1666667   0.2777778   0.2647754), wk =   0.0438957
        k(   35) = (   0.1666667   0.2777778  -0.3404255), wk =   0.0219479
        k(   36) = (   0.1666667   0.3888889   0.0378251), wk =   0.0438957
        k(   37) = (   0.1666667   0.3888889   0.1134752), wk =   0.0438957
        k(   38) = (   0.1666667   0.3888889   0.1891253), wk =   0.0438957
        k(   39) = (   0.1666667   0.3888889   0.2647754), wk =   0.0438957
        k(   40) = (   0.1666667   0.3888889  -0.3404255), wk =   0.0219479
        k(   41) = (   0.1666667  -0.5000000   0.0378251), wk =   0.0219479
        k(   42) = (   0.1666667  -0.5000000   0.1134752), wk =   0.0219479
        k(   43) = (   0.1666667  -0.5000000   0.1891253), wk =   0.0219479
        k(   44) = (   0.1666667  -0.5000000   0.2647754), wk =   0.0219479
        k(   45) = (   0.1666667  -0.5000000  -0.3404255), wk =   0.0109739
        k(   46) = (   0.2777778   0.2777778   0.0378251), wk =   0.0219479
        k(   47) = (   0.2777778   0.2777778   0.1134752), wk =   0.0219479
        k(   48) = (   0.2777778   0.2777778   0.1891253), wk =   0.0219479
        k(   49) = (   0.2777778   0.2777778   0.2647754), wk =   0.0219479
        k(   50) = (   0.2777778   0.2777778  -0.3404255), wk =   0.0109739
        k(   51) = (   0.2777778   0.3888889   0.0378251), wk =   0.0438957
        k(   52) = (   0.2777778   0.3888889   0.1134752), wk =   0.0438957
        k(   53) = (   0.2777778   0.3888889   0.1891253), wk =   0.0438957
        k(   54) = (   0.2777778   0.3888889   0.2647754), wk =   0.0438957
        k(   55) = (   0.2777778   0.3888889  -0.3404255), wk =   0.0219479
        k(   56) = (   0.2777778  -0.5000000   0.0378251), wk =   0.0219479
        k(   57) = (   0.2777778  -0.5000000   0.1134752), wk =   0.0219479
        k(   58) = (   0.2777778  -0.5000000   0.1891253), wk =   0.0219479
        k(   59) = (   0.2777778  -0.5000000   0.2647754), wk =   0.0219479
        k(   60) = (   0.2777778  -0.5000000  -0.3404255), wk =   0.0109739
        k(   61) = (   0.3888889   0.3888889   0.0378251), wk =   0.0219479
        k(   62) = (   0.3888889   0.3888889   0.1134752), wk =   0.0219479
        k(   63) = (   0.3888889   0.3888889   0.1891253), wk =   0.0219479
        k(   64) = (   0.3888889   0.3888889   0.2647754), wk =   0.0219479
        k(   65) = (   0.3888889   0.3888889  -0.3404255), wk =   0.0109739
        k(   66) = (   0.3888889  -0.5000000   0.0378251), wk =   0.0219479
        k(   67) = (   0.3888889  -0.5000000   0.1134752), wk =   0.0219479
        k(   68) = (   0.3888889  -0.5000000   0.1891253), wk =   0.0219479
        k(   69) = (   0.3888889  -0.5000000   0.2647754), wk =   0.0219479
        k(   70) = (   0.3888889  -0.5000000  -0.3404255), wk =   0.0109739
        k(   71) = (  -0.5000000  -0.5000000   0.0378251), wk =   0.0054870
        k(   72) = (  -0.5000000  -0.5000000   0.1134752), wk =   0.0054870
        k(   73) = (  -0.5000000  -0.5000000   0.1891253), wk =   0.0054870
        k(   74) = (  -0.5000000  -0.5000000   0.2647754), wk =   0.0054870
        k(   75) = (  -0.5000000  -0.5000000  -0.3404255), wk =   0.0027435

     Check: negative core charge=   -0.000001

     Initial potential from superposition of free atoms

     starting charge  575.98776, renormalised to  576.00000
     Starting wfcs are  320 randomized atomic wfcs +   26 random wfcs
     Checking if some PAW data can be deallocated...

     Self-consistent Calculation

     iteration #  1     ecut=    71.00 Ry     beta= 0.10
     Davidson diagonalization with overlap
     ethr =  1.00E-02,  avg # of iterations =  4.1

     Threshold (ethr) on eigenvalues was too large:
     Diagonalizing with lowered threshold

     Davidson diagonalization with overlap
     ethr =  7.46E-04,  avg # of iterations =  1.2

     total energy              =  -16384.82259236 Ry
     estimated scf accuracy    <       4.29018537 Ry

[...]

     iteration # 13     ecut=    71.00 Ry     beta= 0.10
     Davidson diagonalization with overlap
     c_bands:  1 eigenvalues not converged
     ethr =  1.83E-06,  avg # of iterations =  6.6

[...]

     iteration # 14     ecut=    71.00 Ry     beta= 0.10
     Davidson diagonalization with overlap
     c_bands:  2 eigenvalues not converged
     ethr =  1.83E-06,  avg # of iterations =  6.5

[...]

     total energy              =  -16384.05458488 Ry
     estimated scf accuracy    <       0.00000128 Ry

     iteration # 24     ecut=    71.00 Ry     beta= 0.10
     Davidson diagonalization with overlap
     ethr =  2.21E-10,  avg # of iterations =  2.0

     End of self-consistent calculation

          k = 0.0556 0.0556 0.0378 ( 48506 PWs)   bands (ev):

   -72.6775 -72.6553 -72.6553 -72.6511 -72.6511 -72.6465 -72.6455 -72.6449
   -72.6448 -72.6437 -72.6379 -72.6378 -72.6364 -72.6364 -72.6292 -72.6291
   -72.0863 -72.0863 -72.0719 -72.0719 -72.0719 -72.0718 -72.0707 -72.0706
   -72.0704 -72.0704 -72.0691 -72.0691 -72.0691 -72.0690 -72.0546 -72.0545
   -38.5121 -38.5121 -38.5117 -38.5109 -38.4983 -38.4983 -38.4914 -38.4573
   -38.4572 -38.4543 -38.4542 -38.4171 -38.4171 -38.4061 -38.4061 -38.3969
   -38.3969 -38.3937 -38.3937 -38.3848 -38.3848 -38.3560 -38.3559 -38.3492
   -38.3492 -38.3492 -38.3447 -38.3446 -38.3394 -38.3349 -38.3349 -38.3210
   -38.3180 -38.3179 -38.3035 -38.3035 -38.3006 -38.2996 -38.2895 -38.2895
   -38.2843 -38.2842 -38.2507 -38.2488 -38.2487 -38.2445 -38.2324 -38.2308
   -37.9603 -37.9602 -37.9595 -37.9586 -37.9485 -37.9485 -37.9465 -37.9465
   -37.8780 -37.8780 -37.8778 -37.8778 -37.8630 -37.8630 -37.8628 -37.8628
   -37.8607 -37.8607 -37.8603 -37.8603 -37.8455 -37.8454 -37.8453 -37.8453
   -37.7748 -37.7745 -37.7733 -37.7729 -37.7613 -37.7613 -37.7600 -37.7600
   -37.6900 -37.6866 -37.6754 -37.6754 -37.6749 -37.6749 -37.6740 -37.6737
   -37.6737 -37.6736 -37.6732 -37.6732 -37.6728 -37.6728 -37.6631 -37.6630
     5.1361   6.4284   6.6667   6.6667   6.7330   6.7392   6.7454   6.7454
     6.8047   6.8215   6.9413   6.9413   7.0298   7.0298   7.2133   7.2133
     7.2773   7.4813   7.6032   7.6032   7.6319   7.6319   7.6618   7.6618
     7.6825   7.6825   7.7523   7.7549   7.7549   7.7575   7.7701   7.7701
     7.8949   7.8949   7.9630   7.9630   7.9991   7.9991   8.0755   8.0755
     8.0866   8.0866   8.1499   8.1499   8.2118   8.2712   8.2712   8.2895
     8.2895   8.4331   8.4331   8.4997   8.5472   8.5473   8.5965   8.5965
     8.6089   8.6174   8.6174   8.6283   8.8061   8.8061   8.8074   8.8074
     8.8204   8.8309   8.9707   8.9707   8.9794   8.9815   8.9888   8.9888
     9.0216   9.0308   9.0892   9.0892   9.1238   9.1238   9.4726   9.4726
     9.5263   9.5322   9.5408   9.5408   9.5613   9.5613   9.5836   9.5836
     9.7141   9.7141   9.7418   9.7418   9.7537   9.7537   9.7606   9.7772
     9.8122   9.8122   9.8318   9.8319   9.8598   9.8991   9.9085   9.9301
     9.9301  10.0388  10.0388  10.0522  10.0523  10.1316  10.1631  10.1631
    10.1855  10.1856  10.2013  10.2013  10.3304  10.3304  10.3895  10.3895
    10.3921  10.3921  10.4195  10.5095  10.5692  10.5692  10.6363  10.6364
    10.7597  10.7597  10.7693  10.7693  10.7698  10.7891  10.7891  10.7988
    10.8921  10.8921  10.8929  10.9082  10.9158  10.9900  11.0319  11.0452
    11.0452  11.0564  11.0564  11.0680  11.0680  11.2353  11.2353  11.3082
    11.3109  11.3109  11.3124  11.3658  11.4446  11.4618  11.4618  11.4686
    11.4686  11.5146  11.5646  11.6714  11.6714  12.0386  12.0386  12.0755
    12.0756  12.4734  12.4734  12.9232  13.1058  13.1342  13.3361  13.3361
    13.6156  13.6259  13.6259  13.7699  13.7700  13.9725  14.1791  14.1791
    14.2757  15.8470  15.8470  16.3705  16.3705  16.6463  16.7143  16.7143
    16.8628  16.9384  16.9384  17.5918  17.5918  18.1684  18.1684  18.1878
    18.1878  19.3164  19.8085  20.1052  20.1052  20.2561  20.3973  20.3973
    20.6013  20.6013  20.6853  20.9177  20.9180  21.0831  21.0831  21.4094
    22.0490  22.0503

[...]

          k = 0.3889-0.5000-0.3404 ( 48516 PWs)   bands (ev):

[...]

          k =-0.5000-0.5000 0.0378 ( 48464 PWs)   bands (ev):

[...]

          k =-0.5000-0.5000-0.3404 ( 48440 PWs)   bands (ev):

   -72.6647 -72.6647 -72.6647 -72.6647 -72.6419 -72.6419 -72.6419 -72.6419
   -72.6371 -72.6371 -72.6371 -72.6370 -72.6370 -72.6370 -72.6370 -72.6370
   -72.0785 -72.0785 -72.0785 -72.0785 -72.0785 -72.0785 -72.0785 -72.0784
   -72.0625 -72.0625 -72.0625 -72.0625 -72.0625 -72.0625 -72.0625 -72.0624
   -38.4897 -38.4897 -38.4897 -38.4897 -38.4897 -38.4896 -38.4896 -38.4896
   -38.4762 -38.4762 -38.4762 -38.4762 -38.4256 -38.4256 -38.4256 -38.4256
   -38.3645 -38.3645 -38.3645 -38.3645 -38.3645 -38.3645 -38.3645 -38.3645
   -38.3245 -38.3245 -38.3245 -38.3245 -38.3232 -38.3232 -38.3232 -38.3232
   -38.3232 -38.3232 -38.3232 -38.3232 -38.3010 -38.3010 -38.3010 -38.3010
   -38.2814 -38.2814 -38.2814 -38.2814 -38.2318 -38.2318 -38.2317 -38.2317
   -37.9536 -37.9536 -37.9536 -37.9536 -37.9536 -37.9536 -37.9536 -37.9536
   -37.8700 -37.8700 -37.8700 -37.8700 -37.8676 -37.8676 -37.8676 -37.8676
   -37.8551 -37.8551 -37.8551 -37.8551 -37.8551 -37.8551 -37.8551 -37.8551
   -37.7665 -37.7665 -37.7665 -37.7665 -37.7665 -37.7665 -37.7665 -37.7665
   -37.6808 -37.6808 -37.6808 -37.6808 -37.6801 -37.6801 -37.6801 -37.6801
   -37.6683 -37.6683 -37.6683 -37.6683 -37.6682 -37.6682 -37.6682 -37.6681
     6.2598   6.2598   6.2598   6.2598   6.8786   6.8786   6.8786   6.8786
     7.2134   7.2134   7.2135   7.2135   7.2135   7.2135   7.2135   7.2135
     7.3254   7.3254   7.3254   7.3254   7.3820   7.3820   7.3820   7.3820
     7.3820   7.3820   7.3820   7.3820   7.4792   7.4792   7.4792   7.4792
     7.7658   7.7658   7.7658   7.7658   8.0886   8.0886   8.0886   8.0886
     8.0886   8.0886   8.0886   8.0886   8.3871   8.3871   8.3871   8.3871
     8.3871   8.3871   8.3871   8.3871   8.5561   8.5561   8.5561   8.5561
     8.7744   8.7744   8.7744   8.7744   9.0216   9.0216   9.0216   9.0216
     9.1227   9.1227   9.1227   9.1227   9.1632   9.1632   9.1632   9.1632
     9.2264   9.2264   9.2264   9.2264   9.3538   9.3538   9.3538   9.3538
     9.3538   9.3538   9.3538   9.3538   9.3981   9.3981   9.3981   9.3981
     9.6673   9.6673   9.6673   9.6673   9.8006   9.8006   9.8006   9.8006
     9.9341   9.9341   9.9341   9.9341   9.9341   9.9341   9.9341   9.9341
     9.9667   9.9667   9.9667   9.9667   9.9667   9.9667   9.9667   9.9667
    10.0172  10.0172  10.0172  10.0172  10.2381  10.2381  10.2381  10.2381
    10.5313  10.5313  10.5313  10.5313  10.5313  10.5313  10.5313  10.5314
    10.5535  10.5535  10.5535  10.5535  10.6160  10.6160  10.6160  10.6160
    10.8060  10.8060  10.8060  10.8060  11.0086  11.0086  11.0086  11.0086
    11.1476  11.1476  11.1476  11.1476  11.1476  11.1476  11.1476  11.1476
    11.4248  11.4248  11.4248  11.4248  11.4858  11.4858  11.4858  11.4858
    11.4858  11.4858  11.4858  11.4858  11.4946  11.4946  11.4946  11.4946
    12.4178  12.4178  12.4178  12.4178  14.3431  14.3431  14.3431  14.3431
    14.7527  14.7527  14.7527  14.7527  14.7527  14.7527  14.7527  14.7527
    15.8371  15.8371  15.8371  15.8371  15.8371  15.8371  15.8371  15.8371
    17.4934  17.4934  17.4934  17.4934  17.9241  17.9241  17.9241  17.9241
    17.9241  17.9241  17.9241  17.9241  19.5595  19.5595  19.5595  19.5596
    20.0686  20.0686  20.0686  20.0686  20.0686  20.0686  20.0686  20.1182
    20.1185  20.1185

     the Fermi energy is    11.4962 ev

!    total energy              =  -16384.05459093 Ry

     total all-electron energy =   -322944.908298 Ry
     estimated scf accuracy    <       0.00000073 Ry
     smearing contrib. (-TS)   =       0.12342421 Ry
     internal energy E=F+TS    =  -16384.17801515 Ry

     The total energy is F=E-TS. E is the sum of the following terms:
     one-electron contribution =  -10185.04770637 Ry
     hartree contribution      =    5350.59515160 Ry
     xc contribution           =    -985.37414304 Ry
     ewald contribution        =   -2397.02197019 Ry
     one-center paw contrib.   =   -8167.32934716 Ry

     convergence has been achieved in  24 iterations

     Forces acting on atoms (cartesian axes, Ry/au):

     atom    1 type  1   force =     0.00000000    0.00000000    0.00323978
     atom    2 type  1   force =     0.00000423    0.00000423    0.00325450
     atom    3 type  1   force =     0.00001320    0.00000000   -0.00420713
     atom    4 type  1   force =     0.00000000    0.00001320   -0.00420713
     atom    5 type  1   force =     0.00000000    0.00000000    0.00421361
     atom    6 type  1   force =    -0.00000004   -0.00000004    0.00420644
     atom    7 type  1   force =    -0.00001453    0.00000000   -0.00323932
     atom    8 type  1   force =     0.00000000   -0.00001453   -0.00323932
     atom    9 type  1   force =     0.00000000    0.00000000    0.00324010
     atom   10 type  1   force =     0.00000423   -0.00000423    0.00325450
     atom   11 type  1   force =     0.00000191    0.00000000   -0.00420255
     atom   12 type  1   force =     0.00000000   -0.00001320   -0.00420713
     atom   13 type  1   force =     0.00000000    0.00000000    0.00419114
     atom   14 type  1   force =    -0.00000004    0.00000004    0.00420644
     atom   15 type  1   force =    -0.00001167    0.00000000   -0.00325137
     atom   16 type  1   force =     0.00000000    0.00001453   -0.00323932
     atom   17 type  1   force =     0.00000000    0.00000000    0.00324010
     atom   18 type  1   force =    -0.00000423    0.00000423    0.00325450
     atom   19 type  1   force =    -0.00001320    0.00000000   -0.00420713
     atom   20 type  1   force =     0.00000000    0.00000191   -0.00420255
     atom   21 type  1   force =     0.00000000    0.00000000    0.00419114
     atom   22 type  1   force =     0.00000004   -0.00000004    0.00420644
     atom   23 type  1   force =     0.00001453    0.00000000   -0.00323932
     atom   24 type  1   force =     0.00000000   -0.00001167   -0.00325137
     atom   25 type  1   force =     0.00000000    0.00000000    0.00326117
     atom   26 type  1   force =    -0.00000423   -0.00000423    0.00325450
     atom   27 type  1   force =    -0.00000191    0.00000000   -0.00420255
     atom   28 type  1   force =     0.00000000   -0.00000191   -0.00420255
     atom   29 type  1   force =     0.00000000    0.00000000    0.00418065
     atom   30 type  1   force =     0.00000004    0.00000004    0.00420644
     atom   31 type  1   force =     0.00001167    0.00000000   -0.00325137
     atom   32 type  1   force =     0.00000000    0.00001167   -0.00325137

     Total force =     0.021245     Total SCF correction =     0.002018

     Computing stress (Cartesian axis) and pressure

          total   stress  (Ry/bohr**3)                   (kbar)     P=      -38.13
  -0.00032164   0.00000000   0.00000000          -47.31        0.00        0.00
   0.00000000  -0.00032164   0.00000000            0.00      -47.31        0.00
   0.00000000   0.00000000  -0.00013426            0.00        0.00      -19.75

     Writing output data file /scratch/SMjQtDStExCajVNT.save/

     General routines

     Parallel routines

   This run was terminated on:   4: 2:35   7Jan2022

   JOB DONE.