     Program PWSCF v.6.7MaX starts on  6Jan2022 at 22:45:49

     R & G space division:  proc/nbgrp/npool/nimage =      72
     Reading input from scf_8.in
Warning: card &CELL ignored
Warning: card CELL_DYNAMICS = 'BFGS', ignored
Warning: card CELL_FACTOR = 2.0, ignored
Warning: card PRESS = 0.0, ignored
Warning: card / ignored

     Current dimensions of program PWSCF are:
     Max number of different atomic species (ntypx) = 10
     Max number of k-points (npk) =  40000
     Max angular momentum in pseudopotentials (lmaxx) =  3
     file Pd.pbe-spn-kjpaw_psl.1.0.0.UPF: wavefunction(s)  4S 5S 4D renormalized

     Subspace diagonalization in iterative solution of the eigenvalue problem:
     one sub-group per band group will be used

     Found symmetry operation: I + (  0.2500  0.2500  0.0000)
     This is a supercell, fractional translations are disabled
     Message from routine setup:
     using ibrav=0 with symmetry is DISCOURAGED, use correct ibrav instead

     bravais-lattice index     =            0
     lattice parameter (alat)  =      14.8394  a.u.
     unit-cell volume          =    3982.5883 (a.u.)^3
     number of atoms/cell      =           32
     number of atomic types    =            1
     number of electrons       =       576.00
     number of Kohn-Sham states=          346
     kinetic-energy cutoff     =      71.0000  Ry
     charge density cutoff     =     430.0000  Ry
     scf convergence threshold =      1.0E-06
     mixing beta               =       0.1000
     number of iterations used =           10  TF        mixing
     Exchange-correlation= SLA  PW   PBX  PBC
                           (   1   4   3   4   0   0   0)

     celldm(1)=  14.839420  celldm(2)=   0.000000  celldm(3)=   0.000000
     celldm(4)=   0.000000  celldm(5)=   0.000000  celldm(6)=   0.000000

     crystal axes: (cart. coord. in units of alat)
               a(1) = (   1.000000   0.000000   0.000000 )
               a(2) = (   0.000000   1.000000   0.000000 )
               a(3) = (   0.000000   0.000000   1.218750 )

     reciprocal axes: (cart. coord. in units 2 pi/alat)
               b(1) = (  1.000000  0.000000  0.000000 )
               b(2) = (  0.000000  1.000000  0.000000 )
               b(3) = (  0.000000  0.000000  0.820513 )

     PseudoPot. # 1 for Pd read from file:
     /rds/homes/b/bxp912/pp/Pd.pbe-spn-kjpaw_psl.1.0.0.UPF
     MD5 check sum: 790f2ebce206edfd9790dcb9844eca51
     Pseudo is Projector augmented-wave + core cor, Zval = 18.0
     Generated using &quot;atomic&quot; code by A. Dal Corso  v.6.3
     Shape of augmentation charge: PSQ
     Using radial grid of 1235 points,  6 beta functions with:
                l(1) =   0
                l(2) =   0
                l(3) =   1
                l(4) =   1
                l(5) =   2
                l(6) =   2
     Q(r) pseudized with 0 coefficients

     atomic species   valence    mass     pseudopotential
        Pd            18.00   106.42000     Pd( 1.00)

      8 Sym. Ops. (no inversion) found

   Cartesian axes

     site n.     atom                  positions (alat units)
         1           Pd  tau(   1) = (   0.0000000   0.0000000   0.0000000  )
         2           Pd  tau(   2) = (   0.2500000   0.2500000   0.0000000  )
         3           Pd  tau(   3) = (   0.2500000   0.0000000   0.2500000  )
         4           Pd  tau(   4) = (   0.0000000   0.2500000   0.2500000  )
         5           Pd  tau(   5) = (   0.0000000   0.0000000   0.7187500  )
         6           Pd  tau(   6) = (   0.2500000   0.2500000   0.7187500  )
         7           Pd  tau(   7) = (   0.2500000   0.0000000   0.9687500  )
         8           Pd  tau(   8) = (   0.0000000   0.2500000   0.9687500  )
         9           Pd  tau(   9) = (   0.0000000   0.5000000   0.0000000  )
        10           Pd  tau(  10) = (   0.2500000   0.7500000   0.0000000  )
        11           Pd  tau(  11) = (   0.2500000   0.5000000   0.2500000  )
        12           Pd  tau(  12) = (   0.0000000   0.7500000   0.2500000  )
        13           Pd  tau(  13) = (   0.0000000   0.5000000   0.7187500  )
        14           Pd  tau(  14) = (   0.2500000   0.7500000   0.7187500  )
        15           Pd  tau(  15) = (   0.2500000   0.5000000   0.9687500  )
        16           Pd  tau(  16) = (   0.0000000   0.7500000   0.9687500  )
        17           Pd  tau(  17) = (   0.5000000   0.0000000   0.0000000  )
        18           Pd  tau(  18) = (   0.7500000   0.2500000   0.0000000  )
        19           Pd  tau(  19) = (   0.7500000   0.0000000   0.2500000  )
        20           Pd  tau(  20) = (   0.5000000   0.2500000   0.2500000  )
        21           Pd  tau(  21) = (   0.5000000   0.0000000   0.7187500  )
        22           Pd  tau(  22) = (   0.7500000   0.2500000   0.7187500  )
        23           Pd  tau(  23) = (   0.7500000   0.0000000   0.9687500  )
        24           Pd  tau(  24) = (   0.5000000   0.2500000   0.9687500  )
        25           Pd  tau(  25) = (   0.5000000   0.5000000   0.0000000  )
        26           Pd  tau(  26) = (   0.7500000   0.7500000   0.0000000  )
        27           Pd  tau(  27) = (   0.7500000   0.5000000   0.2500000  )
        28           Pd  tau(  28) = (   0.5000000   0.7500000   0.2500000  )
        29           Pd  tau(  29) = (   0.5000000   0.5000000   0.7187500  )
        30           Pd  tau(  30) = (   0.7500000   0.7500000   0.7187500  )
        31           Pd  tau(  31) = (   0.7500000   0.5000000   0.9687500  )
        32           Pd  tau(  32) = (   0.5000000   0.7500000   0.9687500  )

     number of k points=    75  Marzari-Vanderbilt smearing, width (Ry)=  0.0400
                       cart. coord. in units 2pi/alat
        k(    1) = (   0.0555556   0.0555556   0.0455840), wk =   0.0219479
        k(    2) = (   0.0555556   0.0555556   0.1367521), wk =   0.0219479
        k(    3) = (   0.0555556   0.0555556   0.2279202), wk =   0.0219479
        k(    4) = (   0.0555556   0.0555556   0.3190883), wk =   0.0219479
        k(    5) = (   0.0555556   0.0555556  -0.4102564), wk =   0.0109739
        k(    6) = (   0.0555556   0.1666667   0.0455840), wk =   0.0438957
        k(    7) = (   0.0555556   0.1666667   0.1367521), wk =   0.0438957
        k(    8) = (   0.0555556   0.1666667   0.2279202), wk =   0.0438957
        k(    9) = (   0.0555556   0.1666667   0.3190883), wk =   0.0438957
        k(   10) = (   0.0555556   0.1666667  -0.4102564), wk =   0.0219479
        k(   11) = (   0.0555556   0.2777778   0.0455840), wk =   0.0438957
        k(   12) = (   0.0555556   0.2777778   0.1367521), wk =   0.0438957
        k(   13) = (   0.0555556   0.2777778   0.2279202), wk =   0.0438957
        k(   14) = (   0.0555556   0.2777778   0.3190883), wk =   0.0438957
        k(   15) = (   0.0555556   0.2777778  -0.4102564), wk =   0.0219479
        k(   16) = (   0.0555556   0.3888889   0.0455840), wk =   0.0438957
        k(   17) = (   0.0555556   0.3888889   0.1367521), wk =   0.0438957
        k(   18) = (   0.0555556   0.3888889   0.2279202), wk =   0.0438957
        k(   19) = (   0.0555556   0.3888889   0.3190883), wk =   0.0438957
        k(   20) = (   0.0555556   0.3888889  -0.4102564), wk =   0.0219479
        k(   21) = (   0.0555556  -0.5000000   0.0455840), wk =   0.0219479
        k(   22) = (   0.0555556  -0.5000000   0.1367521), wk =   0.0219479
        k(   23) = (   0.0555556  -0.5000000   0.2279202), wk =   0.0219479
        k(   24) = (   0.0555556  -0.5000000   0.3190883), wk =   0.0219479
        k(   25) = (   0.0555556  -0.5000000  -0.4102564), wk =   0.0109739
        k(   26) = (   0.1666667   0.1666667   0.0455840), wk =   0.0219479
        k(   27) = (   0.1666667   0.1666667   0.1367521), wk =   0.0219479
        k(   28) = (   0.1666667   0.1666667   0.2279202), wk =   0.0219479
        k(   29) = (   0.1666667   0.1666667   0.3190883), wk =   0.0219479
        k(   30) = (   0.1666667   0.1666667  -0.4102564), wk =   0.0109739
        k(   31) = (   0.1666667   0.2777778   0.0455840), wk =   0.0438957
        k(   32) = (   0.1666667   0.2777778   0.1367521), wk =   0.0438957
        k(   33) = (   0.1666667   0.2777778   0.2279202), wk =   0.0438957
        k(   34) = (   0.1666667   0.2777778   0.3190883), wk =   0.0438957
        k(   35) = (   0.1666667   0.2777778  -0.4102564), wk =   0.0219479
        k(   36) = (   0.1666667   0.3888889   0.0455840), wk =   0.0438957
        k(   37) = (   0.1666667   0.3888889   0.1367521), wk =   0.0438957
        k(   38) = (   0.1666667   0.3888889   0.2279202), wk =   0.0438957
        k(   39) = (   0.1666667   0.3888889   0.3190883), wk =   0.0438957
        k(   40) = (   0.1666667   0.3888889  -0.4102564), wk =   0.0219479
        k(   41) = (   0.1666667  -0.5000000   0.0455840), wk =   0.0219479
        k(   42) = (   0.1666667  -0.5000000   0.1367521), wk =   0.0219479
        k(   43) = (   0.1666667  -0.5000000   0.2279202), wk =   0.0219479
        k(   44) = (   0.1666667  -0.5000000   0.3190883), wk =   0.0219479
        k(   45) = (   0.1666667  -0.5000000  -0.4102564), wk =   0.0109739
        k(   46) = (   0.2777778   0.2777778   0.0455840), wk =   0.0219479
        k(   47) = (   0.2777778   0.2777778   0.1367521), wk =   0.0219479
        k(   48) = (   0.2777778   0.2777778   0.2279202), wk =   0.0219479
        k(   49) = (   0.2777778   0.2777778   0.3190883), wk =   0.0219479
        k(   50) = (   0.2777778   0.2777778  -0.4102564), wk =   0.0109739
        k(   51) = (   0.2777778   0.3888889   0.0455840), wk =   0.0438957
        k(   52) = (   0.2777778   0.3888889   0.1367521), wk =   0.0438957
        k(   53) = (   0.2777778   0.3888889   0.2279202), wk =   0.0438957
        k(   54) = (   0.2777778   0.3888889   0.3190883), wk =   0.0438957
        k(   55) = (   0.2777778   0.3888889  -0.4102564), wk =   0.0219479
        k(   56) = (   0.2777778  -0.5000000   0.0455840), wk =   0.0219479
        k(   57) = (   0.2777778  -0.5000000   0.1367521), wk =   0.0219479
        k(   58) = (   0.2777778  -0.5000000   0.2279202), wk =   0.0219479
        k(   59) = (   0.2777778  -0.5000000   0.3190883), wk =   0.0219479
        k(   60) = (   0.2777778  -0.5000000  -0.4102564), wk =   0.0109739
        k(   61) = (   0.3888889   0.3888889   0.0455840), wk =   0.0219479
        k(   62) = (   0.3888889   0.3888889   0.1367521), wk =   0.0219479
        k(   63) = (   0.3888889   0.3888889   0.2279202), wk =   0.0219479
        k(   64) = (   0.3888889   0.3888889   0.3190883), wk =   0.0219479
        k(   65) = (   0.3888889   0.3888889  -0.4102564), wk =   0.0109739
        k(   66) = (   0.3888889  -0.5000000   0.0455840), wk =   0.0219479
        k(   67) = (   0.3888889  -0.5000000   0.1367521), wk =   0.0219479
        k(   68) = (   0.3888889  -0.5000000   0.2279202), wk =   0.0219479
        k(   69) = (   0.3888889  -0.5000000   0.3190883), wk =   0.0219479
        k(   70) = (   0.3888889  -0.5000000  -0.4102564), wk =   0.0109739
        k(   71) = (  -0.5000000  -0.5000000   0.0455840), wk =   0.0054870
        k(   72) = (  -0.5000000  -0.5000000   0.1367521), wk =   0.0054870
        k(   73) = (  -0.5000000  -0.5000000   0.2279202), wk =   0.0054870
        k(   74) = (  -0.5000000  -0.5000000   0.3190883), wk =   0.0054870
        k(   75) = (  -0.5000000  -0.5000000  -0.4102564), wk =   0.0027435

     Check: negative core charge=   -0.000001

     Initial potential from superposition of free atoms

     starting charge  575.98776, renormalised to  576.00000
     Starting wfcs are  320 randomized atomic wfcs +   26 random wfcs
     Checking if some PAW data can be deallocated...

     Self-consistent Calculation

     iteration #  1     ecut=    71.00 Ry     beta= 0.10
     Davidson diagonalization with overlap
     ethr =  1.00E-02,  avg # of iterations =  3.6

     Threshold (ethr) on eigenvalues was too large:
     Diagonalizing with lowered threshold

     Davidson diagonalization with overlap
     ethr =  6.09E-04,  avg # of iterations =  1.2

     total energy              =  -16384.76049677 Ry
     estimated scf accuracy    <       3.49702441 Ry

[...]

     iteration #  7     ecut=    71.00 Ry     beta= 0.10
     Davidson diagonalization with overlap
     c_bands:  1 eigenvalues not converged
     ethr =  1.21E-05,  avg # of iterations =  6.9

[...]

     iteration # 11     ecut=    71.00 Ry     beta= 0.10
     Davidson diagonalization with overlap
     c_bands:  1 eigenvalues not converged
     ethr =  3.14E-07,  avg # of iterations =  1.3

[...]

     total energy              =  -16384.19215457 Ry
     estimated scf accuracy    <       0.00000131 Ry

     iteration # 19     ecut=    71.00 Ry     beta= 0.10
     Davidson diagonalization with overlap
     ethr =  2.27E-10,  avg # of iterations =  2.0

     End of self-consistent calculation

          k = 0.0556 0.0556 0.0456 ( 40237 PWs)   bands (ev):

   -69.3346 -69.3125 -69.3124 -69.3082 -69.3082 -69.3037 -69.3026 -69.3020
   -69.3020 -69.3009 -69.2950 -69.2950 -69.2936 -69.2936 -69.2863 -69.2863
   -68.7819 -68.7818 -68.7675 -68.7675 -68.7675 -68.7675 -68.7663 -68.7663
   -68.7661 -68.7660 -68.7647 -68.7647 -68.7647 -68.7647 -68.7502 -68.7502
   -35.1705 -35.1704 -35.1702 -35.1690 -35.1583 -35.1583 -35.1445 -35.1115
   -35.1115 -35.1093 -35.1093 -35.0761 -35.0761 -35.0643 -35.0643 -35.0551
   -35.0551 -35.0537 -35.0537 -35.0436 -35.0436 -35.0085 -35.0085 -35.0074
   -35.0074 -35.0048 -35.0001 -35.0000 -34.9947 -34.9939 -34.9939 -34.9780
   -34.9780 -34.9757 -34.9635 -34.9635 -34.9604 -34.9583 -34.9453 -34.9453
   -34.9402 -34.9402 -34.9103 -34.9085 -34.9084 -34.9042 -34.8922 -34.8907
   -34.6418 -34.6418 -34.6411 -34.6401 -34.6311 -34.6311 -34.6288 -34.6288
   -34.5606 -34.5606 -34.5604 -34.5604 -34.5457 -34.5457 -34.5455 -34.5455
   -34.5435 -34.5435 -34.5430 -34.5430 -34.5283 -34.5283 -34.5281 -34.5281
   -34.4578 -34.4576 -34.4563 -34.4561 -34.4445 -34.4445 -34.4432 -34.4432
   -34.4000 -34.3954 -34.3852 -34.3852 -34.3850 -34.3850 -34.3840 -34.3838
   -34.3837 -34.3836 -34.3832 -34.3832 -34.3830 -34.3830 -34.3738 -34.3737
     8.4410   9.7932   9.9971   9.9971  10.0628  10.0699  10.0755  10.0755
    10.1423  10.2227  10.2742  10.2742  10.3524  10.3524  10.5380  10.5380
    10.5801  10.8228  10.9540  10.9540  10.9683  10.9683  10.9967  10.9967
    11.0207  11.0207  11.0989  11.0989  11.1115  11.1164  11.1303  11.1303
    11.2317  11.2317  11.3018  11.3019  11.3327  11.3327  11.4117  11.4117
    11.4317  11.4317  11.4877  11.4877  11.5424  11.6080  11.6080  11.6255
    11.6255  11.7692  11.7692  11.8478  11.8924  11.8924  11.9301  11.9301
    11.9513  11.9600  11.9600  11.9713  12.1428  12.1429  12.1542  12.1673
    12.1691  12.1691  12.3156  12.3182  12.3206  12.3206  12.3325  12.3325
    12.3589  12.3680  12.3733  12.3733  12.4043  12.4043  12.7008  12.7008
    12.7236  12.7486  12.8454  12.8454  12.8481  12.8481  12.9341  12.9341
    13.0300  13.0476  13.0476  13.0984  13.1153  13.1183  13.1183  13.1201
    13.1201  13.1542  13.1542  13.2136  13.2136  13.2264  13.2264  13.2487
    13.2905  13.3105  13.3105  13.3392  13.3392  13.3972  13.4250  13.4250
    13.4799  13.4800  13.5202  13.5241  13.5241  13.6653  13.6653  13.7565
    13.7770  13.7770  13.7891  13.7891  13.9103  13.9103  13.9391  13.9392
    14.0706  14.0706  14.0730  14.0730  14.0945  14.0976  14.0976  14.1218
    14.1219  14.1240  14.2044  14.2044  14.2332  14.2438  14.3040  14.3475
    14.4735  14.4735  14.4756  14.4756  14.5224  14.5881  14.5881  14.6418
    14.6418  14.6435  14.6458  14.6994  14.7784  14.8175  14.8175  14.8242
    14.8242  14.8463  14.9110  15.0106  15.0107  15.4020  15.4020  15.7159
    15.7159  16.1445  16.1445  16.1778  16.4597  16.5181  16.5181  16.6658
    16.6658  16.7147  17.1321  17.1462  17.1462  17.2115  17.2115  17.6907
    18.7436  19.0438  19.0438  20.2232  20.2232  20.2263  20.3661  20.9397
    20.9397  21.4674  21.4675  21.6930  21.6930  21.8411  21.8411  22.2751
    22.2751  23.5997  23.5997  23.6312  23.6312  23.7833  24.0575  24.0575
    24.1334  24.2882  24.2882  24.9356  24.9356  25.2989  25.2990  25.6006
    25.6998  25.7393

[...]

          k = 0.3889-0.5000-0.4103 ( 40256 PWs)   bands (ev):

[...]

          k =-0.5000-0.5000 0.0456 ( 40176 PWs)   bands (ev):

[...]

          k =-0.5000-0.5000-0.4103 ( 40272 PWs)   bands (ev):

   -69.3219 -69.3219 -69.3218 -69.3218 -69.2991 -69.2991 -69.2991 -69.2991
   -69.2942 -69.2942 -69.2942 -69.2942 -69.2942 -69.2941 -69.2941 -69.2941
   -68.7741 -68.7741 -68.7741 -68.7741 -68.7741 -68.7740 -68.7740 -68.7740
   -68.7581 -68.7581 -68.7581 -68.7581 -68.7581 -68.7581 -68.7581 -68.7581
   -35.1487 -35.1487 -35.1486 -35.1486 -35.1486 -35.1486 -35.1486 -35.1486
   -35.1301 -35.1301 -35.1301 -35.1301 -35.0841 -35.0841 -35.0841 -35.0841
   -35.0211 -35.0211 -35.0210 -35.0210 -35.0210 -35.0210 -35.0210 -35.0210
   -34.9841 -34.9841 -34.9840 -34.9840 -34.9809 -34.9809 -34.9808 -34.9808
   -34.9808 -34.9808 -34.9808 -34.9808 -34.9561 -34.9561 -34.9560 -34.9560
   -34.9413 -34.9413 -34.9412 -34.9412 -34.8915 -34.8915 -34.8915 -34.8915
   -34.6356 -34.6356 -34.6356 -34.6356 -34.6356 -34.6356 -34.6356 -34.6356
   -34.5527 -34.5527 -34.5527 -34.5527 -34.5499 -34.5499 -34.5499 -34.5499
   -34.5380 -34.5380 -34.5380 -34.5380 -34.5380 -34.5380 -34.5380 -34.5380
   -34.4497 -34.4497 -34.4497 -34.4497 -34.4496 -34.4496 -34.4496 -34.4496
   -34.3909 -34.3909 -34.3909 -34.3909 -34.3895 -34.3895 -34.3895 -34.3895
   -34.3787 -34.3787 -34.3787 -34.3787 -34.3787 -34.3787 -34.3787 -34.3787
     9.6032   9.6032   9.6032   9.6032  10.1988  10.1988  10.1988  10.1988
    10.5520  10.5520  10.5521  10.5521  10.5521  10.5521  10.5521  10.5521
    10.6361  10.6361  10.6361  10.6361  10.7126  10.7126  10.7126  10.7126
    10.7126  10.7126  10.7126  10.7126  10.8476  10.8476  10.8476  10.8476
    11.0949  11.0949  11.0949  11.0949  11.4332  11.4332  11.4332  11.4332
    11.4332  11.4332  11.4332  11.4332  11.7147  11.7147  11.7147  11.7147
    11.7147  11.7147  11.7147  11.7147  11.8872  11.8872  11.8872  11.8873
    12.1110  12.1111  12.1111  12.1111  12.3608  12.3608  12.3608  12.3608
    12.4296  12.4296  12.4296  12.4296  12.5036  12.5036  12.5037  12.5037
    12.6050  12.6050  12.6050  12.6050  12.6870  12.6870  12.6870  12.6870
    12.6870  12.6870  12.6870  12.6870  12.7309  12.7309  12.7309  12.7309
    12.9405  12.9405  12.9405  12.9405  13.1292  13.1292  13.1292  13.1292
    13.2707  13.2707  13.2707  13.2707  13.2707  13.2707  13.2707  13.2707
    13.3339  13.3339  13.3339  13.3340  13.3340  13.3340  13.3340  13.3340
    13.3535  13.3535  13.3535  13.3535  13.5741  13.5741  13.5741  13.5741
    13.6060  13.6060  13.6060  13.6060  13.7368  13.7368  13.7368  13.7368
    13.7368  13.7368  13.7368  13.7368  13.9373  13.9373  13.9373  13.9373
    14.1410  14.1410  14.1410  14.1410  14.3198  14.3198  14.3198  14.3198
    14.5528  14.5528  14.5528  14.5528  14.5528  14.5528  14.5528  14.5528
    14.7638  14.7638  14.7639  14.7639  14.8311  14.8311  14.8311  14.8311
    14.8346  14.8346  14.8346  14.8346  14.8346  14.8346  14.8347  14.8347
    16.6206  16.6206  16.6206  16.6206  17.4147  17.4147  17.4147  17.4147
    18.1480  18.1480  18.1480  18.1480  18.1481  18.1481  18.1481  18.1481
    18.9654  18.9654  18.9654  18.9654  18.9654  18.9654  18.9654  18.9654
    21.6827  21.6827  21.6827  21.6827  21.6827  21.6827  21.6827  21.6827
    22.5246  22.5246  22.5246  22.5246  23.4004  23.4004  23.4004  23.4004
    23.4004  23.4004  23.4004  23.4004  23.5518  23.5518  23.5518  23.5518
    24.6871  24.6871

     the Fermi energy is    14.8403 ev

!    total energy              =  -16384.19215811 Ry

     total all-electron energy =   -322945.045865 Ry
     estimated scf accuracy    <       0.00000044 Ry
     smearing contrib. (-TS)   =       0.11370241 Ry
     internal energy E=F+TS    =  -16384.30586052 Ry

     The total energy is F=E-TS. E is the sum of the following terms:
     one-electron contribution =   -4749.06107501 Ry
     hartree contribution      =    2702.98240873 Ry
     xc contribution           =    -985.25896206 Ry
     ewald contribution        =   -5185.63577213 Ry
     one-center paw contrib.   =   -8167.33246005 Ry

     convergence has been achieved in  19 iterations

     Forces acting on atoms (cartesian axes, Ry/au):

     atom    1 type  1   force =     0.00000000    0.00000000    0.00427517
     atom    2 type  1   force =    -0.00000338   -0.00000338    0.00428944
     atom    3 type  1   force =     0.00000154    0.00000000    0.01130942
     atom    4 type  1   force =     0.00000000    0.00000154    0.01130942
     atom    5 type  1   force =     0.00000000    0.00000000   -0.01149593
     atom    6 type  1   force =    -0.00002118   -0.00002118   -0.01149736
     atom    7 type  1   force =     0.00000263    0.00000000   -0.00411578
     atom    8 type  1   force =     0.00000000    0.00000263   -0.00411578
     atom    9 type  1   force =     0.00000000    0.00000000    0.00429405
     atom   10 type  1   force =    -0.00000338    0.00000338    0.00428944
     atom   11 type  1   force =     0.00000175    0.00000000    0.01129941
     atom   12 type  1   force =     0.00000000   -0.00000154    0.01130942
     atom   13 type  1   force =     0.00000000    0.00000000   -0.01148285
     atom   14 type  1   force =    -0.00002118    0.00002118   -0.01149736
     atom   15 type  1   force =    -0.00001316    0.00000000   -0.00408608
     atom   16 type  1   force =     0.00000000   -0.00000263   -0.00411578
     atom   17 type  1   force =     0.00000000    0.00000000    0.00429405
     atom   18 type  1   force =     0.00000338   -0.00000338    0.00428944
     atom   19 type  1   force =    -0.00000154    0.00000000    0.01130942
     atom   20 type  1   force =     0.00000000    0.00000175    0.01129941
     atom   21 type  1   force =     0.00000000    0.00000000   -0.01148285
     atom   22 type  1   force =     0.00002118   -0.00002118   -0.01149736
     atom   23 type  1   force =    -0.00000263    0.00000000   -0.00411578
     atom   24 type  1   force =     0.00000000   -0.00001316   -0.00408608
     atom   25 type  1   force =     0.00000000    0.00000000    0.00429677
     atom   26 type  1   force =     0.00000338    0.00000338    0.00428944
     atom   27 type  1   force =    -0.00000175    0.00000000    0.01129941
     atom   28 type  1   force =     0.00000000   -0.00000175    0.01129941
     atom   29 type  1   force =     0.00000000    0.00000000   -0.01149458
     atom   30 type  1   force =     0.00002118    0.00002118   -0.01149736
     atom   31 type  1   force =     0.00001316    0.00000000   -0.00408608
     atom   32 type  1   force =     0.00000000    0.00001316   -0.00408608

     Total force =     0.048588     Total SCF correction =     0.003296

     Computing stress (Cartesian axis) and pressure

          total   stress  (Ry/bohr**3)                   (kbar)     P=      -54.32
  -0.00037428   0.00000000   0.00000000          -55.06        0.00        0.00
   0.00000000  -0.00037428   0.00000000            0.00      -55.06        0.00
   0.00000000   0.00000000  -0.00035922            0.00        0.00      -52.84

     Writing output data file /scratch/HVmUsJEhBySRVQRU.save/

     General routines

     Parallel routines

   This run was terminated on:  23:14:12   6Jan2022

   JOB DONE.