     Program PWSCF v.6.7MaX starts on  7Jan2022 at  0:15:56

     R & G space division:  proc/nbgrp/npool/nimage =      72
     Reading input from scf_11.in
Warning: card &CELL ignored
Warning: card CELL_DYNAMICS = 'BFGS', ignored
Warning: card CELL_FACTOR = 2.0, ignored
Warning: card PRESS = 0.0, ignored
Warning: card / ignored

     Current dimensions of program PWSCF are:
     Max number of different atomic species (ntypx) = 10
     Max number of k-points (npk) =  40000
     Max angular momentum in pseudopotentials (lmaxx) =  3
     file Pd.pbe-spn-kjpaw_psl.1.0.0.UPF: wavefunction(s)  4S 5S 4D renormalized

     Subspace diagonalization in iterative solution of the eigenvalue problem:
     one sub-group per band group will be used

     Found symmetry operation: I + (  0.2500  0.2500  0.0000)
     This is a supercell, fractional translations are disabled
     Message from routine setup:
     using ibrav=0 with symmetry is DISCOURAGED, use correct ibrav instead

     bravais-lattice index     =            0
     lattice parameter (alat)  =      14.8394  a.u.
     unit-cell volume          =    4288.9412 (a.u.)^3
     number of atoms/cell      =           32
     number of atomic types    =            1
     number of electrons       =       576.00
     number of Kohn-Sham states=          346
     kinetic-energy cutoff     =      71.0000  Ry
     charge density cutoff     =     430.0000  Ry
     scf convergence threshold =      1.0E-06
     mixing beta               =       0.1000
     number of iterations used =           10  TF        mixing
     Exchange-correlation= SLA  PW   PBX  PBC
                           (   1   4   3   4   0   0   0)

     celldm(1)=  14.839420  celldm(2)=   0.000000  celldm(3)=   0.000000
     celldm(4)=   0.000000  celldm(5)=   0.000000  celldm(6)=   0.000000

     crystal axes: (cart. coord. in units of alat)
               a(1) = (   1.000000   0.000000   0.000000 )
               a(2) = (   0.000000   1.000000   0.000000 )
               a(3) = (   0.000000   0.000000   1.312500 )

     reciprocal axes: (cart. coord. in units 2 pi/alat)
               b(1) = (  1.000000  0.000000  0.000000 )
               b(2) = (  0.000000  1.000000  0.000000 )
               b(3) = (  0.000000  0.000000  0.761905 )

     PseudoPot. # 1 for Pd read from file:
     /rds/homes/b/bxp912/pp/Pd.pbe-spn-kjpaw_psl.1.0.0.UPF
     MD5 check sum: 790f2ebce206edfd9790dcb9844eca51
     Pseudo is Projector augmented-wave + core cor, Zval = 18.0
     Generated using &quot;atomic&quot; code by A. Dal Corso  v.6.3
     Shape of augmentation charge: PSQ
     Using radial grid of 1235 points,  6 beta functions with:
                l(1) =   0
                l(2) =   0
                l(3) =   1
                l(4) =   1
                l(5) =   2
                l(6) =   2
     Q(r) pseudized with 0 coefficients

     atomic species   valence    mass     pseudopotential
        Pd            18.00   106.42000     Pd( 1.00)

      8 Sym. Ops. (no inversion) found

   Cartesian axes

     site n.     atom                  positions (alat units)
         1           Pd  tau(   1) = (   0.0000000   0.0000000   0.0000000  )
         2           Pd  tau(   2) = (   0.2500000   0.2500000   0.0000000  )
         3           Pd  tau(   3) = (   0.2500000   0.0000000   0.2500000  )
         4           Pd  tau(   4) = (   0.0000000   0.2500000   0.2500000  )
         5           Pd  tau(   5) = (   0.0000000   0.0000000   0.8125000  )
         6           Pd  tau(   6) = (   0.2500000   0.2500000   0.8125000  )
         7           Pd  tau(   7) = (   0.2500000   0.0000000   1.0625000  )
         8           Pd  tau(   8) = (   0.0000000   0.2500000   1.0625000  )
         9           Pd  tau(   9) = (   0.0000000   0.5000000   0.0000000  )
        10           Pd  tau(  10) = (   0.2500000   0.7500000   0.0000000  )
        11           Pd  tau(  11) = (   0.2500000   0.5000000   0.2500000  )
        12           Pd  tau(  12) = (   0.0000000   0.7500000   0.2500000  )
        13           Pd  tau(  13) = (   0.0000000   0.5000000   0.8125000  )
        14           Pd  tau(  14) = (   0.2500000   0.7500000   0.8125000  )
        15           Pd  tau(  15) = (   0.2500000   0.5000000   1.0625000  )
        16           Pd  tau(  16) = (   0.0000000   0.7500000   1.0625000  )
        17           Pd  tau(  17) = (   0.5000000   0.0000000   0.0000000  )
        18           Pd  tau(  18) = (   0.7500000   0.2500000   0.0000000  )
        19           Pd  tau(  19) = (   0.7500000   0.0000000   0.2500000  )
        20           Pd  tau(  20) = (   0.5000000   0.2500000   0.2500000  )
        21           Pd  tau(  21) = (   0.5000000   0.0000000   0.8125000  )
        22           Pd  tau(  22) = (   0.7500000   0.2500000   0.8125000  )
        23           Pd  tau(  23) = (   0.7500000   0.0000000   1.0625000  )
        24           Pd  tau(  24) = (   0.5000000   0.2500000   1.0625000  )
        25           Pd  tau(  25) = (   0.5000000   0.5000000   0.0000000  )
        26           Pd  tau(  26) = (   0.7500000   0.7500000   0.0000000  )
        27           Pd  tau(  27) = (   0.7500000   0.5000000   0.2500000  )
        28           Pd  tau(  28) = (   0.5000000   0.7500000   0.2500000  )
        29           Pd  tau(  29) = (   0.5000000   0.5000000   0.8125000  )
        30           Pd  tau(  30) = (   0.7500000   0.7500000   0.8125000  )
        31           Pd  tau(  31) = (   0.7500000   0.5000000   1.0625000  )
        32           Pd  tau(  32) = (   0.5000000   0.7500000   1.0625000  )

     number of k points=    75  Marzari-Vanderbilt smearing, width (Ry)=  0.0400
                       cart. coord. in units 2pi/alat
        k(    1) = (   0.0555556   0.0555556   0.0423280), wk =   0.0219479
        k(    2) = (   0.0555556   0.0555556   0.1269841), wk =   0.0219479
        k(    3) = (   0.0555556   0.0555556   0.2116402), wk =   0.0219479
        k(    4) = (   0.0555556   0.0555556   0.2962963), wk =   0.0219479
        k(    5) = (   0.0555556   0.0555556  -0.3809524), wk =   0.0109739
        k(    6) = (   0.0555556   0.1666667   0.0423280), wk =   0.0438957
        k(    7) = (   0.0555556   0.1666667   0.1269841), wk =   0.0438957
        k(    8) = (   0.0555556   0.1666667   0.2116402), wk =   0.0438957
        k(    9) = (   0.0555556   0.1666667   0.2962963), wk =   0.0438957
        k(   10) = (   0.0555556   0.1666667  -0.3809524), wk =   0.0219479
        k(   11) = (   0.0555556   0.2777778   0.0423280), wk =   0.0438957
        k(   12) = (   0.0555556   0.2777778   0.1269841), wk =   0.0438957
        k(   13) = (   0.0555556   0.2777778   0.2116402), wk =   0.0438957
        k(   14) = (   0.0555556   0.2777778   0.2962963), wk =   0.0438957
        k(   15) = (   0.0555556   0.2777778  -0.3809524), wk =   0.0219479
        k(   16) = (   0.0555556   0.3888889   0.0423280), wk =   0.0438957
        k(   17) = (   0.0555556   0.3888889   0.1269841), wk =   0.0438957
        k(   18) = (   0.0555556   0.3888889   0.2116402), wk =   0.0438957
        k(   19) = (   0.0555556   0.3888889   0.2962963), wk =   0.0438957
        k(   20) = (   0.0555556   0.3888889  -0.3809524), wk =   0.0219479
        k(   21) = (   0.0555556  -0.5000000   0.0423280), wk =   0.0219479
        k(   22) = (   0.0555556  -0.5000000   0.1269841), wk =   0.0219479
        k(   23) = (   0.0555556  -0.5000000   0.2116402), wk =   0.0219479
        k(   24) = (   0.0555556  -0.5000000   0.2962963), wk =   0.0219479
        k(   25) = (   0.0555556  -0.5000000  -0.3809524), wk =   0.0109739
        k(   26) = (   0.1666667   0.1666667   0.0423280), wk =   0.0219479
        k(   27) = (   0.1666667   0.1666667   0.1269841), wk =   0.0219479
        k(   28) = (   0.1666667   0.1666667   0.2116402), wk =   0.0219479
        k(   29) = (   0.1666667   0.1666667   0.2962963), wk =   0.0219479
        k(   30) = (   0.1666667   0.1666667  -0.3809524), wk =   0.0109739
        k(   31) = (   0.1666667   0.2777778   0.0423280), wk =   0.0438957
        k(   32) = (   0.1666667   0.2777778   0.1269841), wk =   0.0438957
        k(   33) = (   0.1666667   0.2777778   0.2116402), wk =   0.0438957
        k(   34) = (   0.1666667   0.2777778   0.2962963), wk =   0.0438957
        k(   35) = (   0.1666667   0.2777778  -0.3809524), wk =   0.0219479
        k(   36) = (   0.1666667   0.3888889   0.0423280), wk =   0.0438957
        k(   37) = (   0.1666667   0.3888889   0.1269841), wk =   0.0438957
        k(   38) = (   0.1666667   0.3888889   0.2116402), wk =   0.0438957
        k(   39) = (   0.1666667   0.3888889   0.2962963), wk =   0.0438957
        k(   40) = (   0.1666667   0.3888889  -0.3809524), wk =   0.0219479
        k(   41) = (   0.1666667  -0.5000000   0.0423280), wk =   0.0219479
        k(   42) = (   0.1666667  -0.5000000   0.1269841), wk =   0.0219479
        k(   43) = (   0.1666667  -0.5000000   0.2116402), wk =   0.0219479
        k(   44) = (   0.1666667  -0.5000000   0.2962963), wk =   0.0219479
        k(   45) = (   0.1666667  -0.5000000  -0.3809524), wk =   0.0109739
        k(   46) = (   0.2777778   0.2777778   0.0423280), wk =   0.0219479
        k(   47) = (   0.2777778   0.2777778   0.1269841), wk =   0.0219479
        k(   48) = (   0.2777778   0.2777778   0.2116402), wk =   0.0219479
        k(   49) = (   0.2777778   0.2777778   0.2962963), wk =   0.0219479
        k(   50) = (   0.2777778   0.2777778  -0.3809524), wk =   0.0109739
        k(   51) = (   0.2777778   0.3888889   0.0423280), wk =   0.0438957
        k(   52) = (   0.2777778   0.3888889   0.1269841), wk =   0.0438957
        k(   53) = (   0.2777778   0.3888889   0.2116402), wk =   0.0438957
        k(   54) = (   0.2777778   0.3888889   0.2962963), wk =   0.0438957
        k(   55) = (   0.2777778   0.3888889  -0.3809524), wk =   0.0219479
        k(   56) = (   0.2777778  -0.5000000   0.0423280), wk =   0.0219479
        k(   57) = (   0.2777778  -0.5000000   0.1269841), wk =   0.0219479
        k(   58) = (   0.2777778  -0.5000000   0.2116402), wk =   0.0219479
        k(   59) = (   0.2777778  -0.5000000   0.2962963), wk =   0.0219479
        k(   60) = (   0.2777778  -0.5000000  -0.3809524), wk =   0.0109739
        k(   61) = (   0.3888889   0.3888889   0.0423280), wk =   0.0219479
        k(   62) = (   0.3888889   0.3888889   0.1269841), wk =   0.0219479
        k(   63) = (   0.3888889   0.3888889   0.2116402), wk =   0.0219479
        k(   64) = (   0.3888889   0.3888889   0.2962963), wk =   0.0219479
        k(   65) = (   0.3888889   0.3888889  -0.3809524), wk =   0.0109739
        k(   66) = (   0.3888889  -0.5000000   0.0423280), wk =   0.0219479
        k(   67) = (   0.3888889  -0.5000000   0.1269841), wk =   0.0219479
        k(   68) = (   0.3888889  -0.5000000   0.2116402), wk =   0.0219479
        k(   69) = (   0.3888889  -0.5000000   0.2962963), wk =   0.0219479
        k(   70) = (   0.3888889  -0.5000000  -0.3809524), wk =   0.0109739
        k(   71) = (  -0.5000000  -0.5000000   0.0423280), wk =   0.0054870
        k(   72) = (  -0.5000000  -0.5000000   0.1269841), wk =   0.0054870
        k(   73) = (  -0.5000000  -0.5000000   0.2116402), wk =   0.0054870
        k(   74) = (  -0.5000000  -0.5000000   0.2962963), wk =   0.0054870
        k(   75) = (  -0.5000000  -0.5000000  -0.3809524), wk =   0.0027435

     Check: negative core charge=   -0.000001

     Initial potential from superposition of free atoms

     starting charge  575.98776, renormalised to  576.00000
     Starting wfcs are  320 randomized atomic wfcs +   26 random wfcs
     Checking if some PAW data can be deallocated...

     Self-consistent Calculation

     iteration #  1     ecut=    71.00 Ry     beta= 0.10
     Davidson diagonalization with overlap
     ethr =  1.00E-02,  avg # of iterations =  3.8

     Threshold (ethr) on eigenvalues was too large:
     Diagonalizing with lowered threshold

     Davidson diagonalization with overlap
     ethr =  7.17E-04,  avg # of iterations =  1.1

     total energy              =  -16384.79430196 Ry
     estimated scf accuracy    <       4.12118846 Ry

[...]

     iteration #  7     ecut=    71.00 Ry     beta= 0.10
     Davidson diagonalization with overlap
     c_bands:  3 eigenvalues not converged
     c_bands:  3 eigenvalues not converged
     ethr =  2.46E-05,  avg # of iterations =  8.3

[...]

     iteration # 10     ecut=    71.00 Ry     beta= 0.10
     Davidson diagonalization with overlap
     c_bands:  2 eigenvalues not converged
     ethr =  1.81E-06,  avg # of iterations =  3.3

[...]

     total energy              =  -16384.08872832 Ry
     estimated scf accuracy    <       0.00000131 Ry

     iteration # 22     ecut=    71.00 Ry     beta= 0.10
     Davidson diagonalization with overlap
     ethr =  2.28E-10,  avg # of iterations =  2.3

     End of self-consistent calculation

          k = 0.0556 0.0556 0.0423 ( 43304 PWs)   bands (ev):

   -70.7329 -70.7107 -70.7107 -70.7065 -70.7065 -70.7019 -70.7009 -70.7003
   -70.7003 -70.6991 -70.6933 -70.6932 -70.6919 -70.6918 -70.6846 -70.6846
   -70.1520 -70.1520 -70.1376 -70.1376 -70.1376 -70.1376 -70.1364 -70.1364
   -70.1362 -70.1361 -70.1348 -70.1348 -70.1348 -70.1348 -70.1203 -70.1202
   -36.5678 -36.5678 -36.5675 -36.5665 -36.5546 -36.5546 -36.5456 -36.5117
   -36.5117 -36.5090 -36.5090 -36.4731 -36.4731 -36.4618 -36.4618 -36.4526
   -36.4526 -36.4500 -36.4500 -36.4407 -36.4407 -36.4099 -36.4099 -36.4049
   -36.4049 -36.4041 -36.3995 -36.3995 -36.3943 -36.3909 -36.3908 -36.3756
   -36.3742 -36.3742 -36.3598 -36.3598 -36.3568 -36.3556 -36.3446 -36.3445
   -36.3394 -36.3393 -36.3068 -36.3050 -36.3050 -36.3007 -36.2887 -36.2871
   -36.0222 -36.0221 -36.0214 -36.0205 -36.0107 -36.0107 -36.0087 -36.0086
   -35.9402 -35.9402 -35.9401 -35.9401 -35.9253 -35.9253 -35.9250 -35.9250
   -35.9229 -35.9229 -35.9226 -35.9226 -35.9077 -35.9077 -35.9076 -35.9076
   -35.8372 -35.8368 -35.8357 -35.8352 -35.8237 -35.8236 -35.8224 -35.8223
   -35.7598 -35.7563 -35.7453 -35.7453 -35.7448 -35.7448 -35.7439 -35.7436
   -35.7436 -35.7435 -35.7432 -35.7431 -35.7428 -35.7428 -35.7330 -35.7330
     7.0703   8.3829   8.6082   8.6082   8.6743   8.6808   8.6868   8.6868
     8.7479   8.7883   8.8836   8.8836   8.9689   8.9689   9.1530   9.1530
     9.2099   9.4251   9.5503   9.5503   9.5749   9.5749   9.6046   9.6046
     9.6260   9.6260   9.7004   9.7004   9.7025   9.7069   9.7202   9.7202
     9.8377   9.8377   9.9074   9.9074   9.9421   9.9421  10.0234  10.0234
    10.0263  10.0263  10.0933  10.0933  10.1540  10.2140  10.2141  10.2322
    10.2322  10.3760  10.3760  10.4468  10.4930  10.4930  10.5385  10.5385
    10.5535  10.5614  10.5614  10.5723  10.7510  10.7510  10.7606  10.7606
    10.7638  10.7754  10.9222  10.9244  10.9265  10.9265  10.9309  10.9309
    10.9650  10.9741  11.0184  11.0184  11.0515  11.0515  11.3861  11.3861
    11.4332  11.4382  11.4788  11.4788  11.5111  11.5111  11.5126  11.5126
    11.6881  11.6881  11.6888  11.6888  11.6960  11.6960  11.7033  11.7201
    11.7692  11.7692  11.7747  11.7850  11.7850  11.8517  11.8630  11.8630
    11.8923  11.9714  11.9714  11.9740  11.9740  12.0536  12.0931  12.0932
    12.1054  12.1054  12.1373  12.1374  12.2251  12.2737  12.2737  12.3511
    12.3511  12.3595  12.3595  12.3623  12.5142  12.5143  12.5720  12.5721
    12.7050  12.7050  12.7107  12.7158  12.7159  12.7258  12.7258  12.7395
    12.7634  12.7634  12.8490  12.8639  12.8760  12.9218  12.9218  12.9283
    13.0198  13.0198  13.0300  13.0300  13.0317  13.1832  13.1832  13.2509
    13.2512  13.2512  13.2537  13.3077  13.3865  13.4094  13.4094  13.4162
    13.4162  13.4497  13.5093  13.6148  13.6149  14.0156  14.0156  14.1194
    14.1194  14.5507  14.5507  14.8440  15.0801  15.2255  15.2255  15.3921
    15.3921  15.4575  15.5927  15.7325  15.7325  15.9433  15.9433  16.1680
    16.2570  17.7471  17.7471  18.6265  18.6702  18.6702  18.8349  18.8987
    18.8987  19.4452  19.4452  19.8211  19.8211  20.2493  20.2493  20.4150
    20.4150  22.0610  22.2921  22.2921  22.3536  22.3536  22.3857  22.3857
    22.4427  22.9791  22.9791  23.4461  23.5669  23.5669  23.7345  23.7345
    23.9004  23.9004

[...]

          k = 0.3889-0.5000-0.3810 ( 43328 PWs)   bands (ev):

[...]

          k =-0.5000-0.5000 0.0423 ( 43312 PWs)   bands (ev):

[...]

          k =-0.5000-0.5000-0.3810 ( 43232 PWs)   bands (ev):

   -70.7201 -70.7201 -70.7201 -70.7200 -70.6973 -70.6973 -70.6973 -70.6973
   -70.6925 -70.6925 -70.6924 -70.6924 -70.6924 -70.6924 -70.6924 -70.6924
   -70.1442 -70.1442 -70.1442 -70.1442 -70.1442 -70.1442 -70.1442 -70.1442
   -70.1282 -70.1282 -70.1282 -70.1282 -70.1282 -70.1282 -70.1282 -70.1282
   -36.5457 -36.5457 -36.5457 -36.5457 -36.5457 -36.5457 -36.5456 -36.5456
   -36.5307 -36.5307 -36.5306 -36.5306 -36.4814 -36.4814 -36.4814 -36.4814
   -36.4197 -36.4197 -36.4197 -36.4197 -36.4197 -36.4197 -36.4197 -36.4197
   -36.3806 -36.3806 -36.3806 -36.3806 -36.3788 -36.3788 -36.3788 -36.3788
   -36.3788 -36.3788 -36.3788 -36.3788 -36.3557 -36.3557 -36.3557 -36.3557
   -36.3376 -36.3376 -36.3376 -36.3376 -36.2879 -36.2879 -36.2879 -36.2879
   -36.0157 -36.0157 -36.0157 -36.0157 -36.0157 -36.0157 -36.0156 -36.0156
   -35.9321 -35.9321 -35.9321 -35.9321 -35.9296 -35.9296 -35.9296 -35.9296
   -35.9174 -35.9174 -35.9174 -35.9174 -35.9174 -35.9174 -35.9174 -35.9174
   -35.8289 -35.8289 -35.8289 -35.8289 -35.8287 -35.8287 -35.8287 -35.8287
   -35.7506 -35.7506 -35.7506 -35.7506 -35.7499 -35.7499 -35.7499 -35.7499
   -35.7383 -35.7383 -35.7383 -35.7383 -35.7382 -35.7382 -35.7382 -35.7382
     8.2051   8.2051   8.2052   8.2052   8.8170   8.8170   8.8171   8.8171
     9.1568   9.1568   9.1568   9.1568   9.1568   9.1568   9.1569   9.1569
     9.2611   9.2611   9.2611   9.2611   9.3233   9.3233   9.3233   9.3233
     9.3233   9.3233   9.3234   9.3234   9.4343   9.4343   9.4343   9.4343
     9.7060   9.7060   9.7060   9.7060  10.0352  10.0352  10.0352  10.0352
    10.0352  10.0352  10.0352  10.0352  10.3283  10.3283  10.3283  10.3283
    10.3284  10.3284  10.3284  10.3284  10.4999  10.4999  10.4999  10.5000
    10.7165  10.7165  10.7165  10.7165  10.9653  10.9653  10.9653  10.9653
    11.0570  11.0570  11.0570  11.0570  11.1071  11.1071  11.1071  11.1071
    11.1889  11.1889  11.1889  11.1889  11.2959  11.2959  11.2959  11.2959
    11.2959  11.2959  11.2959  11.2959  11.3402  11.3402  11.3402  11.3402
    11.5943  11.5943  11.5943  11.5943  11.7536  11.7536  11.7536  11.7536
    11.8783  11.8783  11.8783  11.8783  11.8783  11.8783  11.8783  11.8783
    11.9197  11.9197  11.9197  11.9197  11.9197  11.9197  11.9197  11.9197
    11.9596  11.9596  11.9596  11.9596  12.1807  12.1807  12.1807  12.1807
    12.3994  12.3994  12.3994  12.3994  12.4379  12.4379  12.4379  12.4379
    12.4379  12.4379  12.4379  12.4379  12.5192  12.5192  12.5192  12.5192
    12.7483  12.7483  12.7483  12.7483  12.9468  12.9468  12.9468  12.9468
    13.1132  13.1132  13.1132  13.1132  13.1132  13.1132  13.1132  13.1133
    13.3678  13.3678  13.3678  13.3678  13.4322  13.4322  13.4322  13.4322
    13.4322  13.4322  13.4322  13.4322  13.4373  13.4373  13.4373  13.4373
    14.7253  14.7253  14.7253  14.7253  16.0715  16.0715  16.0715  16.0715
    16.7189  16.7189  16.7189  16.7189  16.7189  16.7189  16.7189  16.7189
    17.6986  17.6986  17.6986  17.6986  17.6986  17.6986  17.6986  17.6986
    20.0215  20.0215  20.0215  20.0215  20.0215  20.0215  20.0215  20.0215
    20.2287  20.2287  20.2287  20.2287  21.9515  21.9515  21.9515  21.9515
    21.9515  21.9515  21.9515  21.9515  22.0963  22.0963  22.0963  22.0963
    23.3574  23.4266

     the Fermi energy is    13.4407 ev

!    total energy              =  -16384.08873116 Ry

     total all-electron energy =   -322944.942438 Ry
     estimated scf accuracy    <       0.00000027 Ry
     smearing contrib. (-TS)   =       0.12109250 Ry
     internal energy E=F+TS    =  -16384.20982365 Ry

     The total energy is F=E-TS. E is the sum of the following terms:
     one-electron contribution =   -6508.64939113 Ry
     hartree contribution      =    3553.44798363 Ry
     xc contribution           =    -985.31819537 Ry
     ewald contribution        =   -4276.36107493 Ry
     one-center paw contrib.   =   -8167.32914585 Ry

     convergence has been achieved in  22 iterations

     Forces acting on atoms (cartesian axes, Ry/au):

     atom    1 type  1   force =     0.00000000    0.00000000    0.00359037
     atom    2 type  1   force =    -0.00000188   -0.00000188    0.00357891
     atom    3 type  1   force =     0.00000421    0.00000000    0.00032535
     atom    4 type  1   force =     0.00000000    0.00000421    0.00032535
     atom    5 type  1   force =     0.00000000    0.00000000   -0.00036898
     atom    6 type  1   force =     0.00001206    0.00001206   -0.00035912
     atom    7 type  1   force =     0.00001192    0.00000000   -0.00353640
     atom    8 type  1   force =     0.00000000    0.00001192   -0.00353640
     atom    9 type  1   force =     0.00000000    0.00000000    0.00358098
     atom   10 type  1   force =    -0.00000188    0.00000188    0.00357891
     atom   11 type  1   force =    -0.00001763    0.00000000    0.00032816
     atom   12 type  1   force =     0.00000000   -0.00000421    0.00032535
     atom   13 type  1   force =     0.00000000    0.00000000   -0.00036916
     atom   14 type  1   force =     0.00001206   -0.00001206   -0.00035912
     atom   15 type  1   force =    -0.00000092    0.00000000   -0.00354839
     atom   16 type  1   force =     0.00000000   -0.00001192   -0.00353640
     atom   17 type  1   force =     0.00000000    0.00000000    0.00358098
     atom   18 type  1   force =     0.00000188   -0.00000188    0.00357891
     atom   19 type  1   force =    -0.00000421    0.00000000    0.00032535
     atom   20 type  1   force =     0.00000000   -0.00001763    0.00032816
     atom   21 type  1   force =     0.00000000    0.00000000   -0.00036916
     atom   22 type  1   force =    -0.00001206    0.00001206   -0.00035912
     atom   23 type  1   force =    -0.00001192    0.00000000   -0.00353640
     atom   24 type  1   force =     0.00000000   -0.00000092   -0.00354839
     atom   25 type  1   force =     0.00000000    0.00000000    0.00357051
     atom   26 type  1   force =     0.00000188    0.00000188    0.00357891
     atom   27 type  1   force =     0.00001763    0.00000000    0.00032816
     atom   28 type  1   force =     0.00000000    0.00001763    0.00032816
     atom   29 type  1   force =     0.00000000    0.00000000   -0.00036960
     atom   30 type  1   force =    -0.00001206   -0.00001206   -0.00035912
     atom   31 type  1   force =     0.00000092    0.00000000   -0.00354839
     atom   32 type  1   force =     0.00000000    0.00000092   -0.00354839

     Total force =     0.014312     Total SCF correction =     0.001822
     SCF correction compared to forces is large: reduce conv_thr to get better values

     Computing stress (Cartesian axis) and pressure

          total   stress  (Ry/bohr**3)                   (kbar)     P=      -45.77
  -0.00035857   0.00000000   0.00000000          -52.75        0.00        0.00
   0.00000000  -0.00035857   0.00000000            0.00      -52.75        0.00
   0.00000000   0.00000000  -0.00021622            0.00        0.00      -31.81

     Writing output data file /scratch/hLbbnCgRoIXmKqWz.save/

     General routines

     Parallel routines

   This run was terminated on:   0:50:32   7Jan2022

   JOB DONE.