     Program PWSCF v.6.7MaX starts on  7Jan2022 at  6:16: 7

     R & G space division:  proc/nbgrp/npool/nimage =      72
     Reading input from scf_20.in
Warning: card &CELL ignored
Warning: card CELL_DYNAMICS = 'BFGS', ignored
Warning: card CELL_FACTOR = 2.0, ignored
Warning: card PRESS = 0.0, ignored
Warning: card / ignored

     Current dimensions of program PWSCF are:
     Max number of different atomic species (ntypx) = 10
     Max number of k-points (npk) =  40000
     Max angular momentum in pseudopotentials (lmaxx) =  3
     file Pd.pbe-spn-kjpaw_psl.1.0.0.UPF: wavefunction(s)  4S 5S 4D renormalized

     Subspace diagonalization in iterative solution of the eigenvalue problem:
     one sub-group per band group will be used

     Found symmetry operation: I + (  0.2500  0.2500  0.0000)
     This is a supercell, fractional translations are disabled
     Message from routine setup:
     using ibrav=0 with symmetry is DISCOURAGED, use correct ibrav instead

     bravais-lattice index     =            0
     lattice parameter (alat)  =      14.8394  a.u.
     unit-cell volume          =    5208.0000 (a.u.)^3
     number of atoms/cell      =           32
     number of atomic types    =            1
     number of electrons       =       576.00
     number of Kohn-Sham states=          346
     kinetic-energy cutoff     =      71.0000  Ry
     charge density cutoff     =     430.0000  Ry
     scf convergence threshold =      1.0E-06
     mixing beta               =       0.1000
     number of iterations used =           10  TF        mixing
     Exchange-correlation= SLA  PW   PBX  PBC
                           (   1   4   3   4   0   0   0)

     celldm(1)=  14.839420  celldm(2)=   0.000000  celldm(3)=   0.000000
     celldm(4)=   0.000000  celldm(5)=   0.000000  celldm(6)=   0.000000

     crystal axes: (cart. coord. in units of alat)
               a(1) = (   1.000000   0.000000   0.000000 )
               a(2) = (   0.000000   1.000000   0.000000 )
               a(3) = (   0.000000   0.000000   1.593750 )

     reciprocal axes: (cart. coord. in units 2 pi/alat)
               b(1) = (  1.000000  0.000000  0.000000 )
               b(2) = (  0.000000  1.000000  0.000000 )
               b(3) = (  0.000000  0.000000  0.627451 )

     PseudoPot. # 1 for Pd read from file:
     /rds/homes/b/bxp912/pp/Pd.pbe-spn-kjpaw_psl.1.0.0.UPF
     MD5 check sum: 790f2ebce206edfd9790dcb9844eca51
     Pseudo is Projector augmented-wave + core cor, Zval = 18.0
     Generated using &quot;atomic&quot; code by A. Dal Corso  v.6.3
     Shape of augmentation charge: PSQ
     Using radial grid of 1235 points,  6 beta functions with:
                l(1) =   0
                l(2) =   0
                l(3) =   1
                l(4) =   1
                l(5) =   2
                l(6) =   2
     Q(r) pseudized with 0 coefficients

     atomic species   valence    mass     pseudopotential
        Pd            18.00   106.42000     Pd( 1.00)

      8 Sym. Ops. (no inversion) found

   Cartesian axes

     site n.     atom                  positions (alat units)
         1           Pd  tau(   1) = (   0.0000000   0.0000000   0.0000000  )
         2           Pd  tau(   2) = (   0.2500000   0.2500000   0.0000000  )
         3           Pd  tau(   3) = (   0.2500000   0.0000000   0.2500000  )
         4           Pd  tau(   4) = (   0.0000000   0.2500000   0.2500000  )
         5           Pd  tau(   5) = (   0.0000000   0.0000000   1.0937500  )
         6           Pd  tau(   6) = (   0.2500000   0.2500000   1.0937500  )
         7           Pd  tau(   7) = (   0.2500000   0.0000000   1.3437500  )
         8           Pd  tau(   8) = (   0.0000000   0.2500000   1.3437500  )
         9           Pd  tau(   9) = (   0.0000000   0.5000000   0.0000000  )
        10           Pd  tau(  10) = (   0.2500000   0.7500000   0.0000000  )
        11           Pd  tau(  11) = (   0.2500000   0.5000000   0.2500000  )
        12           Pd  tau(  12) = (   0.0000000   0.7500000   0.2500000  )
        13           Pd  tau(  13) = (   0.0000000   0.5000000   1.0937500  )
        14           Pd  tau(  14) = (   0.2500000   0.7500000   1.0937500  )
        15           Pd  tau(  15) = (   0.2500000   0.5000000   1.3437500  )
        16           Pd  tau(  16) = (   0.0000000   0.7500000   1.3437500  )
        17           Pd  tau(  17) = (   0.5000000   0.0000000   0.0000000  )
        18           Pd  tau(  18) = (   0.7500000   0.2500000   0.0000000  )
        19           Pd  tau(  19) = (   0.7500000   0.0000000   0.2500000  )
        20           Pd  tau(  20) = (   0.5000000   0.2500000   0.2500000  )
        21           Pd  tau(  21) = (   0.5000000   0.0000000   1.0937500  )
        22           Pd  tau(  22) = (   0.7500000   0.2500000   1.0937500  )
        23           Pd  tau(  23) = (   0.7500000   0.0000000   1.3437500  )
        24           Pd  tau(  24) = (   0.5000000   0.2500000   1.3437500  )
        25           Pd  tau(  25) = (   0.5000000   0.5000000   0.0000000  )
        26           Pd  tau(  26) = (   0.7500000   0.7500000   0.0000000  )
        27           Pd  tau(  27) = (   0.7500000   0.5000000   0.2500000  )
        28           Pd  tau(  28) = (   0.5000000   0.7500000   0.2500000  )
        29           Pd  tau(  29) = (   0.5000000   0.5000000   1.0937500  )
        30           Pd  tau(  30) = (   0.7500000   0.7500000   1.0937500  )
        31           Pd  tau(  31) = (   0.7500000   0.5000000   1.3437500  )
        32           Pd  tau(  32) = (   0.5000000   0.7500000   1.3437500  )

     number of k points=    75  Marzari-Vanderbilt smearing, width (Ry)=  0.0400
                       cart. coord. in units 2pi/alat
        k(    1) = (   0.0555556   0.0555556   0.0348584), wk =   0.0219479
        k(    2) = (   0.0555556   0.0555556   0.1045752), wk =   0.0219479
        k(    3) = (   0.0555556   0.0555556   0.1742919), wk =   0.0219479
        k(    4) = (   0.0555556   0.0555556   0.2440087), wk =   0.0219479
        k(    5) = (   0.0555556   0.0555556  -0.3137255), wk =   0.0109739
        k(    6) = (   0.0555556   0.1666667   0.0348584), wk =   0.0438957
        k(    7) = (   0.0555556   0.1666667   0.1045752), wk =   0.0438957
        k(    8) = (   0.0555556   0.1666667   0.1742919), wk =   0.0438957
        k(    9) = (   0.0555556   0.1666667   0.2440087), wk =   0.0438957
        k(   10) = (   0.0555556   0.1666667  -0.3137255), wk =   0.0219479
        k(   11) = (   0.0555556   0.2777778   0.0348584), wk =   0.0438957
        k(   12) = (   0.0555556   0.2777778   0.1045752), wk =   0.0438957
        k(   13) = (   0.0555556   0.2777778   0.1742919), wk =   0.0438957
        k(   14) = (   0.0555556   0.2777778   0.2440087), wk =   0.0438957
        k(   15) = (   0.0555556   0.2777778  -0.3137255), wk =   0.0219479
        k(   16) = (   0.0555556   0.3888889   0.0348584), wk =   0.0438957
        k(   17) = (   0.0555556   0.3888889   0.1045752), wk =   0.0438957
        k(   18) = (   0.0555556   0.3888889   0.1742919), wk =   0.0438957
        k(   19) = (   0.0555556   0.3888889   0.2440087), wk =   0.0438957
        k(   20) = (   0.0555556   0.3888889  -0.3137255), wk =   0.0219479
        k(   21) = (   0.0555556  -0.5000000   0.0348584), wk =   0.0219479
        k(   22) = (   0.0555556  -0.5000000   0.1045752), wk =   0.0219479
        k(   23) = (   0.0555556  -0.5000000   0.1742919), wk =   0.0219479
        k(   24) = (   0.0555556  -0.5000000   0.2440087), wk =   0.0219479
        k(   25) = (   0.0555556  -0.5000000  -0.3137255), wk =   0.0109739
        k(   26) = (   0.1666667   0.1666667   0.0348584), wk =   0.0219479
        k(   27) = (   0.1666667   0.1666667   0.1045752), wk =   0.0219479
        k(   28) = (   0.1666667   0.1666667   0.1742919), wk =   0.0219479
        k(   29) = (   0.1666667   0.1666667   0.2440087), wk =   0.0219479
        k(   30) = (   0.1666667   0.1666667  -0.3137255), wk =   0.0109739
        k(   31) = (   0.1666667   0.2777778   0.0348584), wk =   0.0438957
        k(   32) = (   0.1666667   0.2777778   0.1045752), wk =   0.0438957
        k(   33) = (   0.1666667   0.2777778   0.1742919), wk =   0.0438957
        k(   34) = (   0.1666667   0.2777778   0.2440087), wk =   0.0438957
        k(   35) = (   0.1666667   0.2777778  -0.3137255), wk =   0.0219479
        k(   36) = (   0.1666667   0.3888889   0.0348584), wk =   0.0438957
        k(   37) = (   0.1666667   0.3888889   0.1045752), wk =   0.0438957
        k(   38) = (   0.1666667   0.3888889   0.1742919), wk =   0.0438957
        k(   39) = (   0.1666667   0.3888889   0.2440087), wk =   0.0438957
        k(   40) = (   0.1666667   0.3888889  -0.3137255), wk =   0.0219479
        k(   41) = (   0.1666667  -0.5000000   0.0348584), wk =   0.0219479
        k(   42) = (   0.1666667  -0.5000000   0.1045752), wk =   0.0219479
        k(   43) = (   0.1666667  -0.5000000   0.1742919), wk =   0.0219479
        k(   44) = (   0.1666667  -0.5000000   0.2440087), wk =   0.0219479
        k(   45) = (   0.1666667  -0.5000000  -0.3137255), wk =   0.0109739
        k(   46) = (   0.2777778   0.2777778   0.0348584), wk =   0.0219479
        k(   47) = (   0.2777778   0.2777778   0.1045752), wk =   0.0219479
        k(   48) = (   0.2777778   0.2777778   0.1742919), wk =   0.0219479
        k(   49) = (   0.2777778   0.2777778   0.2440087), wk =   0.0219479
        k(   50) = (   0.2777778   0.2777778  -0.3137255), wk =   0.0109739
        k(   51) = (   0.2777778   0.3888889   0.0348584), wk =   0.0438957
        k(   52) = (   0.2777778   0.3888889   0.1045752), wk =   0.0438957
        k(   53) = (   0.2777778   0.3888889   0.1742919), wk =   0.0438957
        k(   54) = (   0.2777778   0.3888889   0.2440087), wk =   0.0438957
        k(   55) = (   0.2777778   0.3888889  -0.3137255), wk =   0.0219479
        k(   56) = (   0.2777778  -0.5000000   0.0348584), wk =   0.0219479
        k(   57) = (   0.2777778  -0.5000000   0.1045752), wk =   0.0219479
        k(   58) = (   0.2777778  -0.5000000   0.1742919), wk =   0.0219479
        k(   59) = (   0.2777778  -0.5000000   0.2440087), wk =   0.0219479
        k(   60) = (   0.2777778  -0.5000000  -0.3137255), wk =   0.0109739
        k(   61) = (   0.3888889   0.3888889   0.0348584), wk =   0.0219479
        k(   62) = (   0.3888889   0.3888889   0.1045752), wk =   0.0219479
        k(   63) = (   0.3888889   0.3888889   0.1742919), wk =   0.0219479
        k(   64) = (   0.3888889   0.3888889   0.2440087), wk =   0.0219479
        k(   65) = (   0.3888889   0.3888889  -0.3137255), wk =   0.0109739
        k(   66) = (   0.3888889  -0.5000000   0.0348584), wk =   0.0219479
        k(   67) = (   0.3888889  -0.5000000   0.1045752), wk =   0.0219479
        k(   68) = (   0.3888889  -0.5000000   0.1742919), wk =   0.0219479
        k(   69) = (   0.3888889  -0.5000000   0.2440087), wk =   0.0219479
        k(   70) = (   0.3888889  -0.5000000  -0.3137255), wk =   0.0109739
        k(   71) = (  -0.5000000  -0.5000000   0.0348584), wk =   0.0054870
        k(   72) = (  -0.5000000  -0.5000000   0.1045752), wk =   0.0054870
        k(   73) = (  -0.5000000  -0.5000000   0.1742919), wk =   0.0054870
        k(   74) = (  -0.5000000  -0.5000000   0.2440087), wk =   0.0054870
        k(   75) = (  -0.5000000  -0.5000000  -0.3137255), wk =   0.0027435

     Check: negative core charge=   -0.000001

     Initial potential from superposition of free atoms

     starting charge  575.98776, renormalised to  576.00000
     Starting wfcs are  320 randomized atomic wfcs +   26 random wfcs
     Checking if some PAW data can be deallocated...

     Self-consistent Calculation

     iteration #  1     ecut=    71.00 Ry     beta= 0.10
     Davidson diagonalization with overlap
     ethr =  1.00E-02,  avg # of iterations =  4.1

     Threshold (ethr) on eigenvalues was too large:
     Diagonalizing with lowered threshold

     Davidson diagonalization with overlap
     ethr =  7.48E-04,  avg # of iterations =  1.1

     total energy              =  -16384.82452022 Ry
     estimated scf accuracy    <       4.29920402 Ry

[...]

     negative rho (up, down):  1.310E-06 0.000E+00

[...]

     total energy              =  -16384.05141573 Ry
     estimated scf accuracy    <       0.00000319 Ry

     iteration # 25     ecut=    71.00 Ry     beta= 0.10
     Davidson diagonalization with overlap
     ethr =  5.53E-10,  avg # of iterations =  2.0

     End of self-consistent calculation

          k = 0.0556 0.0556 0.0349 ( 52632 PWs)   bands (ev):

   -73.9746 -73.9524 -73.9524 -73.9482 -73.9482 -73.9436 -73.9426 -73.9420
   -73.9420 -73.9408 -73.9350 -73.9349 -73.9335 -73.9335 -73.9263 -73.9263
   -73.3829 -73.3828 -73.3684 -73.3684 -73.3684 -73.3684 -73.3672 -73.3672
   -73.3669 -73.3669 -73.3656 -73.3656 -73.3656 -73.3656 -73.3511 -73.3511
   -39.8091 -39.8091 -39.8087 -39.8078 -39.7953 -39.7953 -39.7885 -39.7543
   -39.7543 -39.7513 -39.7513 -39.7142 -39.7142 -39.7031 -39.7031 -39.6939
   -39.6939 -39.6907 -39.6907 -39.6818 -39.6818 -39.6529 -39.6529 -39.6463
   -39.6462 -39.6462 -39.6417 -39.6417 -39.6365 -39.6319 -39.6319 -39.6181
   -39.6150 -39.6150 -39.6005 -39.6005 -39.5976 -39.5966 -39.5865 -39.5865
   -39.5813 -39.5813 -39.5477 -39.5458 -39.5458 -39.5415 -39.5294 -39.5278
   -39.2570 -39.2570 -39.2561 -39.2553 -39.2452 -39.2452 -39.2432 -39.2432
   -39.1747 -39.1747 -39.1746 -39.1745 -39.1597 -39.1597 -39.1595 -39.1595
   -39.1574 -39.1574 -39.1570 -39.1570 -39.1422 -39.1422 -39.1420 -39.1420
   -39.0715 -39.0712 -39.0700 -39.0697 -39.0580 -39.0580 -39.0567 -39.0567
   -38.9859 -38.9827 -38.9714 -38.9714 -38.9709 -38.9709 -38.9700 -38.9697
   -38.9696 -38.9695 -38.9692 -38.9692 -38.9688 -38.9688 -38.9589 -38.9589
     3.8402   5.1294   5.3699   5.3699   5.4363   5.4424   5.4486   5.4486
     5.5077   5.5211   5.6444   5.6444   5.7333   5.7333   5.9167   5.9167
     5.9822   6.1843   6.3060   6.3060   6.3350   6.3350   6.3649   6.3649
     6.3854   6.3855   6.4545   6.4576   6.4576   6.4599   6.4723   6.4723
     6.5981   6.5981   6.6657   6.6658   6.7020   6.7020   6.7782   6.7782
     6.7902   6.7902   6.8528   6.8528   6.9149   6.9743   6.9743   6.9926
     6.9926   7.1361   7.1361   7.2022   7.2500   7.2500   7.2997   7.2997
     7.3119   7.3205   7.3205   7.3313   7.5073   7.5073   7.5103   7.5103
     7.5234   7.5337   7.6715   7.6715   7.6825   7.6846   7.6920   7.6920
     7.7246   7.7339   7.7943   7.7943   7.8292   7.8292   8.1792   8.1792
     8.2330   8.2407   8.2441   8.2441   8.2637   8.2637   8.2880   8.2880
     8.4108   8.4108   8.4441   8.4441   8.4571   8.4571   8.4638   8.4804
     8.5096   8.5096   8.5357   8.5357   8.5663   8.5855   8.6116   8.6346
     8.6346   8.7424   8.7424   8.7589   8.7589   8.8370   8.8655   8.8655
     8.8946   8.8946   8.9058   8.9058   9.0336   9.0336   9.0889   9.0889
     9.0902   9.0902   9.1227   9.2721   9.2722   9.2817   9.3401   9.3401
     9.4603   9.4603   9.4729   9.4729   9.4730   9.4926   9.4926   9.5021
     9.5902   9.6108   9.6108   9.6114   9.6158   9.6934   9.7255   9.7435
     9.7435   9.7692   9.7692   9.7750   9.7750   9.9379   9.9379  10.0113
    10.0144  10.0144  10.0156  10.0690  10.1478  10.1645  10.1645  10.1713
    10.1713  10.2218  10.2677  10.3745  10.3745  10.7101  10.7101  10.7788
    10.7788  11.1461  11.1461  11.5820  11.6291  11.8362  12.0489  12.0489
    12.3407  12.3933  12.3933  12.4682  12.4682  12.7349  12.9465  12.9465
    12.9687  14.5566  14.5566  14.8640  14.8640  15.3649  15.4266  15.4267
    15.4353  15.4353  15.5518  16.2077  16.2077  16.7058  16.7756  16.7756
    16.8680  16.8680  18.3822  18.6555  18.6555  18.8318  19.0679  19.1095
    19.1095  19.3536  19.3536  19.3614  19.3615  19.6410  19.6410  19.7956
    19.7956  19.8714

[...]

          k = 0.3889-0.5000-0.3137 ( 52620 PWs)   bands (ev):

[...]

          k =-0.5000-0.5000 0.0349 ( 52584 PWs)   bands (ev):

[...]

          k =-0.5000-0.5000-0.3137 ( 52600 PWs)   bands (ev):

   -73.9618 -73.9618 -73.9618 -73.9617 -73.9391 -73.9390 -73.9390 -73.9390
   -73.9342 -73.9342 -73.9341 -73.9341 -73.9341 -73.9341 -73.9341 -73.9341
   -73.3751 -73.3750 -73.3750 -73.3750 -73.3750 -73.3750 -73.3750 -73.3750
   -73.3591 -73.3590 -73.3590 -73.3590 -73.3590 -73.3590 -73.3590 -73.3590
   -39.7867 -39.7867 -39.7867 -39.7867 -39.7867 -39.7866 -39.7866 -39.7866
   -39.7733 -39.7732 -39.7732 -39.7732 -39.7227 -39.7227 -39.7227 -39.7226
   -39.6616 -39.6615 -39.6615 -39.6615 -39.6615 -39.6615 -39.6615 -39.6615
   -39.6215 -39.6215 -39.6215 -39.6215 -39.6202 -39.6202 -39.6202 -39.6202
   -39.6202 -39.6202 -39.6202 -39.6202 -39.5981 -39.5981 -39.5981 -39.5981
   -39.5785 -39.5785 -39.5785 -39.5785 -39.5288 -39.5288 -39.5288 -39.5288
   -39.2503 -39.2503 -39.2503 -39.2503 -39.2503 -39.2503 -39.2503 -39.2503
   -39.1667 -39.1667 -39.1667 -39.1667 -39.1643 -39.1643 -39.1643 -39.1643
   -39.1518 -39.1518 -39.1518 -39.1518 -39.1518 -39.1518 -39.1518 -39.1518
   -39.0633 -39.0633 -39.0633 -39.0633 -39.0632 -39.0632 -39.0632 -39.0632
   -38.9768 -38.9768 -38.9768 -38.9768 -38.9762 -38.9762 -38.9762 -38.9762
   -38.9643 -38.9642 -38.9642 -38.9642 -38.9642 -38.9642 -38.9642 -38.9641
     4.9624   4.9624   4.9624   4.9624   5.5823   5.5823   5.5823   5.5823
     5.9165   5.9165   5.9165   5.9165   5.9165   5.9165   5.9165   5.9165
     6.0297   6.0297   6.0297   6.0297   6.0852   6.0852   6.0852   6.0852
     6.0852   6.0852   6.0852   6.0852   6.1804   6.1804   6.1804   6.1804
     6.4693   6.4693   6.4693   6.4693   6.7912   6.7912   6.7912   6.7912
     6.7912   6.7912   6.7912   6.7912   7.0904   7.0904   7.0904   7.0904
     7.0904   7.0904   7.0904   7.0904   7.2586   7.2586   7.2586   7.2587
     7.4777   7.4777   7.4777   7.4777   7.7246   7.7246   7.7246   7.7246
     7.8271   7.8271   7.8271   7.8271   7.8662   7.8662   7.8662   7.8662
     7.9252   7.9252   7.9252   7.9253   8.0569   8.0569   8.0569   8.0569
     8.0569   8.0569   8.0569   8.0570   8.1012   8.1012   8.1012   8.1013
     8.3737   8.3737   8.3737   8.3737   8.4998   8.4998   8.4998   8.4998
     8.6369   8.6369   8.6369   8.6369   8.6369   8.6369   8.6369   8.6369
     8.6686   8.6686   8.6686   8.6686   8.6686   8.6686   8.6686   8.6686
     8.7204   8.7204   8.7204   8.7204   8.9412   8.9412   8.9412   8.9412
     9.2389   9.2389   9.2389   9.2389   9.2389   9.2389   9.2389   9.2389
     9.2506   9.2506   9.2506   9.2506   9.3563   9.3563   9.3563   9.3563
     9.5091   9.5092   9.5092   9.5092   9.7119   9.7119   9.7119   9.7119
     9.8475   9.8475   9.8475   9.8475   9.8475   9.8475   9.8475   9.8475
    10.1279  10.1279  10.1279  10.1279  10.1884  10.1884  10.1884  10.1884
    10.1884  10.1884  10.1884  10.1884  10.1977  10.1977  10.1977  10.1977
    11.0272  11.0272  11.0272  11.0272  13.1696  13.1696  13.1696  13.1696
    13.4510  13.4510  13.4510  13.4510  13.4510  13.4510  13.4510  13.4510
    14.5572  14.5572  14.5572  14.5572  14.5572  14.5572  14.5572  14.5572
    15.8628  15.8628  15.8628  15.8628  16.5865  16.5866  16.5866  16.5866
    16.5866  16.5866  16.5866  16.5866  17.3122  17.3123  17.3123  17.3123
    18.8088  18.8088  18.8089  18.8089  18.8366  18.8366  18.8366  18.8366
    18.8366  18.8366

     the Fermi energy is    10.1992 ev

!    total energy              =  -16384.05142231 Ry

     total all-electron energy =   -322944.905129 Ry
     estimated scf accuracy    <       0.00000069 Ry
     smearing contrib. (-TS)   =       0.12352739 Ry
     internal energy E=F+TS    =  -16384.17494970 Ry

     The total energy is F=E-TS. E is the sum of the following terms:
     one-electron contribution =  -13639.19183150 Ry
     hartree contribution      =    7050.23315675 Ry
     xc contribution           =    -985.38228107 Ry
     ewald contribution        =    -642.50403679 Ry
     one-center paw contrib.   =   -8167.32995709 Ry

     convergence has been achieved in  25 iterations

     Forces acting on atoms (cartesian axes, Ry/au):

     atom    1 type  1   force =     0.00000000    0.00000000    0.00316652
     atom    2 type  1   force =    -0.00000590   -0.00000590    0.00318801
     atom    3 type  1   force =     0.00000235   -0.00000000   -0.00422665
     atom    4 type  1   force =    -0.00000000    0.00000235   -0.00422665
     atom    5 type  1   force =     0.00000000    0.00000000    0.00425916
     atom    6 type  1   force =    -0.00002566   -0.00002566    0.00423308
     atom    7 type  1   force =    -0.00003120    0.00000000   -0.00319959
     atom    8 type  1   force =     0.00000000   -0.00003120   -0.00319959
     atom    9 type  1   force =     0.00000000    0.00000000    0.00318093
     atom   10 type  1   force =    -0.00000590    0.00000590    0.00318801
     atom   11 type  1   force =     0.00000724    0.00000000   -0.00422673
     atom   12 type  1   force =     0.00000000   -0.00000235   -0.00422665
     atom   13 type  1   force =     0.00000000    0.00000000    0.00423852
     atom   14 type  1   force =    -0.00002566    0.00002566    0.00423308
     atom   15 type  1   force =    -0.00002437    0.00000000   -0.00318955
     atom   16 type  1   force =     0.00000000    0.00003120   -0.00319959
     atom   17 type  1   force =     0.00000000    0.00000000    0.00318093
     atom   18 type  1   force =     0.00000590   -0.00000590    0.00318801
     atom   19 type  1   force =    -0.00000235   -0.00000000   -0.00422665
     atom   20 type  1   force =     0.00000000    0.00000724   -0.00422673
     atom   21 type  1   force =     0.00000000    0.00000000    0.00423852
     atom   22 type  1   force =     0.00002566   -0.00002566    0.00423308
     atom   23 type  1   force =     0.00003120    0.00000000   -0.00319959
     atom   24 type  1   force =     0.00000000   -0.00002437   -0.00318955
     atom   25 type  1   force =     0.00000000    0.00000000    0.00320897
     atom   26 type  1   force =     0.00000590    0.00000590    0.00318801
     atom   27 type  1   force =    -0.00000724    0.00000000   -0.00422673
     atom   28 type  1   force =     0.00000000   -0.00000724   -0.00422673
     atom   29 type  1   force =     0.00000000    0.00000000    0.00421215
     atom   30 type  1   force =     0.00002566    0.00002566    0.00423308
     atom   31 type  1   force =     0.00002437    0.00000000   -0.00318955
     atom   32 type  1   force =    -0.00000000    0.00002437   -0.00318955

     Total force =     0.021196     Total SCF correction =     0.001968

     Computing stress (Cartesian axis) and pressure

          total   stress  (Ry/bohr**3)                   (kbar)     P=      -34.49
  -0.00029417   0.00000000   0.00000000          -43.27        0.00        0.00
   0.00000000  -0.00029417   0.00000000            0.00      -43.27        0.00
   0.00000000   0.00000000  -0.00011507            0.00        0.00      -16.93

     Writing output data file /scratch/igVvMXATfaBuDAmH.save/

     General routines

     Parallel routines

   This run was terminated on:   6:59:52   7Jan2022

   JOB DONE.