     Program PWSCF v.6.7MaX starts on  6Jan2022 at 21:53:56

     R & G space division:  proc/nbgrp/npool/nimage =      72
     Reading input from scf_6.in
Warning: card &CELL ignored
Warning: card CELL_DYNAMICS = 'BFGS', ignored
Warning: card CELL_FACTOR = 2.0, ignored
Warning: card PRESS = 0.0, ignored
Warning: card / ignored

     Current dimensions of program PWSCF are:
     Max number of different atomic species (ntypx) = 10
     Max number of k-points (npk) =  40000
     Max angular momentum in pseudopotentials (lmaxx) =  3
     file Pd.pbe-spn-kjpaw_psl.1.0.0.UPF: wavefunction(s)  4S 5S 4D renormalized

     Subspace diagonalization in iterative solution of the eigenvalue problem:
     one sub-group per band group will be used

     Found symmetry operation: I + (  0.2500  0.2500  0.0000)
     This is a supercell, fractional translations are disabled
     Message from routine setup:
     using ibrav=0 with symmetry is DISCOURAGED, use correct ibrav instead

     bravais-lattice index     =            0
     lattice parameter (alat)  =      14.8394  a.u.
     unit-cell volume          =    3778.3530 (a.u.)^3
     number of atoms/cell      =           32
     number of atomic types    =            1
     number of electrons       =       576.00
     number of Kohn-Sham states=          346
     kinetic-energy cutoff     =      71.0000  Ry
     charge density cutoff     =     430.0000  Ry
     scf convergence threshold =      1.0E-06
     mixing beta               =       0.1000
     number of iterations used =           10  TF        mixing
     Exchange-correlation= SLA  PW   PBX  PBC
                           (   1   4   3   4   0   0   0)

     celldm(1)=  14.839420  celldm(2)=   0.000000  celldm(3)=   0.000000
     celldm(4)=   0.000000  celldm(5)=   0.000000  celldm(6)=   0.000000

     crystal axes: (cart. coord. in units of alat)
               a(1) = (   1.000000   0.000000   0.000000 )
               a(2) = (   0.000000   1.000000   0.000000 )
               a(3) = (   0.000000   0.000000   1.156250 )

     reciprocal axes: (cart. coord. in units 2 pi/alat)
               b(1) = (  1.000000  0.000000  0.000000 )
               b(2) = (  0.000000  1.000000  0.000000 )
               b(3) = (  0.000000  0.000000  0.864865 )

     PseudoPot. # 1 for Pd read from file:
     /rds/homes/b/bxp912/pp/Pd.pbe-spn-kjpaw_psl.1.0.0.UPF
     MD5 check sum: 790f2ebce206edfd9790dcb9844eca51
     Pseudo is Projector augmented-wave + core cor, Zval = 18.0
     Generated using &quot;atomic&quot; code by A. Dal Corso  v.6.3
     Shape of augmentation charge: PSQ
     Using radial grid of 1235 points,  6 beta functions with:
                l(1) =   0
                l(2) =   0
                l(3) =   1
                l(4) =   1
                l(5) =   2
                l(6) =   2
     Q(r) pseudized with 0 coefficients

     atomic species   valence    mass     pseudopotential
        Pd            18.00   106.42000     Pd( 1.00)

      8 Sym. Ops. (no inversion) found

   Cartesian axes

     site n.     atom                  positions (alat units)
         1           Pd  tau(   1) = (   0.0000000   0.0000000   0.0000000  )
         2           Pd  tau(   2) = (   0.2500000   0.2500000   0.0000000  )
         3           Pd  tau(   3) = (   0.2500000   0.0000000   0.2500000  )
         4           Pd  tau(   4) = (   0.0000000   0.2500000   0.2500000  )
         5           Pd  tau(   5) = (   0.0000000   0.0000000   0.6562500  )
         6           Pd  tau(   6) = (   0.2500000   0.2500000   0.6562500  )
         7           Pd  tau(   7) = (   0.2500000   0.0000000   0.9062500  )
         8           Pd  tau(   8) = (   0.0000000   0.2500000   0.9062500  )
         9           Pd  tau(   9) = (   0.0000000   0.5000000   0.0000000  )
        10           Pd  tau(  10) = (   0.2500000   0.7500000   0.0000000  )
        11           Pd  tau(  11) = (   0.2500000   0.5000000   0.2500000  )
        12           Pd  tau(  12) = (   0.0000000   0.7500000   0.2500000  )
        13           Pd  tau(  13) = (   0.0000000   0.5000000   0.6562500  )
        14           Pd  tau(  14) = (   0.2500000   0.7500000   0.6562500  )
        15           Pd  tau(  15) = (   0.2500000   0.5000000   0.9062500  )
        16           Pd  tau(  16) = (   0.0000000   0.7500000   0.9062500  )
        17           Pd  tau(  17) = (   0.5000000   0.0000000   0.0000000  )
        18           Pd  tau(  18) = (   0.7500000   0.2500000   0.0000000  )
        19           Pd  tau(  19) = (   0.7500000   0.0000000   0.2500000  )
        20           Pd  tau(  20) = (   0.5000000   0.2500000   0.2500000  )
        21           Pd  tau(  21) = (   0.5000000   0.0000000   0.6562500  )
        22           Pd  tau(  22) = (   0.7500000   0.2500000   0.6562500  )
        23           Pd  tau(  23) = (   0.7500000   0.0000000   0.9062500  )
        24           Pd  tau(  24) = (   0.5000000   0.2500000   0.9062500  )
        25           Pd  tau(  25) = (   0.5000000   0.5000000   0.0000000  )
        26           Pd  tau(  26) = (   0.7500000   0.7500000   0.0000000  )
        27           Pd  tau(  27) = (   0.7500000   0.5000000   0.2500000  )
        28           Pd  tau(  28) = (   0.5000000   0.7500000   0.2500000  )
        29           Pd  tau(  29) = (   0.5000000   0.5000000   0.6562500  )
        30           Pd  tau(  30) = (   0.7500000   0.7500000   0.6562500  )
        31           Pd  tau(  31) = (   0.7500000   0.5000000   0.9062500  )
        32           Pd  tau(  32) = (   0.5000000   0.7500000   0.9062500  )

     number of k points=    75  Marzari-Vanderbilt smearing, width (Ry)=  0.0400
                       cart. coord. in units 2pi/alat
        k(    1) = (   0.0555556   0.0555556   0.0480480), wk =   0.0219479
        k(    2) = (   0.0555556   0.0555556   0.1441441), wk =   0.0219479
        k(    3) = (   0.0555556   0.0555556   0.2402402), wk =   0.0219479
        k(    4) = (   0.0555556   0.0555556   0.3363363), wk =   0.0219479
        k(    5) = (   0.0555556   0.0555556  -0.4324324), wk =   0.0109739
        k(    6) = (   0.0555556   0.1666667   0.0480480), wk =   0.0438957
        k(    7) = (   0.0555556   0.1666667   0.1441441), wk =   0.0438957
        k(    8) = (   0.0555556   0.1666667   0.2402402), wk =   0.0438957
        k(    9) = (   0.0555556   0.1666667   0.3363363), wk =   0.0438957
        k(   10) = (   0.0555556   0.1666667  -0.4324324), wk =   0.0219479
        k(   11) = (   0.0555556   0.2777778   0.0480480), wk =   0.0438957
        k(   12) = (   0.0555556   0.2777778   0.1441441), wk =   0.0438957
        k(   13) = (   0.0555556   0.2777778   0.2402402), wk =   0.0438957
        k(   14) = (   0.0555556   0.2777778   0.3363363), wk =   0.0438957
        k(   15) = (   0.0555556   0.2777778  -0.4324324), wk =   0.0219479
        k(   16) = (   0.0555556   0.3888889   0.0480480), wk =   0.0438957
        k(   17) = (   0.0555556   0.3888889   0.1441441), wk =   0.0438957
        k(   18) = (   0.0555556   0.3888889   0.2402402), wk =   0.0438957
        k(   19) = (   0.0555556   0.3888889   0.3363363), wk =   0.0438957
        k(   20) = (   0.0555556   0.3888889  -0.4324324), wk =   0.0219479
        k(   21) = (   0.0555556  -0.5000000   0.0480480), wk =   0.0219479
        k(   22) = (   0.0555556  -0.5000000   0.1441441), wk =   0.0219479
        k(   23) = (   0.0555556  -0.5000000   0.2402402), wk =   0.0219479
        k(   24) = (   0.0555556  -0.5000000   0.3363363), wk =   0.0219479
        k(   25) = (   0.0555556  -0.5000000  -0.4324324), wk =   0.0109739
        k(   26) = (   0.1666667   0.1666667   0.0480480), wk =   0.0219479
        k(   27) = (   0.1666667   0.1666667   0.1441441), wk =   0.0219479
        k(   28) = (   0.1666667   0.1666667   0.2402402), wk =   0.0219479
        k(   29) = (   0.1666667   0.1666667   0.3363363), wk =   0.0219479
        k(   30) = (   0.1666667   0.1666667  -0.4324324), wk =   0.0109739
        k(   31) = (   0.1666667   0.2777778   0.0480480), wk =   0.0438957
        k(   32) = (   0.1666667   0.2777778   0.1441441), wk =   0.0438957
        k(   33) = (   0.1666667   0.2777778   0.2402402), wk =   0.0438957
        k(   34) = (   0.1666667   0.2777778   0.3363363), wk =   0.0438957
        k(   35) = (   0.1666667   0.2777778  -0.4324324), wk =   0.0219479
        k(   36) = (   0.1666667   0.3888889   0.0480480), wk =   0.0438957
        k(   37) = (   0.1666667   0.3888889   0.1441441), wk =   0.0438957
        k(   38) = (   0.1666667   0.3888889   0.2402402), wk =   0.0438957
        k(   39) = (   0.1666667   0.3888889   0.3363363), wk =   0.0438957
        k(   40) = (   0.1666667   0.3888889  -0.4324324), wk =   0.0219479
        k(   41) = (   0.1666667  -0.5000000   0.0480480), wk =   0.0219479
        k(   42) = (   0.1666667  -0.5000000   0.1441441), wk =   0.0219479
        k(   43) = (   0.1666667  -0.5000000   0.2402402), wk =   0.0219479
        k(   44) = (   0.1666667  -0.5000000   0.3363363), wk =   0.0219479
        k(   45) = (   0.1666667  -0.5000000  -0.4324324), wk =   0.0109739
        k(   46) = (   0.2777778   0.2777778   0.0480480), wk =   0.0219479
        k(   47) = (   0.2777778   0.2777778   0.1441441), wk =   0.0219479
        k(   48) = (   0.2777778   0.2777778   0.2402402), wk =   0.0219479
        k(   49) = (   0.2777778   0.2777778   0.3363363), wk =   0.0219479
        k(   50) = (   0.2777778   0.2777778  -0.4324324), wk =   0.0109739
        k(   51) = (   0.2777778   0.3888889   0.0480480), wk =   0.0438957
        k(   52) = (   0.2777778   0.3888889   0.1441441), wk =   0.0438957
        k(   53) = (   0.2777778   0.3888889   0.2402402), wk =   0.0438957
        k(   54) = (   0.2777778   0.3888889   0.3363363), wk =   0.0438957
        k(   55) = (   0.2777778   0.3888889  -0.4324324), wk =   0.0219479
        k(   56) = (   0.2777778  -0.5000000   0.0480480), wk =   0.0219479
        k(   57) = (   0.2777778  -0.5000000   0.1441441), wk =   0.0219479
        k(   58) = (   0.2777778  -0.5000000   0.2402402), wk =   0.0219479
        k(   59) = (   0.2777778  -0.5000000   0.3363363), wk =   0.0219479
        k(   60) = (   0.2777778  -0.5000000  -0.4324324), wk =   0.0109739
        k(   61) = (   0.3888889   0.3888889   0.0480480), wk =   0.0219479
        k(   62) = (   0.3888889   0.3888889   0.1441441), wk =   0.0219479
        k(   63) = (   0.3888889   0.3888889   0.2402402), wk =   0.0219479
        k(   64) = (   0.3888889   0.3888889   0.3363363), wk =   0.0219479
        k(   65) = (   0.3888889   0.3888889  -0.4324324), wk =   0.0109739
        k(   66) = (   0.3888889  -0.5000000   0.0480480), wk =   0.0219479
        k(   67) = (   0.3888889  -0.5000000   0.1441441), wk =   0.0219479
        k(   68) = (   0.3888889  -0.5000000   0.2402402), wk =   0.0219479
        k(   69) = (   0.3888889  -0.5000000   0.3363363), wk =   0.0219479
        k(   70) = (   0.3888889  -0.5000000  -0.4324324), wk =   0.0109739
        k(   71) = (  -0.5000000  -0.5000000   0.0480480), wk =   0.0054870
        k(   72) = (  -0.5000000  -0.5000000   0.1441441), wk =   0.0054870
        k(   73) = (  -0.5000000  -0.5000000   0.2402402), wk =   0.0054870
        k(   74) = (  -0.5000000  -0.5000000   0.3363363), wk =   0.0054870
        k(   75) = (  -0.5000000  -0.5000000  -0.4324324), wk =   0.0027435

     Check: negative core charge=   -0.000001

     Initial potential from superposition of free atoms

     starting charge  575.98776, renormalised to  576.00000
     Starting wfcs are  320 randomized atomic wfcs +   26 random wfcs
     Checking if some PAW data can be deallocated...

     Self-consistent Calculation

     iteration #  1     ecut=    71.00 Ry     beta= 0.10
     Davidson diagonalization with overlap
     ethr =  1.00E-02,  avg # of iterations =  3.2

     Threshold (ethr) on eigenvalues was too large:
     Diagonalizing with lowered threshold

     Davidson diagonalization with overlap
     ethr =  4.49E-04,  avg # of iterations =  1.5

     total energy              =  -16384.76914836 Ry
     estimated scf accuracy    <       2.57179063 Ry

[...]

     iteration #  8     ecut=    71.00 Ry     beta= 0.10
     Davidson diagonalization with overlap
     c_bands:  2 eigenvalues not converged
     ethr =  2.43E-06,  avg # of iterations =  1.5

[...]

     iteration #  9     ecut=    71.00 Ry     beta= 0.10
     Davidson diagonalization with overlap
     c_bands:  1 eigenvalues not converged
     ethr =  1.31E-06,  avg # of iterations =  1.7

[...]

     total energy              =  -16384.35145181 Ry
     estimated scf accuracy    <       0.00000134 Ry

     iteration # 17     ecut=    71.00 Ry     beta= 0.10
     Davidson diagonalization with overlap
     ethr =  2.33E-10,  avg # of iterations =  1.0

     End of self-consistent calculation

          k = 0.0556 0.0556 0.0480 ( 38120 PWs)   bands (ev):

   -68.2673 -68.2451 -68.2450 -68.2408 -68.2408 -68.2362 -68.2353 -68.2346
   -68.2346 -68.2334 -68.2276 -68.2276 -68.2262 -68.2261 -68.2189 -68.2189
   -67.7575 -67.7572 -67.7431 -67.7431 -67.7430 -67.7430 -67.7419 -67.7419
   -67.7416 -67.7416 -67.7404 -67.7404 -67.7403 -67.7403 -67.7259 -67.7259
   -34.1044 -34.1044 -34.1042 -34.1028 -34.0931 -34.0931 -34.0746 -34.0421
   -34.0421 -34.0405 -34.0405 -34.0106 -34.0105 -33.9983 -33.9983 -33.9888
   -33.9888 -33.9887 -33.9887 -33.9778 -33.9777 -33.9411 -33.9411 -33.9376
   -33.9376 -33.9369 -33.9321 -33.9320 -33.9282 -33.9282 -33.9266 -33.9129
   -33.9129 -33.9075 -33.8984 -33.8984 -33.8951 -33.8920 -33.8769 -33.8769
   -33.8720 -33.8720 -33.8448 -33.8431 -33.8431 -33.8387 -33.8270 -33.8254
   -33.6031 -33.6031 -33.6025 -33.6013 -33.5939 -33.5939 -33.5907 -33.5907
   -33.5233 -33.5233 -33.5229 -33.5229 -33.5082 -33.5082 -33.5082 -33.5082
   -33.5063 -33.5063 -33.5055 -33.5055 -33.4911 -33.4911 -33.4906 -33.4906
   -33.4213 -33.4202 -33.4197 -33.4186 -33.4078 -33.4078 -33.4064 -33.4063
   -33.3910 -33.3809 -33.3751 -33.3751 -33.3731 -33.3731 -33.3730 -33.3728
   -33.3728 -33.3728 -33.3727 -33.3727 -33.3711 -33.3711 -33.3633 -33.3633
     9.4598  10.8667  11.0465  11.0465  11.1110  11.1190  11.1238  11.1238
    11.2019  11.3161  11.3247  11.3247  11.3928  11.3928  11.5805  11.5805
    11.5986  11.8909  12.0213  12.0213  12.0249  12.0249  12.0502  12.0502
    12.0800  12.0800  12.1630  12.1630  12.1894  12.1978  12.2113  12.2113
    12.2915  12.2915  12.3578  12.3578  12.3829  12.3829  12.4546  12.4546
    12.5155  12.5155  12.5475  12.5475  12.5819  12.6682  12.6682  12.6844
    12.6844  12.8269  12.8270  12.9117  12.9567  12.9567  12.9816  12.9816
    13.0158  13.0280  13.0280  13.0421  13.1880  13.1880  13.1969  13.2074
    13.2308  13.2308  13.3567  13.3567  13.3581  13.3581  13.3672  13.3672
    13.3736  13.3766  13.4119  13.4119  13.4156  13.4251  13.6344  13.6381
    13.6381  13.6778  13.7936  13.7936  13.8344  13.8344  13.8825  14.0220
    14.0220  14.0419  14.0419  14.1459  14.1459  14.1628  14.1790  14.2091
    14.2091  14.2114  14.2114  14.2605  14.2605  14.2713  14.2713  14.3173
    14.3434  14.3434  14.3445  14.3487  14.3487  14.4491  14.4491  14.4494
    14.4921  14.4921  14.5755  14.5833  14.5833  14.7096  14.7096  14.8179
    14.8649  14.8649  14.8778  14.8778  14.9470  14.9470  14.9596  14.9596
    15.0797  15.0797  15.0905  15.0905  15.1169  15.1169  15.1260  15.1563
    15.1729  15.1729  15.1927  15.1927  15.2547  15.2672  15.3304  15.5003
    15.6018  15.6018  15.6112  15.6112  15.6675  15.6675  15.6862  15.6935
    15.7114  15.7118  15.7118  15.7585  15.8365  15.9029  15.9029  15.9100
    15.9100  15.9225  15.9882  16.0747  16.0747  16.4490  16.4490  16.9869
    16.9869  17.1503  17.4180  17.4180  17.4482  17.4597  17.4597  17.7014
    17.7028  17.7028  18.2193  18.2193  18.2409  18.2409  18.3210  18.7733
    19.9662  19.9662  21.2276  21.5863  21.5863  21.6105  21.7182  22.5274
    22.5274  23.0839  23.0839  23.1344  23.1344  23.3920  23.3920  23.8892
    23.8892  24.5615  24.5615  24.6121  24.6121  25.1890  25.2510  25.2510
    25.4717  25.4717  25.5533  25.9068  25.9068  26.3680  26.3680  26.9381
    26.9480  26.9729

[...]

          k = 0.3889-0.5000-0.4324 ( 38216 PWs)   bands (ev):

[...]

          k =-0.5000-0.5000 0.0480 ( 38104 PWs)   bands (ev):

[...]

          k =-0.5000-0.5000-0.4324 ( 38168 PWs)   bands (ev):

   -68.2544 -68.2544 -68.2544 -68.2544 -68.2317 -68.2317 -68.2317 -68.2316
   -68.2268 -68.2268 -68.2267 -68.2267 -68.2267 -68.2267 -68.2267 -68.2267
   -67.7497 -67.7497 -67.7497 -67.7497 -67.7496 -67.7495 -67.7495 -67.7495
   -67.7338 -67.7338 -67.7338 -67.7338 -67.7338 -67.7337 -67.7337 -67.7337
   -34.0829 -34.0829 -34.0828 -34.0828 -34.0828 -34.0828 -34.0828 -34.0828
   -34.0607 -34.0607 -34.0607 -34.0606 -34.0183 -34.0183 -34.0183 -34.0183
   -33.9539 -33.9539 -33.9539 -33.9539 -33.9539 -33.9539 -33.9539 -33.9539
   -33.9188 -33.9188 -33.9188 -33.9188 -33.9136 -33.9136 -33.9136 -33.9136
   -33.9136 -33.9136 -33.9136 -33.9136 -33.8874 -33.8874 -33.8874 -33.8874
   -33.8759 -33.8759 -33.8759 -33.8759 -33.8263 -33.8263 -33.8262 -33.8262
   -33.5974 -33.5974 -33.5973 -33.5973 -33.5973 -33.5973 -33.5973 -33.5973
   -33.5155 -33.5155 -33.5154 -33.5154 -33.5120 -33.5120 -33.5120 -33.5120
   -33.5008 -33.5008 -33.5008 -33.5008 -33.5008 -33.5008 -33.5008 -33.5008
   -33.4129 -33.4129 -33.4129 -33.4129 -33.4127 -33.4127 -33.4127 -33.4127
   -33.3811 -33.3811 -33.3811 -33.3811 -33.3763 -33.3763 -33.3763 -33.3763
   -33.3681 -33.3680 -33.3680 -33.3680 -33.3680 -33.3680 -33.3680 -33.3680
    10.6669  10.6669  10.6669  10.6669  11.2338  11.2338  11.2338  11.2338
    11.6128  11.6128  11.6128  11.6128  11.6128  11.6128  11.6128  11.6128
    11.6597  11.6597  11.6597  11.6597  11.7638  11.7638  11.7638  11.7638
    11.7638  11.7638  11.7638  11.7638  11.9209  11.9209  11.9209  11.9209
    12.1505  12.1505  12.1505  12.1505  12.4892  12.4892  12.4892  12.4892
    12.4892  12.4892  12.4892  12.4892  12.7530  12.7530  12.7530  12.7530
    12.7530  12.7530  12.7531  12.7531  12.9235  12.9235  12.9235  12.9235
    13.1774  13.1774  13.1774  13.1774  13.4223  13.4223  13.4223  13.4223
    13.4495  13.4495  13.4495  13.4495  13.5669  13.5669  13.5669  13.5669
    13.6744  13.6744  13.6744  13.6744  13.7415  13.7415  13.7415  13.7415
    13.7415  13.7415  13.7415  13.7415  13.7839  13.7839  13.7839  13.7839
    13.9021  13.9021  13.9021  13.9021  14.1157  14.1157  14.1157  14.1157
    14.3179  14.3179  14.3179  14.3179  14.3179  14.3179  14.3179  14.3179
    14.4093  14.4093  14.4094  14.4094  14.4094  14.4094  14.4094  14.4094
    14.4171  14.4171  14.4171  14.4171  14.5835  14.5835  14.5835  14.5835
    14.6334  14.6334  14.6334  14.6334  14.6575  14.6575  14.6575  14.6575
    14.6575  14.6575  14.6575  14.6575  15.0107  15.0107  15.0107  15.0107
    15.1963  15.1963  15.1963  15.1963  15.3297  15.3297  15.3297  15.3297
    15.6726  15.6726  15.6726  15.6726  15.6726  15.6726  15.6726  15.6726
    15.8308  15.8308  15.8308  15.8308  15.8923  15.8923  15.8924  15.8924
    15.9098  15.9098  15.9098  15.9098  15.9098  15.9098  15.9098  15.9098
    18.1768  18.1768  18.1768  18.1768  18.5537  18.5537  18.5537  18.5537
    19.2477  19.2477  19.2477  19.2477  19.2477  19.2477  19.2477  19.2477
    19.9016  19.9016  19.9016  19.9016  19.9016  19.9016  19.9016  19.9016
    23.0951  23.0951  23.0951  23.0951  23.0951  23.0951  23.0951  23.0951
    24.4309  24.4309  24.4309  24.4309  24.5554  24.5554  24.5554  24.5554
    24.5554  24.5554  24.5554  24.5554  24.6760  24.6760  24.6760  24.6760
    25.8101  25.8101

     the Fermi energy is    15.9099 ev

!    total energy              =  -16384.35145588 Ry

     total all-electron energy =   -322945.205163 Ry
     estimated scf accuracy    <       0.00000087 Ry
     smearing contrib. (-TS)   =       0.10330338 Ry
     internal energy E=F+TS    =  -16384.45475927 Ry

     The total energy is F=E-TS. E is the sum of the following terms:
     one-electron contribution =   -3810.47058993 Ry
     hartree contribution      =    2255.86043447 Ry
     xc contribution           =    -985.25760450 Ry
     ewald contribution        =   -5677.24748838 Ry
     one-center paw contrib.   =   -8167.33951094 Ry

     convergence has been achieved in  17 iterations

     Forces acting on atoms (cartesian axes, Ry/au):

     atom    1 type  1   force =     0.00000000    0.00000000    0.00438910
     atom    2 type  1   force =    -0.00000537   -0.00000537    0.00438797
     atom    3 type  1   force =     0.00000213    0.00000000    0.02415222
     atom    4 type  1   force =     0.00000000    0.00000213    0.02415222
     atom    5 type  1   force =     0.00000000    0.00000000   -0.02415776
     atom    6 type  1   force =    -0.00000512   -0.00000512   -0.02415772
     atom    7 type  1   force =    -0.00000314    0.00000000   -0.00438315
     atom    8 type  1   force =     0.00000000   -0.00000314   -0.00438315
     atom    9 type  1   force =     0.00000000    0.00000000    0.00439140
     atom   10 type  1   force =    -0.00000537    0.00000537    0.00438797
     atom   11 type  1   force =    -0.00001304    0.00000000    0.02415590
     atom   12 type  1   force =     0.00000000   -0.00000213    0.02415222
     atom   13 type  1   force =     0.00000000    0.00000000   -0.02415728
     atom   14 type  1   force =    -0.00000512    0.00000512   -0.02415772
     atom   15 type  1   force =    -0.00001678    0.00000000   -0.00438807
     atom   16 type  1   force =     0.00000000    0.00000314   -0.00438315
     atom   17 type  1   force =     0.00000000    0.00000000    0.00439140
     atom   18 type  1   force =     0.00000537   -0.00000537    0.00438797
     atom   19 type  1   force =    -0.00000213    0.00000000    0.02415222
     atom   20 type  1   force =     0.00000000   -0.00001304    0.02415590
     atom   21 type  1   force =     0.00000000    0.00000000   -0.02415728
     atom   22 type  1   force =     0.00000512   -0.00000512   -0.02415772
     atom   23 type  1   force =     0.00000314    0.00000000   -0.00438315
     atom   24 type  1   force =     0.00000000   -0.00001678   -0.00438807
     atom   25 type  1   force =     0.00000000    0.00000000    0.00439204
     atom   26 type  1   force =     0.00000537    0.00000537    0.00438797
     atom   27 type  1   force =     0.00001304    0.00000000    0.02415590
     atom   28 type  1   force =     0.00000000    0.00001304    0.02415590
     atom   29 type  1   force =     0.00000000    0.00000000   -0.02416023
     atom   30 type  1   force =     0.00000512    0.00000512   -0.02415772
     atom   31 type  1   force =     0.00001678    0.00000000   -0.00438807
     atom   32 type  1   force =     0.00000000    0.00001678   -0.00438807

     Total force =     0.098205     Total SCF correction =     0.004383

     Computing stress (Cartesian axis) and pressure

          total   stress  (Ry/bohr**3)                   (kbar)     P=      -62.34
  -0.00038498   0.00000000   0.00000000          -56.63        0.00        0.00
   0.00000000  -0.00038498   0.00000000            0.00      -56.63        0.00
   0.00000000   0.00000000  -0.00050136            0.00        0.00      -73.75

     Writing output data file /scratch/XozLMydxiEoQapuz.save/

     General routines

     Parallel routines

   This run was terminated on:  22:19:10   6Jan2022

   JOB DONE.