     Program PWSCF v.6.7MaX starts on  6Jan2022 at 23:14:17

     R & G space division:  proc/nbgrp/npool/nimage =      72
     Reading input from scf_9.in
Warning: card &CELL ignored
Warning: card CELL_DYNAMICS = 'BFGS', ignored
Warning: card CELL_FACTOR = 2.0, ignored
Warning: card PRESS = 0.0, ignored
Warning: card / ignored

     Current dimensions of program PWSCF are:
     Max number of different atomic species (ntypx) = 10
     Max number of k-points (npk) =  40000
     Max angular momentum in pseudopotentials (lmaxx) =  3
     file Pd.pbe-spn-kjpaw_psl.1.0.0.UPF: wavefunction(s)  4S 5S 4D renormalized

     Subspace diagonalization in iterative solution of the eigenvalue problem:
     one sub-group per band group will be used

     Found symmetry operation: I + (  0.2500  0.2500  0.0000)
     This is a supercell, fractional translations are disabled
     Message from routine setup:
     using ibrav=0 with symmetry is DISCOURAGED, use correct ibrav instead

     bravais-lattice index     =            0
     lattice parameter (alat)  =      14.8394  a.u.
     unit-cell volume          =    4084.7059 (a.u.)^3
     number of atoms/cell      =           32
     number of atomic types    =            1
     number of electrons       =       576.00
     number of Kohn-Sham states=          346
     kinetic-energy cutoff     =      71.0000  Ry
     charge density cutoff     =     430.0000  Ry
     scf convergence threshold =      1.0E-06
     mixing beta               =       0.1000
     number of iterations used =           10  TF        mixing
     Exchange-correlation= SLA  PW   PBX  PBC
                           (   1   4   3   4   0   0   0)

     celldm(1)=  14.839420  celldm(2)=   0.000000  celldm(3)=   0.000000
     celldm(4)=   0.000000  celldm(5)=   0.000000  celldm(6)=   0.000000

     crystal axes: (cart. coord. in units of alat)
               a(1) = (   1.000000   0.000000   0.000000 )
               a(2) = (   0.000000   1.000000   0.000000 )
               a(3) = (   0.000000   0.000000   1.250000 )

     reciprocal axes: (cart. coord. in units 2 pi/alat)
               b(1) = (  1.000000  0.000000  0.000000 )
               b(2) = (  0.000000  1.000000  0.000000 )
               b(3) = (  0.000000  0.000000  0.800000 )

     PseudoPot. # 1 for Pd read from file:
     /rds/homes/b/bxp912/pp/Pd.pbe-spn-kjpaw_psl.1.0.0.UPF
     MD5 check sum: 790f2ebce206edfd9790dcb9844eca51
     Pseudo is Projector augmented-wave + core cor, Zval = 18.0
     Generated using &quot;atomic&quot; code by A. Dal Corso  v.6.3
     Shape of augmentation charge: PSQ
     Using radial grid of 1235 points,  6 beta functions with:
                l(1) =   0
                l(2) =   0
                l(3) =   1
                l(4) =   1
                l(5) =   2
                l(6) =   2
     Q(r) pseudized with 0 coefficients

     atomic species   valence    mass     pseudopotential
        Pd            18.00   106.42000     Pd( 1.00)

      8 Sym. Ops. (no inversion) found

   Cartesian axes

     site n.     atom                  positions (alat units)
         1           Pd  tau(   1) = (   0.0000000   0.0000000   0.0000000  )
         2           Pd  tau(   2) = (   0.2500000   0.2500000   0.0000000  )
         3           Pd  tau(   3) = (   0.2500000   0.0000000   0.2500000  )
         4           Pd  tau(   4) = (   0.0000000   0.2500000   0.2500000  )
         5           Pd  tau(   5) = (   0.0000000   0.0000000   0.7500000  )
         6           Pd  tau(   6) = (   0.2500000   0.2500000   0.7500000  )
         7           Pd  tau(   7) = (   0.2500000   0.0000000   1.0000000  )
         8           Pd  tau(   8) = (   0.0000000   0.2500000   1.0000000  )
         9           Pd  tau(   9) = (   0.0000000   0.5000000   0.0000000  )
        10           Pd  tau(  10) = (   0.2500000   0.7500000   0.0000000  )
        11           Pd  tau(  11) = (   0.2500000   0.5000000   0.2500000  )
        12           Pd  tau(  12) = (   0.0000000   0.7500000   0.2500000  )
        13           Pd  tau(  13) = (   0.0000000   0.5000000   0.7500000  )
        14           Pd  tau(  14) = (   0.2500000   0.7500000   0.7500000  )
        15           Pd  tau(  15) = (   0.2500000   0.5000000   1.0000000  )
        16           Pd  tau(  16) = (   0.0000000   0.7500000   1.0000000  )
        17           Pd  tau(  17) = (   0.5000000   0.0000000   0.0000000  )
        18           Pd  tau(  18) = (   0.7500000   0.2500000   0.0000000  )
        19           Pd  tau(  19) = (   0.7500000   0.0000000   0.2500000  )
        20           Pd  tau(  20) = (   0.5000000   0.2500000   0.2500000  )
        21           Pd  tau(  21) = (   0.5000000   0.0000000   0.7500000  )
        22           Pd  tau(  22) = (   0.7500000   0.2500000   0.7500000  )
        23           Pd  tau(  23) = (   0.7500000   0.0000000   1.0000000  )
        24           Pd  tau(  24) = (   0.5000000   0.2500000   1.0000000  )
        25           Pd  tau(  25) = (   0.5000000   0.5000000   0.0000000  )
        26           Pd  tau(  26) = (   0.7500000   0.7500000   0.0000000  )
        27           Pd  tau(  27) = (   0.7500000   0.5000000   0.2500000  )
        28           Pd  tau(  28) = (   0.5000000   0.7500000   0.2500000  )
        29           Pd  tau(  29) = (   0.5000000   0.5000000   0.7500000  )
        30           Pd  tau(  30) = (   0.7500000   0.7500000   0.7500000  )
        31           Pd  tau(  31) = (   0.7500000   0.5000000   1.0000000  )
        32           Pd  tau(  32) = (   0.5000000   0.7500000   1.0000000  )

     number of k points=    75  Marzari-Vanderbilt smearing, width (Ry)=  0.0400
                       cart. coord. in units 2pi/alat
        k(    1) = (   0.0555556   0.0555556   0.0444444), wk =   0.0219479
        k(    2) = (   0.0555556   0.0555556   0.1333333), wk =   0.0219479
        k(    3) = (   0.0555556   0.0555556   0.2222222), wk =   0.0219479
        k(    4) = (   0.0555556   0.0555556   0.3111111), wk =   0.0219479
        k(    5) = (   0.0555556   0.0555556  -0.4000000), wk =   0.0109739
        k(    6) = (   0.0555556   0.1666667   0.0444444), wk =   0.0438957
        k(    7) = (   0.0555556   0.1666667   0.1333333), wk =   0.0438957
        k(    8) = (   0.0555556   0.1666667   0.2222222), wk =   0.0438957
        k(    9) = (   0.0555556   0.1666667   0.3111111), wk =   0.0438957
        k(   10) = (   0.0555556   0.1666667  -0.4000000), wk =   0.0219479
        k(   11) = (   0.0555556   0.2777778   0.0444444), wk =   0.0438957
        k(   12) = (   0.0555556   0.2777778   0.1333333), wk =   0.0438957
        k(   13) = (   0.0555556   0.2777778   0.2222222), wk =   0.0438957
        k(   14) = (   0.0555556   0.2777778   0.3111111), wk =   0.0438957
        k(   15) = (   0.0555556   0.2777778  -0.4000000), wk =   0.0219479
        k(   16) = (   0.0555556   0.3888889   0.0444444), wk =   0.0438957
        k(   17) = (   0.0555556   0.3888889   0.1333333), wk =   0.0438957
        k(   18) = (   0.0555556   0.3888889   0.2222222), wk =   0.0438957
        k(   19) = (   0.0555556   0.3888889   0.3111111), wk =   0.0438957
        k(   20) = (   0.0555556   0.3888889  -0.4000000), wk =   0.0219479
        k(   21) = (   0.0555556  -0.5000000   0.0444444), wk =   0.0219479
        k(   22) = (   0.0555556  -0.5000000   0.1333333), wk =   0.0219479
        k(   23) = (   0.0555556  -0.5000000   0.2222222), wk =   0.0219479
        k(   24) = (   0.0555556  -0.5000000   0.3111111), wk =   0.0219479
        k(   25) = (   0.0555556  -0.5000000  -0.4000000), wk =   0.0109739
        k(   26) = (   0.1666667   0.1666667   0.0444444), wk =   0.0219479
        k(   27) = (   0.1666667   0.1666667   0.1333333), wk =   0.0219479
        k(   28) = (   0.1666667   0.1666667   0.2222222), wk =   0.0219479
        k(   29) = (   0.1666667   0.1666667   0.3111111), wk =   0.0219479
        k(   30) = (   0.1666667   0.1666667  -0.4000000), wk =   0.0109739
        k(   31) = (   0.1666667   0.2777778   0.0444444), wk =   0.0438957
        k(   32) = (   0.1666667   0.2777778   0.1333333), wk =   0.0438957
        k(   33) = (   0.1666667   0.2777778   0.2222222), wk =   0.0438957
        k(   34) = (   0.1666667   0.2777778   0.3111111), wk =   0.0438957
        k(   35) = (   0.1666667   0.2777778  -0.4000000), wk =   0.0219479
        k(   36) = (   0.1666667   0.3888889   0.0444444), wk =   0.0438957
        k(   37) = (   0.1666667   0.3888889   0.1333333), wk =   0.0438957
        k(   38) = (   0.1666667   0.3888889   0.2222222), wk =   0.0438957
        k(   39) = (   0.1666667   0.3888889   0.3111111), wk =   0.0438957
        k(   40) = (   0.1666667   0.3888889  -0.4000000), wk =   0.0219479
        k(   41) = (   0.1666667  -0.5000000   0.0444444), wk =   0.0219479
        k(   42) = (   0.1666667  -0.5000000   0.1333333), wk =   0.0219479
        k(   43) = (   0.1666667  -0.5000000   0.2222222), wk =   0.0219479
        k(   44) = (   0.1666667  -0.5000000   0.3111111), wk =   0.0219479
        k(   45) = (   0.1666667  -0.5000000  -0.4000000), wk =   0.0109739
        k(   46) = (   0.2777778   0.2777778   0.0444444), wk =   0.0219479
        k(   47) = (   0.2777778   0.2777778   0.1333333), wk =   0.0219479
        k(   48) = (   0.2777778   0.2777778   0.2222222), wk =   0.0219479
        k(   49) = (   0.2777778   0.2777778   0.3111111), wk =   0.0219479
        k(   50) = (   0.2777778   0.2777778  -0.4000000), wk =   0.0109739
        k(   51) = (   0.2777778   0.3888889   0.0444444), wk =   0.0438957
        k(   52) = (   0.2777778   0.3888889   0.1333333), wk =   0.0438957
        k(   53) = (   0.2777778   0.3888889   0.2222222), wk =   0.0438957
        k(   54) = (   0.2777778   0.3888889   0.3111111), wk =   0.0438957
        k(   55) = (   0.2777778   0.3888889  -0.4000000), wk =   0.0219479
        k(   56) = (   0.2777778  -0.5000000   0.0444444), wk =   0.0219479
        k(   57) = (   0.2777778  -0.5000000   0.1333333), wk =   0.0219479
        k(   58) = (   0.2777778  -0.5000000   0.2222222), wk =   0.0219479
        k(   59) = (   0.2777778  -0.5000000   0.3111111), wk =   0.0219479
        k(   60) = (   0.2777778  -0.5000000  -0.4000000), wk =   0.0109739
        k(   61) = (   0.3888889   0.3888889   0.0444444), wk =   0.0219479
        k(   62) = (   0.3888889   0.3888889   0.1333333), wk =   0.0219479
        k(   63) = (   0.3888889   0.3888889   0.2222222), wk =   0.0219479
        k(   64) = (   0.3888889   0.3888889   0.3111111), wk =   0.0219479
        k(   65) = (   0.3888889   0.3888889  -0.4000000), wk =   0.0109739
        k(   66) = (   0.3888889  -0.5000000   0.0444444), wk =   0.0219479
        k(   67) = (   0.3888889  -0.5000000   0.1333333), wk =   0.0219479
        k(   68) = (   0.3888889  -0.5000000   0.2222222), wk =   0.0219479
        k(   69) = (   0.3888889  -0.5000000   0.3111111), wk =   0.0219479
        k(   70) = (   0.3888889  -0.5000000  -0.4000000), wk =   0.0109739
        k(   71) = (  -0.5000000  -0.5000000   0.0444444), wk =   0.0054870
        k(   72) = (  -0.5000000  -0.5000000   0.1333333), wk =   0.0054870
        k(   73) = (  -0.5000000  -0.5000000   0.2222222), wk =   0.0054870
        k(   74) = (  -0.5000000  -0.5000000   0.3111111), wk =   0.0054870
        k(   75) = (  -0.5000000  -0.5000000  -0.4000000), wk =   0.0027435

     Check: negative core charge=   -0.000001

     Initial potential from superposition of free atoms

     starting charge  575.98776, renormalised to  576.00000
     Starting wfcs are  320 randomized atomic wfcs +   26 random wfcs
     Checking if some PAW data can be deallocated...

     Self-consistent Calculation

     iteration #  1     ecut=    71.00 Ry     beta= 0.10
     Davidson diagonalization with overlap
     ethr =  1.00E-02,  avg # of iterations =  3.7

     Threshold (ethr) on eigenvalues was too large:
     Diagonalizing with lowered threshold

     Davidson diagonalization with overlap
     ethr =  6.61E-04,  avg # of iterations =  1.1

     total energy              =  -16384.77043598 Ry
     estimated scf accuracy    <       3.79597708 Ry

[...]

     iteration #  5     ecut=    71.00 Ry     beta= 0.10
     Davidson diagonalization with overlap
     c_bands:  2 eigenvalues not converged
     ethr =  8.22E-05,  avg # of iterations =  3.4

[...]

     iteration # 12     ecut=    71.00 Ry     beta= 0.10
     Davidson diagonalization with overlap
     c_bands:  1 eigenvalues not converged
     ethr =  2.53E-07,  avg # of iterations =  2.2

[...]

     total energy              =  -16384.14382089 Ry
     estimated scf accuracy    <       0.00000211 Ry

     iteration # 19     ecut=    71.00 Ry     beta= 0.10
     Davidson diagonalization with overlap
     ethr =  3.67E-10,  avg # of iterations =  2.0

     End of self-consistent calculation

          k = 0.0556 0.0556 0.0444 ( 41226 PWs)   bands (ev):

   -69.8250 -69.8028 -69.8028 -69.7986 -69.7985 -69.7940 -69.7930 -69.7924
   -69.7923 -69.7912 -69.7853 -69.7853 -69.7839 -69.7839 -69.7767 -69.7766
   -69.2594 -69.2594 -69.2450 -69.2450 -69.2450 -69.2450 -69.2438 -69.2438
   -69.2436 -69.2435 -69.2423 -69.2423 -69.2422 -69.2422 -69.2277 -69.2277
   -35.6604 -35.6604 -35.6601 -35.6590 -35.6477 -35.6477 -35.6362 -35.6026
   -35.6026 -35.6002 -35.6002 -35.5659 -35.5659 -35.5543 -35.5543 -35.5451
   -35.5451 -35.5432 -35.5432 -35.5335 -35.5335 -35.5001 -35.5000 -35.4973
   -35.4973 -35.4955 -35.4909 -35.4908 -35.4855 -35.4837 -35.4836 -35.4674
   -35.4674 -35.4666 -35.4530 -35.4530 -35.4501 -35.4483 -35.4360 -35.4360
   -35.4309 -35.4309 -35.3999 -35.3981 -35.3980 -35.3937 -35.3818 -35.3802
   -35.1240 -35.1240 -35.1233 -35.1223 -35.1128 -35.1128 -35.1108 -35.1108
   -35.0424 -35.0424 -35.0423 -35.0423 -35.0275 -35.0275 -35.0273 -35.0273
   -35.0252 -35.0252 -35.0248 -35.0248 -35.0100 -35.0100 -35.0098 -35.0098
   -34.9397 -34.9392 -34.9381 -34.9376 -34.9262 -34.9261 -34.9248 -34.9248
   -34.8731 -34.8687 -34.8581 -34.8581 -34.8579 -34.8579 -34.8570 -34.8566
   -34.8566 -34.8565 -34.8561 -34.8561 -34.8559 -34.8559 -34.8463 -34.8463
     7.9638   9.2988   9.5113   9.5114   9.5773   9.5841   9.5899   9.5899
     9.6538   9.7183   9.7878   9.7878   9.8691   9.8691  10.0541  10.0541
    10.1029  10.3326  10.4616  10.4616  10.4804  10.4804  10.5095  10.5095
    10.5323  10.5323  10.6088  10.6088  10.6168  10.6212  10.6349  10.6349
    10.7434  10.7434  10.8138  10.8138  10.8464  10.8464  10.9276  10.9276
    10.9366  10.9366  10.9993  10.9993  11.0573  11.1196  11.1196  11.1375
    11.1375  11.2813  11.2813  11.3568  11.4019  11.4019  11.4431  11.4431
    11.4614  11.4694  11.4694  11.4805  11.6562  11.6562  11.6683  11.6759
    11.6759  11.6810  11.8276  11.8300  11.8347  11.8347  11.8412  11.8412
    11.8709  11.8800  11.9041  11.9041  11.9356  11.9356  12.2495  12.2495
    12.2825  12.2992  12.3717  12.3717  12.3882  12.3882  12.4325  12.4325
    12.5776  12.5776  12.6093  12.6149  12.6173  12.6174  12.6191  12.6191
    12.6262  12.6693  12.6693  12.7145  12.7145  12.7529  12.7529  12.7586
    12.8087  12.8458  12.8459  12.8653  12.8653  12.9210  12.9609  12.9609
    13.0025  13.0026  13.0381  13.0381  13.0471  13.1788  13.1788  13.2681
    13.2754  13.2754  13.2869  13.2869  13.4219  13.4219  13.4642  13.4642
    13.5972  13.5972  13.6116  13.6130  13.6130  13.6202  13.6202  13.6305
    13.6305  13.6407  13.7500  13.7581  13.7581  13.7645  13.8248  13.8262
    13.9610  13.9610  13.9625  13.9625  13.9944  14.0949  14.0949  14.1544
    14.1544  14.1568  14.1572  14.2120  14.2908  14.3224  14.3224  14.3291
    14.3291  14.3553  14.4186  14.5214  14.5214  14.9171  14.9172  15.1460
    15.1460  15.5752  15.5752  15.7172  15.9816  16.0730  16.0730  16.2117
    16.2117  16.2767  16.5990  16.6511  16.6511  16.7598  16.7598  17.1887
    17.7460  18.5992  18.5992  19.6392  19.6527  19.6527  19.8050  20.2093
    20.2093  20.7402  20.7402  20.9994  20.9994  21.2703  21.2703  21.5933
    21.5933  23.1478  23.1478  23.1680  23.1928  23.1928  23.4465  23.4465
    23.5239  23.8357  23.8357  24.5119  24.5119  24.8081  24.8081  24.8442
    24.9452  24.9452

[...]

          k = 0.3889-0.5000-0.4000 ( 41248 PWs)   bands (ev):

[...]

          k =-0.5000-0.5000 0.0444 ( 41312 PWs)   bands (ev):

[...]

          k =-0.5000-0.5000-0.4000 ( 41160 PWs)   bands (ev):

   -69.8122 -69.8122 -69.8122 -69.8121 -69.7894 -69.7894 -69.7894 -69.7894
   -69.7845 -69.7845 -69.7845 -69.7845 -69.7845 -69.7845 -69.7845 -69.7845
   -69.2516 -69.2516 -69.2516 -69.2516 -69.2516 -69.2516 -69.2516 -69.2516
   -69.2357 -69.2356 -69.2356 -69.2356 -69.2356 -69.2356 -69.2356 -69.2356
   -35.6384 -35.6383 -35.6383 -35.6383 -35.6383 -35.6383 -35.6383 -35.6383
   -35.6214 -35.6214 -35.6214 -35.6214 -35.5740 -35.5740 -35.5740 -35.5740
   -35.5114 -35.5114 -35.5114 -35.5114 -35.5114 -35.5114 -35.5114 -35.5114
   -35.4737 -35.4737 -35.4737 -35.4737 -35.4710 -35.4710 -35.4710 -35.4710
   -35.4710 -35.4710 -35.4710 -35.4710 -35.4469 -35.4469 -35.4469 -35.4469
   -35.4308 -35.4308 -35.4308 -35.4308 -35.3811 -35.3811 -35.3811 -35.3811
   -35.1176 -35.1176 -35.1176 -35.1176 -35.1175 -35.1175 -35.1175 -35.1175
   -35.0345 -35.0345 -35.0345 -35.0345 -35.0319 -35.0319 -35.0319 -35.0319
   -35.0197 -35.0197 -35.0197 -35.0197 -35.0197 -35.0197 -35.0197 -35.0197
   -34.9314 -34.9314 -34.9314 -34.9314 -34.9312 -34.9312 -34.9312 -34.9312
   -34.8638 -34.8638 -34.8638 -34.8638 -34.8626 -34.8626 -34.8626 -34.8626
   -34.8514 -34.8514 -34.8514 -34.8514 -34.8514 -34.8514 -34.8514 -34.8514
     9.1133   9.1133   9.1133   9.1133   9.7164   9.7164   9.7164   9.7164
    10.0633  10.0633  10.0633  10.0633  10.0633  10.0633  10.0633  10.0633
    10.1569  10.1569  10.1569  10.1569  10.2266  10.2266  10.2266  10.2266
    10.2266  10.2266  10.2266  10.2266  10.3518  10.3518  10.3518  10.3518
    10.6087  10.6087  10.6087  10.6087  10.9439  10.9439  10.9439  10.9439
    10.9439  10.9439  10.9439  10.9439  11.2305  11.2305  11.2305  11.2305
    11.2305  11.2305  11.2305  11.2305  11.4030  11.4030  11.4030  11.4030
    11.6221  11.6221  11.6221  11.6221  11.8719  11.8719  11.8719  11.8719
    11.9514  11.9514  11.9514  11.9514  12.0142  12.0142  12.0142  12.0142
    12.1090  12.1090  12.1090  12.1090  12.2002  12.2002  12.2002  12.2002
    12.2002  12.2002  12.2002  12.2002  12.2442  12.2442  12.2442  12.2442
    12.4766  12.4766  12.4766  12.4766  12.6538  12.6538  12.6538  12.6538
    12.7837  12.7837  12.7837  12.7837  12.7837  12.7837  12.7837  12.7837
    12.8374  12.8374  12.8374  12.8374  12.8374  12.8374  12.8374  12.8374
    12.8649  12.8649  12.8649  12.8649  13.0860  13.0860  13.0860  13.0860
    13.1826  13.1826  13.1826  13.1826  13.2923  13.2923  13.2923  13.2923
    13.2923  13.2923  13.2923  13.2923  13.4406  13.4406  13.4406  13.4406
    13.6532  13.6532  13.6532  13.6532  13.8423  13.8423  13.8423  13.8423
    14.0447  14.0447  14.0447  14.0447  14.0447  14.0447  14.0447  14.0447
    14.2743  14.2743  14.2743  14.2743  14.3424  14.3424  14.3424  14.3424
    14.3424  14.3424  14.3424  14.3424  14.3428  14.3428  14.3428  14.3428
    15.9335  15.9335  15.9335  15.9335  16.9263  16.9263  16.9263  16.9263
    17.6455  17.6455  17.6455  17.6455  17.6455  17.6455  17.6455  17.6455
    18.5281  18.5281  18.5281  18.5281  18.5281  18.5281  18.5281  18.5281
    21.0785  21.0785  21.0785  21.0785  21.0785  21.0785  21.0785  21.0785
    21.6833  21.6833  21.6833  21.6833  22.8823  22.8823  22.8823  22.8823
    22.8823  22.8823  22.8823  22.8823  23.0391  23.0391  23.0391  23.0391
    24.2393  24.2393

     the Fermi energy is    14.3493 ev

!    total energy              =  -16384.14382543 Ry

     total all-electron energy =   -322944.997533 Ry
     estimated scf accuracy    <       0.00000074 Ry
     smearing contrib. (-TS)   =       0.11703515 Ry
     internal energy E=F+TS    =  -16384.26086058 Ry

     The total energy is F=E-TS. E is the sum of the following terms:
     one-electron contribution =   -5292.00362529 Ry
     hartree contribution      =    2964.19517330 Ry
     xc contribution           =    -985.27674772 Ry
     ewald contribution        =   -4903.84487837 Ry
     one-center paw contrib.   =   -8167.33078250 Ry

     convergence has been achieved in  19 iterations

     Forces acting on atoms (cartesian axes, Ry/au):

     atom    1 type  1   force =     0.00000000    0.00000000    0.00402005
     atom    2 type  1   force =    -0.00000146   -0.00000146    0.00403454
     atom    3 type  1   force =    -0.00000236    0.00000000    0.00667003
     atom    4 type  1   force =     0.00000000   -0.00000236    0.00667003
     atom    5 type  1   force =     0.00000000    0.00000000   -0.00671849
     atom    6 type  1   force =    -0.00002456   -0.00002456   -0.00671378
     atom    7 type  1   force =     0.00000183    0.00000000   -0.00401086
     atom    8 type  1   force =     0.00000000    0.00000183   -0.00401086
     atom    9 type  1   force =     0.00000000    0.00000000    0.00403673
     atom   10 type  1   force =    -0.00000146    0.00000146    0.00403454
     atom   11 type  1   force =     0.00001073    0.00000000    0.00665918
     atom   12 type  1   force =     0.00000000    0.00000236    0.00667003
     atom   13 type  1   force =     0.00000000    0.00000000   -0.00669960
     atom   14 type  1   force =    -0.00002456    0.00002456   -0.00671378
     atom   15 type  1   force =    -0.00000660    0.00000000   -0.00396860
     atom   16 type  1   force =     0.00000000   -0.00000183   -0.00401086
     atom   17 type  1   force =     0.00000000    0.00000000    0.00403673
     atom   18 type  1   force =     0.00000146   -0.00000146    0.00403454
     atom   19 type  1   force =     0.00000236    0.00000000    0.00667003
     atom   20 type  1   force =     0.00000000    0.00001073    0.00665918
     atom   21 type  1   force =     0.00000000    0.00000000   -0.00669960
     atom   22 type  1   force =     0.00002456   -0.00002456   -0.00671378
     atom   23 type  1   force =    -0.00000183    0.00000000   -0.00401086
     atom   24 type  1   force =     0.00000000   -0.00000660   -0.00396860
     atom   25 type  1   force =     0.00000000    0.00000000    0.00404537
     atom   26 type  1   force =     0.00000146    0.00000146    0.00403454
     atom   27 type  1   force =    -0.00001073    0.00000000    0.00665918
     atom   28 type  1   force =     0.00000000   -0.00001073    0.00665918
     atom   29 type  1   force =     0.00000000    0.00000000   -0.00670322
     atom   30 type  1   force =     0.00002456    0.00002456   -0.00671378
     atom   31 type  1   force =     0.00000660    0.00000000   -0.00396860
     atom   32 type  1   force =     0.00000000    0.00000660   -0.00396860

     Total force =     0.031194     Total SCF correction =     0.003151
     SCF correction compared to forces is large: reduce conv_thr to get better values

     Computing stress (Cartesian axis) and pressure

          total   stress  (Ry/bohr**3)                   (kbar)     P=      -50.94
  -0.00036926   0.00000000   0.00000000          -54.32        0.00        0.00
   0.00000000  -0.00036926   0.00000000            0.00      -54.32        0.00
   0.00000000   0.00000000  -0.00030033            0.00        0.00      -44.18

     Writing output data file /scratch/waOFjOavJyNzVuIx.save/

     General routines

     Parallel routines

   This run was terminated on:  23:43:12   6Jan2022

   JOB DONE.