     Program PWSCF v.6.7MaX starts on  7Jan2022 at  2: 2: 7

     R & G space division:  proc/nbgrp/npool/nimage =      72
     Reading input from scf_14.in
Warning: card &CELL ignored
Warning: card CELL_DYNAMICS = 'BFGS', ignored
Warning: card CELL_FACTOR = 2.0, ignored
Warning: card PRESS = 0.0, ignored
Warning: card / ignored

     Current dimensions of program PWSCF are:
     Max number of different atomic species (ntypx) = 10
     Max number of k-points (npk) =  40000
     Max angular momentum in pseudopotentials (lmaxx) =  3
     file Pd.pbe-spn-kjpaw_psl.1.0.0.UPF: wavefunction(s)  4S 5S 4D renormalized

     Subspace diagonalization in iterative solution of the eigenvalue problem:
     one sub-group per band group will be used

     Found symmetry operation: I + (  0.2500  0.2500  0.0000)
     This is a supercell, fractional translations are disabled
     Message from routine setup:
     using ibrav=0 with symmetry is DISCOURAGED, use correct ibrav instead

     bravais-lattice index     =            0
     lattice parameter (alat)  =      14.8394  a.u.
     unit-cell volume          =    4595.2941 (a.u.)^3
     number of atoms/cell      =           32
     number of atomic types    =            1
     number of electrons       =       576.00
     number of Kohn-Sham states=          346
     kinetic-energy cutoff     =      71.0000  Ry
     charge density cutoff     =     430.0000  Ry
     scf convergence threshold =      1.0E-06
     mixing beta               =       0.1000
     number of iterations used =           10  TF        mixing
     Exchange-correlation= SLA  PW   PBX  PBC
                           (   1   4   3   4   0   0   0)

     celldm(1)=  14.839420  celldm(2)=   0.000000  celldm(3)=   0.000000
     celldm(4)=   0.000000  celldm(5)=   0.000000  celldm(6)=   0.000000

     crystal axes: (cart. coord. in units of alat)
               a(1) = (   1.000000   0.000000   0.000000 )
               a(2) = (   0.000000   1.000000   0.000000 )
               a(3) = (   0.000000   0.000000   1.406250 )

     reciprocal axes: (cart. coord. in units 2 pi/alat)
               b(1) = (  1.000000  0.000000  0.000000 )
               b(2) = (  0.000000  1.000000  0.000000 )
               b(3) = (  0.000000  0.000000  0.711111 )

     PseudoPot. # 1 for Pd read from file:
     /rds/homes/b/bxp912/pp/Pd.pbe-spn-kjpaw_psl.1.0.0.UPF
     MD5 check sum: 790f2ebce206edfd9790dcb9844eca51
     Pseudo is Projector augmented-wave + core cor, Zval = 18.0
     Generated using &quot;atomic&quot; code by A. Dal Corso  v.6.3
     Shape of augmentation charge: PSQ
     Using radial grid of 1235 points,  6 beta functions with:
                l(1) =   0
                l(2) =   0
                l(3) =   1
                l(4) =   1
                l(5) =   2
                l(6) =   2
     Q(r) pseudized with 0 coefficients

     atomic species   valence    mass     pseudopotential
        Pd            18.00   106.42000     Pd( 1.00)

      8 Sym. Ops. (no inversion) found

   Cartesian axes

     site n.     atom                  positions (alat units)
         1           Pd  tau(   1) = (   0.0000000   0.0000000   0.0000000  )
         2           Pd  tau(   2) = (   0.2500000   0.2500000   0.0000000  )
         3           Pd  tau(   3) = (   0.2500000   0.0000000   0.2500000  )
         4           Pd  tau(   4) = (   0.0000000   0.2500000   0.2500000  )
         5           Pd  tau(   5) = (   0.0000000   0.0000000   0.9062500  )
         6           Pd  tau(   6) = (   0.2500000   0.2500000   0.9062500  )
         7           Pd  tau(   7) = (   0.2500000   0.0000000   1.1562500  )
         8           Pd  tau(   8) = (   0.0000000   0.2500000   1.1562500  )
         9           Pd  tau(   9) = (   0.0000000   0.5000000   0.0000000  )
        10           Pd  tau(  10) = (   0.2500000   0.7500000   0.0000000  )
        11           Pd  tau(  11) = (   0.2500000   0.5000000   0.2500000  )
        12           Pd  tau(  12) = (   0.0000000   0.7500000   0.2500000  )
        13           Pd  tau(  13) = (   0.0000000   0.5000000   0.9062500  )
        14           Pd  tau(  14) = (   0.2500000   0.7500000   0.9062500  )
        15           Pd  tau(  15) = (   0.2500000   0.5000000   1.1562500  )
        16           Pd  tau(  16) = (   0.0000000   0.7500000   1.1562500  )
        17           Pd  tau(  17) = (   0.5000000   0.0000000   0.0000000  )
        18           Pd  tau(  18) = (   0.7500000   0.2500000   0.0000000  )
        19           Pd  tau(  19) = (   0.7500000   0.0000000   0.2500000  )
        20           Pd  tau(  20) = (   0.5000000   0.2500000   0.2500000  )
        21           Pd  tau(  21) = (   0.5000000   0.0000000   0.9062500  )
        22           Pd  tau(  22) = (   0.7500000   0.2500000   0.9062500  )
        23           Pd  tau(  23) = (   0.7500000   0.0000000   1.1562500  )
        24           Pd  tau(  24) = (   0.5000000   0.2500000   1.1562500  )
        25           Pd  tau(  25) = (   0.5000000   0.5000000   0.0000000  )
        26           Pd  tau(  26) = (   0.7500000   0.7500000   0.0000000  )
        27           Pd  tau(  27) = (   0.7500000   0.5000000   0.2500000  )
        28           Pd  tau(  28) = (   0.5000000   0.7500000   0.2500000  )
        29           Pd  tau(  29) = (   0.5000000   0.5000000   0.9062500  )
        30           Pd  tau(  30) = (   0.7500000   0.7500000   0.9062500  )
        31           Pd  tau(  31) = (   0.7500000   0.5000000   1.1562500  )
        32           Pd  tau(  32) = (   0.5000000   0.7500000   1.1562500  )

     number of k points=    75  Marzari-Vanderbilt smearing, width (Ry)=  0.0400
                       cart. coord. in units 2pi/alat
        k(    1) = (   0.0555556   0.0555556   0.0395062), wk =   0.0219479
        k(    2) = (   0.0555556   0.0555556   0.1185185), wk =   0.0219479
        k(    3) = (   0.0555556   0.0555556   0.1975309), wk =   0.0219479
        k(    4) = (   0.0555556   0.0555556   0.2765432), wk =   0.0219479
        k(    5) = (   0.0555556   0.0555556  -0.3555556), wk =   0.0109739
        k(    6) = (   0.0555556   0.1666667   0.0395062), wk =   0.0438957
        k(    7) = (   0.0555556   0.1666667   0.1185185), wk =   0.0438957
        k(    8) = (   0.0555556   0.1666667   0.1975309), wk =   0.0438957
        k(    9) = (   0.0555556   0.1666667   0.2765432), wk =   0.0438957
        k(   10) = (   0.0555556   0.1666667  -0.3555556), wk =   0.0219479
        k(   11) = (   0.0555556   0.2777778   0.0395062), wk =   0.0438957
        k(   12) = (   0.0555556   0.2777778   0.1185185), wk =   0.0438957
        k(   13) = (   0.0555556   0.2777778   0.1975309), wk =   0.0438957
        k(   14) = (   0.0555556   0.2777778   0.2765432), wk =   0.0438957
        k(   15) = (   0.0555556   0.2777778  -0.3555556), wk =   0.0219479
        k(   16) = (   0.0555556   0.3888889   0.0395062), wk =   0.0438957
        k(   17) = (   0.0555556   0.3888889   0.1185185), wk =   0.0438957
        k(   18) = (   0.0555556   0.3888889   0.1975309), wk =   0.0438957
        k(   19) = (   0.0555556   0.3888889   0.2765432), wk =   0.0438957
        k(   20) = (   0.0555556   0.3888889  -0.3555556), wk =   0.0219479
        k(   21) = (   0.0555556  -0.5000000   0.0395062), wk =   0.0219479
        k(   22) = (   0.0555556  -0.5000000   0.1185185), wk =   0.0219479
        k(   23) = (   0.0555556  -0.5000000   0.1975309), wk =   0.0219479
        k(   24) = (   0.0555556  -0.5000000   0.2765432), wk =   0.0219479
        k(   25) = (   0.0555556  -0.5000000  -0.3555556), wk =   0.0109739
        k(   26) = (   0.1666667   0.1666667   0.0395062), wk =   0.0219479
        k(   27) = (   0.1666667   0.1666667   0.1185185), wk =   0.0219479
        k(   28) = (   0.1666667   0.1666667   0.1975309), wk =   0.0219479
        k(   29) = (   0.1666667   0.1666667   0.2765432), wk =   0.0219479
        k(   30) = (   0.1666667   0.1666667  -0.3555556), wk =   0.0109739
        k(   31) = (   0.1666667   0.2777778   0.0395062), wk =   0.0438957
        k(   32) = (   0.1666667   0.2777778   0.1185185), wk =   0.0438957
        k(   33) = (   0.1666667   0.2777778   0.1975309), wk =   0.0438957
        k(   34) = (   0.1666667   0.2777778   0.2765432), wk =   0.0438957
        k(   35) = (   0.1666667   0.2777778  -0.3555556), wk =   0.0219479
        k(   36) = (   0.1666667   0.3888889   0.0395062), wk =   0.0438957
        k(   37) = (   0.1666667   0.3888889   0.1185185), wk =   0.0438957
        k(   38) = (   0.1666667   0.3888889   0.1975309), wk =   0.0438957
        k(   39) = (   0.1666667   0.3888889   0.2765432), wk =   0.0438957
        k(   40) = (   0.1666667   0.3888889  -0.3555556), wk =   0.0219479
        k(   41) = (   0.1666667  -0.5000000   0.0395062), wk =   0.0219479
        k(   42) = (   0.1666667  -0.5000000   0.1185185), wk =   0.0219479
        k(   43) = (   0.1666667  -0.5000000   0.1975309), wk =   0.0219479
        k(   44) = (   0.1666667  -0.5000000   0.2765432), wk =   0.0219479
        k(   45) = (   0.1666667  -0.5000000  -0.3555556), wk =   0.0109739
        k(   46) = (   0.2777778   0.2777778   0.0395062), wk =   0.0219479
        k(   47) = (   0.2777778   0.2777778   0.1185185), wk =   0.0219479
        k(   48) = (   0.2777778   0.2777778   0.1975309), wk =   0.0219479
        k(   49) = (   0.2777778   0.2777778   0.2765432), wk =   0.0219479
        k(   50) = (   0.2777778   0.2777778  -0.3555556), wk =   0.0109739
        k(   51) = (   0.2777778   0.3888889   0.0395062), wk =   0.0438957
        k(   52) = (   0.2777778   0.3888889   0.1185185), wk =   0.0438957
        k(   53) = (   0.2777778   0.3888889   0.1975309), wk =   0.0438957
        k(   54) = (   0.2777778   0.3888889   0.2765432), wk =   0.0438957
        k(   55) = (   0.2777778   0.3888889  -0.3555556), wk =   0.0219479
        k(   56) = (   0.2777778  -0.5000000   0.0395062), wk =   0.0219479
        k(   57) = (   0.2777778  -0.5000000   0.1185185), wk =   0.0219479
        k(   58) = (   0.2777778  -0.5000000   0.1975309), wk =   0.0219479
        k(   59) = (   0.2777778  -0.5000000   0.2765432), wk =   0.0219479
        k(   60) = (   0.2777778  -0.5000000  -0.3555556), wk =   0.0109739
        k(   61) = (   0.3888889   0.3888889   0.0395062), wk =   0.0219479
        k(   62) = (   0.3888889   0.3888889   0.1185185), wk =   0.0219479
        k(   63) = (   0.3888889   0.3888889   0.1975309), wk =   0.0219479
        k(   64) = (   0.3888889   0.3888889   0.2765432), wk =   0.0219479
        k(   65) = (   0.3888889   0.3888889  -0.3555556), wk =   0.0109739
        k(   66) = (   0.3888889  -0.5000000   0.0395062), wk =   0.0219479
        k(   67) = (   0.3888889  -0.5000000   0.1185185), wk =   0.0219479
        k(   68) = (   0.3888889  -0.5000000   0.1975309), wk =   0.0219479
        k(   69) = (   0.3888889  -0.5000000   0.2765432), wk =   0.0219479
        k(   70) = (   0.3888889  -0.5000000  -0.3555556), wk =   0.0109739
        k(   71) = (  -0.5000000  -0.5000000   0.0395062), wk =   0.0054870
        k(   72) = (  -0.5000000  -0.5000000   0.1185185), wk =   0.0054870
        k(   73) = (  -0.5000000  -0.5000000   0.1975309), wk =   0.0054870
        k(   74) = (  -0.5000000  -0.5000000   0.2765432), wk =   0.0054870
        k(   75) = (  -0.5000000  -0.5000000  -0.3555556), wk =   0.0027435

     Check: negative core charge=   -0.000001

     Initial potential from superposition of free atoms

     starting charge  575.98776, renormalised to  576.00000
     Starting wfcs are  320 randomized atomic wfcs +   26 random wfcs
     Checking if some PAW data can be deallocated...

     Self-consistent Calculation

     iteration #  1     ecut=    71.00 Ry     beta= 0.10
     Davidson diagonalization with overlap
     ethr =  1.00E-02,  avg # of iterations =  3.9

     Threshold (ethr) on eigenvalues was too large:
     Diagonalizing with lowered threshold

     Davidson diagonalization with overlap
     ethr =  7.42E-04,  avg # of iterations =  1.1

     total energy              =  -16384.81662542 Ry
     estimated scf accuracy    <       4.26771046 Ry

[...]

     iteration #  7     ecut=    71.00 Ry     beta= 0.10
     Davidson diagonalization with overlap
     c_bands:  1 eigenvalues not converged
     ethr =  3.81E-05,  avg # of iterations =  7.9

[...]

     total energy              =  -16384.06008522 Ry
     estimated scf accuracy    <       0.00000267 Ry

     iteration # 22     ecut=    71.00 Ry     beta= 0.10
     Davidson diagonalization with overlap
     ethr =  4.63E-10,  avg # of iterations =  2.4

     End of self-consistent calculation

          k = 0.0556 0.0556 0.0395 ( 46422 PWs)   bands (ev):

   -71.9476 -71.9254 -71.9254 -71.9212 -71.9212 -71.9166 -71.9156 -71.9150
   -71.9150 -71.9138 -71.9080 -71.9080 -71.9065 -71.9065 -71.8993 -71.8993
   -71.3581 -71.3581 -71.3437 -71.3437 -71.3437 -71.3437 -71.3425 -71.3425
   -71.3422 -71.3421 -71.3409 -71.3409 -71.3409 -71.3409 -71.3264 -71.3263
   -37.7822 -37.7821 -37.7818 -37.7809 -37.7685 -37.7685 -37.7613 -37.7272
   -37.7272 -37.7243 -37.7243 -37.6873 -37.6873 -37.6762 -37.6762 -37.6670
   -37.6670 -37.6640 -37.6640 -37.6550 -37.6550 -37.6259 -37.6259 -37.6194
   -37.6194 -37.6192 -37.6147 -37.6147 -37.6094 -37.6050 -37.6050 -37.5910
   -37.5881 -37.5881 -37.5737 -37.5737 -37.5708 -37.5698 -37.5595 -37.5595
   -37.5543 -37.5543 -37.5208 -37.5190 -37.5189 -37.5147 -37.5025 -37.5010
   -37.2314 -37.2314 -37.2307 -37.2297 -37.2198 -37.2198 -37.2178 -37.2178
   -37.1492 -37.1492 -37.1491 -37.1491 -37.1343 -37.1343 -37.1341 -37.1341
   -37.1320 -37.1319 -37.1316 -37.1316 -37.1167 -37.1167 -37.1166 -37.1166
   -37.0461 -37.0458 -37.0446 -37.0442 -37.0326 -37.0326 -37.0313 -37.0312
   -36.9623 -36.9589 -36.9477 -36.9477 -36.9473 -36.9473 -36.9463 -36.9460
   -36.9460 -36.9458 -36.9455 -36.9455 -36.9452 -36.9452 -36.9355 -36.9354
     5.8644   7.1611   7.3963   7.3963   7.4626   7.4688   7.4750   7.4750
     7.5346   7.5566   7.6709   7.6709   7.7589   7.7589   7.9425   7.9425
     8.0048   8.2111   8.3336   8.3336   8.3617   8.3617   8.3916   8.3916
     8.4124   8.4124   8.4835   8.4853   8.4853   8.4885   8.5012   8.5012
     8.6246   8.6246   8.6932   8.6932   8.7291   8.7291   8.8061   8.8061
     8.8157   8.8157   8.8798   8.8798   8.9414   9.0010   9.0010   9.0192
     9.0192   9.1629   9.1629   9.2303   9.2776   9.2776   9.3261   9.3261
     9.3389   9.3474   9.3474   9.3581   9.5374   9.5374   9.5384   9.5385
     9.5504   9.5611   9.7036   9.7036   9.7092   9.7112   9.7184   9.7185
     9.7514   9.7606   9.8163   9.8163   9.8505   9.8505  10.1969  10.1969
    10.2503  10.2539  10.2700  10.2700  10.2922  10.2922  10.3110  10.3110
    10.4517  10.4517  10.4729  10.4729  10.4826  10.4826  10.4903  10.5069
    10.5492  10.5492  10.5604  10.5604  10.5850  10.6383  10.6451  10.6579
    10.6579  10.7674  10.7674  10.7772  10.7772  10.8582  10.8933  10.8933
    10.9076  10.9076  10.9293  10.9293  11.0603  11.0603  11.1237  11.1237
    11.1278  11.1278  11.1493  11.1709  11.2993  11.2993  11.3649  11.3650
    11.4927  11.4927  11.4980  11.4980  11.4993  11.5179  11.5179  11.5283
    11.6038  11.6038  11.6312  11.6376  11.6480  11.7191  11.7675  11.7675
    11.7745  11.7817  11.7817  11.8011  11.8011  11.9660  11.9660  12.0379
    12.0401  12.0401  12.0417  12.0954  12.1741  12.1922  12.1922  12.1990
    12.1990  12.2413  12.2946  12.4012  12.4012  12.8033  12.8033  12.8047
    12.8047  13.2371  13.2371  13.6490  13.8652  14.0385  14.0539  14.0539
    14.2996  14.2996  14.3203  14.5052  14.5052  14.6948  14.8525  14.8525
    15.0162  16.5680  16.5680  17.2753  17.2753  17.3744  17.4401  17.4401
    17.5999  17.8382  17.8382  18.3996  18.3996  18.9458  18.9458  18.9826
    18.9826  20.6365  20.9387  20.9387  21.0000  21.0645  21.1160  21.1160
    21.2849  21.2849  21.6760  21.8022  21.8022  21.8620  21.8621  22.3313
    22.6434  22.6472

[...]

          k = 0.3889-0.5000-0.3556 ( 46444 PWs)   bands (ev):

[...]

          k =-0.5000-0.5000 0.0395 ( 46388 PWs)   bands (ev):

[...]

          k =-0.5000-0.5000-0.3556 ( 46480 PWs)   bands (ev):

   -71.9348 -71.9348 -71.9348 -71.9348 -71.9121 -71.9120 -71.9120 -71.9120
   -71.9072 -71.9072 -71.9071 -71.9071 -71.9071 -71.9071 -71.9071 -71.9071
   -71.3503 -71.3503 -71.3503 -71.3503 -71.3503 -71.3503 -71.3503 -71.3502
   -71.3343 -71.3343 -71.3343 -71.3343 -71.3343 -71.3343 -71.3343 -71.3342
   -37.7598 -37.7598 -37.7598 -37.7598 -37.7598 -37.7598 -37.7598 -37.7598
   -37.7462 -37.7462 -37.7462 -37.7462 -37.6958 -37.6958 -37.6958 -37.6958
   -37.6346 -37.6346 -37.6346 -37.6346 -37.6346 -37.6346 -37.6346 -37.6346
   -37.5948 -37.5948 -37.5947 -37.5947 -37.5933 -37.5933 -37.5933 -37.5933
   -37.5933 -37.5933 -37.5933 -37.5933 -37.5711 -37.5711 -37.5711 -37.5711
   -37.5517 -37.5517 -37.5517 -37.5517 -37.5020 -37.5020 -37.5020 -37.5020
   -37.2248 -37.2248 -37.2248 -37.2248 -37.2248 -37.2248 -37.2248 -37.2248
   -37.1413 -37.1413 -37.1413 -37.1413 -37.1389 -37.1389 -37.1389 -37.1389
   -37.1264 -37.1264 -37.1264 -37.1264 -37.1264 -37.1264 -37.1264 -37.1264
   -37.0379 -37.0379 -37.0379 -37.0379 -37.0379 -37.0379 -37.0379 -37.0379
   -36.9532 -36.9532 -36.9532 -36.9532 -36.9525 -36.9524 -36.9524 -36.9524
   -36.9407 -36.9406 -36.9406 -36.9406 -36.9406 -36.9406 -36.9406 -36.9405
     6.9902   6.9902   6.9902   6.9902   7.6075   7.6075   7.6075   7.6075
     7.9433   7.9433   7.9433   7.9433   7.9433   7.9433   7.9433   7.9433
     8.0537   8.0537   8.0537   8.0537   8.1115   8.1115   8.1115   8.1115
     8.1115   8.1115   8.1115   8.1115   8.2116   8.2116   8.2116   8.2116
     8.4950   8.4950   8.4950   8.4950   8.8192   8.8192   8.8192   8.8192
     8.8192   8.8192   8.8192   8.8192   9.1165   9.1165   9.1165   9.1165
     9.1165   9.1165   9.1165   9.1165   9.2864   9.2864   9.2864   9.2864
     9.5039   9.5039   9.5039   9.5039   9.7515   9.7515   9.7515   9.7515
     9.8506   9.8506   9.8507   9.8507   9.8930   9.8930   9.8930   9.8930
     9.9611   9.9611   9.9611   9.9611  10.0834  10.0834  10.0834  10.0834
    10.0834  10.0834  10.0834  10.0834  10.1277  10.1277  10.1277  10.1277
    10.3934  10.3934  10.3934  10.3934  10.5342  10.5342  10.5342  10.5342
    10.6642  10.6642  10.6642  10.6642  10.6642  10.6642  10.6642  10.6642
    10.6984  10.6984  10.6984  10.6984  10.6984  10.6984  10.6984  10.6984
    10.7468  10.7469  10.7469  10.7469  10.9677  10.9677  10.9677  10.9677
    11.2542  11.2542  11.2542  11.2542  11.2542  11.2542  11.2542  11.2542
    11.2895  11.2896  11.2896  11.2896  11.3045  11.3045  11.3045  11.3045
    11.5355  11.5355  11.5355  11.5355  11.7377  11.7377  11.7377  11.7377
    11.8821  11.8821  11.8821  11.8821  11.8821  11.8821  11.8821  11.8821
    12.1545  12.1545  12.1545  12.1545  12.2162  12.2162  12.2162  12.2162
    12.2162  12.2162  12.2162  12.2162  12.2242  12.2242  12.2242  12.2242
    13.2442  13.2442  13.2442  13.2442  14.9909  14.9909  14.9909  14.9909
    15.4883  15.4883  15.4883  15.4883  15.4883  15.4883  15.4883  15.4883
    16.5473  16.5473  16.5473  16.5473  16.5473  16.5473  16.5473  16.5473
    18.4696  18.4696  18.4696  18.4696  18.6941  18.6941  18.6941  18.6941
    18.6941  18.6941  18.6941  18.6941  20.7660  20.7660  20.7660  20.7660
    20.7661  20.7661  20.7661  20.7661  20.8289  20.8289  20.8299  20.8300
    20.9658  20.9658

     the Fermi energy is    12.2261 ev

!    total energy              =  -16384.06009284 Ry

     total all-electron energy =   -322944.913800 Ry
     estimated scf accuracy    <       0.00000085 Ry
     smearing contrib. (-TS)   =       0.12312565 Ry
     internal energy E=F+TS    =  -16384.18321849 Ry

     The total energy is F=E-TS. E is the sum of the following terms:
     one-electron contribution =   -8617.71330618 Ry
     hartree contribution      =    4582.38336716 Ry
     xc contribution           =    -985.36631172 Ry
     ewald contribution        =   -3196.15728242 Ry
     one-center paw contrib.   =   -8167.32968534 Ry

     convergence has been achieved in  22 iterations

     Forces acting on atoms (cartesian axes, Ry/au):

     atom    1 type  1   force =     0.00000000    0.00000000    0.00334099
     atom    2 type  1   force =     0.00000112    0.00000112    0.00331101
     atom    3 type  1   force =    -0.00000008    0.00000000   -0.00350242
     atom    4 type  1   force =     0.00000000   -0.00000008   -0.00350242
     atom    5 type  1   force =     0.00000000    0.00000000    0.00345083
     atom    6 type  1   force =     0.00004103    0.00004103    0.00346967
     atom    7 type  1   force =     0.00001280    0.00000000   -0.00324393
     atom    8 type  1   force =     0.00000000    0.00001280   -0.00324393
     atom    9 type  1   force =     0.00000000    0.00000000    0.00329987
     atom   10 type  1   force =     0.00000112   -0.00000112    0.00331101
     atom   11 type  1   force =    -0.00002274    0.00000000   -0.00348884
     atom   12 type  1   force =     0.00000000    0.00000008   -0.00350242
     atom   13 type  1   force =     0.00000000    0.00000000    0.00343463
     atom   14 type  1   force =     0.00004103   -0.00004103    0.00346967
     atom   15 type  1   force =     0.00001701    0.00000000   -0.00329309
     atom   16 type  1   force =     0.00000000   -0.00001280   -0.00324393
     atom   17 type  1   force =     0.00000000    0.00000000    0.00329987
     atom   18 type  1   force =    -0.00000112    0.00000112    0.00331101
     atom   19 type  1   force =     0.00000008    0.00000000   -0.00350242
     atom   20 type  1   force =     0.00000000   -0.00002274   -0.00348884
     atom   21 type  1   force =     0.00000000    0.00000000    0.00343463
     atom   22 type  1   force =    -0.00004103    0.00004103    0.00346967
     atom   23 type  1   force =    -0.00001280    0.00000000   -0.00324393
     atom   24 type  1   force =     0.00000000    0.00001701   -0.00329309
     atom   25 type  1   force =     0.00000000    0.00000000    0.00328906
     atom   26 type  1   force =    -0.00000112   -0.00000112    0.00331101
     atom   27 type  1   force =     0.00002274    0.00000000   -0.00348884
     atom   28 type  1   force =     0.00000000    0.00002274   -0.00348884
     atom   29 type  1   force =     0.00000000    0.00000000    0.00344052
     atom   30 type  1   force =    -0.00004103   -0.00004103    0.00346967
     atom   31 type  1   force =    -0.00001701    0.00000000   -0.00329309
     atom   32 type  1   force =     0.00000000   -0.00001701   -0.00329309

     Total force =     0.019140     Total SCF correction =     0.003490
     SCF correction compared to forces is large: reduce conv_thr to get better values

     Computing stress (Cartesian axis) and pressure

          total   stress  (Ry/bohr**3)                   (kbar)     P=      -39.86
  -0.00033278   0.00000000   0.00000000          -48.95        0.00        0.00
   0.00000000  -0.00033278   0.00000000            0.00      -48.95        0.00
   0.00000000   0.00000000  -0.00014724            0.00        0.00      -21.66

     Writing output data file /scratch/cbhXnlFeZaQCJZFN.save/

     General routines

     Parallel routines

   This run was terminated on:   2:38:39   7Jan2022

   JOB DONE.