     Program PWSCF v.6.7MaX starts on  7Jan2022 at  9:25: 1

     R & G space division:  proc/nbgrp/npool/nimage =      72
     Reading input from scf_24.in
Warning: card &CELL ignored
Warning: card CELL_DYNAMICS = 'BFGS', ignored
Warning: card CELL_FACTOR = 2.0, ignored
Warning: card PRESS = 0.0, ignored
Warning: card / ignored

     Current dimensions of program PWSCF are:
     Max number of different atomic species (ntypx) = 10
     Max number of k-points (npk) =  40000
     Max angular momentum in pseudopotentials (lmaxx) =  3
     file Pd.pbe-spn-kjpaw_psl.1.0.0.UPF: wavefunction(s)  4S 5S 4D renormalized

     Subspace diagonalization in iterative solution of the eigenvalue problem:
     one sub-group per band group will be used

     Found symmetry operation: I + (  0.2500  0.2500  0.0000)
     This is a supercell, fractional translations are disabled
     Message from routine setup:
     using ibrav=0 with symmetry is DISCOURAGED, use correct ibrav instead

     bravais-lattice index     =            0
     lattice parameter (alat)  =      14.8394  a.u.
     unit-cell volume          =    5616.4706 (a.u.)^3
     number of atoms/cell      =           32
     number of atomic types    =            1
     number of electrons       =       576.00
     number of Kohn-Sham states=          346
     kinetic-energy cutoff     =      71.0000  Ry
     charge density cutoff     =     430.0000  Ry
     scf convergence threshold =      1.0E-06
     mixing beta               =       0.1000
     number of iterations used =           10  TF        mixing
     Exchange-correlation= SLA  PW   PBX  PBC
                           (   1   4   3   4   0   0   0)

     celldm(1)=  14.839420  celldm(2)=   0.000000  celldm(3)=   0.000000
     celldm(4)=   0.000000  celldm(5)=   0.000000  celldm(6)=   0.000000

     crystal axes: (cart. coord. in units of alat)
               a(1) = (   1.000000   0.000000   0.000000 )
               a(2) = (   0.000000   1.000000   0.000000 )
               a(3) = (   0.000000   0.000000   1.718750 )

     reciprocal axes: (cart. coord. in units 2 pi/alat)
               b(1) = (  1.000000  0.000000  0.000000 )
               b(2) = (  0.000000  1.000000  0.000000 )
               b(3) = (  0.000000  0.000000  0.581818 )

     PseudoPot. # 1 for Pd read from file:
     /rds/homes/b/bxp912/pp/Pd.pbe-spn-kjpaw_psl.1.0.0.UPF
     MD5 check sum: 790f2ebce206edfd9790dcb9844eca51
     Pseudo is Projector augmented-wave + core cor, Zval = 18.0
     Generated using &quot;atomic&quot; code by A. Dal Corso  v.6.3
     Shape of augmentation charge: PSQ
     Using radial grid of 1235 points,  6 beta functions with:
                l(1) =   0
                l(2) =   0
                l(3) =   1
                l(4) =   1
                l(5) =   2
                l(6) =   2
     Q(r) pseudized with 0 coefficients

     atomic species   valence    mass     pseudopotential
        Pd            18.00   106.42000     Pd( 1.00)

      8 Sym. Ops. (no inversion) found

   Cartesian axes

     site n.     atom                  positions (alat units)
         1           Pd  tau(   1) = (   0.0000000   0.0000000   0.0000000  )
         2           Pd  tau(   2) = (   0.2500000   0.2500000   0.0000000  )
         3           Pd  tau(   3) = (   0.2500000   0.0000000   0.2500000  )
         4           Pd  tau(   4) = (   0.0000000   0.2500000   0.2500000  )
         5           Pd  tau(   5) = (   0.0000000   0.0000000   1.2187500  )
         6           Pd  tau(   6) = (   0.2500000   0.2500000   1.2187500  )
         7           Pd  tau(   7) = (   0.2500000   0.0000000   1.4687500  )
         8           Pd  tau(   8) = (   0.0000000   0.2500000   1.4687500  )
         9           Pd  tau(   9) = (   0.0000000   0.5000000   0.0000000  )
        10           Pd  tau(  10) = (   0.2500000   0.7500000   0.0000000  )
        11           Pd  tau(  11) = (   0.2500000   0.5000000   0.2500000  )
        12           Pd  tau(  12) = (   0.0000000   0.7500000   0.2500000  )
        13           Pd  tau(  13) = (   0.0000000   0.5000000   1.2187500  )
        14           Pd  tau(  14) = (   0.2500000   0.7500000   1.2187500  )
        15           Pd  tau(  15) = (   0.2500000   0.5000000   1.4687500  )
        16           Pd  tau(  16) = (   0.0000000   0.7500000   1.4687500  )
        17           Pd  tau(  17) = (   0.5000000   0.0000000   0.0000000  )
        18           Pd  tau(  18) = (   0.7500000   0.2500000   0.0000000  )
        19           Pd  tau(  19) = (   0.7500000   0.0000000   0.2500000  )
        20           Pd  tau(  20) = (   0.5000000   0.2500000   0.2500000  )
        21           Pd  tau(  21) = (   0.5000000   0.0000000   1.2187500  )
        22           Pd  tau(  22) = (   0.7500000   0.2500000   1.2187500  )
        23           Pd  tau(  23) = (   0.7500000   0.0000000   1.4687500  )
        24           Pd  tau(  24) = (   0.5000000   0.2500000   1.4687500  )
        25           Pd  tau(  25) = (   0.5000000   0.5000000   0.0000000  )
        26           Pd  tau(  26) = (   0.7500000   0.7500000   0.0000000  )
        27           Pd  tau(  27) = (   0.7500000   0.5000000   0.2500000  )
        28           Pd  tau(  28) = (   0.5000000   0.7500000   0.2500000  )
        29           Pd  tau(  29) = (   0.5000000   0.5000000   1.2187500  )
        30           Pd  tau(  30) = (   0.7500000   0.7500000   1.2187500  )
        31           Pd  tau(  31) = (   0.7500000   0.5000000   1.4687500  )
        32           Pd  tau(  32) = (   0.5000000   0.7500000   1.4687500  )

     number of k points=    75  Marzari-Vanderbilt smearing, width (Ry)=  0.0400
                       cart. coord. in units 2pi/alat
        k(    1) = (   0.0555556   0.0555556   0.0323232), wk =   0.0219479
        k(    2) = (   0.0555556   0.0555556   0.0969697), wk =   0.0219479
        k(    3) = (   0.0555556   0.0555556   0.1616162), wk =   0.0219479
        k(    4) = (   0.0555556   0.0555556   0.2262626), wk =   0.0219479
        k(    5) = (   0.0555556   0.0555556  -0.2909091), wk =   0.0109739
        k(    6) = (   0.0555556   0.1666667   0.0323232), wk =   0.0438957
        k(    7) = (   0.0555556   0.1666667   0.0969697), wk =   0.0438957
        k(    8) = (   0.0555556   0.1666667   0.1616162), wk =   0.0438957
        k(    9) = (   0.0555556   0.1666667   0.2262626), wk =   0.0438957
        k(   10) = (   0.0555556   0.1666667  -0.2909091), wk =   0.0219479
        k(   11) = (   0.0555556   0.2777778   0.0323232), wk =   0.0438957
        k(   12) = (   0.0555556   0.2777778   0.0969697), wk =   0.0438957
        k(   13) = (   0.0555556   0.2777778   0.1616162), wk =   0.0438957
        k(   14) = (   0.0555556   0.2777778   0.2262626), wk =   0.0438957
        k(   15) = (   0.0555556   0.2777778  -0.2909091), wk =   0.0219479
        k(   16) = (   0.0555556   0.3888889   0.0323232), wk =   0.0438957
        k(   17) = (   0.0555556   0.3888889   0.0969697), wk =   0.0438957
        k(   18) = (   0.0555556   0.3888889   0.1616162), wk =   0.0438957
        k(   19) = (   0.0555556   0.3888889   0.2262626), wk =   0.0438957
        k(   20) = (   0.0555556   0.3888889  -0.2909091), wk =   0.0219479
        k(   21) = (   0.0555556  -0.5000000   0.0323232), wk =   0.0219479
        k(   22) = (   0.0555556  -0.5000000   0.0969697), wk =   0.0219479
        k(   23) = (   0.0555556  -0.5000000   0.1616162), wk =   0.0219479
        k(   24) = (   0.0555556  -0.5000000   0.2262626), wk =   0.0219479
        k(   25) = (   0.0555556  -0.5000000  -0.2909091), wk =   0.0109739
        k(   26) = (   0.1666667   0.1666667   0.0323232), wk =   0.0219479
        k(   27) = (   0.1666667   0.1666667   0.0969697), wk =   0.0219479
        k(   28) = (   0.1666667   0.1666667   0.1616162), wk =   0.0219479
        k(   29) = (   0.1666667   0.1666667   0.2262626), wk =   0.0219479
        k(   30) = (   0.1666667   0.1666667  -0.2909091), wk =   0.0109739
        k(   31) = (   0.1666667   0.2777778   0.0323232), wk =   0.0438957
        k(   32) = (   0.1666667   0.2777778   0.0969697), wk =   0.0438957
        k(   33) = (   0.1666667   0.2777778   0.1616162), wk =   0.0438957
        k(   34) = (   0.1666667   0.2777778   0.2262626), wk =   0.0438957
        k(   35) = (   0.1666667   0.2777778  -0.2909091), wk =   0.0219479
        k(   36) = (   0.1666667   0.3888889   0.0323232), wk =   0.0438957
        k(   37) = (   0.1666667   0.3888889   0.0969697), wk =   0.0438957
        k(   38) = (   0.1666667   0.3888889   0.1616162), wk =   0.0438957
        k(   39) = (   0.1666667   0.3888889   0.2262626), wk =   0.0438957
        k(   40) = (   0.1666667   0.3888889  -0.2909091), wk =   0.0219479
        k(   41) = (   0.1666667  -0.5000000   0.0323232), wk =   0.0219479
        k(   42) = (   0.1666667  -0.5000000   0.0969697), wk =   0.0219479
        k(   43) = (   0.1666667  -0.5000000   0.1616162), wk =   0.0219479
        k(   44) = (   0.1666667  -0.5000000   0.2262626), wk =   0.0219479
        k(   45) = (   0.1666667  -0.5000000  -0.2909091), wk =   0.0109739
        k(   46) = (   0.2777778   0.2777778   0.0323232), wk =   0.0219479
        k(   47) = (   0.2777778   0.2777778   0.0969697), wk =   0.0219479
        k(   48) = (   0.2777778   0.2777778   0.1616162), wk =   0.0219479
        k(   49) = (   0.2777778   0.2777778   0.2262626), wk =   0.0219479
        k(   50) = (   0.2777778   0.2777778  -0.2909091), wk =   0.0109739
        k(   51) = (   0.2777778   0.3888889   0.0323232), wk =   0.0438957
        k(   52) = (   0.2777778   0.3888889   0.0969697), wk =   0.0438957
        k(   53) = (   0.2777778   0.3888889   0.1616162), wk =   0.0438957
        k(   54) = (   0.2777778   0.3888889   0.2262626), wk =   0.0438957
        k(   55) = (   0.2777778   0.3888889  -0.2909091), wk =   0.0219479
        k(   56) = (   0.2777778  -0.5000000   0.0323232), wk =   0.0219479
        k(   57) = (   0.2777778  -0.5000000   0.0969697), wk =   0.0219479
        k(   58) = (   0.2777778  -0.5000000   0.1616162), wk =   0.0219479
        k(   59) = (   0.2777778  -0.5000000   0.2262626), wk =   0.0219479
        k(   60) = (   0.2777778  -0.5000000  -0.2909091), wk =   0.0109739
        k(   61) = (   0.3888889   0.3888889   0.0323232), wk =   0.0219479
        k(   62) = (   0.3888889   0.3888889   0.0969697), wk =   0.0219479
        k(   63) = (   0.3888889   0.3888889   0.1616162), wk =   0.0219479
        k(   64) = (   0.3888889   0.3888889   0.2262626), wk =   0.0219479
        k(   65) = (   0.3888889   0.3888889  -0.2909091), wk =   0.0109739
        k(   66) = (   0.3888889  -0.5000000   0.0323232), wk =   0.0219479
        k(   67) = (   0.3888889  -0.5000000   0.0969697), wk =   0.0219479
        k(   68) = (   0.3888889  -0.5000000   0.1616162), wk =   0.0219479
        k(   69) = (   0.3888889  -0.5000000   0.2262626), wk =   0.0219479
        k(   70) = (   0.3888889  -0.5000000  -0.2909091), wk =   0.0109739
        k(   71) = (  -0.5000000  -0.5000000   0.0323232), wk =   0.0054870
        k(   72) = (  -0.5000000  -0.5000000   0.0969697), wk =   0.0054870
        k(   73) = (  -0.5000000  -0.5000000   0.1616162), wk =   0.0054870
        k(   74) = (  -0.5000000  -0.5000000   0.2262626), wk =   0.0054870
        k(   75) = (  -0.5000000  -0.5000000  -0.2909091), wk =   0.0027435

     Check: negative core charge=   -0.000001

     Initial potential from superposition of free atoms

     starting charge  575.98776, renormalised to  576.00000
     Starting wfcs are  320 randomized atomic wfcs +   26 random wfcs
     Checking if some PAW data can be deallocated...

     Self-consistent Calculation

     iteration #  1     ecut=    71.00 Ry     beta= 0.10
     Davidson diagonalization with overlap
     ethr =  1.00E-02,  avg # of iterations =  4.2

     Threshold (ethr) on eigenvalues was too large:
     Diagonalizing with lowered threshold

     Davidson diagonalization with overlap
     ethr =  7.49E-04,  avg # of iterations =  1.2

     total energy              =  -16384.82283988 Ry
     estimated scf accuracy    <       4.30016614 Ry

[...]

     iteration #  6     ecut=    71.00 Ry     beta= 0.10
     Davidson diagonalization with overlap
     c_bands:  1 eigenvalues not converged
     ethr =  1.42E-04,  avg # of iterations =  6.5

[...]

     negative rho (up, down):  1.543E-04 0.000E+00

[...]

     negative rho (up, down):  7.558E-04 0.000E+00

[...]

     iteration # 21     ecut=    71.00 Ry     beta= 0.10
     Davidson diagonalization with overlap
     c_bands:  1 eigenvalues not converged
     ethr =  1.27E-07,  avg # of iterations =  5.9

[...]

     total energy              =  -16384.05081981 Ry
     estimated scf accuracy    <       0.00000130 Ry

     iteration # 28     ecut=    71.00 Ry     beta= 0.10
     Davidson diagonalization with overlap
     ethr =  2.26E-10,  avg # of iterations =  2.0

     End of self-consistent calculation

          k = 0.0556 0.0556 0.0323 ( 56716 PWs)   bands (ev):

   -75.0859 -75.0637 -75.0637 -75.0595 -75.0595 -75.0549 -75.0539 -75.0533
   -75.0533 -75.0521 -75.0463 -75.0463 -75.0449 -75.0448 -75.0376 -75.0376
   -74.4939 -74.4939 -74.4795 -74.4795 -74.4795 -74.4795 -74.4783 -74.4783
   -74.4780 -74.4780 -74.4767 -74.4767 -74.4767 -74.4767 -74.4622 -74.4622
   -40.9205 -40.9205 -40.9201 -40.9192 -40.9067 -40.9067 -40.8998 -40.8658
   -40.8657 -40.8628 -40.8627 -40.8256 -40.8256 -40.8145 -40.8145 -40.8053
   -40.8053 -40.8021 -40.8021 -40.7932 -40.7932 -40.7645 -40.7644 -40.7577
   -40.7576 -40.7576 -40.7532 -40.7531 -40.7479 -40.7433 -40.7433 -40.7295
   -40.7263 -40.7263 -40.7119 -40.7119 -40.7090 -40.7080 -40.6979 -40.6979
   -40.6927 -40.6927 -40.6590 -40.6572 -40.6571 -40.6529 -40.6408 -40.6393
   -40.3682 -40.3682 -40.3674 -40.3666 -40.3565 -40.3565 -40.3545 -40.3545
   -40.2859 -40.2859 -40.2858 -40.2858 -40.2710 -40.2710 -40.2708 -40.2707
   -40.2686 -40.2686 -40.2683 -40.2683 -40.2534 -40.2534 -40.2533 -40.2533
   -40.1828 -40.1825 -40.1813 -40.1810 -40.1693 -40.1693 -40.1679 -40.1679
   -40.0970 -40.0938 -40.0825 -40.0825 -40.0821 -40.0821 -40.0811 -40.0808
   -40.0807 -40.0806 -40.0803 -40.0803 -40.0800 -40.0800 -40.0701 -40.0701
     2.7288   4.0173   4.2583   4.2583   4.3247   4.3308   4.3371   4.3371
     4.3961   4.4084   4.5328   4.5328   4.6217   4.6217   4.8051   4.8051
     4.8710   5.0727   5.1942   5.1942   5.2234   5.2234   5.2533   5.2533
     5.2739   5.2739   5.3427   5.3459   5.3459   5.3481   5.3605   5.3605
     5.4866   5.4866   5.5540   5.5540   5.5903   5.5903   5.6665   5.6665
     5.6787   5.6787   5.7412   5.7412   5.8033   5.8628   5.8628   5.8810
     5.8810   6.0246   6.0246   6.0905   6.1384   6.1384   6.1881   6.1881
     6.2003   6.2089   6.2089   6.2197   6.3952   6.3952   6.3987   6.3987
     6.4118   6.4220   6.5592   6.5592   6.5710   6.5731   6.5804   6.5804
     6.6130   6.6223   6.6832   6.6832   6.7181   6.7181   7.0683   7.0683
     7.1221   7.1302   7.1325   7.1325   7.1521   7.1521   7.1765   7.1765
     7.2975   7.2975   7.3325   7.3325   7.3455   7.3455   7.3522   7.3688
     7.3966   7.3966   7.4243   7.4243   7.4556   7.4682   7.5000   7.5235
     7.5235   7.6309   7.6309   7.6482   7.6482   7.7261   7.7537   7.7537
     7.7846   7.7846   7.7946   7.7946   7.9220   7.9220   7.9764   7.9764
     7.9772   7.9772   8.0112   8.1606   8.1606   8.1955   8.2286   8.2287
     8.3482   8.3482   8.3614   8.3614   8.3615   8.3811   8.3811   8.3906
     8.4774   8.4999   8.5030   8.5038   8.5038   8.5818   8.6116   8.6309
     8.6309   8.6574   8.6574   8.6678   8.6678   8.8263   8.8263   8.8999
     8.9029   8.9030   8.9040   8.9575   9.0363   9.0529   9.0529   9.0597
     9.0597   9.1122   9.1562   9.2630   9.2630   9.5883   9.5883   9.6674
     9.6674  10.0247  10.0247  10.3725  10.5178  10.7244  10.9399  10.9399
    11.2357  11.3096  11.3096  11.3550  11.3550  11.6866  11.8537  11.8628
    11.8628  13.4464  13.4464  13.6468  13.6468  14.2185  14.2185  14.2674
    14.3211  14.3211  14.4299  14.8364  15.0821  15.0821  15.6460  15.6460
    15.7497  15.7497  17.1973  17.4495  17.4495  17.4677  17.6382  17.7961
    17.7961  17.8146  18.0004  18.0004  18.1444  18.1447  18.2619  18.2619
    18.4151  18.4151

[...]

          k = 0.3889-0.5000-0.2909 ( 56748 PWs)   bands (ev):

[...]

          k =-0.5000-0.5000 0.0323 ( 56732 PWs)   bands (ev):

[...]

          k =-0.5000-0.5000-0.2909 ( 56688 PWs)   bands (ev):

   -75.0731 -75.0731 -75.0731 -75.0731 -75.0503 -75.0503 -75.0503 -75.0503
   -75.0455 -75.0455 -75.0455 -75.0455 -75.0454 -75.0454 -75.0454 -75.0454
   -74.4861 -74.4861 -74.4861 -74.4861 -74.4861 -74.4861 -74.4861 -74.4861
   -74.4701 -74.4701 -74.4701 -74.4701 -74.4701 -74.4701 -74.4701 -74.4701
   -40.8981 -40.8981 -40.8981 -40.8981 -40.8981 -40.8981 -40.8981 -40.8981
   -40.8848 -40.8848 -40.8848 -40.8848 -40.8341 -40.8341 -40.8341 -40.8341
   -40.7730 -40.7730 -40.7730 -40.7730 -40.7730 -40.7730 -40.7730 -40.7730
   -40.7329 -40.7329 -40.7329 -40.7329 -40.7316 -40.7316 -40.7316 -40.7316
   -40.7316 -40.7316 -40.7316 -40.7316 -40.7095 -40.7095 -40.7095 -40.7095
   -40.6898 -40.6898 -40.6898 -40.6898 -40.6402 -40.6402 -40.6401 -40.6401
   -40.3616 -40.3616 -40.3616 -40.3616 -40.3616 -40.3616 -40.3616 -40.3616
   -40.2780 -40.2780 -40.2779 -40.2779 -40.2755 -40.2755 -40.2755 -40.2755
   -40.2631 -40.2631 -40.2631 -40.2631 -40.2631 -40.2631 -40.2631 -40.2631
   -40.1746 -40.1746 -40.1746 -40.1746 -40.1744 -40.1744 -40.1744 -40.1744
   -40.0879 -40.0879 -40.0879 -40.0879 -40.0873 -40.0873 -40.0873 -40.0873
   -40.0754 -40.0754 -40.0754 -40.0753 -40.0753 -40.0753 -40.0753 -40.0753
     3.8506   3.8506   3.8506   3.8506   4.4708   4.4708   4.4708   4.4708
     4.8049   4.8049   4.8049   4.8049   4.8049   4.8049   4.8049   4.8049
     4.9183   4.9183   4.9183   4.9183   4.9736   4.9736   4.9736   4.9736
     4.9736   4.9736   4.9736   4.9736   5.0682   5.0682   5.0682   5.0682
     5.3578   5.3578   5.3578   5.3578   5.6794   5.6794   5.6794   5.6794
     5.6794   5.6794   5.6794   5.6794   5.9787   5.9787   5.9787   5.9787
     5.9787   5.9787   5.9787   5.9788   6.1468   6.1468   6.1468   6.1468
     6.3661   6.3661   6.3661   6.3661   6.6131   6.6131   6.6131   6.6131
     6.7159   6.7159   6.7159   6.7159   6.7547   6.7547   6.7547   6.7547
     6.8125   6.8125   6.8125   6.8125   6.9454   6.9454   6.9454   6.9454
     6.9454   6.9454   6.9454   6.9454   6.9897   6.9897   6.9897   6.9898
     7.2631   7.2631   7.2631   7.2631   7.3869   7.3869   7.3869   7.3869
     7.5252   7.5252   7.5252   7.5252   7.5252   7.5252   7.5252   7.5252
     7.5568   7.5568   7.5568   7.5568   7.5568   7.5568   7.5568   7.5568
     7.6089   7.6089   7.6089   7.6089   7.8297   7.8297   7.8297   7.8297
     8.1283   8.1283   8.1283   8.1283   8.1283   8.1283   8.1283   8.1283
     8.1372   8.1372   8.1372   8.1372   8.2565   8.2566   8.2566   8.2566
     8.3976   8.3976   8.3976   8.3976   8.6004   8.6004   8.6004   8.6004
     8.7352   8.7352   8.7352   8.7353   8.7353   8.7353   8.7353   8.7353
     9.0164   9.0164   9.0164   9.0164   9.0768   9.0768   9.0768   9.0768
     9.0768   9.0768   9.0768   9.0768   9.0862   9.0862   9.0862   9.0862
     9.8814   9.8814   9.8814   9.8814  12.1384  12.1384  12.1384  12.1384
    12.3380  12.3380  12.3380  12.3380  12.3380  12.3380  12.3380  12.3380
    13.4508  13.4508  13.4508  13.4508  13.4508  13.4508  13.4508  13.4508
    14.5416  14.5416  14.5416  14.5416  15.4593  15.4593  15.4593  15.4593
    15.4593  15.4593  15.4593  15.4593  15.6361  15.6361  15.6361  15.6361
    17.6937  17.6937  17.6937  17.6937  17.7835  17.7835  17.7836  17.7836
    17.7836  17.7836

     the Fermi energy is     9.0877 ev

!    total energy              =  -16384.05082283 Ry

     total all-electron energy =   -322944.904530 Ry
     estimated scf accuracy    <       0.00000061 Ry
     smearing contrib. (-TS)   =       0.12352979 Ry
     internal energy E=F+TS    =  -16384.17435261 Ry

     The total energy is F=E-TS. E is the sum of the following terms:
     one-electron contribution =  -17442.08798728 Ry
     hartree contribution      =    8928.12679355 Ry
     xc contribution           =    -985.37871509 Ry
     ewald contribution        =    1282.49454701 Ry
     one-center paw contrib.   =   -8167.32899081 Ry

     convergence has been achieved in  28 iterations

     Forces acting on atoms (cartesian axes, Ry/au):

     atom    1 type  1   force =     0.00000000    0.00000000    0.00318487
     atom    2 type  1   force =    -0.00000217   -0.00000217    0.00318501
     atom    3 type  1   force =    -0.00001198    0.00000000   -0.00398363
     atom    4 type  1   force =     0.00000000   -0.00001198   -0.00398363
     atom    5 type  1   force =     0.00000000    0.00000000    0.00397715
     atom    6 type  1   force =    -0.00000410   -0.00000410    0.00397935
     atom    7 type  1   force =     0.00000976    0.00000000   -0.00319002
     atom    8 type  1   force =     0.00000000    0.00000976   -0.00319002
     atom    9 type  1   force =     0.00000000    0.00000000    0.00318990
     atom   10 type  1   force =    -0.00000217    0.00000217    0.00318501
     atom   11 type  1   force =     0.00000376    0.00000000   -0.00399237
     atom   12 type  1   force =     0.00000000    0.00001198   -0.00398363
     atom   13 type  1   force =     0.00000000    0.00000000    0.00399693
     atom   14 type  1   force =    -0.00000410    0.00000410    0.00397935
     atom   15 type  1   force =     0.00000813    0.00000000   -0.00317588
     atom   16 type  1   force =     0.00000000   -0.00000976   -0.00319002
     atom   17 type  1   force =     0.00000000    0.00000000    0.00318990
     atom   18 type  1   force =     0.00000217   -0.00000217    0.00318501
     atom   19 type  1   force =     0.00001198    0.00000000   -0.00398363
     atom   20 type  1   force =     0.00000000    0.00000376   -0.00399237
     atom   21 type  1   force =     0.00000000    0.00000000    0.00399693
     atom   22 type  1   force =     0.00000410   -0.00000410    0.00397935
     atom   23 type  1   force =    -0.00000976    0.00000000   -0.00319002
     atom   24 type  1   force =     0.00000000    0.00000813   -0.00317588
     atom   25 type  1   force =     0.00000000    0.00000000    0.00317511
     atom   26 type  1   force =     0.00000217    0.00000217    0.00318501
     atom   27 type  1   force =    -0.00000376    0.00000000   -0.00399237
     atom   28 type  1   force =     0.00000000   -0.00000376   -0.00399237
     atom   29 type  1   force =     0.00000000    0.00000000    0.00399934
     atom   30 type  1   force =     0.00000410    0.00000410    0.00397935
     atom   31 type  1   force =    -0.00000813    0.00000000   -0.00317588
     atom   32 type  1   force =     0.00000000   -0.00000813   -0.00317588

     Total force =     0.020409     Total SCF correction =     0.001247

     Computing stress (Cartesian axis) and pressure

          total   stress  (Ry/bohr**3)                   (kbar)     P=      -32.70
  -0.00027806   0.00000000   0.00000000          -40.90        0.00        0.00
   0.00000000  -0.00027806   0.00000000            0.00      -40.90        0.00
   0.00000000   0.00000000  -0.00011069            0.00        0.00      -16.28

     Writing output data file /scratch/cbxsqBEZCxdpLURe.save/

     General routines

     Parallel routines

   This run was terminated on:  10:14:59   7Jan2022

   JOB DONE.