     Program PWSCF v.6.7MaX starts on  7Jan2022 at  1:26:11

     R & G space division:  proc/nbgrp/npool/nimage =      72
     Reading input from scf_13.in
Warning: card &CELL ignored
Warning: card CELL_DYNAMICS = 'BFGS', ignored
Warning: card CELL_FACTOR = 2.0, ignored
Warning: card PRESS = 0.0, ignored
Warning: card / ignored

     Current dimensions of program PWSCF are:
     Max number of different atomic species (ntypx) = 10
     Max number of k-points (npk) =  40000
     Max angular momentum in pseudopotentials (lmaxx) =  3
     file Pd.pbe-spn-kjpaw_psl.1.0.0.UPF: wavefunction(s)  4S 5S 4D renormalized

     Subspace diagonalization in iterative solution of the eigenvalue problem:
     one sub-group per band group will be used

     Found symmetry operation: I + (  0.2500  0.2500  0.0000)
     This is a supercell, fractional translations are disabled
     Message from routine setup:
     using ibrav=0 with symmetry is DISCOURAGED, use correct ibrav instead

     bravais-lattice index     =            0
     lattice parameter (alat)  =      14.8394  a.u.
     unit-cell volume          =    4493.1765 (a.u.)^3
     number of atoms/cell      =           32
     number of atomic types    =            1
     number of electrons       =       576.00
     number of Kohn-Sham states=          346
     kinetic-energy cutoff     =      71.0000  Ry
     charge density cutoff     =     430.0000  Ry
     scf convergence threshold =      1.0E-06
     mixing beta               =       0.1000
     number of iterations used =           10  TF        mixing
     Exchange-correlation= SLA  PW   PBX  PBC
                           (   1   4   3   4   0   0   0)

     celldm(1)=  14.839420  celldm(2)=   0.000000  celldm(3)=   0.000000
     celldm(4)=   0.000000  celldm(5)=   0.000000  celldm(6)=   0.000000

     crystal axes: (cart. coord. in units of alat)
               a(1) = (   1.000000   0.000000   0.000000 )
               a(2) = (   0.000000   1.000000   0.000000 )
               a(3) = (   0.000000   0.000000   1.375000 )

     reciprocal axes: (cart. coord. in units 2 pi/alat)
               b(1) = (  1.000000  0.000000  0.000000 )
               b(2) = (  0.000000  1.000000  0.000000 )
               b(3) = (  0.000000  0.000000  0.727273 )

     PseudoPot. # 1 for Pd read from file:
     /rds/homes/b/bxp912/pp/Pd.pbe-spn-kjpaw_psl.1.0.0.UPF
     MD5 check sum: 790f2ebce206edfd9790dcb9844eca51
     Pseudo is Projector augmented-wave + core cor, Zval = 18.0
     Generated using &quot;atomic&quot; code by A. Dal Corso  v.6.3
     Shape of augmentation charge: PSQ
     Using radial grid of 1235 points,  6 beta functions with:
                l(1) =   0
                l(2) =   0
                l(3) =   1
                l(4) =   1
                l(5) =   2
                l(6) =   2
     Q(r) pseudized with 0 coefficients

     atomic species   valence    mass     pseudopotential
        Pd            18.00   106.42000     Pd( 1.00)

      8 Sym. Ops. (no inversion) found

   Cartesian axes

     site n.     atom                  positions (alat units)
         1           Pd  tau(   1) = (   0.0000000   0.0000000   0.0000000  )
         2           Pd  tau(   2) = (   0.2500000   0.2500000   0.0000000  )
         3           Pd  tau(   3) = (   0.2500000   0.0000000   0.2500000  )
         4           Pd  tau(   4) = (   0.0000000   0.2500000   0.2500000  )
         5           Pd  tau(   5) = (   0.0000000   0.0000000   0.8750000  )
         6           Pd  tau(   6) = (   0.2500000   0.2500000   0.8750000  )
         7           Pd  tau(   7) = (   0.2500000   0.0000000   1.1250000  )
         8           Pd  tau(   8) = (   0.0000000   0.2500000   1.1250000  )
         9           Pd  tau(   9) = (   0.0000000   0.5000000   0.0000000  )
        10           Pd  tau(  10) = (   0.2500000   0.7500000   0.0000000  )
        11           Pd  tau(  11) = (   0.2500000   0.5000000   0.2500000  )
        12           Pd  tau(  12) = (   0.0000000   0.7500000   0.2500000  )
        13           Pd  tau(  13) = (   0.0000000   0.5000000   0.8750000  )
        14           Pd  tau(  14) = (   0.2500000   0.7500000   0.8750000  )
        15           Pd  tau(  15) = (   0.2500000   0.5000000   1.1250000  )
        16           Pd  tau(  16) = (   0.0000000   0.7500000   1.1250000  )
        17           Pd  tau(  17) = (   0.5000000   0.0000000   0.0000000  )
        18           Pd  tau(  18) = (   0.7500000   0.2500000   0.0000000  )
        19           Pd  tau(  19) = (   0.7500000   0.0000000   0.2500000  )
        20           Pd  tau(  20) = (   0.5000000   0.2500000   0.2500000  )
        21           Pd  tau(  21) = (   0.5000000   0.0000000   0.8750000  )
        22           Pd  tau(  22) = (   0.7500000   0.2500000   0.8750000  )
        23           Pd  tau(  23) = (   0.7500000   0.0000000   1.1250000  )
        24           Pd  tau(  24) = (   0.5000000   0.2500000   1.1250000  )
        25           Pd  tau(  25) = (   0.5000000   0.5000000   0.0000000  )
        26           Pd  tau(  26) = (   0.7500000   0.7500000   0.0000000  )
        27           Pd  tau(  27) = (   0.7500000   0.5000000   0.2500000  )
        28           Pd  tau(  28) = (   0.5000000   0.7500000   0.2500000  )
        29           Pd  tau(  29) = (   0.5000000   0.5000000   0.8750000  )
        30           Pd  tau(  30) = (   0.7500000   0.7500000   0.8750000  )
        31           Pd  tau(  31) = (   0.7500000   0.5000000   1.1250000  )
        32           Pd  tau(  32) = (   0.5000000   0.7500000   1.1250000  )

     number of k points=    75  Marzari-Vanderbilt smearing, width (Ry)=  0.0400
                       cart. coord. in units 2pi/alat
        k(    1) = (   0.0555556   0.0555556   0.0404040), wk =   0.0219479
        k(    2) = (   0.0555556   0.0555556   0.1212121), wk =   0.0219479
        k(    3) = (   0.0555556   0.0555556   0.2020202), wk =   0.0219479
        k(    4) = (   0.0555556   0.0555556   0.2828283), wk =   0.0219479
        k(    5) = (   0.0555556   0.0555556  -0.3636364), wk =   0.0109739
        k(    6) = (   0.0555556   0.1666667   0.0404040), wk =   0.0438957
        k(    7) = (   0.0555556   0.1666667   0.1212121), wk =   0.0438957
        k(    8) = (   0.0555556   0.1666667   0.2020202), wk =   0.0438957
        k(    9) = (   0.0555556   0.1666667   0.2828283), wk =   0.0438957
        k(   10) = (   0.0555556   0.1666667  -0.3636364), wk =   0.0219479
        k(   11) = (   0.0555556   0.2777778   0.0404040), wk =   0.0438957
        k(   12) = (   0.0555556   0.2777778   0.1212121), wk =   0.0438957
        k(   13) = (   0.0555556   0.2777778   0.2020202), wk =   0.0438957
        k(   14) = (   0.0555556   0.2777778   0.2828283), wk =   0.0438957
        k(   15) = (   0.0555556   0.2777778  -0.3636364), wk =   0.0219479
        k(   16) = (   0.0555556   0.3888889   0.0404040), wk =   0.0438957
        k(   17) = (   0.0555556   0.3888889   0.1212121), wk =   0.0438957
        k(   18) = (   0.0555556   0.3888889   0.2020202), wk =   0.0438957
        k(   19) = (   0.0555556   0.3888889   0.2828283), wk =   0.0438957
        k(   20) = (   0.0555556   0.3888889  -0.3636364), wk =   0.0219479
        k(   21) = (   0.0555556  -0.5000000   0.0404040), wk =   0.0219479
        k(   22) = (   0.0555556  -0.5000000   0.1212121), wk =   0.0219479
        k(   23) = (   0.0555556  -0.5000000   0.2020202), wk =   0.0219479
        k(   24) = (   0.0555556  -0.5000000   0.2828283), wk =   0.0219479
        k(   25) = (   0.0555556  -0.5000000  -0.3636364), wk =   0.0109739
        k(   26) = (   0.1666667   0.1666667   0.0404040), wk =   0.0219479
        k(   27) = (   0.1666667   0.1666667   0.1212121), wk =   0.0219479
        k(   28) = (   0.1666667   0.1666667   0.2020202), wk =   0.0219479
        k(   29) = (   0.1666667   0.1666667   0.2828283), wk =   0.0219479
        k(   30) = (   0.1666667   0.1666667  -0.3636364), wk =   0.0109739
        k(   31) = (   0.1666667   0.2777778   0.0404040), wk =   0.0438957
        k(   32) = (   0.1666667   0.2777778   0.1212121), wk =   0.0438957
        k(   33) = (   0.1666667   0.2777778   0.2020202), wk =   0.0438957
        k(   34) = (   0.1666667   0.2777778   0.2828283), wk =   0.0438957
        k(   35) = (   0.1666667   0.2777778  -0.3636364), wk =   0.0219479
        k(   36) = (   0.1666667   0.3888889   0.0404040), wk =   0.0438957
        k(   37) = (   0.1666667   0.3888889   0.1212121), wk =   0.0438957
        k(   38) = (   0.1666667   0.3888889   0.2020202), wk =   0.0438957
        k(   39) = (   0.1666667   0.3888889   0.2828283), wk =   0.0438957
        k(   40) = (   0.1666667   0.3888889  -0.3636364), wk =   0.0219479
        k(   41) = (   0.1666667  -0.5000000   0.0404040), wk =   0.0219479
        k(   42) = (   0.1666667  -0.5000000   0.1212121), wk =   0.0219479
        k(   43) = (   0.1666667  -0.5000000   0.2020202), wk =   0.0219479
        k(   44) = (   0.1666667  -0.5000000   0.2828283), wk =   0.0219479
        k(   45) = (   0.1666667  -0.5000000  -0.3636364), wk =   0.0109739
        k(   46) = (   0.2777778   0.2777778   0.0404040), wk =   0.0219479
        k(   47) = (   0.2777778   0.2777778   0.1212121), wk =   0.0219479
        k(   48) = (   0.2777778   0.2777778   0.2020202), wk =   0.0219479
        k(   49) = (   0.2777778   0.2777778   0.2828283), wk =   0.0219479
        k(   50) = (   0.2777778   0.2777778  -0.3636364), wk =   0.0109739
        k(   51) = (   0.2777778   0.3888889   0.0404040), wk =   0.0438957
        k(   52) = (   0.2777778   0.3888889   0.1212121), wk =   0.0438957
        k(   53) = (   0.2777778   0.3888889   0.2020202), wk =   0.0438957
        k(   54) = (   0.2777778   0.3888889   0.2828283), wk =   0.0438957
        k(   55) = (   0.2777778   0.3888889  -0.3636364), wk =   0.0219479
        k(   56) = (   0.2777778  -0.5000000   0.0404040), wk =   0.0219479
        k(   57) = (   0.2777778  -0.5000000   0.1212121), wk =   0.0219479
        k(   58) = (   0.2777778  -0.5000000   0.2020202), wk =   0.0219479
        k(   59) = (   0.2777778  -0.5000000   0.2828283), wk =   0.0219479
        k(   60) = (   0.2777778  -0.5000000  -0.3636364), wk =   0.0109739
        k(   61) = (   0.3888889   0.3888889   0.0404040), wk =   0.0219479
        k(   62) = (   0.3888889   0.3888889   0.1212121), wk =   0.0219479
        k(   63) = (   0.3888889   0.3888889   0.2020202), wk =   0.0219479
        k(   64) = (   0.3888889   0.3888889   0.2828283), wk =   0.0219479
        k(   65) = (   0.3888889   0.3888889  -0.3636364), wk =   0.0109739
        k(   66) = (   0.3888889  -0.5000000   0.0404040), wk =   0.0219479
        k(   67) = (   0.3888889  -0.5000000   0.1212121), wk =   0.0219479
        k(   68) = (   0.3888889  -0.5000000   0.2020202), wk =   0.0219479
        k(   69) = (   0.3888889  -0.5000000   0.2828283), wk =   0.0219479
        k(   70) = (   0.3888889  -0.5000000  -0.3636364), wk =   0.0109739
        k(   71) = (  -0.5000000  -0.5000000   0.0404040), wk =   0.0054870
        k(   72) = (  -0.5000000  -0.5000000   0.1212121), wk =   0.0054870
        k(   73) = (  -0.5000000  -0.5000000   0.2020202), wk =   0.0054870
        k(   74) = (  -0.5000000  -0.5000000   0.2828283), wk =   0.0054870
        k(   75) = (  -0.5000000  -0.5000000  -0.3636364), wk =   0.0027435

     Check: negative core charge=   -0.000001

     Initial potential from superposition of free atoms

     starting charge  575.98776, renormalised to  576.00000
     Starting wfcs are  320 randomized atomic wfcs +   26 random wfcs
     Checking if some PAW data can be deallocated...

     Self-consistent Calculation

     iteration #  1     ecut=    71.00 Ry     beta= 0.10
     Davidson diagonalization with overlap
     ethr =  1.00E-02,  avg # of iterations =  3.9

     Threshold (ethr) on eigenvalues was too large:
     Diagonalizing with lowered threshold

     Davidson diagonalization with overlap
     ethr =  7.38E-04,  avg # of iterations =  1.1

     total energy              =  -16384.81129048 Ry
     estimated scf accuracy    <       4.24203620 Ry

[...]

     iteration #  9     ecut=    71.00 Ry     beta= 0.10
     Davidson diagonalization with overlap
     c_bands:  1 eigenvalues not converged
     c_bands:  1 eigenvalues not converged
     ethr =  1.14E-05,  avg # of iterations =  5.3

[...]

     iteration # 12     ecut=    71.00 Ry     beta= 0.10
     Davidson diagonalization with overlap
     c_bands:  1 eigenvalues not converged
     ethr =  1.42E-06,  avg # of iterations =  5.5

[...]

     total energy              =  -16384.06562287 Ry
     estimated scf accuracy    <       0.00000190 Ry

     iteration # 22     ecut=    71.00 Ry     beta= 0.10
     Davidson diagonalization with overlap
     ethr =  3.30E-10,  avg # of iterations =  2.2

     End of self-consistent calculation

          k = 0.0556 0.0556 0.0404 ( 45386 PWs)   bands (ev):

   -71.5599 -71.5377 -71.5377 -71.5335 -71.5335 -71.5289 -71.5279 -71.5273
   -71.5272 -71.5261 -71.5203 -71.5203 -71.5188 -71.5188 -71.5116 -71.5115
   -70.9722 -70.9721 -70.9578 -70.9578 -70.9577 -70.9577 -70.9565 -70.9565
   -70.9563 -70.9562 -70.9550 -70.9550 -70.9549 -70.9549 -70.9404 -70.9403
   -37.3946 -37.3945 -37.3942 -37.3933 -37.3809 -37.3809 -37.3736 -37.3394
   -37.3393 -37.3365 -37.3365 -37.2997 -37.2997 -37.2886 -37.2886 -37.2794
   -37.2794 -37.2764 -37.2764 -37.2673 -37.2673 -37.2379 -37.2378 -37.2318
   -37.2317 -37.2315 -37.2270 -37.2269 -37.2217 -37.2174 -37.2174 -37.2031
   -37.2006 -37.2006 -37.1862 -37.1861 -37.1833 -37.1823 -37.1718 -37.1718
   -37.1666 -37.1665 -37.1332 -37.1314 -37.1314 -37.1272 -37.1150 -37.1135
   -36.8449 -36.8449 -36.8441 -36.8432 -36.8332 -36.8332 -36.8312 -36.8312
   -36.7628 -36.7628 -36.7626 -36.7626 -36.7477 -36.7477 -36.7475 -36.7475
   -36.7455 -36.7455 -36.7450 -36.7450 -36.7302 -36.7302 -36.7300 -36.7300
   -36.6596 -36.6593 -36.6581 -36.6577 -36.6461 -36.6461 -36.6448 -36.6448
   -36.5769 -36.5737 -36.5624 -36.5624 -36.5619 -36.5619 -36.5611 -36.5608
   -36.5607 -36.5606 -36.5603 -36.5603 -36.5599 -36.5599 -36.5501 -36.5500
     6.2503   7.5506   7.7835   7.7835   7.8497   7.8560   7.8621   7.8621
     7.9220   7.9483   8.0583   8.0583   8.1457   8.1457   8.3294   8.3294
     8.3903   8.5986   8.7217   8.7217   8.7491   8.7491   8.7790   8.7790
     8.7999   8.7999   8.8722   8.8731   8.8731   8.8770   8.8899   8.8899
     9.0120   9.0120   9.0809   9.0809   9.1166   9.1166   9.1944   9.1944
     9.2026   9.2026   9.2673   9.2673   9.3287   9.3883   9.3884   9.4066
     9.4066   9.5503   9.5503   9.6185   9.6654   9.6655   9.7133   9.7133
     9.7266   9.7349   9.7349   9.7457   9.9249   9.9249   9.9280   9.9280
     9.9379   9.9488  10.0935  10.0935  10.0965  10.0986  10.1057  10.1057
    10.1389  10.1481  10.2013  10.2013  10.2353  10.2353  10.5793  10.5793
    10.6325  10.6340  10.6567  10.6567  10.6810  10.6810  10.6960  10.6960
    10.8453  10.8453  10.8618  10.8618  10.8691  10.8691  10.8776  10.8942
    10.9423  10.9423  10.9468  10.9468  10.9681  11.0257  11.0431  11.0436
    11.0436  11.1536  11.1536  11.1605  11.1605  11.2426  11.2809  11.2809
    11.2886  11.2886  11.3154  11.3154  11.4477  11.4477  11.5118  11.5145
    11.5145  11.5198  11.5198  11.5366  11.6871  11.6871  11.7512  11.7513
    11.8826  11.8826  11.8843  11.8843  11.8863  11.9043  11.9043  11.9153
    11.9775  11.9775  12.0246  12.0258  12.0366  12.1058  12.1404  12.1404
    12.1724  12.1748  12.1748  12.1918  12.1918  12.3543  12.3544  12.4252
    12.4270  12.4270  12.4288  12.4826  12.5612  12.5805  12.5805  12.5872
    12.5872  12.6269  12.6822  12.7887  12.7887  13.1916  13.1916  13.2168
    13.2168  13.6499  13.6499  14.0327  14.2533  14.4316  14.4316  14.5512
    14.6512  14.6512  14.6888  14.8965  14.8965  15.1046  15.2038  15.2038
    15.4110  16.9478  16.9478  17.7663  17.7766  17.7766  17.8278  17.8278
    17.9916  18.3354  18.3354  18.8396  18.8396  19.3552  19.3552  19.4263
    19.4263  21.0845  21.3862  21.3862  21.4946  21.4946  21.4984  21.6411
    21.6411  21.9629  22.1810  22.1810  22.2245  22.3862  22.3863  22.8400
    23.0047  23.0047

[...]

          k = 0.3889-0.5000-0.3636 ( 45388 PWs)   bands (ev):

[...]

          k =-0.5000-0.5000 0.0404 ( 45440 PWs)   bands (ev):

[...]

          k =-0.5000-0.5000-0.3636 ( 45352 PWs)   bands (ev):

   -71.5471 -71.5471 -71.5471 -71.5471 -71.5243 -71.5243 -71.5243 -71.5243
   -71.5195 -71.5195 -71.5195 -71.5194 -71.5194 -71.5194 -71.5194 -71.5194
   -70.9644 -70.9644 -70.9644 -70.9643 -70.9643 -70.9643 -70.9643 -70.9642
   -70.9484 -70.9484 -70.9484 -70.9484 -70.9483 -70.9483 -70.9483 -70.9482
   -37.3722 -37.3722 -37.3722 -37.3722 -37.3722 -37.3722 -37.3722 -37.3722
   -37.3584 -37.3584 -37.3584 -37.3583 -37.3082 -37.3082 -37.3082 -37.3082
   -37.2469 -37.2469 -37.2469 -37.2469 -37.2468 -37.2468 -37.2468 -37.2468
   -37.2071 -37.2071 -37.2071 -37.2071 -37.2057 -37.2057 -37.2057 -37.2057
   -37.2057 -37.2057 -37.2056 -37.2056 -37.1832 -37.1832 -37.1832 -37.1832
   -37.1641 -37.1641 -37.1641 -37.1641 -37.1144 -37.1144 -37.1144 -37.1144
   -36.8383 -36.8383 -36.8383 -36.8383 -36.8383 -36.8383 -36.8383 -36.8383
   -36.7547 -36.7547 -36.7547 -36.7547 -36.7523 -36.7523 -36.7523 -36.7523
   -36.7398 -36.7398 -36.7398 -36.7398 -36.7398 -36.7398 -36.7398 -36.7398
   -36.6513 -36.6513 -36.6513 -36.6513 -36.6513 -36.6513 -36.6512 -36.6512
   -36.5677 -36.5677 -36.5677 -36.5677 -36.5672 -36.5672 -36.5672 -36.5672
   -36.5554 -36.5554 -36.5554 -36.5554 -36.5553 -36.5553 -36.5553 -36.5553
     7.3781   7.3781   7.3781   7.3781   7.9942   7.9942   7.9942   7.9942
     8.3308   8.3308   8.3308   8.3308   8.3308   8.3308   8.3308   8.3308
     8.4398   8.4398   8.4398   8.4398   8.4987   8.4987   8.4987   8.4987
     8.4987   8.4987   8.4987   8.4987   8.6013   8.6013   8.6013   8.6013
     8.8818   8.8818   8.8818   8.8818   9.2073   9.2073   9.2073   9.2073
     9.2073   9.2073   9.2073   9.2073   9.5036   9.5036   9.5037   9.5037
     9.5037   9.5037   9.5037   9.5037   9.6741   9.6741   9.6741   9.6741
     9.8911   9.8911   9.8912   9.8912  10.1390  10.1390  10.1390  10.1390
    10.2365  10.2365  10.2365  10.2365  10.2806  10.2806  10.2806  10.2806
    10.3523  10.3523  10.3523  10.3523  10.4707  10.4707  10.4707  10.4707
    10.4707  10.4707  10.4707  10.4707  10.5150  10.5150  10.5150  10.5150
    10.7780  10.7780  10.7780  10.7780  10.9240  10.9240  10.9240  10.9240
    11.0518  11.0518  11.0518  11.0518  11.0519  11.0519  11.0519  11.0519
    11.0875  11.0875  11.0875  11.0875  11.0876  11.0876  11.0876  11.0876
    11.1342  11.1342  11.1342  11.1342  11.3550  11.3550  11.3550  11.3550
    11.6354  11.6354  11.6354  11.6354  11.6354  11.6354  11.6354  11.6354
    11.6614  11.6614  11.6614  11.6614  11.6814  11.6814  11.6814  11.6814
    11.9227  11.9227  11.9227  11.9227  12.1243  12.1243  12.1243  12.1243
    12.2736  12.2736  12.2736  12.2736  12.2736  12.2736  12.2736  12.2736
    12.5419  12.5419  12.5419  12.5419  12.6042  12.6042  12.6042  12.6042
    12.6042  12.6042  12.6042  12.6042  12.6116  12.6116  12.6116  12.6116
    13.7011  13.7011  13.7011  13.7011  15.3329  15.3329  15.3329  15.3329
    15.8801  15.8801  15.8801  15.8801  15.8801  15.8801  15.8801  15.8801
    16.9196  16.9196  16.9196  16.9196  16.9196  16.9196  16.9196  16.9196
    19.0107  19.0107  19.0107  19.0107  19.1103  19.1103  19.1103  19.1103
    19.1103  19.1103  19.1103  19.1103  21.1392  21.1392  21.1392  21.1392
    21.1392  21.1392  21.1392  21.1392  21.2432  21.2432  21.2434  21.2434
    21.7030  21.7030

     the Fermi energy is    12.6138 ev

!    total energy              =  -16384.06562829 Ry

     total all-electron energy =   -322944.919335 Ry
     estimated scf accuracy    <       0.00000064 Ry
     smearing contrib. (-TS)   =       0.12277041 Ry
     internal energy E=F+TS    =  -16384.18839870 Ry

     The total energy is F=E-TS. E is the sum of the following terms:
     one-electron contribution =   -7880.26335836 Ry
     hartree contribution      =    4221.85584574 Ry
     xc contribution           =    -985.35613487 Ry
     ewald contribution        =   -3573.09521020 Ry
     one-center paw contrib.   =   -8167.32954101 Ry

     convergence has been achieved in  22 iterations

     Forces acting on atoms (cartesian axes, Ry/au):

     atom    1 type  1   force =     0.00000000    0.00000000    0.00339237
     atom    2 type  1   force =     0.00000033    0.00000033    0.00337095
     atom    3 type  1   force =     0.00000380    0.00000000   -0.00281549
     atom    4 type  1   force =    -0.00000000    0.00000380   -0.00281549
     atom    5 type  1   force =     0.00000000    0.00000000    0.00272917
     atom    6 type  1   force =     0.00003094    0.00003094    0.00274572
     atom    7 type  1   force =     0.00001182    0.00000000   -0.00327182
     atom    8 type  1   force =     0.00000000    0.00001182   -0.00327182
     atom    9 type  1   force =     0.00000000    0.00000000    0.00336182
     atom   10 type  1   force =     0.00000033   -0.00000033    0.00337095
     atom   11 type  1   force =    -0.00002258    0.00000000   -0.00280591
     atom   12 type  1   force =     0.00000000   -0.00000380   -0.00281549
     atom   13 type  1   force =     0.00000000    0.00000000    0.00271792
     atom   14 type  1   force =     0.00003094   -0.00003094    0.00274572
     atom   15 type  1   force =     0.00000761    0.00000000   -0.00331089
     atom   16 type  1   force =     0.00000000   -0.00001182   -0.00327182
     atom   17 type  1   force =     0.00000000    0.00000000    0.00336182
     atom   18 type  1   force =    -0.00000033    0.00000033    0.00337095
     atom   19 type  1   force =    -0.00000380   -0.00000000   -0.00281549
     atom   20 type  1   force =     0.00000000   -0.00002258   -0.00280591
     atom   21 type  1   force =     0.00000000    0.00000000    0.00271792
     atom   22 type  1   force =    -0.00003094    0.00003094    0.00274572
     atom   23 type  1   force =    -0.00001182    0.00000000   -0.00327182
     atom   24 type  1   force =     0.00000000    0.00000761   -0.00331089
     atom   25 type  1   force =     0.00000000    0.00000000    0.00335378
     atom   26 type  1   force =    -0.00000033   -0.00000033    0.00337095
     atom   27 type  1   force =     0.00002258    0.00000000   -0.00280591
     atom   28 type  1   force =     0.00000000    0.00002258   -0.00280591
     atom   29 type  1   force =     0.00000000    0.00000000    0.00271495
     atom   30 type  1   force =    -0.00003094   -0.00003094    0.00274572
     atom   31 type  1   force =    -0.00000761    0.00000000   -0.00331089
     atom   32 type  1   force =     0.00000000   -0.00000761   -0.00331089

     Total force =     0.017333     Total SCF correction =     0.005702
     SCF correction compared to forces is large: reduce conv_thr to get better values

     Computing stress (Cartesian axis) and pressure

          total   stress  (Ry/bohr**3)                   (kbar)     P=      -41.32
  -0.00034036   0.00000000   0.00000000          -50.07        0.00        0.00
   0.00000000  -0.00034036   0.00000000            0.00      -50.07        0.00
   0.00000000   0.00000000  -0.00016197            0.00        0.00      -23.83

     Writing output data file /scratch/IXRBrJMcYqpItHry.save/

     General routines

     Parallel routines

   This run was terminated on:   2: 2: 2   7Jan2022

   JOB DONE.