     Program PWSCF v.6.7MaX starts on  7Jan2022 at  6:59:57

     R & G space division:  proc/nbgrp/npool/nimage =      72
     Reading input from scf_21.in
Warning: card &CELL ignored
Warning: card CELL_DYNAMICS = 'BFGS', ignored
Warning: card CELL_FACTOR = 2.0, ignored
Warning: card PRESS = 0.0, ignored
Warning: card / ignored

     Current dimensions of program PWSCF are:
     Max number of different atomic species (ntypx) = 10
     Max number of k-points (npk) =  40000
     Max angular momentum in pseudopotentials (lmaxx) =  3
     file Pd.pbe-spn-kjpaw_psl.1.0.0.UPF: wavefunction(s)  4S 5S 4D renormalized

     Subspace diagonalization in iterative solution of the eigenvalue problem:
     one sub-group per band group will be used

     Found symmetry operation: I + (  0.2500  0.2500  0.0000)
     This is a supercell, fractional translations are disabled
     Message from routine setup:
     using ibrav=0 with symmetry is DISCOURAGED, use correct ibrav instead

     bravais-lattice index     =            0
     lattice parameter (alat)  =      14.8394  a.u.
     unit-cell volume          =    5310.1177 (a.u.)^3
     number of atoms/cell      =           32
     number of atomic types    =            1
     number of electrons       =       576.00
     number of Kohn-Sham states=          346
     kinetic-energy cutoff     =      71.0000  Ry
     charge density cutoff     =     430.0000  Ry
     scf convergence threshold =      1.0E-06
     mixing beta               =       0.1000
     number of iterations used =           10  TF        mixing
     Exchange-correlation= SLA  PW   PBX  PBC
                           (   1   4   3   4   0   0   0)

     celldm(1)=  14.839420  celldm(2)=   0.000000  celldm(3)=   0.000000
     celldm(4)=   0.000000  celldm(5)=   0.000000  celldm(6)=   0.000000

     crystal axes: (cart. coord. in units of alat)
               a(1) = (   1.000000   0.000000   0.000000 )
               a(2) = (   0.000000   1.000000   0.000000 )
               a(3) = (   0.000000   0.000000   1.625000 )

     reciprocal axes: (cart. coord. in units 2 pi/alat)
               b(1) = (  1.000000  0.000000  0.000000 )
               b(2) = (  0.000000  1.000000  0.000000 )
               b(3) = (  0.000000  0.000000  0.615385 )

     PseudoPot. # 1 for Pd read from file:
     /rds/homes/b/bxp912/pp/Pd.pbe-spn-kjpaw_psl.1.0.0.UPF
     MD5 check sum: 790f2ebce206edfd9790dcb9844eca51
     Pseudo is Projector augmented-wave + core cor, Zval = 18.0
     Generated using &quot;atomic&quot; code by A. Dal Corso  v.6.3
     Shape of augmentation charge: PSQ
     Using radial grid of 1235 points,  6 beta functions with:
                l(1) =   0
                l(2) =   0
                l(3) =   1
                l(4) =   1
                l(5) =   2
                l(6) =   2
     Q(r) pseudized with 0 coefficients

     atomic species   valence    mass     pseudopotential
        Pd            18.00   106.42000     Pd( 1.00)

      8 Sym. Ops. (no inversion) found

   Cartesian axes

     site n.     atom                  positions (alat units)
         1           Pd  tau(   1) = (   0.0000000   0.0000000   0.0000000  )
         2           Pd  tau(   2) = (   0.2500000   0.2500000   0.0000000  )
         3           Pd  tau(   3) = (   0.2500000   0.0000000   0.2500000  )
         4           Pd  tau(   4) = (   0.0000000   0.2500000   0.2500000  )
         5           Pd  tau(   5) = (   0.0000000   0.0000000   1.1250000  )
         6           Pd  tau(   6) = (   0.2500000   0.2500000   1.1250000  )
         7           Pd  tau(   7) = (   0.2500000   0.0000000   1.3750000  )
         8           Pd  tau(   8) = (   0.0000000   0.2500000   1.3750000  )
         9           Pd  tau(   9) = (   0.0000000   0.5000000   0.0000000  )
        10           Pd  tau(  10) = (   0.2500000   0.7500000   0.0000000  )
        11           Pd  tau(  11) = (   0.2500000   0.5000000   0.2500000  )
        12           Pd  tau(  12) = (   0.0000000   0.7500000   0.2500000  )
        13           Pd  tau(  13) = (   0.0000000   0.5000000   1.1250000  )
        14           Pd  tau(  14) = (   0.2500000   0.7500000   1.1250000  )
        15           Pd  tau(  15) = (   0.2500000   0.5000000   1.3750000  )
        16           Pd  tau(  16) = (   0.0000000   0.7500000   1.3750000  )
        17           Pd  tau(  17) = (   0.5000000   0.0000000   0.0000000  )
        18           Pd  tau(  18) = (   0.7500000   0.2500000   0.0000000  )
        19           Pd  tau(  19) = (   0.7500000   0.0000000   0.2500000  )
        20           Pd  tau(  20) = (   0.5000000   0.2500000   0.2500000  )
        21           Pd  tau(  21) = (   0.5000000   0.0000000   1.1250000  )
        22           Pd  tau(  22) = (   0.7500000   0.2500000   1.1250000  )
        23           Pd  tau(  23) = (   0.7500000   0.0000000   1.3750000  )
        24           Pd  tau(  24) = (   0.5000000   0.2500000   1.3750000  )
        25           Pd  tau(  25) = (   0.5000000   0.5000000   0.0000000  )
        26           Pd  tau(  26) = (   0.7500000   0.7500000   0.0000000  )
        27           Pd  tau(  27) = (   0.7500000   0.5000000   0.2500000  )
        28           Pd  tau(  28) = (   0.5000000   0.7500000   0.2500000  )
        29           Pd  tau(  29) = (   0.5000000   0.5000000   1.1250000  )
        30           Pd  tau(  30) = (   0.7500000   0.7500000   1.1250000  )
        31           Pd  tau(  31) = (   0.7500000   0.5000000   1.3750000  )
        32           Pd  tau(  32) = (   0.5000000   0.7500000   1.3750000  )

     number of k points=    75  Marzari-Vanderbilt smearing, width (Ry)=  0.0400
                       cart. coord. in units 2pi/alat
        k(    1) = (   0.0555556   0.0555556   0.0341880), wk =   0.0219479
        k(    2) = (   0.0555556   0.0555556   0.1025641), wk =   0.0219479
        k(    3) = (   0.0555556   0.0555556   0.1709402), wk =   0.0219479
        k(    4) = (   0.0555556   0.0555556   0.2393162), wk =   0.0219479
        k(    5) = (   0.0555556   0.0555556  -0.3076923), wk =   0.0109739
        k(    6) = (   0.0555556   0.1666667   0.0341880), wk =   0.0438957
        k(    7) = (   0.0555556   0.1666667   0.1025641), wk =   0.0438957
        k(    8) = (   0.0555556   0.1666667   0.1709402), wk =   0.0438957
        k(    9) = (   0.0555556   0.1666667   0.2393162), wk =   0.0438957
        k(   10) = (   0.0555556   0.1666667  -0.3076923), wk =   0.0219479
        k(   11) = (   0.0555556   0.2777778   0.0341880), wk =   0.0438957
        k(   12) = (   0.0555556   0.2777778   0.1025641), wk =   0.0438957
        k(   13) = (   0.0555556   0.2777778   0.1709402), wk =   0.0438957
        k(   14) = (   0.0555556   0.2777778   0.2393162), wk =   0.0438957
        k(   15) = (   0.0555556   0.2777778  -0.3076923), wk =   0.0219479
        k(   16) = (   0.0555556   0.3888889   0.0341880), wk =   0.0438957
        k(   17) = (   0.0555556   0.3888889   0.1025641), wk =   0.0438957
        k(   18) = (   0.0555556   0.3888889   0.1709402), wk =   0.0438957
        k(   19) = (   0.0555556   0.3888889   0.2393162), wk =   0.0438957
        k(   20) = (   0.0555556   0.3888889  -0.3076923), wk =   0.0219479
        k(   21) = (   0.0555556  -0.5000000   0.0341880), wk =   0.0219479
        k(   22) = (   0.0555556  -0.5000000   0.1025641), wk =   0.0219479
        k(   23) = (   0.0555556  -0.5000000   0.1709402), wk =   0.0219479
        k(   24) = (   0.0555556  -0.5000000   0.2393162), wk =   0.0219479
        k(   25) = (   0.0555556  -0.5000000  -0.3076923), wk =   0.0109739
        k(   26) = (   0.1666667   0.1666667   0.0341880), wk =   0.0219479
        k(   27) = (   0.1666667   0.1666667   0.1025641), wk =   0.0219479
        k(   28) = (   0.1666667   0.1666667   0.1709402), wk =   0.0219479
        k(   29) = (   0.1666667   0.1666667   0.2393162), wk =   0.0219479
        k(   30) = (   0.1666667   0.1666667  -0.3076923), wk =   0.0109739
        k(   31) = (   0.1666667   0.2777778   0.0341880), wk =   0.0438957
        k(   32) = (   0.1666667   0.2777778   0.1025641), wk =   0.0438957
        k(   33) = (   0.1666667   0.2777778   0.1709402), wk =   0.0438957
        k(   34) = (   0.1666667   0.2777778   0.2393162), wk =   0.0438957
        k(   35) = (   0.1666667   0.2777778  -0.3076923), wk =   0.0219479
        k(   36) = (   0.1666667   0.3888889   0.0341880), wk =   0.0438957
        k(   37) = (   0.1666667   0.3888889   0.1025641), wk =   0.0438957
        k(   38) = (   0.1666667   0.3888889   0.1709402), wk =   0.0438957
        k(   39) = (   0.1666667   0.3888889   0.2393162), wk =   0.0438957
        k(   40) = (   0.1666667   0.3888889  -0.3076923), wk =   0.0219479
        k(   41) = (   0.1666667  -0.5000000   0.0341880), wk =   0.0219479
        k(   42) = (   0.1666667  -0.5000000   0.1025641), wk =   0.0219479
        k(   43) = (   0.1666667  -0.5000000   0.1709402), wk =   0.0219479
        k(   44) = (   0.1666667  -0.5000000   0.2393162), wk =   0.0219479
        k(   45) = (   0.1666667  -0.5000000  -0.3076923), wk =   0.0109739
        k(   46) = (   0.2777778   0.2777778   0.0341880), wk =   0.0219479
        k(   47) = (   0.2777778   0.2777778   0.1025641), wk =   0.0219479
        k(   48) = (   0.2777778   0.2777778   0.1709402), wk =   0.0219479
        k(   49) = (   0.2777778   0.2777778   0.2393162), wk =   0.0219479
        k(   50) = (   0.2777778   0.2777778  -0.3076923), wk =   0.0109739
        k(   51) = (   0.2777778   0.3888889   0.0341880), wk =   0.0438957
        k(   52) = (   0.2777778   0.3888889   0.1025641), wk =   0.0438957
        k(   53) = (   0.2777778   0.3888889   0.1709402), wk =   0.0438957
        k(   54) = (   0.2777778   0.3888889   0.2393162), wk =   0.0438957
        k(   55) = (   0.2777778   0.3888889  -0.3076923), wk =   0.0219479
        k(   56) = (   0.2777778  -0.5000000   0.0341880), wk =   0.0219479
        k(   57) = (   0.2777778  -0.5000000   0.1025641), wk =   0.0219479
        k(   58) = (   0.2777778  -0.5000000   0.1709402), wk =   0.0219479
        k(   59) = (   0.2777778  -0.5000000   0.2393162), wk =   0.0219479
        k(   60) = (   0.2777778  -0.5000000  -0.3076923), wk =   0.0109739
        k(   61) = (   0.3888889   0.3888889   0.0341880), wk =   0.0219479
        k(   62) = (   0.3888889   0.3888889   0.1025641), wk =   0.0219479
        k(   63) = (   0.3888889   0.3888889   0.1709402), wk =   0.0219479
        k(   64) = (   0.3888889   0.3888889   0.2393162), wk =   0.0219479
        k(   65) = (   0.3888889   0.3888889  -0.3076923), wk =   0.0109739
        k(   66) = (   0.3888889  -0.5000000   0.0341880), wk =   0.0219479
        k(   67) = (   0.3888889  -0.5000000   0.1025641), wk =   0.0219479
        k(   68) = (   0.3888889  -0.5000000   0.1709402), wk =   0.0219479
        k(   69) = (   0.3888889  -0.5000000   0.2393162), wk =   0.0219479
        k(   70) = (   0.3888889  -0.5000000  -0.3076923), wk =   0.0109739
        k(   71) = (  -0.5000000  -0.5000000   0.0341880), wk =   0.0054870
        k(   72) = (  -0.5000000  -0.5000000   0.1025641), wk =   0.0054870
        k(   73) = (  -0.5000000  -0.5000000   0.1709402), wk =   0.0054870
        k(   74) = (  -0.5000000  -0.5000000   0.2393162), wk =   0.0054870
        k(   75) = (  -0.5000000  -0.5000000  -0.3076923), wk =   0.0027435

     Check: negative core charge=   -0.000001

     Initial potential from superposition of free atoms

     starting charge  575.98776, renormalised to  576.00000
     Starting wfcs are  320 randomized atomic wfcs +   26 random wfcs
     Checking if some PAW data can be deallocated...

     Self-consistent Calculation

     iteration #  1     ecut=    71.00 Ry     beta= 0.10
     Davidson diagonalization with overlap
     ethr =  1.00E-02,  avg # of iterations =  4.1

     Threshold (ethr) on eigenvalues was too large:
     Diagonalizing with lowered threshold

     Davidson diagonalization with overlap
     ethr =  7.48E-04,  avg # of iterations =  1.3

     total energy              =  -16384.82427705 Ry
     estimated scf accuracy    <       4.29966334 Ry

[...]

     negative rho (up, down):  2.506E-04 0.000E+00

[...]

     negative rho (up, down):  2.068E-07 0.000E+00

[...]

     iteration # 21     ecut=    71.00 Ry     beta= 0.10
     Davidson diagonalization with overlap
     c_bands:  1 eigenvalues not converged
     ethr =  3.67E-08,  avg # of iterations =  5.5

[...]

     total energy              =  -16384.05122594 Ry
     estimated scf accuracy    <       0.00000112 Ry

     iteration # 28     ecut=    71.00 Ry     beta= 0.10
     Davidson diagonalization with overlap
     ethr =  1.95E-10,  avg # of iterations =  2.0

     End of self-consistent calculation

          k = 0.0556 0.0556 0.0342 ( 53578 PWs)   bands (ev):

   -74.2684 -74.2463 -74.2463 -74.2421 -74.2420 -74.2375 -74.2364 -74.2359
   -74.2358 -74.2347 -74.2288 -74.2288 -74.2274 -74.2274 -74.2202 -74.2201
   -73.6766 -73.6765 -73.6621 -73.6621 -73.6621 -73.6621 -73.6609 -73.6609
   -73.6607 -73.6607 -73.6594 -73.6594 -73.6594 -73.6594 -73.6448 -73.6448
   -40.1029 -40.1029 -40.1025 -40.1016 -40.0891 -40.0891 -40.0824 -40.0483
   -40.0482 -40.0453 -40.0452 -40.0080 -40.0080 -39.9970 -39.9970 -39.9878
   -39.9878 -39.9845 -39.9845 -39.9757 -39.9757 -39.9469 -39.9469 -39.9401
   -39.9401 -39.9401 -39.9356 -39.9356 -39.9304 -39.9258 -39.9258 -39.9119
   -39.9088 -39.9088 -39.8943 -39.8943 -39.8914 -39.8905 -39.8804 -39.8804
   -39.8752 -39.8752 -39.8415 -39.8396 -39.8396 -39.8353 -39.8232 -39.8217
   -39.5508 -39.5507 -39.5499 -39.5490 -39.5390 -39.5389 -39.5369 -39.5369
   -39.4685 -39.4685 -39.4683 -39.4683 -39.4535 -39.4535 -39.4533 -39.4533
   -39.4512 -39.4512 -39.4508 -39.4508 -39.4359 -39.4359 -39.4358 -39.4358
   -39.3653 -39.3650 -39.3638 -39.3634 -39.3518 -39.3517 -39.3505 -39.3504
   -39.2796 -39.2763 -39.2651 -39.2651 -39.2647 -39.2647 -39.2637 -39.2633
   -39.2633 -39.2633 -39.2629 -39.2629 -39.2626 -39.2626 -39.2527 -39.2527
     3.5465   4.8353   5.0760   5.0760   5.1424   5.1485   5.1548   5.1548
     5.2138   5.2267   5.3505   5.3505   5.4394   5.4394   5.6228   5.6228
     5.6885   5.8904   6.0120   6.0120   6.0411   6.0411   6.0709   6.0709
     6.0916   6.0916   6.1605   6.1637   6.1637   6.1659   6.1783   6.1783
     6.3043   6.3043   6.3718   6.3718   6.4081   6.4081   6.4842   6.4842
     6.4963   6.4964   6.5589   6.5589   6.6209   6.6804   6.6804   6.6987
     6.6987   6.8422   6.8423   6.9083   6.9561   6.9561   7.0058   7.0058
     7.0180   7.0266   7.0266   7.0374   7.2131   7.2131   7.2164   7.2164
     7.2294   7.2397   7.3772   7.3773   7.3887   7.3907   7.3981   7.3981
     7.4307   7.4400   7.5006   7.5006   7.5355   7.5355   7.8856   7.8857
     7.9394   7.9473   7.9501   7.9501   7.9697   7.9697   7.9941   7.9941
     8.1162   8.1162   8.1501   8.1501   8.1632   8.1632   8.1699   8.1865
     8.2152   8.2152   8.2419   8.2419   8.2727   8.2896   8.3177   8.3409
     8.3409   8.4485   8.4485   8.4653   8.4653   8.5433   8.5715   8.5715
     8.6013   8.6013   8.6120   8.6121   8.7396   8.7396   8.7946   8.7946
     8.7957   8.7957   8.8288   8.9782   8.9782   8.9968   9.0462   9.0462
     9.1662   9.1662   9.1790   9.1790   9.1792   9.1987   9.1987   9.2082
     9.2958   9.3175   9.3186   9.3186   9.3215   9.3995   9.4307   9.4492
     9.4492   9.4752   9.4752   9.4828   9.4828   9.6439   9.6439   9.7175
     9.7205   9.7205   9.7216   9.7751   9.8539   9.8705   9.8705   9.8774
     9.8774   9.9285   9.9737  10.0806  10.0806  10.4124  10.4124  10.4849
    10.4849  10.8486  10.8486  11.2555  11.3353  11.5422  11.7560  11.7560
    12.0492  12.1088  12.1088  12.1737  12.1737  12.4576  12.6620  12.6620
    12.6736  14.2633  14.2633  14.5367  14.5367  15.0752  15.1082  15.1082
    15.1348  15.1348  15.2550  15.9047  15.9047  16.1808  16.4713  16.4713
    16.5715  16.5715  18.0659  18.3331  18.3332  18.5123  18.7263  18.8166
    18.8166  19.0298  19.0299  19.0665  19.0665  19.1339  19.1340  19.2820
    19.5016  19.5413

[...]

          k = 0.3889-0.5000-0.3077 ( 53620 PWs)   bands (ev):

[...]

          k =-0.5000-0.5000 0.0342 ( 53640 PWs)   bands (ev):

[...]

          k =-0.5000-0.5000-0.3077 ( 53544 PWs)   bands (ev):

   -74.2557 -74.2557 -74.2556 -74.2556 -74.2329 -74.2329 -74.2329 -74.2329
   -74.2280 -74.2280 -74.2280 -74.2280 -74.2280 -74.2280 -74.2280 -74.2280
   -73.6688 -73.6688 -73.6687 -73.6687 -73.6687 -73.6687 -73.6687 -73.6687
   -73.6527 -73.6527 -73.6527 -73.6527 -73.6527 -73.6527 -73.6527 -73.6527
   -40.0806 -40.0806 -40.0806 -40.0806 -40.0805 -40.0805 -40.0805 -40.0805
   -40.0671 -40.0671 -40.0671 -40.0671 -40.0165 -40.0165 -40.0165 -40.0165
   -39.9555 -39.9555 -39.9555 -39.9555 -39.9555 -39.9555 -39.9555 -39.9555
   -39.9154 -39.9154 -39.9153 -39.9153 -39.9141 -39.9141 -39.9141 -39.9141
   -39.9141 -39.9141 -39.9141 -39.9141 -39.8919 -39.8919 -39.8919 -39.8919
   -39.8723 -39.8723 -39.8723 -39.8723 -39.8226 -39.8226 -39.8226 -39.8226
   -39.5441 -39.5441 -39.5441 -39.5441 -39.5441 -39.5441 -39.5441 -39.5441
   -39.4604 -39.4604 -39.4604 -39.4604 -39.4581 -39.4581 -39.4581 -39.4581
   -39.4456 -39.4456 -39.4456 -39.4456 -39.4455 -39.4455 -39.4455 -39.4455
   -39.3571 -39.3571 -39.3571 -39.3571 -39.3569 -39.3569 -39.3569 -39.3569
   -39.2705 -39.2705 -39.2705 -39.2705 -39.2698 -39.2698 -39.2698 -39.2698
   -39.2580 -39.2580 -39.2580 -39.2580 -39.2580 -39.2580 -39.2580 -39.2580
     4.6685   4.6685   4.6685   4.6685   5.2885   5.2885   5.2885   5.2885
     5.6226   5.6226   5.6226   5.6226   5.6226   5.6226   5.6226   5.6226
     5.7359   5.7359   5.7359   5.7359   5.7913   5.7913   5.7913   5.7913
     5.7913   5.7913   5.7913   5.7913   5.8862   5.8862   5.8862   5.8862
     6.1755   6.1755   6.1755   6.1755   6.4972   6.4972   6.4972   6.4972
     6.4972   6.4972   6.4972   6.4972   6.7964   6.7964   6.7964   6.7964
     6.7964   6.7964   6.7964   6.7964   6.9646   6.9646   6.9646   6.9646
     7.1838   7.1838   7.1838   7.1838   7.4307   7.4307   7.4307   7.4307
     7.5334   7.5334   7.5334   7.5334   7.5723   7.5723   7.5723   7.5723
     7.6309   7.6309   7.6309   7.6309   7.7630   7.7630   7.7630   7.7631
     7.7631   7.7631   7.7631   7.7631   7.8074   7.8074   7.8074   7.8074
     8.0801   8.0801   8.0801   8.0801   8.2054   8.2054   8.2054   8.2054
     8.3429   8.3429   8.3429   8.3429   8.3429   8.3429   8.3429   8.3429
     8.3746   8.3746   8.3746   8.3746   8.3746   8.3746   8.3746   8.3746
     8.4265   8.4265   8.4265   8.4265   8.6473   8.6473   8.6473   8.6473
     8.9454   8.9454   8.9454   8.9454   8.9454   8.9454   8.9454   8.9454
     8.9561   8.9561   8.9561   8.9561   9.0668   9.0668   9.0668   9.0668
     9.2152   9.2152   9.2152   9.2152   9.4180   9.4180   9.4180   9.4180
     9.5533   9.5533   9.5533   9.5533   9.5533   9.5533   9.5533   9.5533
     9.8340   9.8340   9.8340   9.8340   9.8945   9.8945   9.8945   9.8945
     9.8945   9.8945   9.8945   9.8945   9.9038   9.9038   9.9038   9.9038
    10.7213  10.7213  10.7213  10.7213  12.8996  12.8996  12.8996  12.8996
    13.1566  13.1566  13.1566  13.1566  13.1566  13.1566  13.1566  13.1566
    14.2652  14.2652  14.2652  14.2652  14.2652  14.2652  14.2652  14.2652
    15.5075  15.5075  15.5075  15.5075  16.2874  16.2874  16.2874  16.2874
    16.2874  16.2874  16.2874  16.2874  16.8461  16.8461  16.8461  16.8461
    18.5137  18.5137  18.5137  18.5137  18.5584  18.5584  18.5584  18.5584
    18.5584  18.5584

     the Fermi energy is     9.9053 ev

!    total energy              =  -16384.05122808 Ry

     total all-electron energy =   -322944.904935 Ry
     estimated scf accuracy    <       0.00000009 Ry
     smearing contrib. (-TS)   =       0.12352973 Ry
     internal energy E=F+TS    =  -16384.17475781 Ry

     The total energy is F=E-TS. E is the sum of the following terms:
     one-electron contribution =  -14560.34439991 Ry
     hartree contribution      =    7504.58153476 Ry
     xc contribution           =    -985.38157531 Ry
     ewald contribution        =    -175.70066057 Ry
     one-center paw contrib.   =   -8167.32965678 Ry

     convergence has been achieved in  28 iterations

     Forces acting on atoms (cartesian axes, Ry/au):

     atom    1 type  1   force =     0.00000000    0.00000000    0.00322218
     atom    2 type  1   force =    -0.00000053   -0.00000053    0.00322360
     atom    3 type  1   force =     0.00000301    0.00000000   -0.00424562
     atom    4 type  1   force =     0.00000000    0.00000301   -0.00424562
     atom    5 type  1   force =     0.00000000    0.00000000    0.00408692
     atom    6 type  1   force =    -0.00000433   -0.00000433    0.00407864
     atom    7 type  1   force =     0.00000074    0.00000000   -0.00306318
     atom    8 type  1   force =     0.00000000    0.00000074   -0.00306318
     atom    9 type  1   force =     0.00000000    0.00000000    0.00322580
     atom   10 type  1   force =    -0.00000053    0.00000053    0.00322360
     atom   11 type  1   force =    -0.00000235   -0.00000000   -0.00424531
     atom   12 type  1   force =     0.00000000   -0.00000301   -0.00424562
     atom   13 type  1   force =     0.00000000    0.00000000    0.00408728
     atom   14 type  1   force =    -0.00000433    0.00000433    0.00407864
     atom   15 type  1   force =    -0.00000603    0.00000000   -0.00305976
     atom   16 type  1   force =     0.00000000   -0.00000074   -0.00306318
     atom   17 type  1   force =     0.00000000    0.00000000    0.00322580
     atom   18 type  1   force =     0.00000053   -0.00000053    0.00322360
     atom   19 type  1   force =    -0.00000301    0.00000000   -0.00424562
     atom   20 type  1   force =     0.00000000   -0.00000235   -0.00424531
     atom   21 type  1   force =     0.00000000    0.00000000    0.00408728
     atom   22 type  1   force =     0.00000433   -0.00000433    0.00407864
     atom   23 type  1   force =    -0.00000074    0.00000000   -0.00306318
     atom   24 type  1   force =     0.00000000   -0.00000603   -0.00305976
     atom   25 type  1   force =     0.00000000    0.00000000    0.00322593
     atom   26 type  1   force =     0.00000053    0.00000053    0.00322360
     atom   27 type  1   force =     0.00000235    0.00000000   -0.00424531
     atom   28 type  1   force =    -0.00000000    0.00000235   -0.00424531
     atom   29 type  1   force =     0.00000000    0.00000000    0.00408535
     atom   30 type  1   force =     0.00000433    0.00000433    0.00407864
     atom   31 type  1   force =     0.00000603    0.00000000   -0.00305976
     atom   32 type  1   force =     0.00000000    0.00000603   -0.00305976

     Total force =     0.020873     Total SCF correction =     0.001197

     Computing stress (Cartesian axis) and pressure

          total   stress  (Ry/bohr**3)                   (kbar)     P=      -34.03
  -0.00029022   0.00000000   0.00000000          -42.69        0.00        0.00
   0.00000000  -0.00029022   0.00000000            0.00      -42.69        0.00
   0.00000000   0.00000000  -0.00011363            0.00        0.00      -16.72

     Writing output data file /scratch/SEJdTpKtxIcygsnh.save/

     General routines

     Parallel routines

   This run was terminated on:   7:48:24   7Jan2022

   JOB DONE.