     Program PWSCF v.6.7MaX starts on  7Jan2022 at 10:15: 3

     R & G space division:  proc/nbgrp/npool/nimage =      72
     Reading input from scf_25.in
Warning: card &CELL ignored
Warning: card CELL_DYNAMICS = 'BFGS', ignored
Warning: card CELL_FACTOR = 2.0, ignored
Warning: card PRESS = 0.0, ignored
Warning: card / ignored

     Current dimensions of program PWSCF are:
     Max number of different atomic species (ntypx) = 10
     Max number of k-points (npk) =  40000
     Max angular momentum in pseudopotentials (lmaxx) =  3
     file Pd.pbe-spn-kjpaw_psl.1.0.0.UPF: wavefunction(s)  4S 5S 4D renormalized

     Subspace diagonalization in iterative solution of the eigenvalue problem:
     one sub-group per band group will be used

     Found symmetry operation: I + (  0.2500  0.2500  0.0000)
     This is a supercell, fractional translations are disabled
     Message from routine setup:
     using ibrav=0 with symmetry is DISCOURAGED, use correct ibrav instead

     bravais-lattice index     =            0
     lattice parameter (alat)  =      14.8394  a.u.
     unit-cell volume          =    5718.5883 (a.u.)^3
     number of atoms/cell      =           32
     number of atomic types    =            1
     number of electrons       =       576.00
     number of Kohn-Sham states=          346
     kinetic-energy cutoff     =      71.0000  Ry
     charge density cutoff     =     430.0000  Ry
     scf convergence threshold =      1.0E-06
     mixing beta               =       0.1000
     number of iterations used =           10  TF        mixing
     Exchange-correlation= SLA  PW   PBX  PBC
                           (   1   4   3   4   0   0   0)

     celldm(1)=  14.839420  celldm(2)=   0.000000  celldm(3)=   0.000000
     celldm(4)=   0.000000  celldm(5)=   0.000000  celldm(6)=   0.000000

     crystal axes: (cart. coord. in units of alat)
               a(1) = (   1.000000   0.000000   0.000000 )
               a(2) = (   0.000000   1.000000   0.000000 )
               a(3) = (   0.000000   0.000000   1.750000 )

     reciprocal axes: (cart. coord. in units 2 pi/alat)
               b(1) = (  1.000000  0.000000  0.000000 )
               b(2) = (  0.000000  1.000000  0.000000 )
               b(3) = (  0.000000  0.000000  0.571429 )

     PseudoPot. # 1 for Pd read from file:
     /rds/homes/b/bxp912/pp/Pd.pbe-spn-kjpaw_psl.1.0.0.UPF
     MD5 check sum: 790f2ebce206edfd9790dcb9844eca51
     Pseudo is Projector augmented-wave + core cor, Zval = 18.0
     Generated using &quot;atomic&quot; code by A. Dal Corso  v.6.3
     Shape of augmentation charge: PSQ
     Using radial grid of 1235 points,  6 beta functions with:
                l(1) =   0
                l(2) =   0
                l(3) =   1
                l(4) =   1
                l(5) =   2
                l(6) =   2
     Q(r) pseudized with 0 coefficients

     atomic species   valence    mass     pseudopotential
        Pd            18.00   106.42000     Pd( 1.00)

      8 Sym. Ops. (no inversion) found

   Cartesian axes

     site n.     atom                  positions (alat units)
         1           Pd  tau(   1) = (   0.0000000   0.0000000   0.0000000  )
         2           Pd  tau(   2) = (   0.2500000   0.2500000   0.0000000  )
         3           Pd  tau(   3) = (   0.2500000   0.0000000   0.2500000  )
         4           Pd  tau(   4) = (   0.0000000   0.2500000   0.2500000  )
         5           Pd  tau(   5) = (   0.0000000   0.0000000   1.2500000  )
         6           Pd  tau(   6) = (   0.2500000   0.2500000   1.2500000  )
         7           Pd  tau(   7) = (   0.2500000   0.0000000   1.5000000  )
         8           Pd  tau(   8) = (   0.0000000   0.2500000   1.5000000  )
         9           Pd  tau(   9) = (   0.0000000   0.5000000   0.0000000  )
        10           Pd  tau(  10) = (   0.2500000   0.7500000   0.0000000  )
        11           Pd  tau(  11) = (   0.2500000   0.5000000   0.2500000  )
        12           Pd  tau(  12) = (   0.0000000   0.7500000   0.2500000  )
        13           Pd  tau(  13) = (   0.0000000   0.5000000   1.2500000  )
        14           Pd  tau(  14) = (   0.2500000   0.7500000   1.2500000  )
        15           Pd  tau(  15) = (   0.2500000   0.5000000   1.5000000  )
        16           Pd  tau(  16) = (   0.0000000   0.7500000   1.5000000  )
        17           Pd  tau(  17) = (   0.5000000   0.0000000   0.0000000  )
        18           Pd  tau(  18) = (   0.7500000   0.2500000   0.0000000  )
        19           Pd  tau(  19) = (   0.7500000   0.0000000   0.2500000  )
        20           Pd  tau(  20) = (   0.5000000   0.2500000   0.2500000  )
        21           Pd  tau(  21) = (   0.5000000   0.0000000   1.2500000  )
        22           Pd  tau(  22) = (   0.7500000   0.2500000   1.2500000  )
        23           Pd  tau(  23) = (   0.7500000   0.0000000   1.5000000  )
        24           Pd  tau(  24) = (   0.5000000   0.2500000   1.5000000  )
        25           Pd  tau(  25) = (   0.5000000   0.5000000   0.0000000  )
        26           Pd  tau(  26) = (   0.7500000   0.7500000   0.0000000  )
        27           Pd  tau(  27) = (   0.7500000   0.5000000   0.2500000  )
        28           Pd  tau(  28) = (   0.5000000   0.7500000   0.2500000  )
        29           Pd  tau(  29) = (   0.5000000   0.5000000   1.2500000  )
        30           Pd  tau(  30) = (   0.7500000   0.7500000   1.2500000  )
        31           Pd  tau(  31) = (   0.7500000   0.5000000   1.5000000  )
        32           Pd  tau(  32) = (   0.5000000   0.7500000   1.5000000  )

     number of k points=    75  Marzari-Vanderbilt smearing, width (Ry)=  0.0400
                       cart. coord. in units 2pi/alat
        k(    1) = (   0.0555556   0.0555556   0.0317460), wk =   0.0219479
        k(    2) = (   0.0555556   0.0555556   0.0952381), wk =   0.0219479
        k(    3) = (   0.0555556   0.0555556   0.1587302), wk =   0.0219479
        k(    4) = (   0.0555556   0.0555556   0.2222222), wk =   0.0219479
        k(    5) = (   0.0555556   0.0555556  -0.2857143), wk =   0.0109739
        k(    6) = (   0.0555556   0.1666667   0.0317460), wk =   0.0438957
        k(    7) = (   0.0555556   0.1666667   0.0952381), wk =   0.0438957
        k(    8) = (   0.0555556   0.1666667   0.1587302), wk =   0.0438957
        k(    9) = (   0.0555556   0.1666667   0.2222222), wk =   0.0438957
        k(   10) = (   0.0555556   0.1666667  -0.2857143), wk =   0.0219479
        k(   11) = (   0.0555556   0.2777778   0.0317460), wk =   0.0438957
        k(   12) = (   0.0555556   0.2777778   0.0952381), wk =   0.0438957
        k(   13) = (   0.0555556   0.2777778   0.1587302), wk =   0.0438957
        k(   14) = (   0.0555556   0.2777778   0.2222222), wk =   0.0438957
        k(   15) = (   0.0555556   0.2777778  -0.2857143), wk =   0.0219479
        k(   16) = (   0.0555556   0.3888889   0.0317460), wk =   0.0438957
        k(   17) = (   0.0555556   0.3888889   0.0952381), wk =   0.0438957
        k(   18) = (   0.0555556   0.3888889   0.1587302), wk =   0.0438957
        k(   19) = (   0.0555556   0.3888889   0.2222222), wk =   0.0438957
        k(   20) = (   0.0555556   0.3888889  -0.2857143), wk =   0.0219479
        k(   21) = (   0.0555556  -0.5000000   0.0317460), wk =   0.0219479
        k(   22) = (   0.0555556  -0.5000000   0.0952381), wk =   0.0219479
        k(   23) = (   0.0555556  -0.5000000   0.1587302), wk =   0.0219479
        k(   24) = (   0.0555556  -0.5000000   0.2222222), wk =   0.0219479
        k(   25) = (   0.0555556  -0.5000000  -0.2857143), wk =   0.0109739
        k(   26) = (   0.1666667   0.1666667   0.0317460), wk =   0.0219479
        k(   27) = (   0.1666667   0.1666667   0.0952381), wk =   0.0219479
        k(   28) = (   0.1666667   0.1666667   0.1587302), wk =   0.0219479
        k(   29) = (   0.1666667   0.1666667   0.2222222), wk =   0.0219479
        k(   30) = (   0.1666667   0.1666667  -0.2857143), wk =   0.0109739
        k(   31) = (   0.1666667   0.2777778   0.0317460), wk =   0.0438957
        k(   32) = (   0.1666667   0.2777778   0.0952381), wk =   0.0438957
        k(   33) = (   0.1666667   0.2777778   0.1587302), wk =   0.0438957
        k(   34) = (   0.1666667   0.2777778   0.2222222), wk =   0.0438957
        k(   35) = (   0.1666667   0.2777778  -0.2857143), wk =   0.0219479
        k(   36) = (   0.1666667   0.3888889   0.0317460), wk =   0.0438957
        k(   37) = (   0.1666667   0.3888889   0.0952381), wk =   0.0438957
        k(   38) = (   0.1666667   0.3888889   0.1587302), wk =   0.0438957
        k(   39) = (   0.1666667   0.3888889   0.2222222), wk =   0.0438957
        k(   40) = (   0.1666667   0.3888889  -0.2857143), wk =   0.0219479
        k(   41) = (   0.1666667  -0.5000000   0.0317460), wk =   0.0219479
        k(   42) = (   0.1666667  -0.5000000   0.0952381), wk =   0.0219479
        k(   43) = (   0.1666667  -0.5000000   0.1587302), wk =   0.0219479
        k(   44) = (   0.1666667  -0.5000000   0.2222222), wk =   0.0219479
        k(   45) = (   0.1666667  -0.5000000  -0.2857143), wk =   0.0109739
        k(   46) = (   0.2777778   0.2777778   0.0317460), wk =   0.0219479
        k(   47) = (   0.2777778   0.2777778   0.0952381), wk =   0.0219479
        k(   48) = (   0.2777778   0.2777778   0.1587302), wk =   0.0219479
        k(   49) = (   0.2777778   0.2777778   0.2222222), wk =   0.0219479
        k(   50) = (   0.2777778   0.2777778  -0.2857143), wk =   0.0109739
        k(   51) = (   0.2777778   0.3888889   0.0317460), wk =   0.0438957
        k(   52) = (   0.2777778   0.3888889   0.0952381), wk =   0.0438957
        k(   53) = (   0.2777778   0.3888889   0.1587302), wk =   0.0438957
        k(   54) = (   0.2777778   0.3888889   0.2222222), wk =   0.0438957
        k(   55) = (   0.2777778   0.3888889  -0.2857143), wk =   0.0219479
        k(   56) = (   0.2777778  -0.5000000   0.0317460), wk =   0.0219479
        k(   57) = (   0.2777778  -0.5000000   0.0952381), wk =   0.0219479
        k(   58) = (   0.2777778  -0.5000000   0.1587302), wk =   0.0219479
        k(   59) = (   0.2777778  -0.5000000   0.2222222), wk =   0.0219479
        k(   60) = (   0.2777778  -0.5000000  -0.2857143), wk =   0.0109739
        k(   61) = (   0.3888889   0.3888889   0.0317460), wk =   0.0219479
        k(   62) = (   0.3888889   0.3888889   0.0952381), wk =   0.0219479
        k(   63) = (   0.3888889   0.3888889   0.1587302), wk =   0.0219479
        k(   64) = (   0.3888889   0.3888889   0.2222222), wk =   0.0219479
        k(   65) = (   0.3888889   0.3888889  -0.2857143), wk =   0.0109739
        k(   66) = (   0.3888889  -0.5000000   0.0317460), wk =   0.0219479
        k(   67) = (   0.3888889  -0.5000000   0.0952381), wk =   0.0219479
        k(   68) = (   0.3888889  -0.5000000   0.1587302), wk =   0.0219479
        k(   69) = (   0.3888889  -0.5000000   0.2222222), wk =   0.0219479
        k(   70) = (   0.3888889  -0.5000000  -0.2857143), wk =   0.0109739
        k(   71) = (  -0.5000000  -0.5000000   0.0317460), wk =   0.0054870
        k(   72) = (  -0.5000000  -0.5000000   0.0952381), wk =   0.0054870
        k(   73) = (  -0.5000000  -0.5000000   0.1587302), wk =   0.0054870
        k(   74) = (  -0.5000000  -0.5000000   0.2222222), wk =   0.0054870
        k(   75) = (  -0.5000000  -0.5000000  -0.2857143), wk =   0.0027435

     Check: negative core charge=   -0.000001

     Initial potential from superposition of free atoms

     starting charge  575.98776, renormalised to  576.00000
     Starting wfcs are  320 randomized atomic wfcs +   26 random wfcs
     Checking if some PAW data can be deallocated...

     Self-consistent Calculation

     iteration #  1     ecut=    71.00 Ry     beta= 0.10
     Davidson diagonalization with overlap
     ethr =  1.00E-02,  avg # of iterations =  4.1

     Threshold (ethr) on eigenvalues was too large:
     Diagonalizing with lowered threshold

     Davidson diagonalization with overlap
     ethr =  7.49E-04,  avg # of iterations =  1.4

     total energy              =  -16384.82240220 Ry
     estimated scf accuracy    <       4.30031492 Ry

[...]

     negative rho (up, down):  2.104E-04 0.000E+00

[...]

     iteration # 12     ecut=    71.00 Ry     beta= 0.10
     Davidson diagonalization with overlap
     c_bands:  1 eigenvalues not converged
     ethr =  1.63E-05,  avg # of iterations =  5.2

[...]

     negative rho (up, down):  2.383E-04 0.000E+00

[...]

     iteration # 21     ecut=    71.00 Ry     beta= 0.10
     Davidson diagonalization with overlap
     c_bands:  1 eigenvalues not converged
     ethr =  1.34E-07,  avg # of iterations =  5.3

[...]

     total energy              =  -16384.05076288 Ry
     estimated scf accuracy    <       0.00000165 Ry

     iteration # 29     ecut=    71.00 Ry     beta= 0.10
     Davidson diagonalization with overlap
     ethr =  2.86E-10,  avg # of iterations =  2.0

     End of self-consistent calculation

          k = 0.0556 0.0556 0.0317 ( 57717 PWs)   bands (ev):

   -75.3393 -75.3172 -75.3171 -75.3129 -75.3129 -75.3084 -75.3073 -75.3067
   -75.3067 -75.3056 -75.2997 -75.2997 -75.2983 -75.2983 -75.2910 -75.2910
   -74.7474 -74.7473 -74.7330 -74.7330 -74.7329 -74.7329 -74.7317 -74.7317
   -74.7315 -74.7314 -74.7302 -74.7302 -74.7301 -74.7301 -74.7156 -74.7155
   -41.1739 -41.1739 -41.1735 -41.1726 -41.1600 -41.1600 -41.1534 -41.1191
   -41.1191 -41.1161 -41.1161 -41.0789 -41.0789 -41.0679 -41.0679 -41.0587
   -41.0586 -41.0554 -41.0554 -41.0465 -41.0465 -41.0178 -41.0178 -41.0111
   -41.0110 -41.0110 -41.0065 -41.0065 -41.0013 -40.9966 -40.9966 -40.9828
   -40.9797 -40.9797 -40.9652 -40.9652 -40.9624 -40.9614 -40.9513 -40.9513
   -40.9460 -40.9460 -40.9124 -40.9105 -40.9105 -40.9062 -40.8941 -40.8925
   -40.6216 -40.6216 -40.6208 -40.6199 -40.6098 -40.6098 -40.6078 -40.6078
   -40.5394 -40.5394 -40.5392 -40.5392 -40.5244 -40.5244 -40.5241 -40.5241
   -40.5220 -40.5220 -40.5216 -40.5216 -40.5068 -40.5068 -40.5066 -40.5066
   -40.4362 -40.4358 -40.4347 -40.4342 -40.4227 -40.4226 -40.4214 -40.4213
   -40.3505 -40.3472 -40.3359 -40.3359 -40.3354 -40.3354 -40.3346 -40.3342
   -40.3342 -40.3341 -40.3338 -40.3338 -40.3334 -40.3334 -40.3235 -40.3235
     2.4757   3.7641   4.0051   4.0052   4.0715   4.0776   4.0839   4.0839
     4.1429   4.1552   4.2796   4.2796   4.3686   4.3686   4.5520   4.5520
     4.6179   4.8195   4.9410   4.9411   4.9702   4.9702   5.0001   5.0001
     5.0206   5.0206   5.0895   5.0927   5.0927   5.0949   5.1073   5.1073
     5.2334   5.2334   5.3009   5.3009   5.3371   5.3371   5.4132   5.4132
     5.4255   5.4255   5.4880   5.4880   5.5500   5.6095   5.6095   5.6278
     5.6278   5.7713   5.7713   5.8373   5.8852   5.8852   5.9349   5.9349
     5.9471   5.9557   5.9557   5.9665   6.1419   6.1419   6.1454   6.1455
     6.1585   6.1688   6.3060   6.3060   6.3178   6.3198   6.3272   6.3272
     6.3598   6.3691   6.4300   6.4300   6.4650   6.4650   6.8152   6.8152
     6.8689   6.8771   6.8792   6.8792   6.8988   6.8988   6.9233   6.9233
     7.0441   7.0441   7.0792   7.0792   7.0923   7.0923   7.0990   7.1156
     7.1432   7.1432   7.1711   7.1711   7.2025   7.2142   7.2468   7.2703
     7.2703   7.3777   7.3777   7.3950   7.3950   7.4729   7.5005   7.5005
     7.5316   7.5316   7.5414   7.5414   7.6688   7.6688   7.7230   7.7230
     7.7239   7.7239   7.7580   7.9073   7.9073   7.9454   7.9753   7.9754
     8.0949   8.0949   8.1081   8.1081   8.1082   8.1279   8.1279   8.1373
     8.2240   8.2466   8.2495   8.2510   8.2510   8.3286   8.3581   8.3775
     8.3775   8.4041   8.4041   8.4150   8.4150   8.5730   8.5730   8.6465
     8.6496   8.6497   8.6508   8.7042   8.7830   8.7996   8.7996   8.8064
     8.8064   8.8591   8.9028   9.0097   9.0097   9.3339   9.3339   9.4141
     9.4141   9.7704   9.7704  10.1054  10.2647  10.4711  10.6870  10.6870
    10.9834  11.0602  11.0602  11.1017  11.1017  11.4471  11.6001  11.6134
    11.6134  13.1934  13.1934  13.3768  13.3768  13.9484  13.9484  14.0165
    14.0685  14.0686  14.1745  14.4481  14.8314  14.8314  15.3947  15.3947
    15.4958  15.4958  16.9302  16.9313  17.1797  17.1797  17.3717  17.3996
    17.3996  17.5405  17.7475  17.7475  17.8778  17.8782  18.0113  18.0113
    18.0183  18.0183

[...]

          k = 0.3889-0.5000-0.2857 ( 57796 PWs)   bands (ev):

[...]

          k =-0.5000-0.5000 0.0317 ( 57728 PWs)   bands (ev):

[...]

          k =-0.5000-0.5000-0.2857 ( 57696 PWs)   bands (ev):

   -75.3265 -75.3265 -75.3265 -75.3265 -75.3038 -75.3038 -75.3038 -75.3038
   -75.2989 -75.2989 -75.2989 -75.2989 -75.2989 -75.2989 -75.2988 -75.2988
   -74.7396 -74.7396 -74.7396 -74.7396 -74.7395 -74.7395 -74.7395 -74.7395
   -74.7236 -74.7236 -74.7236 -74.7236 -74.7235 -74.7235 -74.7235 -74.7235
   -41.1515 -41.1515 -41.1515 -41.1515 -41.1515 -41.1515 -41.1514 -41.1514
   -41.1380 -41.1380 -41.1380 -41.1380 -41.0874 -41.0874 -41.0874 -41.0874
   -41.0265 -41.0265 -41.0265 -41.0264 -41.0264 -41.0264 -41.0264 -41.0264
   -40.9862 -40.9862 -40.9862 -40.9862 -40.9851 -40.9851 -40.9851 -40.9850
   -40.9850 -40.9850 -40.9850 -40.9850 -40.9628 -40.9628 -40.9628 -40.9628
   -40.9432 -40.9432 -40.9431 -40.9431 -40.8934 -40.8934 -40.8934 -40.8934
   -40.6150 -40.6150 -40.6150 -40.6150 -40.6149 -40.6149 -40.6149 -40.6149
   -40.5313 -40.5313 -40.5313 -40.5313 -40.5288 -40.5288 -40.5288 -40.5288
   -40.5165 -40.5165 -40.5165 -40.5165 -40.5164 -40.5164 -40.5164 -40.5164
   -40.4279 -40.4279 -40.4279 -40.4279 -40.4277 -40.4277 -40.4277 -40.4277
   -40.3412 -40.3412 -40.3412 -40.3412 -40.3407 -40.3407 -40.3406 -40.3406
   -40.3289 -40.3289 -40.3289 -40.3289 -40.3289 -40.3289 -40.3289 -40.3289
     3.5975   3.5975   3.5975   3.5975   4.2177   4.2177   4.2177   4.2177
     4.5517   4.5517   4.5517   4.5517   4.5517   4.5517   4.5517   4.5517
     4.6652   4.6652   4.6652   4.6652   4.7204   4.7204   4.7204   4.7204
     4.7204   4.7204   4.7205   4.7205   4.8150   4.8150   4.8150   4.8150
     5.1047   5.1047   5.1047   5.1047   5.4262   5.4262   5.4262   5.4262
     5.4262   5.4262   5.4262   5.4262   5.7255   5.7255   5.7255   5.7255
     5.7256   5.7256   5.7256   5.7256   5.8936   5.8936   5.8936   5.8936
     6.1129   6.1129   6.1129   6.1129   6.3599   6.3599   6.3599   6.3599
     6.4627   6.4627   6.4627   6.4627   6.5015   6.5015   6.5015   6.5015
     6.5591   6.5591   6.5591   6.5591   6.6921   6.6921   6.6921   6.6921
     6.6921   6.6921   6.6922   6.6922   6.7365   6.7365   6.7365   6.7365
     7.0100   7.0100   7.0100   7.0100   7.1335   7.1335   7.1335   7.1335
     7.2719   7.2719   7.2719   7.2719   7.2719   7.2719   7.2719   7.2719
     7.3035   7.3035   7.3035   7.3035   7.3035   7.3035   7.3035   7.3035
     7.3557   7.3557   7.3557   7.3557   7.5764   7.5764   7.5764   7.5764
     7.8750   7.8750   7.8750   7.8750   7.8750   7.8750   7.8750   7.8750
     7.8837   7.8837   7.8837   7.8837   8.0046   8.0046   8.0046   8.0046
     8.1444   8.1444   8.1444   8.1444   8.3471   8.3471   8.3471   8.3471
     8.4819   8.4819   8.4819   8.4819   8.4819   8.4819   8.4819   8.4819
     8.7631   8.7631   8.7631   8.7631   8.8235   8.8235   8.8235   8.8235
     8.8235   8.8235   8.8235   8.8235   8.8329   8.8329   8.8329   8.8329
     9.6239   9.6239   9.6239   9.6239  11.8994  11.8994  11.8994  11.8994
    12.0847  12.0847  12.0847  12.0847  12.0847  12.0847  12.0847  12.0847
    13.1982  13.1982  13.1982  13.1982  13.1982  13.1982  13.1982  13.1982
    14.2490  14.2490  14.2490  14.2490  15.2038  15.2038  15.2038  15.2038
    15.2039  15.2039  15.2039  15.2039  15.2825  15.2826  15.2826  15.2826
    17.4401  17.4401  17.4401  17.4401  17.5426  17.5426  17.5426  17.5426
    17.5427  17.5427

     the Fermi energy is     8.8344 ev

!    total energy              =  -16384.05076472 Ry

     total all-electron energy =   -322944.904472 Ry
     estimated scf accuracy    <       0.00000037 Ry
     smearing contrib. (-TS)   =       0.12354237 Ry
     internal energy E=F+TS    =  -16384.17430708 Ry

     The total energy is F=E-TS. E is the sum of the following terms:
     one-electron contribution =  -18438.59323397 Ry
     hartree contribution      =    9421.02903203 Ry
     xc contribution           =    -985.38227423 Ry
     ewald contribution        =    1786.10167842 Ry
     one-center paw contrib.   =   -8167.32950933 Ry

     convergence has been achieved in  29 iterations

     Forces acting on atoms (cartesian axes, Ry/au):

     atom    1 type  1   force =     0.00000000    0.00000000    0.00318761
     atom    2 type  1   force =    -0.00000577   -0.00000577    0.00320075
     atom    3 type  1   force =    -0.00000788    0.00000000   -0.00408433
     atom    4 type  1   force =     0.00000000   -0.00000788   -0.00408433
     atom    5 type  1   force =     0.00000000    0.00000000    0.00403515
     atom    6 type  1   force =    -0.00001093   -0.00001093    0.00403484
     atom    7 type  1   force =    -0.00001182    0.00000000   -0.00315670
     atom    8 type  1   force =    -0.00000000   -0.00001182   -0.00315670
     atom    9 type  1   force =     0.00000000    0.00000000    0.00320533
     atom   10 type  1   force =    -0.00000577    0.00000577    0.00320075
     atom   11 type  1   force =     0.00000559    0.00000000   -0.00408484
     atom   12 type  1   force =     0.00000000    0.00000788   -0.00408433
     atom   13 type  1   force =     0.00000000    0.00000000    0.00403425
     atom   14 type  1   force =    -0.00001093    0.00001093    0.00403484
     atom   15 type  1   force =    -0.00000096    0.00000000   -0.00314359
     atom   16 type  1   force =     0.00000000    0.00001182   -0.00315670
     atom   17 type  1   force =     0.00000000    0.00000000    0.00320533
     atom   18 type  1   force =     0.00000577   -0.00000577    0.00320075
     atom   19 type  1   force =     0.00000788    0.00000000   -0.00408433
     atom   20 type  1   force =     0.00000000    0.00000559   -0.00408484
     atom   21 type  1   force =     0.00000000    0.00000000    0.00403425
     atom   22 type  1   force =     0.00001093   -0.00001093    0.00403484
     atom   23 type  1   force =     0.00001182   -0.00000000   -0.00315670
     atom   24 type  1   force =     0.00000000   -0.00000096   -0.00314359
     atom   25 type  1   force =     0.00000000    0.00000000    0.00320505
     atom   26 type  1   force =     0.00000577    0.00000577    0.00320075
     atom   27 type  1   force =    -0.00000559    0.00000000   -0.00408484
     atom   28 type  1   force =     0.00000000   -0.00000559   -0.00408484
     atom   29 type  1   force =     0.00000000    0.00000000    0.00402849
     atom   30 type  1   force =     0.00001093    0.00001093    0.00403484
     atom   31 type  1   force =     0.00000096    0.00000000   -0.00314359
     atom   32 type  1   force =     0.00000000    0.00000096   -0.00314359

     Total force =     0.020616     Total SCF correction =     0.002645
     SCF correction compared to forces is large: reduce conv_thr to get better values

     Computing stress (Cartesian axis) and pressure

          total   stress  (Ry/bohr**3)                   (kbar)     P=      -31.65
  -0.00026993   0.00000000   0.00000000          -39.71        0.00        0.00
   0.00000000  -0.00026993   0.00000000            0.00      -39.71        0.00
   0.00000000   0.00000000  -0.00010567            0.00        0.00      -15.54

     Writing output data file /scratch/vzRwBdzYGStYciNb.save/

     General routines

     Parallel routines

   This run was terminated on:  11: 7: 3   7Jan2022

   JOB DONE.