     Program PWSCF v.6.7MaX starts on  6Jan2022 at 21:29:54

     R & G space division:  proc/nbgrp/npool/nimage =      72
     Reading input from scf_5.in
Warning: card &CELL ignored
Warning: card CELL_DYNAMICS = 'BFGS', ignored
Warning: card CELL_FACTOR = 2.0, ignored
Warning: card PRESS = 0.0, ignored
Warning: card / ignored

     Current dimensions of program PWSCF are:
     Max number of different atomic species (ntypx) = 10
     Max number of k-points (npk) =  40000
     Max angular momentum in pseudopotentials (lmaxx) =  3
     file Pd.pbe-spn-kjpaw_psl.1.0.0.UPF: wavefunction(s)  4S 5S 4D renormalized

     Subspace diagonalization in iterative solution of the eigenvalue problem:
     one sub-group per band group will be used

     Found symmetry operation: I + (  0.2500  0.2500  0.0000)
     This is a supercell, fractional translations are disabled
     Message from routine setup:
     using ibrav=0 with symmetry is DISCOURAGED, use correct ibrav instead

     bravais-lattice index     =            0
     lattice parameter (alat)  =      14.8394  a.u.
     unit-cell volume          =    3676.2353 (a.u.)^3
     number of atoms/cell      =           32
     number of atomic types    =            1
     number of electrons       =       576.00
     number of Kohn-Sham states=          346
     kinetic-energy cutoff     =      71.0000  Ry
     charge density cutoff     =     430.0000  Ry
     scf convergence threshold =      1.0E-06
     mixing beta               =       0.1000
     number of iterations used =           10  TF        mixing
     Exchange-correlation= SLA  PW   PBX  PBC
                           (   1   4   3   4   0   0   0)

     celldm(1)=  14.839420  celldm(2)=   0.000000  celldm(3)=   0.000000
     celldm(4)=   0.000000  celldm(5)=   0.000000  celldm(6)=   0.000000

     crystal axes: (cart. coord. in units of alat)
               a(1) = (   1.000000   0.000000   0.000000 )
               a(2) = (   0.000000   1.000000   0.000000 )
               a(3) = (   0.000000   0.000000   1.125000 )

     reciprocal axes: (cart. coord. in units 2 pi/alat)
               b(1) = (  1.000000  0.000000  0.000000 )
               b(2) = (  0.000000  1.000000  0.000000 )
               b(3) = (  0.000000  0.000000  0.888889 )

     PseudoPot. # 1 for Pd read from file:
     /rds/homes/b/bxp912/pp/Pd.pbe-spn-kjpaw_psl.1.0.0.UPF
     MD5 check sum: 790f2ebce206edfd9790dcb9844eca51
     Pseudo is Projector augmented-wave + core cor, Zval = 18.0
     Generated using &quot;atomic&quot; code by A. Dal Corso  v.6.3
     Shape of augmentation charge: PSQ
     Using radial grid of 1235 points,  6 beta functions with:
                l(1) =   0
                l(2) =   0
                l(3) =   1
                l(4) =   1
                l(5) =   2
                l(6) =   2
     Q(r) pseudized with 0 coefficients

     atomic species   valence    mass     pseudopotential
        Pd            18.00   106.42000     Pd( 1.00)

      8 Sym. Ops. (no inversion) found

   Cartesian axes

     site n.     atom                  positions (alat units)
         1           Pd  tau(   1) = (   0.0000000   0.0000000   0.0000000  )
         2           Pd  tau(   2) = (   0.2500000   0.2500000   0.0000000  )
         3           Pd  tau(   3) = (   0.2500000   0.0000000   0.2500000  )
         4           Pd  tau(   4) = (   0.0000000   0.2500000   0.2500000  )
         5           Pd  tau(   5) = (   0.0000000   0.0000000   0.6250000  )
         6           Pd  tau(   6) = (   0.2500000   0.2500000   0.6250000  )
         7           Pd  tau(   7) = (   0.2500000   0.0000000   0.8750000  )
         8           Pd  tau(   8) = (   0.0000000   0.2500000   0.8750000  )
         9           Pd  tau(   9) = (   0.0000000   0.5000000   0.0000000  )
        10           Pd  tau(  10) = (   0.2500000   0.7500000   0.0000000  )
        11           Pd  tau(  11) = (   0.2500000   0.5000000   0.2500000  )
        12           Pd  tau(  12) = (   0.0000000   0.7500000   0.2500000  )
        13           Pd  tau(  13) = (   0.0000000   0.5000000   0.6250000  )
        14           Pd  tau(  14) = (   0.2500000   0.7500000   0.6250000  )
        15           Pd  tau(  15) = (   0.2500000   0.5000000   0.8750000  )
        16           Pd  tau(  16) = (   0.0000000   0.7500000   0.8750000  )
        17           Pd  tau(  17) = (   0.5000000   0.0000000   0.0000000  )
        18           Pd  tau(  18) = (   0.7500000   0.2500000   0.0000000  )
        19           Pd  tau(  19) = (   0.7500000   0.0000000   0.2500000  )
        20           Pd  tau(  20) = (   0.5000000   0.2500000   0.2500000  )
        21           Pd  tau(  21) = (   0.5000000   0.0000000   0.6250000  )
        22           Pd  tau(  22) = (   0.7500000   0.2500000   0.6250000  )
        23           Pd  tau(  23) = (   0.7500000   0.0000000   0.8750000  )
        24           Pd  tau(  24) = (   0.5000000   0.2500000   0.8750000  )
        25           Pd  tau(  25) = (   0.5000000   0.5000000   0.0000000  )
        26           Pd  tau(  26) = (   0.7500000   0.7500000   0.0000000  )
        27           Pd  tau(  27) = (   0.7500000   0.5000000   0.2500000  )
        28           Pd  tau(  28) = (   0.5000000   0.7500000   0.2500000  )
        29           Pd  tau(  29) = (   0.5000000   0.5000000   0.6250000  )
        30           Pd  tau(  30) = (   0.7500000   0.7500000   0.6250000  )
        31           Pd  tau(  31) = (   0.7500000   0.5000000   0.8750000  )
        32           Pd  tau(  32) = (   0.5000000   0.7500000   0.8750000  )

     number of k points=    75  Marzari-Vanderbilt smearing, width (Ry)=  0.0400
                       cart. coord. in units 2pi/alat
        k(    1) = (   0.0555556   0.0555556   0.0493827), wk =   0.0219479
        k(    2) = (   0.0555556   0.0555556   0.1481481), wk =   0.0219479
        k(    3) = (   0.0555556   0.0555556   0.2469136), wk =   0.0219479
        k(    4) = (   0.0555556   0.0555556   0.3456790), wk =   0.0219479
        k(    5) = (   0.0555556   0.0555556  -0.4444444), wk =   0.0109739
        k(    6) = (   0.0555556   0.1666667   0.0493827), wk =   0.0438957
        k(    7) = (   0.0555556   0.1666667   0.1481481), wk =   0.0438957
        k(    8) = (   0.0555556   0.1666667   0.2469136), wk =   0.0438957
        k(    9) = (   0.0555556   0.1666667   0.3456790), wk =   0.0438957
        k(   10) = (   0.0555556   0.1666667  -0.4444444), wk =   0.0219479
        k(   11) = (   0.0555556   0.2777778   0.0493827), wk =   0.0438957
        k(   12) = (   0.0555556   0.2777778   0.1481481), wk =   0.0438957
        k(   13) = (   0.0555556   0.2777778   0.2469136), wk =   0.0438957
        k(   14) = (   0.0555556   0.2777778   0.3456790), wk =   0.0438957
        k(   15) = (   0.0555556   0.2777778  -0.4444444), wk =   0.0219479
        k(   16) = (   0.0555556   0.3888889   0.0493827), wk =   0.0438957
        k(   17) = (   0.0555556   0.3888889   0.1481481), wk =   0.0438957
        k(   18) = (   0.0555556   0.3888889   0.2469136), wk =   0.0438957
        k(   19) = (   0.0555556   0.3888889   0.3456790), wk =   0.0438957
        k(   20) = (   0.0555556   0.3888889  -0.4444444), wk =   0.0219479
        k(   21) = (   0.0555556  -0.5000000   0.0493827), wk =   0.0219479
        k(   22) = (   0.0555556  -0.5000000   0.1481481), wk =   0.0219479
        k(   23) = (   0.0555556  -0.5000000   0.2469136), wk =   0.0219479
        k(   24) = (   0.0555556  -0.5000000   0.3456790), wk =   0.0219479
        k(   25) = (   0.0555556  -0.5000000  -0.4444444), wk =   0.0109739
        k(   26) = (   0.1666667   0.1666667   0.0493827), wk =   0.0219479
        k(   27) = (   0.1666667   0.1666667   0.1481481), wk =   0.0219479
        k(   28) = (   0.1666667   0.1666667   0.2469136), wk =   0.0219479
        k(   29) = (   0.1666667   0.1666667   0.3456790), wk =   0.0219479
        k(   30) = (   0.1666667   0.1666667  -0.4444444), wk =   0.0109739
        k(   31) = (   0.1666667   0.2777778   0.0493827), wk =   0.0438957
        k(   32) = (   0.1666667   0.2777778   0.1481481), wk =   0.0438957
        k(   33) = (   0.1666667   0.2777778   0.2469136), wk =   0.0438957
        k(   34) = (   0.1666667   0.2777778   0.3456790), wk =   0.0438957
        k(   35) = (   0.1666667   0.2777778  -0.4444444), wk =   0.0219479
        k(   36) = (   0.1666667   0.3888889   0.0493827), wk =   0.0438957
        k(   37) = (   0.1666667   0.3888889   0.1481481), wk =   0.0438957
        k(   38) = (   0.1666667   0.3888889   0.2469136), wk =   0.0438957
        k(   39) = (   0.1666667   0.3888889   0.3456790), wk =   0.0438957
        k(   40) = (   0.1666667   0.3888889  -0.4444444), wk =   0.0219479
        k(   41) = (   0.1666667  -0.5000000   0.0493827), wk =   0.0219479
        k(   42) = (   0.1666667  -0.5000000   0.1481481), wk =   0.0219479
        k(   43) = (   0.1666667  -0.5000000   0.2469136), wk =   0.0219479
        k(   44) = (   0.1666667  -0.5000000   0.3456790), wk =   0.0219479
        k(   45) = (   0.1666667  -0.5000000  -0.4444444), wk =   0.0109739
        k(   46) = (   0.2777778   0.2777778   0.0493827), wk =   0.0219479
        k(   47) = (   0.2777778   0.2777778   0.1481481), wk =   0.0219479
        k(   48) = (   0.2777778   0.2777778   0.2469136), wk =   0.0219479
        k(   49) = (   0.2777778   0.2777778   0.3456790), wk =   0.0219479
        k(   50) = (   0.2777778   0.2777778  -0.4444444), wk =   0.0109739
        k(   51) = (   0.2777778   0.3888889   0.0493827), wk =   0.0438957
        k(   52) = (   0.2777778   0.3888889   0.1481481), wk =   0.0438957
        k(   53) = (   0.2777778   0.3888889   0.2469136), wk =   0.0438957
        k(   54) = (   0.2777778   0.3888889   0.3456790), wk =   0.0438957
        k(   55) = (   0.2777778   0.3888889  -0.4444444), wk =   0.0219479
        k(   56) = (   0.2777778  -0.5000000   0.0493827), wk =   0.0219479
        k(   57) = (   0.2777778  -0.5000000   0.1481481), wk =   0.0219479
        k(   58) = (   0.2777778  -0.5000000   0.2469136), wk =   0.0219479
        k(   59) = (   0.2777778  -0.5000000   0.3456790), wk =   0.0219479
        k(   60) = (   0.2777778  -0.5000000  -0.4444444), wk =   0.0109739
        k(   61) = (   0.3888889   0.3888889   0.0493827), wk =   0.0219479
        k(   62) = (   0.3888889   0.3888889   0.1481481), wk =   0.0219479
        k(   63) = (   0.3888889   0.3888889   0.2469136), wk =   0.0219479
        k(   64) = (   0.3888889   0.3888889   0.3456790), wk =   0.0219479
        k(   65) = (   0.3888889   0.3888889  -0.4444444), wk =   0.0109739
        k(   66) = (   0.3888889  -0.5000000   0.0493827), wk =   0.0219479
        k(   67) = (   0.3888889  -0.5000000   0.1481481), wk =   0.0219479
        k(   68) = (   0.3888889  -0.5000000   0.2469136), wk =   0.0219479
        k(   69) = (   0.3888889  -0.5000000   0.3456790), wk =   0.0219479
        k(   70) = (   0.3888889  -0.5000000  -0.4444444), wk =   0.0109739
        k(   71) = (  -0.5000000  -0.5000000   0.0493827), wk =   0.0054870
        k(   72) = (  -0.5000000  -0.5000000   0.1481481), wk =   0.0054870
        k(   73) = (  -0.5000000  -0.5000000   0.2469136), wk =   0.0054870
        k(   74) = (  -0.5000000  -0.5000000   0.3456790), wk =   0.0054870
        k(   75) = (  -0.5000000  -0.5000000  -0.4444444), wk =   0.0027435

     Check: negative core charge=   -0.000001

     Initial potential from superposition of free atoms

     starting charge  575.98776, renormalised to  576.00000
     Starting wfcs are  320 randomized atomic wfcs +   26 random wfcs
     Checking if some PAW data can be deallocated...

     Self-consistent Calculation

     iteration #  1     ecut=    71.00 Ry     beta= 0.10
     Davidson diagonalization with overlap
     ethr =  1.00E-02,  avg # of iterations =  3.1

     Threshold (ethr) on eigenvalues was too large:
     Diagonalizing with lowered threshold

     Davidson diagonalization with overlap
     ethr =  3.52E-04,  avg # of iterations =  2.0

     total energy              =  -16384.80163748 Ry
     estimated scf accuracy    <       2.00795950 Ry

[...]

     iteration #  5     ecut=    71.00 Ry     beta= 0.10
     Davidson diagonalization with overlap
     c_bands:  1 eigenvalues not converged
     ethr =  2.67E-05,  avg # of iterations =  4.2

[...]

     total energy              =  -16384.46890901 Ry
     estimated scf accuracy    <       0.00000424 Ry

     iteration # 16     ecut=    71.00 Ry     beta= 0.10
     Davidson diagonalization with overlap
     ethr =  7.35E-10,  avg # of iterations =  2.0

     End of self-consistent calculation

          k = 0.0556 0.0556 0.0494 ( 37065 PWs)   bands (ev):

   -67.6835 -67.6612 -67.6612 -67.6570 -67.6570 -67.6524 -67.6515 -67.6508
   -67.6507 -67.6496 -67.6438 -67.6438 -67.6424 -67.6423 -67.6351 -67.6350
   -67.2105 -67.2098 -67.1961 -67.1961 -67.1957 -67.1957 -67.1948 -67.1947
   -67.1945 -67.1945 -67.1933 -67.1933 -67.1930 -67.1930 -67.1787 -67.1787
   -33.5216 -33.5216 -33.5216 -33.5199 -33.5108 -33.5108 -33.4905 -33.4575
   -33.4575 -33.4562 -33.4562 -33.4279 -33.4278 -33.4155 -33.4154 -33.4065
   -33.4065 -33.4059 -33.4059 -33.3950 -33.3949 -33.3583 -33.3583 -33.3535
   -33.3522 -33.3522 -33.3487 -33.3487 -33.3458 -33.3458 -33.3433 -33.3305
   -33.3304 -33.3242 -33.3159 -33.3159 -33.3126 -33.3090 -33.2927 -33.2927
   -33.2879 -33.2879 -33.2621 -33.2603 -33.2602 -33.2559 -33.2445 -33.2429
   -33.0455 -33.0455 -33.0451 -33.0437 -33.0384 -33.0384 -33.0332 -33.0332
   -32.9670 -32.9670 -32.9663 -32.9663 -32.9520 -32.9520 -32.9516 -32.9516
   -32.9501 -32.9501 -32.9489 -32.9489 -32.9350 -32.9350 -32.9341 -32.9341
   -32.8658 -32.8643 -32.8636 -32.8620 -32.8565 -32.8519 -32.8519 -32.8507
   -32.8505 -32.8386 -32.8384 -32.8384 -32.8363 -32.8363 -32.8351 -32.8346
   -32.8346 -32.8345 -32.8325 -32.8325 -32.8313 -32.8313 -32.8260 -32.8260
    10.0005  11.4507  11.6130  11.6130  11.6757  11.6846  11.6889  11.6889
    11.7775  11.8909  11.8909  11.9003  11.9508  11.9508  12.1384  12.1401
    12.1401  12.4756  12.5958  12.5958  12.5969  12.5969  12.6190  12.6191
    12.6552  12.6552  12.7421  12.7421  12.7775  12.7896  12.8026  12.8026
    12.8679  12.8679  12.9287  12.9287  12.9497  12.9497  13.0141  13.0141
    13.1114  13.1114  13.1240  13.1240  13.1317  13.2454  13.2454  13.2596
    13.2596  13.4015  13.4016  13.4856  13.5327  13.5327  13.5431  13.5431
    13.5942  13.6103  13.6103  13.6294  13.7407  13.7407  13.7481  13.7535
    13.7940  13.7940  13.8604  13.8604  13.8672  13.8672  13.9274  13.9274
    13.9479  13.9512  13.9701  13.9701  13.9874  13.9974  14.1096  14.1289
    14.1289  14.1568  14.2645  14.2645  14.3323  14.3323  14.3664  14.5072
    14.5072  14.6543  14.6543  14.6738  14.6738  14.7445  14.7523  14.7523
    14.7590  14.7860  14.7860  14.8627  14.8627  14.8661  14.8661  14.8737
    14.8737  14.9030  14.9294  14.9320  14.9320  15.0101  15.0238  15.0238
    15.0320  15.0320  15.1582  15.1641  15.1641  15.2621  15.2621  15.3968
    15.4371  15.4371  15.4627  15.4627  15.4788  15.4788  15.5241  15.5241
    15.6120  15.6120  15.6598  15.6598  15.6652  15.6652  15.6682  15.6942
    15.7265  15.7265  15.7598  15.7598  15.7768  15.8136  15.8843  16.1370
    16.2050  16.2050  16.2475  16.2475  16.2561  16.2656  16.2656  16.2958
    16.3150  16.3150  16.3241  16.3370  16.4120  16.5029  16.5029  16.5103
    16.5103  16.5169  16.5819  16.6562  16.6562  17.0123  17.0123  17.6672
    17.6915  17.6915  17.9588  17.9647  17.9647  18.1290  18.1290  18.2685
    18.3043  18.3043  18.8022  18.8022  18.8368  18.8368  18.9941  19.3565
    20.4441  20.4441  22.3988  22.3988  22.4227  22.5345  22.7399  23.3791
    23.3791  23.8716  23.8716  23.9681  23.9681  24.4330  24.4330  24.8419
    24.8419  25.0904  25.0904  25.1716  25.1716  25.7693  25.7693  26.0166
    26.3177  26.3177  26.4087  26.4822  26.4822  26.9524  26.9525  27.5332
    27.5332  27.7229

[...]

          k = 0.3889-0.5000-0.4444 ( 37124 PWs)   bands (ev):

[...]

          k =-0.5000-0.5000 0.0494 ( 37172 PWs)   bands (ev):

[...]

          k =-0.5000-0.5000-0.4444 ( 37104 PWs)   bands (ev):

   -67.6706 -67.6706 -67.6706 -67.6706 -67.6479 -67.6479 -67.6479 -67.6479
   -67.6430 -67.6430 -67.6429 -67.6429 -67.6429 -67.6429 -67.6429 -67.6429
   -67.2027 -67.2027 -67.2027 -67.2027 -67.2022 -67.2022 -67.2022 -67.2022
   -67.1866 -67.1866 -67.1866 -67.1866 -67.1866 -67.1866 -67.1866 -67.1866
   -33.5002 -33.5002 -33.5001 -33.5001 -33.5001 -33.5001 -33.5001 -33.5001
   -33.4761 -33.4761 -33.4761 -33.4761 -33.4357 -33.4357 -33.4357 -33.4357
   -33.3709 -33.3709 -33.3709 -33.3709 -33.3709 -33.3709 -33.3709 -33.3709
   -33.3365 -33.3365 -33.3365 -33.3365 -33.3299 -33.3299 -33.3299 -33.3299
   -33.3299 -33.3299 -33.3299 -33.3299 -33.3035 -33.3035 -33.3035 -33.3035
   -33.2932 -33.2932 -33.2932 -33.2932 -33.2435 -33.2435 -33.2435 -33.2435
   -33.0402 -33.0402 -33.0402 -33.0402 -33.0402 -33.0401 -33.0401 -33.0401
   -32.9595 -32.9595 -32.9595 -32.9595 -32.9550 -32.9550 -32.9550 -32.9550
   -32.9448 -32.9448 -32.9448 -32.9448 -32.9448 -32.9447 -32.9447 -32.9447
   -32.8573 -32.8573 -32.8572 -32.8572 -32.8564 -32.8564 -32.8564 -32.8564
   -32.8451 -32.8451 -32.8451 -32.8451 -32.8352 -32.8352 -32.8352 -32.8352
   -32.8303 -32.8303 -32.8303 -32.8303 -32.8303 -32.8303 -32.8303 -32.8303
    11.2459  11.2459  11.2459  11.2459  11.7839  11.7839  11.7839  11.7839
    12.1894  12.1894  12.1894  12.1894  12.1894  12.1894  12.1894  12.1894
    12.2037  12.2037  12.2037  12.2037  12.3323  12.3323  12.3323  12.3323
    12.3323  12.3323  12.3323  12.3323  12.4975  12.4975  12.4975  12.4975
    12.7274  12.7274  12.7274  12.7274  13.0551  13.0551  13.0551  13.0551
    13.0551  13.0551  13.0551  13.0551  13.3039  13.3039  13.3039  13.3039
    13.3039  13.3039  13.3039  13.3039  13.4713  13.4713  13.4713  13.4713
    13.7640  13.7640  13.7640  13.7640  13.9883  13.9883  13.9883  13.9883
    13.9997  13.9997  13.9997  13.9997  14.1458  14.1458  14.1458  14.1458
    14.2464  14.2464  14.2464  14.2464  14.3134  14.3134  14.3134  14.3134
    14.3134  14.3134  14.3134  14.3134  14.3535  14.3535  14.3535  14.3535
    14.4085  14.4085  14.4085  14.4085  14.6167  14.6167  14.6167  14.6167
    14.8696  14.8696  14.8696  14.8696  14.8696  14.8696  14.8696  14.8696
    14.9823  14.9823  14.9824  14.9824  14.9824  14.9824  14.9824  14.9824
    14.9989  14.9989  14.9989  14.9989  15.1470  15.1470  15.1470  15.1470
    15.1470  15.1470  15.1470  15.1470  15.1665  15.1665  15.1665  15.1665
    15.2086  15.2086  15.2086  15.2086  15.5880  15.5880  15.5881  15.5881
    15.7642  15.7642  15.7642  15.7642  15.8538  15.8539  15.8539  15.8539
    16.2925  16.2925  16.2925  16.2925  16.2925  16.2925  16.2925  16.2925
    16.4152  16.4152  16.4152  16.4152  16.4716  16.4716  16.4716  16.4716
    16.5002  16.5002  16.5002  16.5002  16.5002  16.5002  16.5002  16.5003
    19.0418  19.0418  19.0418  19.0418  19.2223  19.2223  19.2223  19.2223
    19.8534  19.8534  19.8534  19.8534  19.8534  19.8534  19.8534  19.8534
    20.4104  20.4104  20.4104  20.4104  20.4104  20.4104  20.4104  20.4104
    23.9256  23.9256  23.9256  23.9256  23.9256  23.9256  23.9256  23.9256
    25.1968  25.1968  25.1968  25.1968  25.1968  25.1968  25.1968  25.1968
    25.2952  25.2952  25.2952  25.2952  25.3612  25.3612  25.3612  25.3612
    26.6952  26.6952

     the Fermi energy is    16.4948 ev

!    total energy              =  -16384.46891435 Ry

     total all-electron energy =   -322945.322621 Ry
     estimated scf accuracy    <       0.00000052 Ry
     smearing contrib. (-TS)   =       0.09519864 Ry
     internal energy E=F+TS    =  -16384.56411299 Ry

     The total energy is F=E-TS. E is the sum of the following terms:
     one-electron contribution =   -3421.98281759 Ry
     hartree contribution      =    2073.62682079 Ry
     xc contribution           =    -985.30308259 Ry
     ewald contribution        =   -5883.55801329 Ry
     one-center paw contrib.   =   -8167.34702031 Ry

     convergence has been achieved in  16 iterations

     Forces acting on atoms (cartesian axes, Ry/au):

     atom    1 type  1   force =     0.00000000    0.00000000    0.00411809
     atom    2 type  1   force =     0.00000812    0.00000812    0.00410806
     atom    3 type  1   force =     0.00000221    0.00000000    0.03188291
     atom    4 type  1   force =     0.00000000    0.00000221    0.03188291
     atom    5 type  1   force =     0.00000000    0.00000000   -0.03182655
     atom    6 type  1   force =     0.00002159    0.00002159   -0.03181914
     atom    7 type  1   force =     0.00000340    0.00000000   -0.00415534
     atom    8 type  1   force =     0.00000000    0.00000340   -0.00415534
     atom    9 type  1   force =     0.00000000    0.00000000    0.00410077
     atom   10 type  1   force =     0.00000812   -0.00000812    0.00410806
     atom   11 type  1   force =     0.00000663    0.00000000    0.03188941
     atom   12 type  1   force =     0.00000000   -0.00000221    0.03188291
     atom   13 type  1   force =     0.00000000    0.00000000   -0.03182994
     atom   14 type  1   force =     0.00002159   -0.00002159   -0.03181914
     atom   15 type  1   force =     0.00001570    0.00000000   -0.00418308
     atom   16 type  1   force =     0.00000000   -0.00000340   -0.00415534
     atom   17 type  1   force =     0.00000000    0.00000000    0.00410077
     atom   18 type  1   force =    -0.00000812    0.00000812    0.00410806
     atom   19 type  1   force =    -0.00000221    0.00000000    0.03188291
     atom   20 type  1   force =     0.00000000    0.00000663    0.03188941
     atom   21 type  1   force =     0.00000000    0.00000000   -0.03182994
     atom   22 type  1   force =    -0.00002159    0.00002159   -0.03181914
     atom   23 type  1   force =    -0.00000340    0.00000000   -0.00415534
     atom   24 type  1   force =     0.00000000    0.00001570   -0.00418308
     atom   25 type  1   force =     0.00000000    0.00000000    0.00410101
     atom   26 type  1   force =    -0.00000812   -0.00000812    0.00410806
     atom   27 type  1   force =    -0.00000663    0.00000000    0.03188941
     atom   28 type  1   force =     0.00000000   -0.00000663    0.03188941
     atom   29 type  1   force =     0.00000000    0.00000000   -0.03182549
     atom   30 type  1   force =    -0.00002159   -0.00002159   -0.03181914
     atom   31 type  1   force =    -0.00001570    0.00000000   -0.00418308
     atom   32 type  1   force =     0.00000000   -0.00001570   -0.00418308

     Total force =     0.128490     Total SCF correction =     0.001623

     Computing stress (Cartesian axis) and pressure

          total   stress  (Ry/bohr**3)                   (kbar)     P=      -64.67
  -0.00038084   0.00000000   0.00000000          -56.02        0.00        0.00
   0.00000000  -0.00038084   0.00000000            0.00      -56.02        0.00
   0.00000000   0.00000000  -0.00055712            0.00        0.00      -81.96

     Writing output data file /scratch/vfiFDSRpKCHbHZhK.save/

     General routines

     Parallel routines

   This run was terminated on:  21:53:51   6Jan2022

   JOB DONE.