     Program PWSCF v.6.7MaX starts on  7Jan2022 at  0:50:37

     R & G space division:  proc/nbgrp/npool/nimage =      72
     Reading input from scf_12.in
Warning: card &CELL ignored
Warning: card CELL_DYNAMICS = 'BFGS', ignored
Warning: card CELL_FACTOR = 2.0, ignored
Warning: card PRESS = 0.0, ignored
Warning: card / ignored

     Current dimensions of program PWSCF are:
     Max number of different atomic species (ntypx) = 10
     Max number of k-points (npk) =  40000
     Max angular momentum in pseudopotentials (lmaxx) =  3
     file Pd.pbe-spn-kjpaw_psl.1.0.0.UPF: wavefunction(s)  4S 5S 4D renormalized

     Subspace diagonalization in iterative solution of the eigenvalue problem:
     one sub-group per band group will be used

     Found symmetry operation: I + (  0.2500  0.2500  0.0000)
     This is a supercell, fractional translations are disabled
     Message from routine setup:
     using ibrav=0 with symmetry is DISCOURAGED, use correct ibrav instead

     bravais-lattice index     =            0
     lattice parameter (alat)  =      14.8394  a.u.
     unit-cell volume          =    4391.0589 (a.u.)^3
     number of atoms/cell      =           32
     number of atomic types    =            1
     number of electrons       =       576.00
     number of Kohn-Sham states=          346
     kinetic-energy cutoff     =      71.0000  Ry
     charge density cutoff     =     430.0000  Ry
     scf convergence threshold =      1.0E-06
     mixing beta               =       0.1000
     number of iterations used =           10  TF        mixing
     Exchange-correlation= SLA  PW   PBX  PBC
                           (   1   4   3   4   0   0   0)

     celldm(1)=  14.839420  celldm(2)=   0.000000  celldm(3)=   0.000000
     celldm(4)=   0.000000  celldm(5)=   0.000000  celldm(6)=   0.000000

     crystal axes: (cart. coord. in units of alat)
               a(1) = (   1.000000   0.000000   0.000000 )
               a(2) = (   0.000000   1.000000   0.000000 )
               a(3) = (   0.000000   0.000000   1.343750 )

     reciprocal axes: (cart. coord. in units 2 pi/alat)
               b(1) = (  1.000000  0.000000  0.000000 )
               b(2) = (  0.000000  1.000000  0.000000 )
               b(3) = (  0.000000  0.000000  0.744186 )

     PseudoPot. # 1 for Pd read from file:
     /rds/homes/b/bxp912/pp/Pd.pbe-spn-kjpaw_psl.1.0.0.UPF
     MD5 check sum: 790f2ebce206edfd9790dcb9844eca51
     Pseudo is Projector augmented-wave + core cor, Zval = 18.0
     Generated using &quot;atomic&quot; code by A. Dal Corso  v.6.3
     Shape of augmentation charge: PSQ
     Using radial grid of 1235 points,  6 beta functions with:
                l(1) =   0
                l(2) =   0
                l(3) =   1
                l(4) =   1
                l(5) =   2
                l(6) =   2
     Q(r) pseudized with 0 coefficients

     atomic species   valence    mass     pseudopotential
        Pd            18.00   106.42000     Pd( 1.00)

      8 Sym. Ops. (no inversion) found

   Cartesian axes

     site n.     atom                  positions (alat units)
         1           Pd  tau(   1) = (   0.0000000   0.0000000   0.0000000  )
         2           Pd  tau(   2) = (   0.2500000   0.2500000   0.0000000  )
         3           Pd  tau(   3) = (   0.2500000   0.0000000   0.2500000  )
         4           Pd  tau(   4) = (   0.0000000   0.2500000   0.2500000  )
         5           Pd  tau(   5) = (   0.0000000   0.0000000   0.8437500  )
         6           Pd  tau(   6) = (   0.2500000   0.2500000   0.8437500  )
         7           Pd  tau(   7) = (   0.2500000   0.0000000   1.0937500  )
         8           Pd  tau(   8) = (   0.0000000   0.2500000   1.0937500  )
         9           Pd  tau(   9) = (   0.0000000   0.5000000   0.0000000  )
        10           Pd  tau(  10) = (   0.2500000   0.7500000   0.0000000  )
        11           Pd  tau(  11) = (   0.2500000   0.5000000   0.2500000  )
        12           Pd  tau(  12) = (   0.0000000   0.7500000   0.2500000  )
        13           Pd  tau(  13) = (   0.0000000   0.5000000   0.8437500  )
        14           Pd  tau(  14) = (   0.2500000   0.7500000   0.8437500  )
        15           Pd  tau(  15) = (   0.2500000   0.5000000   1.0937500  )
        16           Pd  tau(  16) = (   0.0000000   0.7500000   1.0937500  )
        17           Pd  tau(  17) = (   0.5000000   0.0000000   0.0000000  )
        18           Pd  tau(  18) = (   0.7500000   0.2500000   0.0000000  )
        19           Pd  tau(  19) = (   0.7500000   0.0000000   0.2500000  )
        20           Pd  tau(  20) = (   0.5000000   0.2500000   0.2500000  )
        21           Pd  tau(  21) = (   0.5000000   0.0000000   0.8437500  )
        22           Pd  tau(  22) = (   0.7500000   0.2500000   0.8437500  )
        23           Pd  tau(  23) = (   0.7500000   0.0000000   1.0937500  )
        24           Pd  tau(  24) = (   0.5000000   0.2500000   1.0937500  )
        25           Pd  tau(  25) = (   0.5000000   0.5000000   0.0000000  )
        26           Pd  tau(  26) = (   0.7500000   0.7500000   0.0000000  )
        27           Pd  tau(  27) = (   0.7500000   0.5000000   0.2500000  )
        28           Pd  tau(  28) = (   0.5000000   0.7500000   0.2500000  )
        29           Pd  tau(  29) = (   0.5000000   0.5000000   0.8437500  )
        30           Pd  tau(  30) = (   0.7500000   0.7500000   0.8437500  )
        31           Pd  tau(  31) = (   0.7500000   0.5000000   1.0937500  )
        32           Pd  tau(  32) = (   0.5000000   0.7500000   1.0937500  )

     number of k points=    75  Marzari-Vanderbilt smearing, width (Ry)=  0.0400
                       cart. coord. in units 2pi/alat
        k(    1) = (   0.0555556   0.0555556   0.0413437), wk =   0.0219479
        k(    2) = (   0.0555556   0.0555556   0.1240310), wk =   0.0219479
        k(    3) = (   0.0555556   0.0555556   0.2067183), wk =   0.0219479
        k(    4) = (   0.0555556   0.0555556   0.2894057), wk =   0.0219479
        k(    5) = (   0.0555556   0.0555556  -0.3720930), wk =   0.0109739
        k(    6) = (   0.0555556   0.1666667   0.0413437), wk =   0.0438957
        k(    7) = (   0.0555556   0.1666667   0.1240310), wk =   0.0438957
        k(    8) = (   0.0555556   0.1666667   0.2067183), wk =   0.0438957
        k(    9) = (   0.0555556   0.1666667   0.2894057), wk =   0.0438957
        k(   10) = (   0.0555556   0.1666667  -0.3720930), wk =   0.0219479
        k(   11) = (   0.0555556   0.2777778   0.0413437), wk =   0.0438957
        k(   12) = (   0.0555556   0.2777778   0.1240310), wk =   0.0438957
        k(   13) = (   0.0555556   0.2777778   0.2067183), wk =   0.0438957
        k(   14) = (   0.0555556   0.2777778   0.2894057), wk =   0.0438957
        k(   15) = (   0.0555556   0.2777778  -0.3720930), wk =   0.0219479
        k(   16) = (   0.0555556   0.3888889   0.0413437), wk =   0.0438957
        k(   17) = (   0.0555556   0.3888889   0.1240310), wk =   0.0438957
        k(   18) = (   0.0555556   0.3888889   0.2067183), wk =   0.0438957
        k(   19) = (   0.0555556   0.3888889   0.2894057), wk =   0.0438957
        k(   20) = (   0.0555556   0.3888889  -0.3720930), wk =   0.0219479
        k(   21) = (   0.0555556  -0.5000000   0.0413437), wk =   0.0219479
        k(   22) = (   0.0555556  -0.5000000   0.1240310), wk =   0.0219479
        k(   23) = (   0.0555556  -0.5000000   0.2067183), wk =   0.0219479
        k(   24) = (   0.0555556  -0.5000000   0.2894057), wk =   0.0219479
        k(   25) = (   0.0555556  -0.5000000  -0.3720930), wk =   0.0109739
        k(   26) = (   0.1666667   0.1666667   0.0413437), wk =   0.0219479
        k(   27) = (   0.1666667   0.1666667   0.1240310), wk =   0.0219479
        k(   28) = (   0.1666667   0.1666667   0.2067183), wk =   0.0219479
        k(   29) = (   0.1666667   0.1666667   0.2894057), wk =   0.0219479
        k(   30) = (   0.1666667   0.1666667  -0.3720930), wk =   0.0109739
        k(   31) = (   0.1666667   0.2777778   0.0413437), wk =   0.0438957
        k(   32) = (   0.1666667   0.2777778   0.1240310), wk =   0.0438957
        k(   33) = (   0.1666667   0.2777778   0.2067183), wk =   0.0438957
        k(   34) = (   0.1666667   0.2777778   0.2894057), wk =   0.0438957
        k(   35) = (   0.1666667   0.2777778  -0.3720930), wk =   0.0219479
        k(   36) = (   0.1666667   0.3888889   0.0413437), wk =   0.0438957
        k(   37) = (   0.1666667   0.3888889   0.1240310), wk =   0.0438957
        k(   38) = (   0.1666667   0.3888889   0.2067183), wk =   0.0438957
        k(   39) = (   0.1666667   0.3888889   0.2894057), wk =   0.0438957
        k(   40) = (   0.1666667   0.3888889  -0.3720930), wk =   0.0219479
        k(   41) = (   0.1666667  -0.5000000   0.0413437), wk =   0.0219479
        k(   42) = (   0.1666667  -0.5000000   0.1240310), wk =   0.0219479
        k(   43) = (   0.1666667  -0.5000000   0.2067183), wk =   0.0219479
        k(   44) = (   0.1666667  -0.5000000   0.2894057), wk =   0.0219479
        k(   45) = (   0.1666667  -0.5000000  -0.3720930), wk =   0.0109739
        k(   46) = (   0.2777778   0.2777778   0.0413437), wk =   0.0219479
        k(   47) = (   0.2777778   0.2777778   0.1240310), wk =   0.0219479
        k(   48) = (   0.2777778   0.2777778   0.2067183), wk =   0.0219479
        k(   49) = (   0.2777778   0.2777778   0.2894057), wk =   0.0219479
        k(   50) = (   0.2777778   0.2777778  -0.3720930), wk =   0.0109739
        k(   51) = (   0.2777778   0.3888889   0.0413437), wk =   0.0438957
        k(   52) = (   0.2777778   0.3888889   0.1240310), wk =   0.0438957
        k(   53) = (   0.2777778   0.3888889   0.2067183), wk =   0.0438957
        k(   54) = (   0.2777778   0.3888889   0.2894057), wk =   0.0438957
        k(   55) = (   0.2777778   0.3888889  -0.3720930), wk =   0.0219479
        k(   56) = (   0.2777778  -0.5000000   0.0413437), wk =   0.0219479
        k(   57) = (   0.2777778  -0.5000000   0.1240310), wk =   0.0219479
        k(   58) = (   0.2777778  -0.5000000   0.2067183), wk =   0.0219479
        k(   59) = (   0.2777778  -0.5000000   0.2894057), wk =   0.0219479
        k(   60) = (   0.2777778  -0.5000000  -0.3720930), wk =   0.0109739
        k(   61) = (   0.3888889   0.3888889   0.0413437), wk =   0.0219479
        k(   62) = (   0.3888889   0.3888889   0.1240310), wk =   0.0219479
        k(   63) = (   0.3888889   0.3888889   0.2067183), wk =   0.0219479
        k(   64) = (   0.3888889   0.3888889   0.2894057), wk =   0.0219479
        k(   65) = (   0.3888889   0.3888889  -0.3720930), wk =   0.0109739
        k(   66) = (   0.3888889  -0.5000000   0.0413437), wk =   0.0219479
        k(   67) = (   0.3888889  -0.5000000   0.1240310), wk =   0.0219479
        k(   68) = (   0.3888889  -0.5000000   0.2067183), wk =   0.0219479
        k(   69) = (   0.3888889  -0.5000000   0.2894057), wk =   0.0219479
        k(   70) = (   0.3888889  -0.5000000  -0.3720930), wk =   0.0109739
        k(   71) = (  -0.5000000  -0.5000000   0.0413437), wk =   0.0054870
        k(   72) = (  -0.5000000  -0.5000000   0.1240310), wk =   0.0054870
        k(   73) = (  -0.5000000  -0.5000000   0.2067183), wk =   0.0054870
        k(   74) = (  -0.5000000  -0.5000000   0.2894057), wk =   0.0054870
        k(   75) = (  -0.5000000  -0.5000000  -0.3720930), wk =   0.0027435

     Check: negative core charge=   -0.000001

     Initial potential from superposition of free atoms

     starting charge  575.98776, renormalised to  576.00000
     Starting wfcs are  320 randomized atomic wfcs +   26 random wfcs
     Checking if some PAW data can be deallocated...

     Self-consistent Calculation

     iteration #  1     ecut=    71.00 Ry     beta= 0.10
     Davidson diagonalization with overlap
     ethr =  1.00E-02,  avg # of iterations =  3.9

     Threshold (ethr) on eigenvalues was too large:
     Diagonalizing with lowered threshold

     Davidson diagonalization with overlap
     ethr =  7.30E-04,  avg # of iterations =  1.1

     total energy              =  -16384.80383667 Ry
     estimated scf accuracy    <       4.19729793 Ry

[...]

     iteration #  7     ecut=    71.00 Ry     beta= 0.10
     Davidson diagonalization with overlap
     c_bands:  1 eigenvalues not converged
     c_bands:  1 eigenvalues not converged
     ethr =  2.89E-05,  avg # of iterations =  7.9

[...]

     iteration # 13     ecut=    71.00 Ry     beta= 0.10
     Davidson diagonalization with overlap
     c_bands:  1 eigenvalues not converged
     ethr =  2.87E-07,  avg # of iterations =  2.4

[...]

     total energy              =  -16384.07449096 Ry
     estimated scf accuracy    <       0.00000196 Ry

     iteration # 22     ecut=    71.00 Ry     beta= 0.10
     Davidson diagonalization with overlap
     ethr =  3.40E-10,  avg # of iterations =  2.1

     End of self-consistent calculation

          k = 0.0556 0.0556 0.0413 ( 44330 PWs)   bands (ev):

   -71.1552 -71.1331 -71.1330 -71.1288 -71.1288 -71.1243 -71.1232 -71.1226
   -71.1226 -71.1215 -71.1156 -71.1156 -71.1142 -71.1142 -71.1069 -71.1069
   -70.5702 -70.5701 -70.5557 -70.5557 -70.5557 -70.5557 -70.5545 -70.5545
   -70.5543 -70.5542 -70.5530 -70.5530 -70.5529 -70.5529 -70.5384 -70.5384
   -36.9900 -36.9900 -36.9897 -36.9888 -36.9765 -36.9765 -36.9683 -36.9345
   -36.9345 -36.9317 -36.9317 -36.8953 -36.8953 -36.8840 -36.8840 -36.8748
   -36.8748 -36.8720 -36.8720 -36.8629 -36.8628 -36.8329 -36.8329 -36.8272
   -36.8272 -36.8267 -36.8221 -36.8221 -36.8168 -36.8129 -36.8129 -36.7982
   -36.7962 -36.7962 -36.7818 -36.7818 -36.7788 -36.7777 -36.7670 -36.7670
   -36.7617 -36.7617 -36.7288 -36.7270 -36.7270 -36.7227 -36.7106 -36.7090
   -36.4420 -36.4419 -36.4412 -36.4402 -36.4303 -36.4303 -36.4283 -36.4282
   -36.3598 -36.3598 -36.3597 -36.3597 -36.3448 -36.3448 -36.3446 -36.3446
   -36.3426 -36.3426 -36.3421 -36.3421 -36.3273 -36.3273 -36.3271 -36.3271
   -36.2567 -36.2564 -36.2551 -36.2548 -36.2432 -36.2432 -36.2419 -36.2418
   -36.1761 -36.1727 -36.1616 -36.1616 -36.1612 -36.1612 -36.1603 -36.1600
   -36.1599 -36.1598 -36.1595 -36.1595 -36.1592 -36.1592 -36.1494 -36.1494
     6.6520   7.9575   8.1871   8.1871   8.2533   8.2596   8.2657   8.2657
     8.3261   8.3584   8.4622   8.4622   8.5486   8.5486   8.7325   8.7325
     8.7918   9.0029   9.1269   9.1269   9.1532   9.1532   9.1830   9.1830
     9.2041   9.2041   9.2778   9.2778   9.2781   9.2827   9.2958   9.2958
     9.4160   9.4160   9.4853   9.4853   9.5206   9.5206   9.5997   9.5997
     9.6058   9.6058   9.6715   9.6715   9.7327   9.7924   9.7924   9.8106
     9.8106   9.9544   9.9544  10.0237  10.0703  10.0703  10.1171  10.1171
    10.1311  10.1393  10.1393  10.1501  10.3292  10.3292  10.3350  10.3350
    10.3421  10.3533  10.5006  10.5008  10.5008  10.5027  10.5096  10.5096
    10.5432  10.5523  10.6019  10.6019  10.6355  10.6355  10.9758  10.9758
    11.0273  11.0286  11.0595  11.0595  11.0873  11.0873  11.0960  11.0960
    11.2573  11.2573  11.2676  11.2676  11.2723  11.2723  11.2817  11.2984
    11.3495  11.3495  11.3539  11.3539  11.3652  11.4299  11.4452  11.4452
    11.4588  11.5557  11.5557  11.5586  11.5586  11.6414  11.6838  11.6838
    11.6848  11.6848  11.7178  11.7178  11.8519  11.8520  11.8614  11.9232
    11.9232  11.9300  11.9300  11.9407  12.0918  12.0918  12.1535  12.1535
    12.2865  12.2865  12.2899  12.2901  12.2901  12.3068  12.3068  12.3189
    12.3640  12.3640  12.4282  12.4402  12.4418  12.5087  12.5252  12.5252
    12.5870  12.5870  12.5909  12.6009  12.6009  12.7597  12.7597  12.8293
    12.8304  12.8304  12.8326  12.8864  12.9652  12.9858  12.9858  12.9925
    12.9925  13.0295  13.0869  13.1930  13.1930  13.5950  13.5951  13.6546
    13.6546  14.0868  14.0868  14.4310  14.6581  14.8222  14.8222  15.0145
    15.0145  15.0678  15.0784  15.3053  15.3053  15.5665  15.5665  15.5807
    15.8243  17.3409  17.3409  18.1817  18.2359  18.2359  18.3162  18.3162
    18.4016  18.8696  18.8696  19.3109  19.3109  19.7886  19.7886  19.9013
    19.9013  21.5585  21.8569  21.8569  21.8866  21.8866  21.9565  22.0075
    22.0075  22.5733  22.5733  22.8137  22.9530  22.9530  23.0224  23.3661
    23.3665  23.4797

[...]

          k = 0.3889-0.5000-0.3721 ( 44384 PWs)   bands (ev):

[...]

          k =-0.5000-0.5000 0.0413 ( 44328 PWs)   bands (ev):

[...]

          k =-0.5000-0.5000-0.3721 ( 44440 PWs)   bands (ev):

   -71.1424 -71.1424 -71.1424 -71.1424 -71.1197 -71.1197 -71.1197 -71.1197
   -71.1148 -71.1148 -71.1148 -71.1148 -71.1148 -71.1148 -71.1147 -71.1147
   -70.5624 -70.5623 -70.5623 -70.5623 -70.5623 -70.5623 -70.5623 -70.5623
   -70.5464 -70.5464 -70.5464 -70.5463 -70.5463 -70.5463 -70.5463 -70.5463
   -36.9678 -36.9678 -36.9678 -36.9678 -36.9678 -36.9678 -36.9678 -36.9678
   -36.9533 -36.9533 -36.9533 -36.9533 -36.9036 -36.9036 -36.9036 -36.9036
   -36.8422 -36.8422 -36.8422 -36.8422 -36.8422 -36.8422 -36.8422 -36.8422
   -36.8027 -36.8027 -36.8027 -36.8027 -36.8012 -36.8012 -36.8012 -36.8012
   -36.8012 -36.8012 -36.8012 -36.8012 -36.7784 -36.7784 -36.7784 -36.7784
   -36.7597 -36.7597 -36.7597 -36.7597 -36.7101 -36.7101 -36.7100 -36.7100
   -36.4354 -36.4354 -36.4354 -36.4354 -36.4354 -36.4354 -36.4354 -36.4354
   -36.3518 -36.3518 -36.3518 -36.3518 -36.3494 -36.3494 -36.3494 -36.3494
   -36.3370 -36.3370 -36.3370 -36.3370 -36.3370 -36.3370 -36.3370 -36.3370
   -36.2485 -36.2485 -36.2485 -36.2485 -36.2484 -36.2484 -36.2484 -36.2484
   -36.1670 -36.1670 -36.1670 -36.1670 -36.1664 -36.1664 -36.1663 -36.1663
   -36.1547 -36.1547 -36.1547 -36.1547 -36.1547 -36.1547 -36.1547 -36.1547
     7.7826   7.7826   7.7826   7.7826   8.3971   8.3971   8.3971   8.3971
     8.7349   8.7349   8.7349   8.7349   8.7349   8.7349   8.7350   8.7350
     8.8421   8.8421   8.8421   8.8421   8.9023   8.9023   8.9023   8.9023
     8.9023   8.9023   8.9023   8.9023   9.0085   9.0085   9.0085   9.0085
     9.2852   9.2852   9.2852   9.2852   9.6123   9.6123   9.6123   9.6123
     9.6123   9.6123   9.6123   9.6123   9.9073   9.9073   9.9073   9.9073
     9.9073   9.9073   9.9073   9.9073  10.0784  10.0784  10.0784  10.0784
    10.2950  10.2950  10.2950  10.2950  10.5433  10.5433  10.5433  10.5433
    10.6384  10.6384  10.6384  10.6384  10.6850  10.6850  10.6850  10.6850
    10.7612  10.7612  10.7612  10.7612  10.8745  10.8745  10.8745  10.8745
    10.8745  10.8745  10.8745  10.8745  10.9189  10.9189  10.9189  10.9189
    11.1782  11.1782  11.1782  11.1782  11.3304  11.3304  11.3304  11.3304
    11.4563  11.4563  11.4563  11.4563  11.4563  11.4563  11.4563  11.4563
    11.4943  11.4943  11.4943  11.4943  11.4943  11.4943  11.4943  11.4943
    11.5381  11.5381  11.5381  11.5381  11.7591  11.7591  11.7591  11.7591
    12.0263  12.0263  12.0263  12.0263  12.0302  12.0302  12.0302  12.0302
    12.0302  12.0302  12.0302  12.0302  12.0910  12.0910  12.0910  12.0910
    12.3267  12.3267  12.3267  12.3267  12.5272  12.5272  12.5272  12.5272
    12.6834  12.6834  12.6834  12.6834  12.6834  12.6834  12.6835  12.6835
    12.9460  12.9460  12.9460  12.9460  13.0092  13.0092  13.0092  13.0092
    13.0092  13.0092  13.0092  13.0092  13.0157  13.0157  13.0157  13.0157
    14.1931  14.1931  14.1931  14.1931  15.6914  15.6914  15.6914  15.6914
    16.2898  16.2898  16.2898  16.2898  16.2898  16.2898  16.2898  16.2898
    17.3034  17.3034  17.3034  17.3034  17.3034  17.3034  17.3034  17.3034
    19.5511  19.5511  19.5511  19.5511  19.5511  19.5511  19.5511  19.5511
    19.5947  19.5947  19.5947  19.5947  21.5330  21.5330  21.5330  21.5330
    21.5330  21.5330  21.5330  21.5330  21.6604  21.6604  21.6604  21.6604
    22.5050  22.5050

     the Fermi energy is    13.0183 ev

!    total energy              =  -16384.07449502 Ry

     total all-electron energy =   -322944.928202 Ry
     estimated scf accuracy    <       0.00000030 Ry
     smearing contrib. (-TS)   =       0.12213956 Ry
     internal energy E=F+TS    =  -16384.19663458 Ry

     The total energy is F=E-TS. E is the sum of the following terms:
     one-electron contribution =   -7176.40950229 Ry
     hartree contribution      =    3878.43030276 Ry
     xc contribution           =    -985.33686764 Ry
     ewald contribution        =   -3933.55156163 Ry
     one-center paw contrib.   =   -8167.32900578 Ry

     convergence has been achieved in  22 iterations

     Forces acting on atoms (cartesian axes, Ry/au):

     atom    1 type  1   force =     0.00000000    0.00000000    0.00349306
     atom    2 type  1   force =    -0.00000016   -0.00000016    0.00348348
     atom    3 type  1   force =     0.00000589   -0.00000000   -0.00135509
     atom    4 type  1   force =     0.00000000    0.00000589   -0.00135509
     atom    5 type  1   force =     0.00000000    0.00000000    0.00135883
     atom    6 type  1   force =     0.00001260    0.00001260    0.00136631
     atom    7 type  1   force =     0.00000529    0.00000000   -0.00348148
     atom    8 type  1   force =     0.00000000    0.00000529   -0.00348148
     atom    9 type  1   force =     0.00000000    0.00000000    0.00348004
     atom   10 type  1   force =    -0.00000016    0.00000016    0.00348348
     atom   11 type  1   force =    -0.00001381    0.00000000   -0.00135160
     atom   12 type  1   force =     0.00000000   -0.00000589   -0.00135509
     atom   13 type  1   force =     0.00000000    0.00000000    0.00135140
     atom   14 type  1   force =     0.00001260   -0.00001260    0.00136631
     atom   15 type  1   force =    -0.00000132    0.00000000   -0.00349685
     atom   16 type  1   force =     0.00000000   -0.00000529   -0.00348148
     atom   17 type  1   force =     0.00000000    0.00000000    0.00348004
     atom   18 type  1   force =     0.00000016   -0.00000016    0.00348348
     atom   19 type  1   force =    -0.00000589    0.00000000   -0.00135509
     atom   20 type  1   force =     0.00000000   -0.00001381   -0.00135160
     atom   21 type  1   force =     0.00000000    0.00000000    0.00135140
     atom   22 type  1   force =    -0.00001260    0.00001260    0.00136631
     atom   23 type  1   force =    -0.00000529    0.00000000   -0.00348148
     atom   24 type  1   force =     0.00000000   -0.00000132   -0.00349685
     atom   25 type  1   force =     0.00000000    0.00000000    0.00348056
     atom   26 type  1   force =     0.00000016    0.00000016    0.00348348
     atom   27 type  1   force =     0.00001381    0.00000000   -0.00135160
     atom   28 type  1   force =     0.00000000    0.00001381   -0.00135160
     atom   29 type  1   force =     0.00000000    0.00000000    0.00134560
     atom   30 type  1   force =    -0.00001260   -0.00001260    0.00136631
     atom   31 type  1   force =     0.00000132    0.00000000   -0.00349685
     atom   32 type  1   force =     0.00000000    0.00000132   -0.00349685

     Total force =     0.014963     Total SCF correction =     0.002283
     SCF correction compared to forces is large: reduce conv_thr to get better values

     Computing stress (Cartesian axis) and pressure

          total   stress  (Ry/bohr**3)                   (kbar)     P=      -43.67
  -0.00035144   0.00000000   0.00000000          -51.70        0.00        0.00
   0.00000000  -0.00035144   0.00000000            0.00      -51.70        0.00
   0.00000000   0.00000000  -0.00018769            0.00        0.00      -27.61

     Writing output data file /scratch/yZIOXgHmkbYHhIMp.save/

     General routines

     Parallel routines

   This run was terminated on:   1:26: 6   7Jan2022

   JOB DONE.