     Program PWSCF v.6.7MaX starts on  6Jan2022 at 20:19:43

     R & G space division:  proc/nbgrp/npool/nimage =      72
     Reading input from scf_2.in
Warning: card &CELL ignored
Warning: card CELL_DYNAMICS = 'BFGS', ignored
Warning: card CELL_FACTOR = 2.0, ignored
Warning: card PRESS = 0.0, ignored
Warning: card / ignored

     Current dimensions of program PWSCF are:
     Max number of different atomic species (ntypx) = 10
     Max number of k-points (npk) =  40000
     Max angular momentum in pseudopotentials (lmaxx) =  3
     file Pd.pbe-spn-kjpaw_psl.1.0.0.UPF: wavefunction(s)  4S 5S 4D renormalized

     Subspace diagonalization in iterative solution of the eigenvalue problem:
     one sub-group per band group will be used

     Found symmetry operation: I + (  0.2500  0.2500  0.0000)
     This is a supercell, fractional translations are disabled
     Message from routine setup:
     using ibrav=0 with symmetry is DISCOURAGED, use correct ibrav instead

     bravais-lattice index     =            0
     lattice parameter (alat)  =      14.8394  a.u.
     unit-cell volume          =    3369.8824 (a.u.)^3
     number of atoms/cell      =           32
     number of atomic types    =            1
     number of electrons       =       576.00
     number of Kohn-Sham states=          346
     kinetic-energy cutoff     =      71.0000  Ry
     charge density cutoff     =     430.0000  Ry
     scf convergence threshold =      1.0E-06
     mixing beta               =       0.1000
     number of iterations used =           10  TF        mixing
     Exchange-correlation= SLA  PW   PBX  PBC
                           (   1   4   3   4   0   0   0)

     celldm(1)=  14.839420  celldm(2)=   0.000000  celldm(3)=   0.000000
     celldm(4)=   0.000000  celldm(5)=   0.000000  celldm(6)=   0.000000

     crystal axes: (cart. coord. in units of alat)
               a(1) = (   1.000000   0.000000   0.000000 )
               a(2) = (   0.000000   1.000000   0.000000 )
               a(3) = (   0.000000   0.000000   1.031250 )

     reciprocal axes: (cart. coord. in units 2 pi/alat)
               b(1) = (  1.000000  0.000000  0.000000 )
               b(2) = (  0.000000  1.000000  0.000000 )
               b(3) = (  0.000000  0.000000  0.969697 )

     PseudoPot. # 1 for Pd read from file:
     /rds/homes/b/bxp912/pp/Pd.pbe-spn-kjpaw_psl.1.0.0.UPF
     MD5 check sum: 790f2ebce206edfd9790dcb9844eca51
     Pseudo is Projector augmented-wave + core cor, Zval = 18.0
     Generated using &quot;atomic&quot; code by A. Dal Corso  v.6.3
     Shape of augmentation charge: PSQ
     Using radial grid of 1235 points,  6 beta functions with:
                l(1) =   0
                l(2) =   0
                l(3) =   1
                l(4) =   1
                l(5) =   2
                l(6) =   2
     Q(r) pseudized with 0 coefficients

     atomic species   valence    mass     pseudopotential
        Pd            18.00   106.42000     Pd( 1.00)

      8 Sym. Ops. (no inversion) found

   Cartesian axes

     site n.     atom                  positions (alat units)
         1           Pd  tau(   1) = (   0.0000000   0.0000000   0.0000000  )
         2           Pd  tau(   2) = (   0.2500000   0.2500000   0.0000000  )
         3           Pd  tau(   3) = (   0.2500000   0.0000000   0.2500000  )
         4           Pd  tau(   4) = (   0.0000000   0.2500000   0.2500000  )
         5           Pd  tau(   5) = (   0.0000000   0.0000000   0.5312500  )
         6           Pd  tau(   6) = (   0.2500000   0.2500000   0.5312500  )
         7           Pd  tau(   7) = (   0.2500000   0.0000000   0.7812500  )
         8           Pd  tau(   8) = (   0.0000000   0.2500000   0.7812500  )
         9           Pd  tau(   9) = (   0.0000000   0.5000000   0.0000000  )
        10           Pd  tau(  10) = (   0.2500000   0.7500000   0.0000000  )
        11           Pd  tau(  11) = (   0.2500000   0.5000000   0.2500000  )
        12           Pd  tau(  12) = (   0.0000000   0.7500000   0.2500000  )
        13           Pd  tau(  13) = (   0.0000000   0.5000000   0.5312500  )
        14           Pd  tau(  14) = (   0.2500000   0.7500000   0.5312500  )
        15           Pd  tau(  15) = (   0.2500000   0.5000000   0.7812500  )
        16           Pd  tau(  16) = (   0.0000000   0.7500000   0.7812500  )
        17           Pd  tau(  17) = (   0.5000000   0.0000000   0.0000000  )
        18           Pd  tau(  18) = (   0.7500000   0.2500000   0.0000000  )
        19           Pd  tau(  19) = (   0.7500000   0.0000000   0.2500000  )
        20           Pd  tau(  20) = (   0.5000000   0.2500000   0.2500000  )
        21           Pd  tau(  21) = (   0.5000000   0.0000000   0.5312500  )
        22           Pd  tau(  22) = (   0.7500000   0.2500000   0.5312500  )
        23           Pd  tau(  23) = (   0.7500000   0.0000000   0.7812500  )
        24           Pd  tau(  24) = (   0.5000000   0.2500000   0.7812500  )
        25           Pd  tau(  25) = (   0.5000000   0.5000000   0.0000000  )
        26           Pd  tau(  26) = (   0.7500000   0.7500000   0.0000000  )
        27           Pd  tau(  27) = (   0.7500000   0.5000000   0.2500000  )
        28           Pd  tau(  28) = (   0.5000000   0.7500000   0.2500000  )
        29           Pd  tau(  29) = (   0.5000000   0.5000000   0.5312500  )
        30           Pd  tau(  30) = (   0.7500000   0.7500000   0.5312500  )
        31           Pd  tau(  31) = (   0.7500000   0.5000000   0.7812500  )
        32           Pd  tau(  32) = (   0.5000000   0.7500000   0.7812500  )

     number of k points=    75  Marzari-Vanderbilt smearing, width (Ry)=  0.0400
                       cart. coord. in units 2pi/alat
        k(    1) = (   0.0555556   0.0555556   0.0538721), wk =   0.0219479
        k(    2) = (   0.0555556   0.0555556   0.1616162), wk =   0.0219479
        k(    3) = (   0.0555556   0.0555556   0.2693603), wk =   0.0219479
        k(    4) = (   0.0555556   0.0555556   0.3771044), wk =   0.0219479
        k(    5) = (   0.0555556   0.0555556  -0.4848485), wk =   0.0109739
        k(    6) = (   0.0555556   0.1666667   0.0538721), wk =   0.0438957
        k(    7) = (   0.0555556   0.1666667   0.1616162), wk =   0.0438957
        k(    8) = (   0.0555556   0.1666667   0.2693603), wk =   0.0438957
        k(    9) = (   0.0555556   0.1666667   0.3771044), wk =   0.0438957
        k(   10) = (   0.0555556   0.1666667  -0.4848485), wk =   0.0219479
        k(   11) = (   0.0555556   0.2777778   0.0538721), wk =   0.0438957
        k(   12) = (   0.0555556   0.2777778   0.1616162), wk =   0.0438957
        k(   13) = (   0.0555556   0.2777778   0.2693603), wk =   0.0438957
        k(   14) = (   0.0555556   0.2777778   0.3771044), wk =   0.0438957
        k(   15) = (   0.0555556   0.2777778  -0.4848485), wk =   0.0219479
        k(   16) = (   0.0555556   0.3888889   0.0538721), wk =   0.0438957
        k(   17) = (   0.0555556   0.3888889   0.1616162), wk =   0.0438957
        k(   18) = (   0.0555556   0.3888889   0.2693603), wk =   0.0438957
        k(   19) = (   0.0555556   0.3888889   0.3771044), wk =   0.0438957
        k(   20) = (   0.0555556   0.3888889  -0.4848485), wk =   0.0219479
        k(   21) = (   0.0555556  -0.5000000   0.0538721), wk =   0.0219479
        k(   22) = (   0.0555556  -0.5000000   0.1616162), wk =   0.0219479
        k(   23) = (   0.0555556  -0.5000000   0.2693603), wk =   0.0219479
        k(   24) = (   0.0555556  -0.5000000   0.3771044), wk =   0.0219479
        k(   25) = (   0.0555556  -0.5000000  -0.4848485), wk =   0.0109739
        k(   26) = (   0.1666667   0.1666667   0.0538721), wk =   0.0219479
        k(   27) = (   0.1666667   0.1666667   0.1616162), wk =   0.0219479
        k(   28) = (   0.1666667   0.1666667   0.2693603), wk =   0.0219479
        k(   29) = (   0.1666667   0.1666667   0.3771044), wk =   0.0219479
        k(   30) = (   0.1666667   0.1666667  -0.4848485), wk =   0.0109739
        k(   31) = (   0.1666667   0.2777778   0.0538721), wk =   0.0438957
        k(   32) = (   0.1666667   0.2777778   0.1616162), wk =   0.0438957
        k(   33) = (   0.1666667   0.2777778   0.2693603), wk =   0.0438957
        k(   34) = (   0.1666667   0.2777778   0.3771044), wk =   0.0438957
        k(   35) = (   0.1666667   0.2777778  -0.4848485), wk =   0.0219479
        k(   36) = (   0.1666667   0.3888889   0.0538721), wk =   0.0438957
        k(   37) = (   0.1666667   0.3888889   0.1616162), wk =   0.0438957
        k(   38) = (   0.1666667   0.3888889   0.2693603), wk =   0.0438957
        k(   39) = (   0.1666667   0.3888889   0.3771044), wk =   0.0438957
        k(   40) = (   0.1666667   0.3888889  -0.4848485), wk =   0.0219479
        k(   41) = (   0.1666667  -0.5000000   0.0538721), wk =   0.0219479
        k(   42) = (   0.1666667  -0.5000000   0.1616162), wk =   0.0219479
        k(   43) = (   0.1666667  -0.5000000   0.2693603), wk =   0.0219479
        k(   44) = (   0.1666667  -0.5000000   0.3771044), wk =   0.0219479
        k(   45) = (   0.1666667  -0.5000000  -0.4848485), wk =   0.0109739
        k(   46) = (   0.2777778   0.2777778   0.0538721), wk =   0.0219479
        k(   47) = (   0.2777778   0.2777778   0.1616162), wk =   0.0219479
        k(   48) = (   0.2777778   0.2777778   0.2693603), wk =   0.0219479
        k(   49) = (   0.2777778   0.2777778   0.3771044), wk =   0.0219479
        k(   50) = (   0.2777778   0.2777778  -0.4848485), wk =   0.0109739
        k(   51) = (   0.2777778   0.3888889   0.0538721), wk =   0.0438957
        k(   52) = (   0.2777778   0.3888889   0.1616162), wk =   0.0438957
        k(   53) = (   0.2777778   0.3888889   0.2693603), wk =   0.0438957
        k(   54) = (   0.2777778   0.3888889   0.3771044), wk =   0.0438957
        k(   55) = (   0.2777778   0.3888889  -0.4848485), wk =   0.0219479
        k(   56) = (   0.2777778  -0.5000000   0.0538721), wk =   0.0219479
        k(   57) = (   0.2777778  -0.5000000   0.1616162), wk =   0.0219479
        k(   58) = (   0.2777778  -0.5000000   0.2693603), wk =   0.0219479
        k(   59) = (   0.2777778  -0.5000000   0.3771044), wk =   0.0219479
        k(   60) = (   0.2777778  -0.5000000  -0.4848485), wk =   0.0109739
        k(   61) = (   0.3888889   0.3888889   0.0538721), wk =   0.0219479
        k(   62) = (   0.3888889   0.3888889   0.1616162), wk =   0.0219479
        k(   63) = (   0.3888889   0.3888889   0.2693603), wk =   0.0219479
        k(   64) = (   0.3888889   0.3888889   0.3771044), wk =   0.0219479
        k(   65) = (   0.3888889   0.3888889  -0.4848485), wk =   0.0109739
        k(   66) = (   0.3888889  -0.5000000   0.0538721), wk =   0.0219479
        k(   67) = (   0.3888889  -0.5000000   0.1616162), wk =   0.0219479
        k(   68) = (   0.3888889  -0.5000000   0.2693603), wk =   0.0219479
        k(   69) = (   0.3888889  -0.5000000   0.3771044), wk =   0.0219479
        k(   70) = (   0.3888889  -0.5000000  -0.4848485), wk =   0.0109739
        k(   71) = (  -0.5000000  -0.5000000   0.0538721), wk =   0.0054870
        k(   72) = (  -0.5000000  -0.5000000   0.1616162), wk =   0.0054870
        k(   73) = (  -0.5000000  -0.5000000   0.2693603), wk =   0.0054870
        k(   74) = (  -0.5000000  -0.5000000   0.3771044), wk =   0.0054870
        k(   75) = (  -0.5000000  -0.5000000  -0.4848485), wk =   0.0027435

     Check: negative core charge=   -0.000002

     Initial potential from superposition of free atoms

     starting charge  575.98776, renormalised to  576.00000
     Starting wfcs are  320 randomized atomic wfcs +   26 random wfcs
     Checking if some PAW data can be deallocated...

     Self-consistent Calculation

     iteration #  1     ecut=    71.00 Ry     beta= 0.10
     Davidson diagonalization with overlap
     ethr =  1.00E-02,  avg # of iterations =  3.0

     Threshold (ethr) on eigenvalues was too large:
     Diagonalizing with lowered threshold

     Davidson diagonalization with overlap
     ethr =  1.20E-04,  avg # of iterations =  3.3

     total energy              =  -16385.02142667 Ry
     estimated scf accuracy    <       0.65514677 Ry

[...]

     total energy              =  -16384.90006037 Ry
     estimated scf accuracy    <       0.00000376 Ry

     iteration # 13     ecut=    71.00 Ry     beta= 0.10
     Davidson diagonalization with overlap
     ethr =  6.52E-10,  avg # of iterations =  2.0

     End of self-consistent calculation

          k = 0.0556 0.0556 0.0539 ( 34044 PWs)   bands (ev):

   -65.6529 -65.6301 -65.6301 -65.6258 -65.6258 -65.6211 -65.6210 -65.6195
   -65.6193 -65.6183 -65.6127 -65.6127 -65.6112 -65.6111 -65.6037 -65.6036
   -65.4586 -65.4453 -65.4419 -65.4419 -65.4387 -65.4387 -65.4380 -65.4372
   -65.4372 -65.4368 -65.4347 -65.4347 -65.4327 -65.4327 -65.4215 -65.4215
   -31.5034 -31.5033 -31.5033 -31.5016 -31.4900 -31.4899 -31.4733 -31.4296
   -31.4296 -31.4279 -31.4279 -31.4076 -31.4076 -31.3974 -31.3974 -31.3890
   -31.3890 -31.3889 -31.3888 -31.3756 -31.3756 -31.3528 -31.3518 -31.3518
   -31.3497 -31.3460 -31.3460 -31.3355 -31.3355 -31.3201 -31.3200 -31.3118
   -31.3103 -31.3103 -31.2953 -31.2953 -31.2881 -31.2873 -31.2693 -31.2693
   -31.2660 -31.2660 -31.2592 -31.2592 -31.2344 -31.2343 -31.2343 -31.2342
   -31.2282 -31.2276 -31.2275 -31.2230 -31.2228 -31.2196 -31.2092 -31.2092
   -31.1929 -31.1929 -31.1824 -31.1824 -31.1806 -31.1806 -31.1736 -31.1653
   -31.1653 -31.1484 -31.1484 -31.1373 -31.1373 -31.1365 -31.1365 -31.1241
   -31.1241 -31.1178 -31.1178 -31.1084 -31.1084 -31.1068 -31.1053 -31.1053
   -31.1045 -31.1044 -31.1033 -31.0912 -31.0912 -31.0870 -31.0870 -31.0832
   -31.0818 -31.0655 -31.0593 -31.0593 -31.0592 -31.0567 -31.0530 -31.0516
    11.7131  13.4128  13.4560  13.4560  13.5116  13.5249  13.5255  13.5256
    13.6880  13.6944  13.7261  13.7261  13.7331  13.7331  13.8788  13.9289
    13.9289  14.4207  14.4207  14.4623  14.4623  14.4662  14.4662  14.4887
    14.5764  14.5764  14.6905  14.6905  14.7203  14.7763  14.7816  14.7817
    14.7831  14.7831  14.7997  14.7997  14.8029  14.8064  14.8064  14.8256
    14.8256  15.0835  15.0835  15.1255  15.1255  15.1439  15.1439  15.1956
    15.1956  15.2583  15.2589  15.2589  15.2721  15.2721  15.3102  15.3359
    15.3359  15.4629  15.4629  15.5544  15.5544  15.5761  15.5761  15.5937
    15.5938  15.6001  15.6001  15.6001  15.6005  15.6005  15.6037  15.6037
    15.6366  15.6785  15.7339  15.7339  15.7393  15.7393  15.7457  15.7472
    15.7472  15.7690  15.8466  15.8490  15.8490  15.8544  15.8674  15.8797
    16.4176  16.5648  16.5648  16.6581  16.6581  16.6598  16.6598  16.6893
    16.7338  16.7428  16.7428  16.7439  16.7439  16.7453  16.7453  16.7789
    16.8556  16.8556  16.8786  16.8786  16.9005  16.9735  16.9992  16.9992
    17.0456  17.0456  17.0894  17.0894  17.1942  17.2083  17.2083  17.2333
    17.2333  17.2482  17.2482  17.2483  17.2942  17.2974  17.2974  17.3510
    17.3513  17.3513  17.3562  17.3562  17.3616  17.4133  17.4133  17.4531
    17.4531  17.5089  17.7318  17.7318  17.8161  17.8327  17.8327  18.0156
    18.2256  18.2256  18.2728  18.3436  18.3436  18.3455  18.3653  18.3788
    18.4240  18.4240  18.4270  18.5488  18.5488  18.6053  18.6272  18.6272
    18.6325  18.6325  18.6651  18.6764  18.6765  18.8372  18.8372  19.4362
    19.7286  19.7295  19.7295  20.0771  20.0771  20.2405  20.5657  20.5657
    20.5671  20.5671  20.7613  20.7613  21.0842  21.0842  21.2991  21.4943
    22.0011  22.0011  25.3021  25.3021  25.3073  25.4589  26.3173  26.3173
    26.5144  26.5144  26.8168  26.8168  26.9953  26.9953  27.2692  27.2692
    27.4982  27.4982  28.0343  28.3010  28.3010  28.4121  28.4121  28.7307
    28.7307  28.9702  28.9702  29.3498  29.7100  29.7101  29.8033  29.8033
    29.9194  29.9198

[...]

          k = 0.3889-0.5000-0.4848 ( 34048 PWs)   bands (ev):

[...]

          k =-0.5000-0.5000 0.0539 ( 34032 PWs)   bands (ev):

[...]

          k =-0.5000-0.5000-0.4848 ( 34000 PWs)   bands (ev):

   -65.6397 -65.6397 -65.6396 -65.6396 -65.6170 -65.6170 -65.6170 -65.6170
   -65.6117 -65.6117 -65.6115 -65.6115 -65.6115 -65.6115 -65.6115 -65.6115
   -65.4493 -65.4493 -65.4493 -65.4493 -65.4401 -65.4400 -65.4400 -65.4400
   -65.4294 -65.4293 -65.4293 -65.4293 -65.4293 -65.4293 -65.4293 -65.4293
   -31.4769 -31.4768 -31.4768 -31.4768 -31.4768 -31.4768 -31.4768 -31.4768
   -31.4532 -31.4532 -31.4532 -31.4532 -31.4213 -31.4212 -31.4212 -31.4212
   -31.3682 -31.3681 -31.3681 -31.3681 -31.3681 -31.3681 -31.3681 -31.3681
   -31.3223 -31.3223 -31.3223 -31.3223 -31.3040 -31.3040 -31.3040 -31.3040
   -31.3039 -31.3039 -31.3039 -31.3039 -31.2899 -31.2899 -31.2899 -31.2898
   -31.2668 -31.2668 -31.2668 -31.2668 -31.2274 -31.2274 -31.2274 -31.2274
   -31.2273 -31.2273 -31.2273 -31.2273 -31.2184 -31.2184 -31.2184 -31.2184
   -31.1816 -31.1816 -31.1816 -31.1816 -31.1730 -31.1730 -31.1730 -31.1730
   -31.1462 -31.1462 -31.1462 -31.1462 -31.1461 -31.1461 -31.1461 -31.1461
   -31.1124 -31.1123 -31.1123 -31.1123 -31.1123 -31.1123 -31.1123 -31.1123
   -31.1066 -31.1066 -31.1066 -31.1066 -31.0765 -31.0765 -31.0765 -31.0765
   -31.0716 -31.0716 -31.0716 -31.0716 -31.0525 -31.0525 -31.0525 -31.0525
    13.2064  13.2064  13.2064  13.2064  13.4310  13.4310  13.4310  13.4310
    14.0423  14.0423  14.0423  14.0423  14.1184  14.1184  14.1184  14.1184
    14.1184  14.1184  14.1184  14.1184  14.1826  14.1826  14.1826  14.1826
    14.1826  14.1826  14.1826  14.1827  14.2752  14.2752  14.2753  14.2753
    14.7404  14.7404  14.7404  14.7404  14.8624  14.8624  14.8624  14.8624
    14.8624  14.8624  14.8624  14.8624  14.9921  14.9921  14.9921  14.9921
    14.9921  14.9921  14.9921  14.9921  15.0955  15.0955  15.0955  15.0955
    15.7572  15.7572  15.7572  15.7572  15.8769  15.8769  15.8769  15.8769
    15.8991  15.8991  15.8991  15.8991  16.0512  16.0512  16.0512  16.0512
    16.0960  16.0960  16.0960  16.0960  16.2099  16.2099  16.2099  16.2099
    16.2129  16.2129  16.2129  16.2129  16.2448  16.2448  16.2448  16.2448
    16.2448  16.2448  16.2448  16.2448  16.2659  16.2659  16.2659  16.2659
    16.4138  16.4138  16.4138  16.4138  16.4139  16.4139  16.4139  16.4139
    16.8940  16.8940  16.8940  16.8940  16.8940  16.8940  16.8940  16.8940
    16.9790  16.9790  16.9790  16.9791  16.9834  16.9834  16.9834  16.9834
    16.9834  16.9834  16.9834  16.9834  17.0744  17.0744  17.0744  17.0744
    17.3351  17.3351  17.3351  17.3351  17.4829  17.4829  17.4829  17.4830
    17.4843  17.4843  17.4843  17.4843  17.5600  17.5600  17.5600  17.5600
    18.4435  18.4435  18.4435  18.4435  18.4435  18.4435  18.4435  18.4435
    18.4561  18.4561  18.4561  18.4561  18.4803  18.4803  18.4803  18.4803
    18.5328  18.5328  18.5328  18.5328  18.5328  18.5328  18.5328  18.5328
    21.7732  21.7732  21.7732  21.7732  21.8688  21.8688  21.8688  21.8688
    21.9904  21.9904  21.9904  21.9904  21.9904  21.9904  21.9904  21.9904
    22.1708  22.1708  22.1708  22.1708  22.1708  22.1708  22.1708  22.1708
    27.0365  27.0365  27.0365  27.0365  27.0365  27.0365  27.0365  27.0365
    27.4274  27.4274  27.4274  27.4274  27.4274  27.4274  27.4274  27.4274
    27.4534  27.4534  27.4534  27.4534  27.5529  27.5529  27.5529  27.5529
    31.5688  31.5688

     the Fermi energy is    18.5143 ev

!    total energy              =  -16384.90006817 Ry

     total all-electron energy =   -322945.753775 Ry
     estimated scf accuracy    <       0.00000062 Ry
     smearing contrib. (-TS)   =       0.04925997 Ry
     internal energy E=F+TS    =  -16384.94932814 Ry

     The total energy is F=E-TS. E is the sum of the following terms:
     one-electron contribution =   -2621.48363969 Ry
     hartree contribution      =    1713.62597546 Ry
     xc contribution           =    -985.94740077 Ry
     ewald contribution        =   -6323.74834938 Ry
     one-center paw contrib.   =   -8167.39591376 Ry

     convergence has been achieved in  13 iterations

     Forces acting on atoms (cartesian axes, Ry/au):

     atom    1 type  1   force =     0.00000000    0.00000000    0.00127815
     atom    2 type  1   force =     0.00000799    0.00000799    0.00127021
     atom    3 type  1   force =     0.00002639    0.00000000    0.03043076
     atom    4 type  1   force =     0.00000000    0.00002639    0.03043076
     atom    5 type  1   force =     0.00000000    0.00000000   -0.03046211
     atom    6 type  1   force =     0.00003300    0.00003300   -0.03044237
     atom    7 type  1   force =     0.00000908    0.00000000   -0.00121007
     atom    8 type  1   force =     0.00000000    0.00000908   -0.00121007
     atom    9 type  1   force =     0.00000000    0.00000000    0.00124462
     atom   10 type  1   force =     0.00000799   -0.00000799    0.00127021
     atom   11 type  1   force =    -0.00002315    0.00000000    0.03045522
     atom   12 type  1   force =     0.00000000   -0.00002639    0.03043076
     atom   13 type  1   force =     0.00000000    0.00000000   -0.03049892
     atom   14 type  1   force =     0.00003300   -0.00003300   -0.03044237
     atom   15 type  1   force =    -0.00000911    0.00000000   -0.00126893
     atom   16 type  1   force =     0.00000000   -0.00000908   -0.00121007
     atom   17 type  1   force =     0.00000000    0.00000000    0.00124462
     atom   18 type  1   force =    -0.00000799    0.00000799    0.00127021
     atom   19 type  1   force =    -0.00002639    0.00000000    0.03043076
     atom   20 type  1   force =     0.00000000   -0.00002315    0.03045522
     atom   21 type  1   force =     0.00000000    0.00000000   -0.03049892
     atom   22 type  1   force =    -0.00003300    0.00003300   -0.03044237
     atom   23 type  1   force =    -0.00000908    0.00000000   -0.00121007
     atom   24 type  1   force =     0.00000000   -0.00000911   -0.00126893
     atom   25 type  1   force =     0.00000000    0.00000000    0.00125380
     atom   26 type  1   force =    -0.00000799   -0.00000799    0.00127021
     atom   27 type  1   force =     0.00002315    0.00000000    0.03045522
     atom   28 type  1   force =     0.00000000    0.00002315    0.03045522
     atom   29 type  1   force =     0.00000000    0.00000000   -0.03050047
     atom   30 type  1   force =    -0.00003300   -0.00003300   -0.03044237
     atom   31 type  1   force =     0.00000911    0.00000000   -0.00126893
     atom   32 type  1   force =     0.00000000    0.00000911   -0.00126893

     Total force =     0.121921     Total SCF correction =     0.003863

     Computing stress (Cartesian axis) and pressure

          total   stress  (Ry/bohr**3)                   (kbar)     P=      -39.58
  -0.00022336   0.00000000   0.00000000          -32.86        0.00        0.00
   0.00000000  -0.00022336   0.00000000            0.00      -32.86        0.00
   0.00000000   0.00000000  -0.00036055            0.00        0.00      -53.04

     Writing output data file /scratch/DjsgXxiGAwITrxVz.save/

     General routines

     Parallel routines

   This run was terminated on:  20:39:42   6Jan2022

   JOB DONE.