     Program PWSCF v.6.7MaX starts on  7Jan2022 at  7:48:29

     R & G space division:  proc/nbgrp/npool/nimage =      72
     Reading input from scf_22.in
Warning: card &CELL ignored
Warning: card CELL_DYNAMICS = 'BFGS', ignored
Warning: card CELL_FACTOR = 2.0, ignored
Warning: card PRESS = 0.0, ignored
Warning: card / ignored

     Current dimensions of program PWSCF are:
     Max number of different atomic species (ntypx) = 10
     Max number of k-points (npk) =  40000
     Max angular momentum in pseudopotentials (lmaxx) =  3
     file Pd.pbe-spn-kjpaw_psl.1.0.0.UPF: wavefunction(s)  4S 5S 4D renormalized

     Subspace diagonalization in iterative solution of the eigenvalue problem:
     one sub-group per band group will be used

     Found symmetry operation: I + (  0.2500  0.2500  0.0000)
     This is a supercell, fractional translations are disabled
     Message from routine setup:
     using ibrav=0 with symmetry is DISCOURAGED, use correct ibrav instead

     bravais-lattice index     =            0
     lattice parameter (alat)  =      14.8394  a.u.
     unit-cell volume          =    5412.2353 (a.u.)^3
     number of atoms/cell      =           32
     number of atomic types    =            1
     number of electrons       =       576.00
     number of Kohn-Sham states=          346
     kinetic-energy cutoff     =      71.0000  Ry
     charge density cutoff     =     430.0000  Ry
     scf convergence threshold =      1.0E-06
     mixing beta               =       0.1000
     number of iterations used =           10  TF        mixing
     Exchange-correlation= SLA  PW   PBX  PBC
                           (   1   4   3   4   0   0   0)

     celldm(1)=  14.839420  celldm(2)=   0.000000  celldm(3)=   0.000000
     celldm(4)=   0.000000  celldm(5)=   0.000000  celldm(6)=   0.000000

     crystal axes: (cart. coord. in units of alat)
               a(1) = (   1.000000   0.000000   0.000000 )
               a(2) = (   0.000000   1.000000   0.000000 )
               a(3) = (   0.000000   0.000000   1.656250 )

     reciprocal axes: (cart. coord. in units 2 pi/alat)
               b(1) = (  1.000000  0.000000  0.000000 )
               b(2) = (  0.000000  1.000000  0.000000 )
               b(3) = (  0.000000  0.000000  0.603774 )

     PseudoPot. # 1 for Pd read from file:
     /rds/homes/b/bxp912/pp/Pd.pbe-spn-kjpaw_psl.1.0.0.UPF
     MD5 check sum: 790f2ebce206edfd9790dcb9844eca51
     Pseudo is Projector augmented-wave + core cor, Zval = 18.0
     Generated using &quot;atomic&quot; code by A. Dal Corso  v.6.3
     Shape of augmentation charge: PSQ
     Using radial grid of 1235 points,  6 beta functions with:
                l(1) =   0
                l(2) =   0
                l(3) =   1
                l(4) =   1
                l(5) =   2
                l(6) =   2
     Q(r) pseudized with 0 coefficients

     atomic species   valence    mass     pseudopotential
        Pd            18.00   106.42000     Pd( 1.00)

      8 Sym. Ops. (no inversion) found

   Cartesian axes

     site n.     atom                  positions (alat units)
         1           Pd  tau(   1) = (   0.0000000   0.0000000   0.0000000  )
         2           Pd  tau(   2) = (   0.2500000   0.2500000   0.0000000  )
         3           Pd  tau(   3) = (   0.2500000   0.0000000   0.2500000  )
         4           Pd  tau(   4) = (   0.0000000   0.2500000   0.2500000  )
         5           Pd  tau(   5) = (   0.0000000   0.0000000   1.1562500  )
         6           Pd  tau(   6) = (   0.2500000   0.2500000   1.1562500  )
         7           Pd  tau(   7) = (   0.2500000   0.0000000   1.4062500  )
         8           Pd  tau(   8) = (   0.0000000   0.2500000   1.4062500  )
         9           Pd  tau(   9) = (   0.0000000   0.5000000   0.0000000  )
        10           Pd  tau(  10) = (   0.2500000   0.7500000   0.0000000  )
        11           Pd  tau(  11) = (   0.2500000   0.5000000   0.2500000  )
        12           Pd  tau(  12) = (   0.0000000   0.7500000   0.2500000  )
        13           Pd  tau(  13) = (   0.0000000   0.5000000   1.1562500  )
        14           Pd  tau(  14) = (   0.2500000   0.7500000   1.1562500  )
        15           Pd  tau(  15) = (   0.2500000   0.5000000   1.4062500  )
        16           Pd  tau(  16) = (   0.0000000   0.7500000   1.4062500  )
        17           Pd  tau(  17) = (   0.5000000   0.0000000   0.0000000  )
        18           Pd  tau(  18) = (   0.7500000   0.2500000   0.0000000  )
        19           Pd  tau(  19) = (   0.7500000   0.0000000   0.2500000  )
        20           Pd  tau(  20) = (   0.5000000   0.2500000   0.2500000  )
        21           Pd  tau(  21) = (   0.5000000   0.0000000   1.1562500  )
        22           Pd  tau(  22) = (   0.7500000   0.2500000   1.1562500  )
        23           Pd  tau(  23) = (   0.7500000   0.0000000   1.4062500  )
        24           Pd  tau(  24) = (   0.5000000   0.2500000   1.4062500  )
        25           Pd  tau(  25) = (   0.5000000   0.5000000   0.0000000  )
        26           Pd  tau(  26) = (   0.7500000   0.7500000   0.0000000  )
        27           Pd  tau(  27) = (   0.7500000   0.5000000   0.2500000  )
        28           Pd  tau(  28) = (   0.5000000   0.7500000   0.2500000  )
        29           Pd  tau(  29) = (   0.5000000   0.5000000   1.1562500  )
        30           Pd  tau(  30) = (   0.7500000   0.7500000   1.1562500  )
        31           Pd  tau(  31) = (   0.7500000   0.5000000   1.4062500  )
        32           Pd  tau(  32) = (   0.5000000   0.7500000   1.4062500  )

     number of k points=    75  Marzari-Vanderbilt smearing, width (Ry)=  0.0400
                       cart. coord. in units 2pi/alat
        k(    1) = (   0.0555556   0.0555556   0.0335430), wk =   0.0219479
        k(    2) = (   0.0555556   0.0555556   0.1006289), wk =   0.0219479
        k(    3) = (   0.0555556   0.0555556   0.1677149), wk =   0.0219479
        k(    4) = (   0.0555556   0.0555556   0.2348008), wk =   0.0219479
        k(    5) = (   0.0555556   0.0555556  -0.3018868), wk =   0.0109739
        k(    6) = (   0.0555556   0.1666667   0.0335430), wk =   0.0438957
        k(    7) = (   0.0555556   0.1666667   0.1006289), wk =   0.0438957
        k(    8) = (   0.0555556   0.1666667   0.1677149), wk =   0.0438957
        k(    9) = (   0.0555556   0.1666667   0.2348008), wk =   0.0438957
        k(   10) = (   0.0555556   0.1666667  -0.3018868), wk =   0.0219479
        k(   11) = (   0.0555556   0.2777778   0.0335430), wk =   0.0438957
        k(   12) = (   0.0555556   0.2777778   0.1006289), wk =   0.0438957
        k(   13) = (   0.0555556   0.2777778   0.1677149), wk =   0.0438957
        k(   14) = (   0.0555556   0.2777778   0.2348008), wk =   0.0438957
        k(   15) = (   0.0555556   0.2777778  -0.3018868), wk =   0.0219479
        k(   16) = (   0.0555556   0.3888889   0.0335430), wk =   0.0438957
        k(   17) = (   0.0555556   0.3888889   0.1006289), wk =   0.0438957
        k(   18) = (   0.0555556   0.3888889   0.1677149), wk =   0.0438957
        k(   19) = (   0.0555556   0.3888889   0.2348008), wk =   0.0438957
        k(   20) = (   0.0555556   0.3888889  -0.3018868), wk =   0.0219479
        k(   21) = (   0.0555556  -0.5000000   0.0335430), wk =   0.0219479
        k(   22) = (   0.0555556  -0.5000000   0.1006289), wk =   0.0219479
        k(   23) = (   0.0555556  -0.5000000   0.1677149), wk =   0.0219479
        k(   24) = (   0.0555556  -0.5000000   0.2348008), wk =   0.0219479
        k(   25) = (   0.0555556  -0.5000000  -0.3018868), wk =   0.0109739
        k(   26) = (   0.1666667   0.1666667   0.0335430), wk =   0.0219479
        k(   27) = (   0.1666667   0.1666667   0.1006289), wk =   0.0219479
        k(   28) = (   0.1666667   0.1666667   0.1677149), wk =   0.0219479
        k(   29) = (   0.1666667   0.1666667   0.2348008), wk =   0.0219479
        k(   30) = (   0.1666667   0.1666667  -0.3018868), wk =   0.0109739
        k(   31) = (   0.1666667   0.2777778   0.0335430), wk =   0.0438957
        k(   32) = (   0.1666667   0.2777778   0.1006289), wk =   0.0438957
        k(   33) = (   0.1666667   0.2777778   0.1677149), wk =   0.0438957
        k(   34) = (   0.1666667   0.2777778   0.2348008), wk =   0.0438957
        k(   35) = (   0.1666667   0.2777778  -0.3018868), wk =   0.0219479
        k(   36) = (   0.1666667   0.3888889   0.0335430), wk =   0.0438957
        k(   37) = (   0.1666667   0.3888889   0.1006289), wk =   0.0438957
        k(   38) = (   0.1666667   0.3888889   0.1677149), wk =   0.0438957
        k(   39) = (   0.1666667   0.3888889   0.2348008), wk =   0.0438957
        k(   40) = (   0.1666667   0.3888889  -0.3018868), wk =   0.0219479
        k(   41) = (   0.1666667  -0.5000000   0.0335430), wk =   0.0219479
        k(   42) = (   0.1666667  -0.5000000   0.1006289), wk =   0.0219479
        k(   43) = (   0.1666667  -0.5000000   0.1677149), wk =   0.0219479
        k(   44) = (   0.1666667  -0.5000000   0.2348008), wk =   0.0219479
        k(   45) = (   0.1666667  -0.5000000  -0.3018868), wk =   0.0109739
        k(   46) = (   0.2777778   0.2777778   0.0335430), wk =   0.0219479
        k(   47) = (   0.2777778   0.2777778   0.1006289), wk =   0.0219479
        k(   48) = (   0.2777778   0.2777778   0.1677149), wk =   0.0219479
        k(   49) = (   0.2777778   0.2777778   0.2348008), wk =   0.0219479
        k(   50) = (   0.2777778   0.2777778  -0.3018868), wk =   0.0109739
        k(   51) = (   0.2777778   0.3888889   0.0335430), wk =   0.0438957
        k(   52) = (   0.2777778   0.3888889   0.1006289), wk =   0.0438957
        k(   53) = (   0.2777778   0.3888889   0.1677149), wk =   0.0438957
        k(   54) = (   0.2777778   0.3888889   0.2348008), wk =   0.0438957
        k(   55) = (   0.2777778   0.3888889  -0.3018868), wk =   0.0219479
        k(   56) = (   0.2777778  -0.5000000   0.0335430), wk =   0.0219479
        k(   57) = (   0.2777778  -0.5000000   0.1006289), wk =   0.0219479
        k(   58) = (   0.2777778  -0.5000000   0.1677149), wk =   0.0219479
        k(   59) = (   0.2777778  -0.5000000   0.2348008), wk =   0.0219479
        k(   60) = (   0.2777778  -0.5000000  -0.3018868), wk =   0.0109739
        k(   61) = (   0.3888889   0.3888889   0.0335430), wk =   0.0219479
        k(   62) = (   0.3888889   0.3888889   0.1006289), wk =   0.0219479
        k(   63) = (   0.3888889   0.3888889   0.1677149), wk =   0.0219479
        k(   64) = (   0.3888889   0.3888889   0.2348008), wk =   0.0219479
        k(   65) = (   0.3888889   0.3888889  -0.3018868), wk =   0.0109739
        k(   66) = (   0.3888889  -0.5000000   0.0335430), wk =   0.0219479
        k(   67) = (   0.3888889  -0.5000000   0.1006289), wk =   0.0219479
        k(   68) = (   0.3888889  -0.5000000   0.1677149), wk =   0.0219479
        k(   69) = (   0.3888889  -0.5000000   0.2348008), wk =   0.0219479
        k(   70) = (   0.3888889  -0.5000000  -0.3018868), wk =   0.0109739
        k(   71) = (  -0.5000000  -0.5000000   0.0335430), wk =   0.0054870
        k(   72) = (  -0.5000000  -0.5000000   0.1006289), wk =   0.0054870
        k(   73) = (  -0.5000000  -0.5000000   0.1677149), wk =   0.0054870
        k(   74) = (  -0.5000000  -0.5000000   0.2348008), wk =   0.0054870
        k(   75) = (  -0.5000000  -0.5000000  -0.3018868), wk =   0.0027435

     Check: negative core charge=   -0.000001

     Initial potential from superposition of free atoms

     starting charge  575.98776, renormalised to  576.00000
     Starting wfcs are  320 randomized atomic wfcs +   26 random wfcs
     Checking if some PAW data can be deallocated...

     Self-consistent Calculation

     iteration #  1     ecut=    71.00 Ry     beta= 0.10
     Davidson diagonalization with overlap
     ethr =  1.00E-02,  avg # of iterations =  4.1

     Threshold (ethr) on eigenvalues was too large:
     Diagonalizing with lowered threshold

     Davidson diagonalization with overlap
     ethr =  7.48E-04,  avg # of iterations =  1.2

     total energy              =  -16384.82384731 Ry
     estimated scf accuracy    <       4.29993834 Ry

[...]

     negative rho (up, down):  4.445E-04 0.000E+00

[...]

     negative rho (up, down):  8.022E-04 0.000E+00

[...]

     total energy              =  -16384.05106117 Ry
     estimated scf accuracy    <       0.00000196 Ry

     iteration # 28     ecut=    71.00 Ry     beta= 0.10
     Davidson diagonalization with overlap
     ethr =  3.41E-10,  avg # of iterations =  2.0

     End of self-consistent calculation

          k = 0.0556 0.0556 0.0335 ( 54670 PWs)   bands (ev):

   -74.5515 -74.5293 -74.5293 -74.5251 -74.5251 -74.5205 -74.5195 -74.5189
   -74.5189 -74.5177 -74.5119 -74.5119 -74.5105 -74.5104 -74.5032 -74.5032
   -73.9596 -73.9595 -73.9451 -73.9451 -73.9451 -73.9451 -73.9439 -73.9439
   -73.9437 -73.9436 -73.9423 -73.9423 -73.9423 -73.9423 -73.9278 -73.9277
   -40.3860 -40.3860 -40.3856 -40.3847 -40.3722 -40.3722 -40.3654 -40.3312
   -40.3312 -40.3283 -40.3282 -40.2911 -40.2911 -40.2800 -40.2800 -40.2708
   -40.2708 -40.2677 -40.2677 -40.2587 -40.2587 -40.2299 -40.2299 -40.2232
   -40.2231 -40.2231 -40.2186 -40.2186 -40.2134 -40.2088 -40.2088 -40.1951
   -40.1919 -40.1919 -40.1774 -40.1774 -40.1745 -40.1735 -40.1634 -40.1634
   -40.1582 -40.1582 -40.1246 -40.1227 -40.1227 -40.1184 -40.1063 -40.1048
   -39.8337 -39.8337 -39.8329 -39.8320 -39.8219 -39.8219 -39.8199 -39.8199
   -39.7514 -39.7514 -39.7513 -39.7513 -39.7364 -39.7364 -39.7362 -39.7362
   -39.7341 -39.7341 -39.7337 -39.7337 -39.7189 -39.7189 -39.7187 -39.7187
   -39.6483 -39.6480 -39.6467 -39.6464 -39.6347 -39.6347 -39.6334 -39.6334
   -39.5629 -39.5597 -39.5483 -39.5483 -39.5478 -39.5478 -39.5469 -39.5465
   -39.5465 -39.5465 -39.5461 -39.5461 -39.5457 -39.5457 -39.5359 -39.5359
     3.2635   4.5521   4.7929   4.7929   4.8593   4.8655   4.8717   4.8717
     4.9307   4.9434   5.0675   5.0675   5.1564   5.1564   5.3398   5.3398
     5.4055   5.6074   5.7290   5.7290   5.7581   5.7581   5.7879   5.7879
     5.8085   5.8085   5.8774   5.8806   5.8806   5.8828   5.8953   5.8953
     6.0212   6.0212   6.0888   6.0888   6.1251   6.1251   6.2011   6.2011
     6.2134   6.2134   6.2759   6.2759   6.3379   6.3974   6.3974   6.4157
     6.4157   6.5592   6.5592   6.6252   6.6730   6.6731   6.7228   6.7228
     6.7350   6.7435   6.7435   6.7543   6.9300   6.9300   6.9333   6.9333
     6.9464   6.9567   7.0941   7.0941   7.1056   7.1077   7.1150   7.1150
     7.1476   7.1569   7.2177   7.2177   7.2526   7.2526   7.6027   7.6028
     7.6564   7.6645   7.6672   7.6672   7.6867   7.6867   7.7111   7.7111
     7.8327   7.8327   7.8671   7.8671   7.8802   7.8802   7.8869   7.9035
     7.9317   7.9317   7.9589   7.9589   7.9899   8.0048   8.0346   8.0579
     8.0580   8.1655   8.1655   8.1825   8.1825   8.2605   8.2884   8.2884
     8.3187   8.3187   8.3291   8.3291   8.4566   8.4566   8.5113   8.5113
     8.5123   8.5123   8.5457   8.6951   8.6952   8.7206   8.7632   8.7632
     8.8830   8.8830   8.8960   8.8960   8.8961   8.9157   8.9157   8.9251
     9.0124   9.0344   9.0368   9.0368   9.0380   9.1164   9.1470   9.1658
     9.1658   9.1920   9.1920   9.2009   9.2009   9.3608   9.3609   9.4344
     9.4375   9.4375   9.4387   9.4920   9.5709   9.5875   9.5875   9.5943
     9.5943   9.6460   9.6907   9.7975   9.7975  10.1266  10.1266  10.2020
    10.2020  10.5629  10.5629  10.9459  11.0524  11.2591  11.4737  11.4737
    11.7680  11.8333  11.8333  11.8902  11.8902  12.1908  12.3865  12.3865
    12.3896  13.9807  13.9807  14.2253  14.2253  14.7958  14.7970  14.7970
    14.8532  14.8532  14.9691  15.6167  15.6167  15.6969  16.1822  16.1822
    16.2867  16.2867  17.7635  18.0251  18.0251  18.2069  18.4053  18.5343
    18.5343  18.6438  18.6590  18.6590  18.7177  18.7178  18.7889  18.7889
    19.2301  19.2742

[...]

          k = 0.3889-0.5000-0.3019 ( 54716 PWs)   bands (ev):

[...]

          k =-0.5000-0.5000 0.0335 ( 54636 PWs)   bands (ev):

[...]

          k =-0.5000-0.5000-0.3019 ( 54728 PWs)   bands (ev):

   -74.5387 -74.5387 -74.5387 -74.5387 -74.5160 -74.5159 -74.5159 -74.5159
   -74.5111 -74.5111 -74.5111 -74.5111 -74.5110 -74.5110 -74.5110 -74.5110
   -73.9518 -73.9517 -73.9517 -73.9517 -73.9517 -73.9517 -73.9517 -73.9516
   -73.9358 -73.9357 -73.9357 -73.9357 -73.9357 -73.9357 -73.9357 -73.9356
   -40.3636 -40.3636 -40.3636 -40.3636 -40.3636 -40.3636 -40.3636 -40.3636
   -40.3502 -40.3502 -40.3502 -40.3502 -40.2995 -40.2995 -40.2995 -40.2995
   -40.2385 -40.2385 -40.2385 -40.2385 -40.2385 -40.2385 -40.2385 -40.2385
   -40.1984 -40.1984 -40.1984 -40.1984 -40.1972 -40.1972 -40.1972 -40.1972
   -40.1972 -40.1972 -40.1972 -40.1972 -40.1750 -40.1750 -40.1750 -40.1750
   -40.1554 -40.1554 -40.1553 -40.1553 -40.1057 -40.1057 -40.1057 -40.1057
   -39.8271 -39.8271 -39.8271 -39.8271 -39.8271 -39.8271 -39.8271 -39.8271
   -39.7434 -39.7434 -39.7434 -39.7434 -39.7409 -39.7409 -39.7409 -39.7409
   -39.7286 -39.7286 -39.7286 -39.7286 -39.7286 -39.7286 -39.7286 -39.7286
   -39.6400 -39.6400 -39.6400 -39.6400 -39.6399 -39.6399 -39.6399 -39.6399
   -39.5537 -39.5537 -39.5537 -39.5537 -39.5531 -39.5531 -39.5531 -39.5531
   -39.5413 -39.5412 -39.5412 -39.5412 -39.5412 -39.5412 -39.5412 -39.5412
     4.3854   4.3854   4.3854   4.3854   5.0054   5.0054   5.0054   5.0054
     5.3396   5.3396   5.3396   5.3396   5.3396   5.3396   5.3396   5.3396
     5.4529   5.4529   5.4529   5.4529   5.5082   5.5082   5.5082   5.5083
     5.5083   5.5083   5.5083   5.5083   5.6031   5.6031   5.6031   5.6031
     5.8924   5.8924   5.8924   5.8924   6.2141   6.2141   6.2141   6.2141
     6.2141   6.2141   6.2141   6.2141   6.5134   6.5134   6.5134   6.5134
     6.5134   6.5134   6.5134   6.5135   6.6815   6.6815   6.6815   6.6815
     6.9007   6.9007   6.9007   6.9008   7.1477   7.1477   7.1477   7.1477
     7.2505   7.2505   7.2505   7.2505   7.2893   7.2893   7.2893   7.2893
     7.3476   7.3476   7.3476   7.3476   7.4800   7.4800   7.4800   7.4800
     7.4800   7.4800   7.4800   7.4800   7.5243   7.5243   7.5243   7.5243
     7.7973   7.7973   7.7973   7.7973   7.9219   7.9219   7.9219   7.9219
     8.0598   8.0598   8.0598   8.0598   8.0598   8.0598   8.0598   8.0598
     8.0914   8.0914   8.0914   8.0914   8.0914   8.0914   8.0914   8.0914
     8.1434   8.1435   8.1435   8.1435   8.3643   8.3643   8.3643   8.3643
     8.6625   8.6625   8.6625   8.6625   8.6625   8.6625   8.6625   8.6625
     8.6724   8.6724   8.6724   8.6724   8.7869   8.7869   8.7869   8.7869
     8.9323   8.9323   8.9323   8.9323   9.1349   9.1349   9.1349   9.1349
     9.2700   9.2700   9.2700   9.2700   9.2700   9.2700   9.2700   9.2700
     9.5510   9.5510   9.5510   9.5510   9.6114   9.6114   9.6114   9.6114
     9.6114   9.6114   9.6114   9.6114   9.6208   9.6208   9.6208   9.6208
    10.4288  10.4288  10.4288  10.4288  12.6377  12.6377  12.6377  12.6377
    12.8731  12.8731  12.8731  12.8731  12.8731  12.8731  12.8731  12.8731
    13.9836  13.9836  13.9836  13.9836  13.9836  13.9836  13.9836  13.9836
    15.1695  15.1695  15.1695  15.1695  16.0000  16.0000  16.0000  16.0000
    16.0000  16.0000  16.0000  16.0000  16.4131  16.4131  16.4131  16.4131
    18.2296  18.2296  18.2296  18.2297  18.2904  18.2904  18.2904  18.2904
    18.2904  18.2904

     the Fermi energy is     9.6222 ev

!    total energy              =  -16384.05106357 Ry

     total all-electron energy =   -322944.904771 Ry
     estimated scf accuracy    <       0.00000054 Ry
     smearing contrib. (-TS)   =       0.12354315 Ry
     internal energy E=F+TS    =  -16384.17460672 Ry

     The total energy is F=E-TS. E is the sum of the following terms:
     one-electron contribution =  -15501.94965255 Ry
     hartree contribution      =    7969.38919829 Ry
     xc contribution           =    -985.38149865 Ry
     ewald contribution        =     301.09694180 Ry
     one-center paw contrib.   =   -8167.32959562 Ry

     convergence has been achieved in  28 iterations

     Forces acting on atoms (cartesian axes, Ry/au):

     atom    1 type  1   force =     0.00000000    0.00000000    0.00314261
     atom    2 type  1   force =     0.00000006    0.00000006    0.00312620
     atom    3 type  1   force =    -0.00001607    0.00000000   -0.00386182
     atom    4 type  1   force =     0.00000000   -0.00001607   -0.00386182
     atom    5 type  1   force =     0.00000000    0.00000000    0.00382608
     atom    6 type  1   force =     0.00000949    0.00000949    0.00383809
     atom    7 type  1   force =     0.00001143    0.00000000   -0.00311062
     atom    8 type  1   force =     0.00000000    0.00001143   -0.00311062
     atom    9 type  1   force =     0.00000000    0.00000000    0.00313390
     atom   10 type  1   force =     0.00000006   -0.00000006    0.00312620
     atom   11 type  1   force =     0.00000357    0.00000000   -0.00386363
     atom   12 type  1   force =     0.00000000    0.00001607   -0.00386182
     atom   13 type  1   force =     0.00000000    0.00000000    0.00384949
     atom   14 type  1   force =     0.00000949   -0.00000949    0.00383809
     atom   15 type  1   force =     0.00002046    0.00000000   -0.00310832
     atom   16 type  1   force =     0.00000000   -0.00001143   -0.00311062
     atom   17 type  1   force =     0.00000000    0.00000000    0.00313390
     atom   18 type  1   force =    -0.00000006    0.00000006    0.00312620
     atom   19 type  1   force =     0.00001607    0.00000000   -0.00386182
     atom   20 type  1   force =     0.00000000    0.00000357   -0.00386363
     atom   21 type  1   force =     0.00000000    0.00000000    0.00384949
     atom   22 type  1   force =    -0.00000949    0.00000949    0.00383809
     atom   23 type  1   force =    -0.00001143    0.00000000   -0.00311062
     atom   24 type  1   force =     0.00000000    0.00002046   -0.00310832
     atom   25 type  1   force =     0.00000000    0.00000000    0.00311470
     atom   26 type  1   force =    -0.00000006   -0.00000006    0.00312620
     atom   27 type  1   force =    -0.00000357    0.00000000   -0.00386363
     atom   28 type  1   force =     0.00000000   -0.00000357   -0.00386363
     atom   29 type  1   force =     0.00000000    0.00000000    0.00387027
     atom   30 type  1   force =    -0.00000949   -0.00000949    0.00383809
     atom   31 type  1   force =    -0.00002046    0.00000000   -0.00310832
     atom   32 type  1   force =     0.00000000   -0.00002046   -0.00310832

     Total force =     0.019830     Total SCF correction =     0.006718
     SCF correction compared to forces is large: reduce conv_thr to get better values

     Computing stress (Cartesian axis) and pressure

          total   stress  (Ry/bohr**3)                   (kbar)     P=      -33.46
  -0.00028489   0.00000000   0.00000000          -41.91        0.00        0.00
   0.00000000  -0.00028489   0.00000000            0.00      -41.91        0.00
   0.00000000   0.00000000  -0.00011258            0.00        0.00      -16.56

     Writing output data file /scratch/EkXGkfVrBBpDrfNJ.save/

     General routines

     Parallel routines

   This run was terminated on:   8:37:11   7Jan2022

   JOB DONE.