     Program PWSCF v.6.7MaX starts on  6Jan2022 at 21: 6:31

     R & G space division:  proc/nbgrp/npool/nimage =      72
     Reading input from scf_4.in
Warning: card &CELL ignored
Warning: card CELL_DYNAMICS = 'BFGS', ignored
Warning: card CELL_FACTOR = 2.0, ignored
Warning: card PRESS = 0.0, ignored
Warning: card / ignored

     Current dimensions of program PWSCF are:
     Max number of different atomic species (ntypx) = 10
     Max number of k-points (npk) =  40000
     Max angular momentum in pseudopotentials (lmaxx) =  3
     file Pd.pbe-spn-kjpaw_psl.1.0.0.UPF: wavefunction(s)  4S 5S 4D renormalized

     Subspace diagonalization in iterative solution of the eigenvalue problem:
     one sub-group per band group will be used

     Found symmetry operation: I + (  0.2500  0.2500  0.0000)
     This is a supercell, fractional translations are disabled
     Message from routine setup:
     using ibrav=0 with symmetry is DISCOURAGED, use correct ibrav instead

     bravais-lattice index     =            0
     lattice parameter (alat)  =      14.8394  a.u.
     unit-cell volume          =    3574.1177 (a.u.)^3
     number of atoms/cell      =           32
     number of atomic types    =            1
     number of electrons       =       576.00
     number of Kohn-Sham states=          346
     kinetic-energy cutoff     =      71.0000  Ry
     charge density cutoff     =     430.0000  Ry
     scf convergence threshold =      1.0E-06
     mixing beta               =       0.1000
     number of iterations used =           10  TF        mixing
     Exchange-correlation= SLA  PW   PBX  PBC
                           (   1   4   3   4   0   0   0)

     celldm(1)=  14.839420  celldm(2)=   0.000000  celldm(3)=   0.000000
     celldm(4)=   0.000000  celldm(5)=   0.000000  celldm(6)=   0.000000

     crystal axes: (cart. coord. in units of alat)
               a(1) = (   1.000000   0.000000   0.000000 )
               a(2) = (   0.000000   1.000000   0.000000 )
               a(3) = (   0.000000   0.000000   1.093750 )

     reciprocal axes: (cart. coord. in units 2 pi/alat)
               b(1) = (  1.000000  0.000000  0.000000 )
               b(2) = (  0.000000  1.000000  0.000000 )
               b(3) = (  0.000000  0.000000  0.914286 )

     PseudoPot. # 1 for Pd read from file:
     /rds/homes/b/bxp912/pp/Pd.pbe-spn-kjpaw_psl.1.0.0.UPF
     MD5 check sum: 790f2ebce206edfd9790dcb9844eca51
     Pseudo is Projector augmented-wave + core cor, Zval = 18.0
     Generated using &quot;atomic&quot; code by A. Dal Corso  v.6.3
     Shape of augmentation charge: PSQ
     Using radial grid of 1235 points,  6 beta functions with:
                l(1) =   0
                l(2) =   0
                l(3) =   1
                l(4) =   1
                l(5) =   2
                l(6) =   2
     Q(r) pseudized with 0 coefficients

     atomic species   valence    mass     pseudopotential
        Pd            18.00   106.42000     Pd( 1.00)

      8 Sym. Ops. (no inversion) found

   Cartesian axes

     site n.     atom                  positions (alat units)
         1           Pd  tau(   1) = (   0.0000000   0.0000000   0.0000000  )
         2           Pd  tau(   2) = (   0.2500000   0.2500000   0.0000000  )
         3           Pd  tau(   3) = (   0.2500000   0.0000000   0.2500000  )
         4           Pd  tau(   4) = (   0.0000000   0.2500000   0.2500000  )
         5           Pd  tau(   5) = (   0.0000000   0.0000000   0.5937500  )
         6           Pd  tau(   6) = (   0.2500000   0.2500000   0.5937500  )
         7           Pd  tau(   7) = (   0.2500000   0.0000000   0.8437500  )
         8           Pd  tau(   8) = (   0.0000000   0.2500000   0.8437500  )
         9           Pd  tau(   9) = (   0.0000000   0.5000000   0.0000000  )
        10           Pd  tau(  10) = (   0.2500000   0.7500000   0.0000000  )
        11           Pd  tau(  11) = (   0.2500000   0.5000000   0.2500000  )
        12           Pd  tau(  12) = (   0.0000000   0.7500000   0.2500000  )
        13           Pd  tau(  13) = (   0.0000000   0.5000000   0.5937500  )
        14           Pd  tau(  14) = (   0.2500000   0.7500000   0.5937500  )
        15           Pd  tau(  15) = (   0.2500000   0.5000000   0.8437500  )
        16           Pd  tau(  16) = (   0.0000000   0.7500000   0.8437500  )
        17           Pd  tau(  17) = (   0.5000000   0.0000000   0.0000000  )
        18           Pd  tau(  18) = (   0.7500000   0.2500000   0.0000000  )
        19           Pd  tau(  19) = (   0.7500000   0.0000000   0.2500000  )
        20           Pd  tau(  20) = (   0.5000000   0.2500000   0.2500000  )
        21           Pd  tau(  21) = (   0.5000000   0.0000000   0.5937500  )
        22           Pd  tau(  22) = (   0.7500000   0.2500000   0.5937500  )
        23           Pd  tau(  23) = (   0.7500000   0.0000000   0.8437500  )
        24           Pd  tau(  24) = (   0.5000000   0.2500000   0.8437500  )
        25           Pd  tau(  25) = (   0.5000000   0.5000000   0.0000000  )
        26           Pd  tau(  26) = (   0.7500000   0.7500000   0.0000000  )
        27           Pd  tau(  27) = (   0.7500000   0.5000000   0.2500000  )
        28           Pd  tau(  28) = (   0.5000000   0.7500000   0.2500000  )
        29           Pd  tau(  29) = (   0.5000000   0.5000000   0.5937500  )
        30           Pd  tau(  30) = (   0.7500000   0.7500000   0.5937500  )
        31           Pd  tau(  31) = (   0.7500000   0.5000000   0.8437500  )
        32           Pd  tau(  32) = (   0.5000000   0.7500000   0.8437500  )

     number of k points=    75  Marzari-Vanderbilt smearing, width (Ry)=  0.0400
                       cart. coord. in units 2pi/alat
        k(    1) = (   0.0555556   0.0555556   0.0507937), wk =   0.0219479
        k(    2) = (   0.0555556   0.0555556   0.1523810), wk =   0.0219479
        k(    3) = (   0.0555556   0.0555556   0.2539683), wk =   0.0219479
        k(    4) = (   0.0555556   0.0555556   0.3555556), wk =   0.0219479
        k(    5) = (   0.0555556   0.0555556  -0.4571429), wk =   0.0109739
        k(    6) = (   0.0555556   0.1666667   0.0507937), wk =   0.0438957
        k(    7) = (   0.0555556   0.1666667   0.1523810), wk =   0.0438957
        k(    8) = (   0.0555556   0.1666667   0.2539683), wk =   0.0438957
        k(    9) = (   0.0555556   0.1666667   0.3555556), wk =   0.0438957
        k(   10) = (   0.0555556   0.1666667  -0.4571429), wk =   0.0219479
        k(   11) = (   0.0555556   0.2777778   0.0507937), wk =   0.0438957
        k(   12) = (   0.0555556   0.2777778   0.1523810), wk =   0.0438957
        k(   13) = (   0.0555556   0.2777778   0.2539683), wk =   0.0438957
        k(   14) = (   0.0555556   0.2777778   0.3555556), wk =   0.0438957
        k(   15) = (   0.0555556   0.2777778  -0.4571429), wk =   0.0219479
        k(   16) = (   0.0555556   0.3888889   0.0507937), wk =   0.0438957
        k(   17) = (   0.0555556   0.3888889   0.1523810), wk =   0.0438957
        k(   18) = (   0.0555556   0.3888889   0.2539683), wk =   0.0438957
        k(   19) = (   0.0555556   0.3888889   0.3555556), wk =   0.0438957
        k(   20) = (   0.0555556   0.3888889  -0.4571429), wk =   0.0219479
        k(   21) = (   0.0555556  -0.5000000   0.0507937), wk =   0.0219479
        k(   22) = (   0.0555556  -0.5000000   0.1523810), wk =   0.0219479
        k(   23) = (   0.0555556  -0.5000000   0.2539683), wk =   0.0219479
        k(   24) = (   0.0555556  -0.5000000   0.3555556), wk =   0.0219479
        k(   25) = (   0.0555556  -0.5000000  -0.4571429), wk =   0.0109739
        k(   26) = (   0.1666667   0.1666667   0.0507937), wk =   0.0219479
        k(   27) = (   0.1666667   0.1666667   0.1523810), wk =   0.0219479
        k(   28) = (   0.1666667   0.1666667   0.2539683), wk =   0.0219479
        k(   29) = (   0.1666667   0.1666667   0.3555556), wk =   0.0219479
        k(   30) = (   0.1666667   0.1666667  -0.4571429), wk =   0.0109739
        k(   31) = (   0.1666667   0.2777778   0.0507937), wk =   0.0438957
        k(   32) = (   0.1666667   0.2777778   0.1523810), wk =   0.0438957
        k(   33) = (   0.1666667   0.2777778   0.2539683), wk =   0.0438957
        k(   34) = (   0.1666667   0.2777778   0.3555556), wk =   0.0438957
        k(   35) = (   0.1666667   0.2777778  -0.4571429), wk =   0.0219479
        k(   36) = (   0.1666667   0.3888889   0.0507937), wk =   0.0438957
        k(   37) = (   0.1666667   0.3888889   0.1523810), wk =   0.0438957
        k(   38) = (   0.1666667   0.3888889   0.2539683), wk =   0.0438957
        k(   39) = (   0.1666667   0.3888889   0.3555556), wk =   0.0438957
        k(   40) = (   0.1666667   0.3888889  -0.4571429), wk =   0.0219479
        k(   41) = (   0.1666667  -0.5000000   0.0507937), wk =   0.0219479
        k(   42) = (   0.1666667  -0.5000000   0.1523810), wk =   0.0219479
        k(   43) = (   0.1666667  -0.5000000   0.2539683), wk =   0.0219479
        k(   44) = (   0.1666667  -0.5000000   0.3555556), wk =   0.0219479
        k(   45) = (   0.1666667  -0.5000000  -0.4571429), wk =   0.0109739
        k(   46) = (   0.2777778   0.2777778   0.0507937), wk =   0.0219479
        k(   47) = (   0.2777778   0.2777778   0.1523810), wk =   0.0219479
        k(   48) = (   0.2777778   0.2777778   0.2539683), wk =   0.0219479
        k(   49) = (   0.2777778   0.2777778   0.3555556), wk =   0.0219479
        k(   50) = (   0.2777778   0.2777778  -0.4571429), wk =   0.0109739
        k(   51) = (   0.2777778   0.3888889   0.0507937), wk =   0.0438957
        k(   52) = (   0.2777778   0.3888889   0.1523810), wk =   0.0438957
        k(   53) = (   0.2777778   0.3888889   0.2539683), wk =   0.0438957
        k(   54) = (   0.2777778   0.3888889   0.3555556), wk =   0.0438957
        k(   55) = (   0.2777778   0.3888889  -0.4571429), wk =   0.0219479
        k(   56) = (   0.2777778  -0.5000000   0.0507937), wk =   0.0219479
        k(   57) = (   0.2777778  -0.5000000   0.1523810), wk =   0.0219479
        k(   58) = (   0.2777778  -0.5000000   0.2539683), wk =   0.0219479
        k(   59) = (   0.2777778  -0.5000000   0.3555556), wk =   0.0219479
        k(   60) = (   0.2777778  -0.5000000  -0.4571429), wk =   0.0109739
        k(   61) = (   0.3888889   0.3888889   0.0507937), wk =   0.0219479
        k(   62) = (   0.3888889   0.3888889   0.1523810), wk =   0.0219479
        k(   63) = (   0.3888889   0.3888889   0.2539683), wk =   0.0219479
        k(   64) = (   0.3888889   0.3888889   0.3555556), wk =   0.0219479
        k(   65) = (   0.3888889   0.3888889  -0.4571429), wk =   0.0109739
        k(   66) = (   0.3888889  -0.5000000   0.0507937), wk =   0.0219479
        k(   67) = (   0.3888889  -0.5000000   0.1523810), wk =   0.0219479
        k(   68) = (   0.3888889  -0.5000000   0.2539683), wk =   0.0219479
        k(   69) = (   0.3888889  -0.5000000   0.3555556), wk =   0.0219479
        k(   70) = (   0.3888889  -0.5000000  -0.4571429), wk =   0.0109739
        k(   71) = (  -0.5000000  -0.5000000   0.0507937), wk =   0.0054870
        k(   72) = (  -0.5000000  -0.5000000   0.1523810), wk =   0.0054870
        k(   73) = (  -0.5000000  -0.5000000   0.2539683), wk =   0.0054870
        k(   74) = (  -0.5000000  -0.5000000   0.3555556), wk =   0.0054870
        k(   75) = (  -0.5000000  -0.5000000  -0.4571429), wk =   0.0027435

     Check: negative core charge=   -0.000002

     Initial potential from superposition of free atoms

     starting charge  575.98776, renormalised to  576.00000
     Starting wfcs are  320 randomized atomic wfcs +   26 random wfcs
     Checking if some PAW data can be deallocated...

     Self-consistent Calculation

     iteration #  1     ecut=    71.00 Ry     beta= 0.10
     Davidson diagonalization with overlap
     ethr =  1.00E-02,  avg # of iterations =  3.1

     Threshold (ethr) on eigenvalues was too large:
     Diagonalizing with lowered threshold

     Davidson diagonalization with overlap
     ethr =  2.57E-04,  avg # of iterations =  2.2

     total energy              =  -16384.85945017 Ry
     estimated scf accuracy    <       1.45918426 Ry

[...]

     iteration #  5     ecut=    71.00 Ry     beta= 0.10
     Davidson diagonalization with overlap
     c_bands:  1 eigenvalues not converged
     ethr =  1.65E-05,  avg # of iterations =  4.5

[...]

     total energy              =  -16384.61016697 Ry
     estimated scf accuracy    <       0.00000146 Ry

     iteration # 16     ecut=    71.00 Ry     beta= 0.10
     Davidson diagonalization with overlap
     ethr =  2.53E-10,  avg # of iterations =  2.0

     End of self-consistent calculation

          k = 0.0556 0.0556 0.0508 ( 36135 PWs)   bands (ev):

   -67.0589 -67.0366 -67.0366 -67.0324 -67.0324 -67.0278 -67.0270 -67.0262
   -67.0261 -67.0250 -67.0192 -67.0192 -67.0178 -67.0177 -67.0104 -67.0104
   -66.6422 -66.6402 -66.6276 -66.6276 -66.6265 -66.6265 -66.6260 -66.6258
   -66.6256 -66.6256 -66.6247 -66.6247 -66.6238 -66.6238 -66.6099 -66.6099
   -32.8987 -32.8987 -32.8987 -32.8969 -32.8879 -32.8879 -32.8660 -32.8327
   -32.8326 -32.8315 -32.8315 -32.8049 -32.8049 -32.7926 -32.7926 -32.7840
   -32.7840 -32.7831 -32.7831 -32.7721 -32.7720 -32.7358 -32.7358 -32.7311
   -32.7265 -32.7264 -32.7264 -32.7264 -32.7236 -32.7236 -32.7211 -32.7077
   -32.7077 -32.7009 -32.6931 -32.6931 -32.6893 -32.6856 -32.6685 -32.6685
   -32.6638 -32.6638 -32.6386 -32.6368 -32.6368 -32.6325 -32.6214 -32.6198
   -32.4631 -32.4631 -32.4629 -32.4611 -32.4600 -32.4600 -32.4501 -32.4501
   -32.3873 -32.3873 -32.3862 -32.3862 -32.3724 -32.3724 -32.3717 -32.3717
   -32.3699 -32.3699 -32.3681 -32.3681 -32.3551 -32.3551 -32.3533 -32.3533
   -32.3051 -32.2873 -32.2858 -32.2833 -32.2833 -32.2821 -32.2811 -32.2811
   -32.2806 -32.2780 -32.2772 -32.2772 -32.2765 -32.2730 -32.2724 -32.2724
   -32.2717 -32.2717 -32.2713 -32.2713 -32.2713 -32.2709 -32.2698 -32.2698
    10.5593  12.0702  12.2079  12.2079  12.2677  12.2778  12.2811  12.2811
    12.3868  12.4843  12.4843  12.4978  12.5320  12.5320  12.6982  12.7234
    12.7234  13.1000  13.1926  13.1926  13.1987  13.1987  13.2162  13.2162
    13.2637  13.2637  13.3561  13.3561  13.4003  13.4186  13.4309  13.4309
    13.4791  13.4791  13.5282  13.5283  13.5447  13.5447  13.5969  13.5969
    13.6927  13.7359  13.7359  13.7475  13.7475  13.8577  13.8577  13.8675
    13.8675  14.0102  14.0102  14.0808  14.1137  14.1137  14.1307  14.1307
    14.1965  14.2246  14.2246  14.2587  14.3017  14.3061  14.3061  14.3237
    14.3602  14.3602  14.3663  14.3663  14.4110  14.4110  14.5090  14.5090
    14.5480  14.5480  14.5547  14.5585  14.5897  14.6004  14.6156  14.6532
    14.6532  14.6532  14.7217  14.7217  14.8095  14.8095  14.9294  14.9680
    14.9680  15.2347  15.2347  15.3191  15.3191  15.3218  15.3218  15.3636
    15.3750  15.4008  15.4008  15.4257  15.4257  15.4964  15.4964  15.5218
    15.5218  15.5285  15.5297  15.5297  15.5551  15.5901  15.6260  15.6260
    15.6485  15.6485  15.7830  15.7871  15.7872  15.8260  15.8261  16.0072
    16.0072  16.0129  16.0313  16.0313  16.0679  16.0679  16.1236  16.1236
    16.1632  16.1632  16.2173  16.2272  16.2272  16.2274  16.2891  16.2891
    16.2935  16.2935  16.3002  16.3720  16.3880  16.3880  16.4780  16.8146
    16.8322  16.8322  16.8386  16.8994  16.8995  16.9227  16.9519  16.9519
    16.9561  16.9748  16.9748  16.9973  17.0235  17.1502  17.1502  17.1573
    17.1578  17.1578  17.2209  17.2779  17.2779  17.6013  17.6013  18.2126
    18.4414  18.4414  18.4978  18.5028  18.5028  18.8833  18.8913  18.8913
    18.9759  18.9759  19.4191  19.4191  19.5013  19.5013  19.7338  19.9704
    20.9368  20.9368  23.3003  23.3003  23.3189  23.4441  24.2818  24.2818
    24.4219  24.6791  24.6791  24.9054  24.9054  25.5941  25.5941  25.6002
    25.6002  25.7905  25.7905  25.9698  25.9698  26.3257  26.3257  26.9666
    27.1392  27.1392  27.3008  27.3008  27.4101  27.5760  27.5761  28.1675
    28.1676  28.3398

[...]

          k = 0.3889-0.5000-0.4571 ( 36136 PWs)   bands (ev):

[...]

          k =-0.5000-0.5000 0.0508 ( 36128 PWs)   bands (ev):

[...]

          k =-0.5000-0.5000-0.4571 ( 36096 PWs)   bands (ev):

   -67.0461 -67.0460 -67.0460 -67.0460 -67.0233 -67.0233 -67.0233 -67.0233
   -67.0183 -67.0183 -67.0183 -67.0183 -67.0183 -67.0183 -67.0183 -67.0183
   -66.6342 -66.6342 -66.6342 -66.6342 -66.6329 -66.6328 -66.6328 -66.6328
   -66.6178 -66.6178 -66.6178 -66.6178 -66.6178 -66.6178 -66.6178 -66.6178
   -32.8769 -32.8769 -32.8769 -32.8769 -32.8768 -32.8768 -32.8768 -32.8768
   -32.8517 -32.8517 -32.8517 -32.8517 -32.8131 -32.8131 -32.8131 -32.8131
   -32.7484 -32.7484 -32.7484 -32.7483 -32.7483 -32.7483 -32.7483 -32.7483
   -32.7143 -32.7143 -32.7143 -32.7143 -32.7058 -32.7058 -32.7058 -32.7058
   -32.7058 -32.7058 -32.7058 -32.7058 -32.6800 -32.6800 -32.6800 -32.6800
   -32.6698 -32.6698 -32.6698 -32.6698 -32.6203 -32.6203 -32.6202 -32.6202
   -32.4583 -32.4583 -32.4583 -32.4583 -32.4583 -32.4583 -32.4583 -32.4583
   -32.3800 -32.3800 -32.3800 -32.3800 -32.3739 -32.3739 -32.3739 -32.3739
   -32.3647 -32.3647 -32.3647 -32.3647 -32.3647 -32.3647 -32.3647 -32.3647
   -32.2909 -32.2909 -32.2909 -32.2909 -32.2786 -32.2786 -32.2786 -32.2786
   -32.2756 -32.2756 -32.2756 -32.2756 -32.2734 -32.2734 -32.2734 -32.2734
   -32.2734 -32.2734 -32.2734 -32.2734 -32.2724 -32.2724 -32.2724 -32.2724
    11.8603  11.8603  11.8603  11.8603  12.3464  12.3464  12.3464  12.3464
    12.7718  12.7718  12.7718  12.7718  12.7999  12.7999  12.7999  12.7999
    12.7999  12.7999  12.7999  12.7999  12.9302  12.9302  12.9302  12.9302
    12.9302  12.9302  12.9302  12.9302  13.0945  13.0945  13.0945  13.0945
    13.3451  13.3451  13.3451  13.3451  13.6421  13.6421  13.6421  13.6421
    13.6421  13.6421  13.6421  13.6421  13.8686  13.8686  13.8686  13.8686
    13.8686  13.8686  13.8686  13.8686  14.0296  14.0296  14.0296  14.0296
    14.3958  14.3958  14.3958  14.3958  14.5483  14.5483  14.5483  14.5483
    14.6115  14.6115  14.6115  14.6115  14.7601  14.7601  14.7601  14.7601
    14.8365  14.8365  14.8365  14.8366  14.9188  14.9189  14.9189  14.9189
    14.9189  14.9189  14.9189  14.9189  14.9530  14.9530  14.9530  14.9530
    14.9541  14.9541  14.9541  14.9541  15.1213  15.1213  15.1213  15.1213
    15.4089  15.4089  15.4089  15.4089  15.4089  15.4089  15.4089  15.4089
    15.5710  15.5711  15.5711  15.5711  15.5711  15.5711  15.5711  15.5711
    15.6192  15.6192  15.6193  15.6193  15.6971  15.6971  15.6971  15.6971
    15.6971  15.6971  15.6971  15.6971  15.8153  15.8153  15.8153  15.8153
    15.8209  15.8209  15.8209  15.8209  16.1919  16.1919  16.1919  16.1919
    16.3546  16.3546  16.3546  16.3546  16.3815  16.3815  16.3815  16.3815
    16.9581  16.9581  16.9581  16.9581  16.9581  16.9581  16.9581  16.9581
    17.0407  17.0407  17.0407  17.0407  17.0901  17.0901  17.0901  17.0901
    17.1327  17.1327  17.1327  17.1327  17.1327  17.1327  17.1327  17.1327
    19.9539  19.9539  19.9539  19.9539  19.9721  19.9721  19.9721  19.9721
    20.5050  20.5050  20.5051  20.5051  20.5051  20.5051  20.5051  20.5051
    20.9543  20.9543  20.9543  20.9543  20.9543  20.9543  20.9543  20.9544
    24.8537  24.8537  24.8537  24.8537  24.8537  24.8538  24.8538  24.8538
    25.8851  25.8851  25.8851  25.8851  25.8851  25.8851  25.8851  25.8851
    25.9594  25.9594  25.9594  25.9594  26.1401  26.1401  26.1401  26.1401
    27.9877  27.9877

     the Fermi energy is    17.1191 ev

!    total energy              =  -16384.61017151 Ry

     total all-electron energy =   -322945.463879 Ry
     estimated scf accuracy    <       0.00000027 Ry
     smearing contrib. (-TS)   =       0.08402715 Ry
     internal energy E=F+TS    =  -16384.69419866 Ry

     The total energy is F=E-TS. E is the sum of the following terms:
     one-electron contribution =   -3092.19665417 Ry
     hartree contribution      =    1921.41027806 Ry
     xc contribution           =    -985.40482011 Ry
     ewald contribution        =   -6061.14518500 Ry
     one-center paw contrib.   =   -8167.35781744 Ry

     convergence has been achieved in  16 iterations

     Forces acting on atoms (cartesian axes, Ry/au):

     atom    1 type  1   force =     0.00000000    0.00000000    0.00352680
     atom    2 type  1   force =     0.00000740    0.00000740    0.00352029
     atom    3 type  1   force =     0.00000519    0.00000000    0.03811578
     atom    4 type  1   force =     0.00000000    0.00000519    0.03811578
     atom    5 type  1   force =     0.00000000    0.00000000   -0.03826969
     atom    6 type  1   force =     0.00001854    0.00001854   -0.03826256
     atom    7 type  1   force =     0.00000280    0.00000000   -0.00335501
     atom    8 type  1   force =     0.00000000    0.00000280   -0.00335501
     atom    9 type  1   force =     0.00000000    0.00000000    0.00351175
     atom   10 type  1   force =     0.00000740   -0.00000740    0.00352029
     atom   11 type  1   force =     0.00000502    0.00000000    0.03812242
     atom   12 type  1   force =     0.00000000   -0.00000519    0.03811578
     atom   13 type  1   force =     0.00000000    0.00000000   -0.03827940
     atom   14 type  1   force =     0.00001854   -0.00001854   -0.03826256
     atom   15 type  1   force =     0.00001042    0.00000000   -0.00337916
     atom   16 type  1   force =     0.00000000   -0.00000280   -0.00335501
     atom   17 type  1   force =     0.00000000    0.00000000    0.00351175
     atom   18 type  1   force =    -0.00000740    0.00000740    0.00352029
     atom   19 type  1   force =    -0.00000519    0.00000000    0.03811578
     atom   20 type  1   force =     0.00000000    0.00000502    0.03812242
     atom   21 type  1   force =     0.00000000    0.00000000   -0.03827940
     atom   22 type  1   force =    -0.00001854    0.00001854   -0.03826256
     atom   23 type  1   force =    -0.00000280    0.00000000   -0.00335501
     atom   24 type  1   force =     0.00000000    0.00001042   -0.00337916
     atom   25 type  1   force =     0.00000000    0.00000000    0.00351471
     atom   26 type  1   force =    -0.00000740   -0.00000740    0.00352029
     atom   27 type  1   force =    -0.00000502    0.00000000    0.03812242
     atom   28 type  1   force =     0.00000000   -0.00000502    0.03812242
     atom   29 type  1   force =     0.00000000    0.00000000   -0.03828354
     atom   30 type  1   force =    -0.00001854   -0.00001854   -0.03826256
     atom   31 type  1   force =    -0.00001042    0.00000000   -0.00337916
     atom   32 type  1   force =     0.00000000   -0.00001042   -0.00337916

     Total force =     0.153399     Total SCF correction =     0.001430

     Computing stress (Cartesian axis) and pressure

          total   stress  (Ry/bohr**3)                   (kbar)     P=      -64.55
  -0.00036700   0.00000000   0.00000000          -53.99        0.00        0.00
   0.00000000  -0.00036700   0.00000000            0.00      -53.99        0.00
   0.00000000   0.00000000  -0.00058231            0.00        0.00      -85.66

     Writing output data file /scratch/qKErHctSCWIqsrGW.save/

     General routines

     Parallel routines

   This run was terminated on:  21:29:50   6Jan2022

   JOB DONE.