     Program PWSCF v.6.7MaX starts on  7Jan2022 at  8:37:16

     R & G space division:  proc/nbgrp/npool/nimage =      72
     Reading input from scf_23.in
Warning: card &CELL ignored
Warning: card CELL_DYNAMICS = 'BFGS', ignored
Warning: card CELL_FACTOR = 2.0, ignored
Warning: card PRESS = 0.0, ignored
Warning: card / ignored

     Current dimensions of program PWSCF are:
     Max number of different atomic species (ntypx) = 10
     Max number of k-points (npk) =  40000
     Max angular momentum in pseudopotentials (lmaxx) =  3
     file Pd.pbe-spn-kjpaw_psl.1.0.0.UPF: wavefunction(s)  4S 5S 4D renormalized

     Subspace diagonalization in iterative solution of the eigenvalue problem:
     one sub-group per band group will be used

     Found symmetry operation: I + (  0.2500  0.2500  0.0000)
     This is a supercell, fractional translations are disabled
     Message from routine setup:
     using ibrav=0 with symmetry is DISCOURAGED, use correct ibrav instead

     bravais-lattice index     =            0
     lattice parameter (alat)  =      14.8394  a.u.
     unit-cell volume          =    5514.3530 (a.u.)^3
     number of atoms/cell      =           32
     number of atomic types    =            1
     number of electrons       =       576.00
     number of Kohn-Sham states=          346
     kinetic-energy cutoff     =      71.0000  Ry
     charge density cutoff     =     430.0000  Ry
     scf convergence threshold =      1.0E-06
     mixing beta               =       0.1000
     number of iterations used =           10  TF        mixing
     Exchange-correlation= SLA  PW   PBX  PBC
                           (   1   4   3   4   0   0   0)

     celldm(1)=  14.839420  celldm(2)=   0.000000  celldm(3)=   0.000000
     celldm(4)=   0.000000  celldm(5)=   0.000000  celldm(6)=   0.000000

     crystal axes: (cart. coord. in units of alat)
               a(1) = (   1.000000   0.000000   0.000000 )
               a(2) = (   0.000000   1.000000   0.000000 )
               a(3) = (   0.000000   0.000000   1.687500 )

     reciprocal axes: (cart. coord. in units 2 pi/alat)
               b(1) = (  1.000000  0.000000  0.000000 )
               b(2) = (  0.000000  1.000000  0.000000 )
               b(3) = (  0.000000  0.000000  0.592593 )

     PseudoPot. # 1 for Pd read from file:
     /rds/homes/b/bxp912/pp/Pd.pbe-spn-kjpaw_psl.1.0.0.UPF
     MD5 check sum: 790f2ebce206edfd9790dcb9844eca51
     Pseudo is Projector augmented-wave + core cor, Zval = 18.0
     Generated using &quot;atomic&quot; code by A. Dal Corso  v.6.3
     Shape of augmentation charge: PSQ
     Using radial grid of 1235 points,  6 beta functions with:
                l(1) =   0
                l(2) =   0
                l(3) =   1
                l(4) =   1
                l(5) =   2
                l(6) =   2
     Q(r) pseudized with 0 coefficients

     atomic species   valence    mass     pseudopotential
        Pd            18.00   106.42000     Pd( 1.00)

      8 Sym. Ops. (no inversion) found

   Cartesian axes

     site n.     atom                  positions (alat units)
         1           Pd  tau(   1) = (   0.0000000   0.0000000   0.0000000  )
         2           Pd  tau(   2) = (   0.2500000   0.2500000   0.0000000  )
         3           Pd  tau(   3) = (   0.2500000   0.0000000   0.2500000  )
         4           Pd  tau(   4) = (   0.0000000   0.2500000   0.2500000  )
         5           Pd  tau(   5) = (   0.0000000   0.0000000   1.1875000  )
         6           Pd  tau(   6) = (   0.2500000   0.2500000   1.1875000  )
         7           Pd  tau(   7) = (   0.2500000   0.0000000   1.4375000  )
         8           Pd  tau(   8) = (   0.0000000   0.2500000   1.4375000  )
         9           Pd  tau(   9) = (   0.0000000   0.5000000   0.0000000  )
        10           Pd  tau(  10) = (   0.2500000   0.7500000   0.0000000  )
        11           Pd  tau(  11) = (   0.2500000   0.5000000   0.2500000  )
        12           Pd  tau(  12) = (   0.0000000   0.7500000   0.2500000  )
        13           Pd  tau(  13) = (   0.0000000   0.5000000   1.1875000  )
        14           Pd  tau(  14) = (   0.2500000   0.7500000   1.1875000  )
        15           Pd  tau(  15) = (   0.2500000   0.5000000   1.4375000  )
        16           Pd  tau(  16) = (   0.0000000   0.7500000   1.4375000  )
        17           Pd  tau(  17) = (   0.5000000   0.0000000   0.0000000  )
        18           Pd  tau(  18) = (   0.7500000   0.2500000   0.0000000  )
        19           Pd  tau(  19) = (   0.7500000   0.0000000   0.2500000  )
        20           Pd  tau(  20) = (   0.5000000   0.2500000   0.2500000  )
        21           Pd  tau(  21) = (   0.5000000   0.0000000   1.1875000  )
        22           Pd  tau(  22) = (   0.7500000   0.2500000   1.1875000  )
        23           Pd  tau(  23) = (   0.7500000   0.0000000   1.4375000  )
        24           Pd  tau(  24) = (   0.5000000   0.2500000   1.4375000  )
        25           Pd  tau(  25) = (   0.5000000   0.5000000   0.0000000  )
        26           Pd  tau(  26) = (   0.7500000   0.7500000   0.0000000  )
        27           Pd  tau(  27) = (   0.7500000   0.5000000   0.2500000  )
        28           Pd  tau(  28) = (   0.5000000   0.7500000   0.2500000  )
        29           Pd  tau(  29) = (   0.5000000   0.5000000   1.1875000  )
        30           Pd  tau(  30) = (   0.7500000   0.7500000   1.1875000  )
        31           Pd  tau(  31) = (   0.7500000   0.5000000   1.4375000  )
        32           Pd  tau(  32) = (   0.5000000   0.7500000   1.4375000  )

     number of k points=    75  Marzari-Vanderbilt smearing, width (Ry)=  0.0400
                       cart. coord. in units 2pi/alat
        k(    1) = (   0.0555556   0.0555556   0.0329218), wk =   0.0219479
        k(    2) = (   0.0555556   0.0555556   0.0987654), wk =   0.0219479
        k(    3) = (   0.0555556   0.0555556   0.1646091), wk =   0.0219479
        k(    4) = (   0.0555556   0.0555556   0.2304527), wk =   0.0219479
        k(    5) = (   0.0555556   0.0555556  -0.2962963), wk =   0.0109739
        k(    6) = (   0.0555556   0.1666667   0.0329218), wk =   0.0438957
        k(    7) = (   0.0555556   0.1666667   0.0987654), wk =   0.0438957
        k(    8) = (   0.0555556   0.1666667   0.1646091), wk =   0.0438957
        k(    9) = (   0.0555556   0.1666667   0.2304527), wk =   0.0438957
        k(   10) = (   0.0555556   0.1666667  -0.2962963), wk =   0.0219479
        k(   11) = (   0.0555556   0.2777778   0.0329218), wk =   0.0438957
        k(   12) = (   0.0555556   0.2777778   0.0987654), wk =   0.0438957
        k(   13) = (   0.0555556   0.2777778   0.1646091), wk =   0.0438957
        k(   14) = (   0.0555556   0.2777778   0.2304527), wk =   0.0438957
        k(   15) = (   0.0555556   0.2777778  -0.2962963), wk =   0.0219479
        k(   16) = (   0.0555556   0.3888889   0.0329218), wk =   0.0438957
        k(   17) = (   0.0555556   0.3888889   0.0987654), wk =   0.0438957
        k(   18) = (   0.0555556   0.3888889   0.1646091), wk =   0.0438957
        k(   19) = (   0.0555556   0.3888889   0.2304527), wk =   0.0438957
        k(   20) = (   0.0555556   0.3888889  -0.2962963), wk =   0.0219479
        k(   21) = (   0.0555556  -0.5000000   0.0329218), wk =   0.0219479
        k(   22) = (   0.0555556  -0.5000000   0.0987654), wk =   0.0219479
        k(   23) = (   0.0555556  -0.5000000   0.1646091), wk =   0.0219479
        k(   24) = (   0.0555556  -0.5000000   0.2304527), wk =   0.0219479
        k(   25) = (   0.0555556  -0.5000000  -0.2962963), wk =   0.0109739
        k(   26) = (   0.1666667   0.1666667   0.0329218), wk =   0.0219479
        k(   27) = (   0.1666667   0.1666667   0.0987654), wk =   0.0219479
        k(   28) = (   0.1666667   0.1666667   0.1646091), wk =   0.0219479
        k(   29) = (   0.1666667   0.1666667   0.2304527), wk =   0.0219479
        k(   30) = (   0.1666667   0.1666667  -0.2962963), wk =   0.0109739
        k(   31) = (   0.1666667   0.2777778   0.0329218), wk =   0.0438957
        k(   32) = (   0.1666667   0.2777778   0.0987654), wk =   0.0438957
        k(   33) = (   0.1666667   0.2777778   0.1646091), wk =   0.0438957
        k(   34) = (   0.1666667   0.2777778   0.2304527), wk =   0.0438957
        k(   35) = (   0.1666667   0.2777778  -0.2962963), wk =   0.0219479
        k(   36) = (   0.1666667   0.3888889   0.0329218), wk =   0.0438957
        k(   37) = (   0.1666667   0.3888889   0.0987654), wk =   0.0438957
        k(   38) = (   0.1666667   0.3888889   0.1646091), wk =   0.0438957
        k(   39) = (   0.1666667   0.3888889   0.2304527), wk =   0.0438957
        k(   40) = (   0.1666667   0.3888889  -0.2962963), wk =   0.0219479
        k(   41) = (   0.1666667  -0.5000000   0.0329218), wk =   0.0219479
        k(   42) = (   0.1666667  -0.5000000   0.0987654), wk =   0.0219479
        k(   43) = (   0.1666667  -0.5000000   0.1646091), wk =   0.0219479
        k(   44) = (   0.1666667  -0.5000000   0.2304527), wk =   0.0219479
        k(   45) = (   0.1666667  -0.5000000  -0.2962963), wk =   0.0109739
        k(   46) = (   0.2777778   0.2777778   0.0329218), wk =   0.0219479
        k(   47) = (   0.2777778   0.2777778   0.0987654), wk =   0.0219479
        k(   48) = (   0.2777778   0.2777778   0.1646091), wk =   0.0219479
        k(   49) = (   0.2777778   0.2777778   0.2304527), wk =   0.0219479
        k(   50) = (   0.2777778   0.2777778  -0.2962963), wk =   0.0109739
        k(   51) = (   0.2777778   0.3888889   0.0329218), wk =   0.0438957
        k(   52) = (   0.2777778   0.3888889   0.0987654), wk =   0.0438957
        k(   53) = (   0.2777778   0.3888889   0.1646091), wk =   0.0438957
        k(   54) = (   0.2777778   0.3888889   0.2304527), wk =   0.0438957
        k(   55) = (   0.2777778   0.3888889  -0.2962963), wk =   0.0219479
        k(   56) = (   0.2777778  -0.5000000   0.0329218), wk =   0.0219479
        k(   57) = (   0.2777778  -0.5000000   0.0987654), wk =   0.0219479
        k(   58) = (   0.2777778  -0.5000000   0.1646091), wk =   0.0219479
        k(   59) = (   0.2777778  -0.5000000   0.2304527), wk =   0.0219479
        k(   60) = (   0.2777778  -0.5000000  -0.2962963), wk =   0.0109739
        k(   61) = (   0.3888889   0.3888889   0.0329218), wk =   0.0219479
        k(   62) = (   0.3888889   0.3888889   0.0987654), wk =   0.0219479
        k(   63) = (   0.3888889   0.3888889   0.1646091), wk =   0.0219479
        k(   64) = (   0.3888889   0.3888889   0.2304527), wk =   0.0219479
        k(   65) = (   0.3888889   0.3888889  -0.2962963), wk =   0.0109739
        k(   66) = (   0.3888889  -0.5000000   0.0329218), wk =   0.0219479
        k(   67) = (   0.3888889  -0.5000000   0.0987654), wk =   0.0219479
        k(   68) = (   0.3888889  -0.5000000   0.1646091), wk =   0.0219479
        k(   69) = (   0.3888889  -0.5000000   0.2304527), wk =   0.0219479
        k(   70) = (   0.3888889  -0.5000000  -0.2962963), wk =   0.0109739
        k(   71) = (  -0.5000000  -0.5000000   0.0329218), wk =   0.0054870
        k(   72) = (  -0.5000000  -0.5000000   0.0987654), wk =   0.0054870
        k(   73) = (  -0.5000000  -0.5000000   0.1646091), wk =   0.0054870
        k(   74) = (  -0.5000000  -0.5000000   0.2304527), wk =   0.0054870
        k(   75) = (  -0.5000000  -0.5000000  -0.2962963), wk =   0.0027435

     Check: negative core charge=   -0.000001

     Initial potential from superposition of free atoms

     starting charge  575.98776, renormalised to  576.00000
     Starting wfcs are  320 randomized atomic wfcs +   26 random wfcs
     Checking if some PAW data can be deallocated...

     Self-consistent Calculation

     iteration #  1     ecut=    71.00 Ry     beta= 0.10
     Davidson diagonalization with overlap
     ethr =  1.00E-02,  avg # of iterations =  4.2

     Threshold (ethr) on eigenvalues was too large:
     Diagonalizing with lowered threshold

     Davidson diagonalization with overlap
     ethr =  7.49E-04,  avg # of iterations =  1.2

     total energy              =  -16384.82335465 Ry
     estimated scf accuracy    <       4.30011238 Ry

[...]

     negative rho (up, down):  2.628E-05 0.000E+00

[...]

     negative rho (up, down):  3.052E-04 0.000E+00

[...]

     total energy              =  -16384.05090271 Ry
     estimated scf accuracy    <       0.00000157 Ry

     iteration # 27     ecut=    71.00 Ry     beta= 0.10
     Davidson diagonalization with overlap
     ethr =  2.72E-10,  avg # of iterations =  2.0

     End of self-consistent calculation

          k = 0.0556 0.0556 0.0329 ( 55635 PWs)   bands (ev):

   -74.8237 -74.8016 -74.8016 -74.7974 -74.7973 -74.7928 -74.7917 -74.7912
   -74.7911 -74.7900 -74.7841 -74.7841 -74.7827 -74.7827 -74.7755 -74.7754
   -74.2319 -74.2318 -74.2174 -74.2174 -74.2174 -74.2174 -74.2162 -74.2162
   -74.2160 -74.2159 -74.2146 -74.2146 -74.2146 -74.2146 -74.2001 -74.2001
   -40.6582 -40.6582 -40.6579 -40.6570 -40.6444 -40.6444 -40.6377 -40.6035
   -40.6035 -40.6005 -40.6005 -40.5633 -40.5633 -40.5523 -40.5523 -40.5431
   -40.5431 -40.5399 -40.5399 -40.5310 -40.5310 -40.5021 -40.5021 -40.4955
   -40.4954 -40.4954 -40.4909 -40.4909 -40.4857 -40.4810 -40.4810 -40.4671
   -40.4641 -40.4641 -40.4497 -40.4497 -40.4468 -40.4458 -40.4357 -40.4357
   -40.4304 -40.4304 -40.3968 -40.3950 -40.3950 -40.3907 -40.3785 -40.3769
   -40.1060 -40.1060 -40.1053 -40.1044 -40.0942 -40.0942 -40.0922 -40.0922
   -40.0238 -40.0238 -40.0236 -40.0236 -40.0088 -40.0088 -40.0086 -40.0086
   -40.0065 -40.0065 -40.0061 -40.0061 -39.9912 -39.9912 -39.9911 -39.9911
   -39.9206 -39.9203 -39.9190 -39.9187 -39.9071 -39.9071 -39.9058 -39.9058
   -39.8349 -39.8318 -39.8205 -39.8205 -39.8200 -39.8200 -39.8192 -39.8189
   -39.8188 -39.8187 -39.8183 -39.8183 -39.8180 -39.8180 -39.8081 -39.8081
     2.9912   4.2797   4.5206   4.5207   4.5871   4.5932   4.5994   4.5994
     4.6584   4.6710   4.7952   4.7952   4.8841   4.8841   5.0675   5.0675
     5.1334   5.3351   5.4567   5.4567   5.4858   5.4858   5.5156   5.5156
     5.5362   5.5362   5.6051   5.6083   5.6083   5.6105   5.6229   5.6229
     5.7489   5.7489   5.8164   5.8165   5.8527   5.8527   5.9288   5.9288
     5.9411   5.9411   6.0036   6.0036   6.0657   6.1251   6.1251   6.1433
     6.1433   6.2869   6.2869   6.3529   6.4007   6.4007   6.4505   6.4505
     6.4626   6.4712   6.4712   6.4821   6.6576   6.6576   6.6610   6.6610
     6.6741   6.6843   6.8217   6.8217   6.8333   6.8354   6.8427   6.8427
     6.8754   6.8847   6.9454   6.9454   6.9804   6.9804   7.3306   7.3306
     7.3843   7.3924   7.3949   7.3949   7.4144   7.4144   7.4389   7.4389
     7.5601   7.5601   7.5948   7.5948   7.6079   7.6079   7.6145   7.6311
     7.6592   7.6592   7.6866   7.6866   7.7179   7.7315   7.7624   7.7858
     7.7858   7.8932   7.8932   7.9104   7.9104   7.9884   8.0161   8.0161
     8.0468   8.0468   8.0569   8.0569   8.1843   8.1843   8.2388   8.2388
     8.2397   8.2397   8.2735   8.4229   8.4229   8.4538   8.4909   8.4909
     8.6106   8.6106   8.6237   8.6237   8.6238   8.6434   8.6434   8.6529
     8.7398   8.7622   8.7654   8.7654   8.7655   8.8441   8.8742   8.8934
     8.8934   8.9198   8.9198   8.9295   8.9295   9.0886   9.0886   9.1621
     9.1652   9.1652   9.1663   9.2198   9.2986   9.3152   9.3152   9.3221
     9.3221   9.3741   9.4184   9.5252   9.5253   9.8523   9.8523   9.9297
     9.9297  10.2887  10.2887  10.6523  10.7803  10.9867  11.2019  11.2019
    11.4972  11.5672  11.5672  11.6177  11.6177  11.9343  12.1166  12.1204
    12.1204  13.7087  13.7087  13.9293  13.9293  14.5010  14.5010  14.5270
    14.5825  14.5826  14.6946  15.2512  15.3434  15.3434  15.9080  15.9080
    16.0132  16.0132  17.4744  17.7310  17.7310  17.9162  18.0388  18.1024
    18.2148  18.2148  18.2625  18.2625  18.4236  18.4242  18.5210  18.5210
    18.8328  18.8328

[...]

          k = 0.3889-0.5000-0.2963 ( 55680 PWs)   bands (ev):

[...]

          k =-0.5000-0.5000 0.0329 ( 55732 PWs)   bands (ev):

[...]

          k =-0.5000-0.5000-0.2963 ( 55624 PWs)   bands (ev):

   -74.8110 -74.8110 -74.8109 -74.8109 -74.7882 -74.7882 -74.7882 -74.7882
   -74.7833 -74.7833 -74.7833 -74.7833 -74.7833 -74.7833 -74.7833 -74.7833
   -74.2240 -74.2240 -74.2240 -74.2240 -74.2240 -74.2240 -74.2240 -74.2240
   -74.2080 -74.2080 -74.2080 -74.2080 -74.2080 -74.2080 -74.2080 -74.2080
   -40.6359 -40.6359 -40.6358 -40.6358 -40.6358 -40.6358 -40.6358 -40.6358
   -40.6223 -40.6223 -40.6223 -40.6223 -40.5718 -40.5718 -40.5718 -40.5718
   -40.5107 -40.5107 -40.5107 -40.5107 -40.5107 -40.5107 -40.5107 -40.5107
   -40.4707 -40.4707 -40.4707 -40.4707 -40.4694 -40.4694 -40.4694 -40.4694
   -40.4694 -40.4694 -40.4694 -40.4694 -40.4472 -40.4472 -40.4472 -40.4472
   -40.4276 -40.4276 -40.4276 -40.4276 -40.3779 -40.3779 -40.3779 -40.3779
   -40.0994 -40.0994 -40.0994 -40.0994 -40.0994 -40.0994 -40.0994 -40.0994
   -40.0158 -40.0158 -40.0158 -40.0158 -40.0133 -40.0133 -40.0133 -40.0133
   -40.0009 -40.0009 -40.0009 -40.0009 -40.0009 -40.0009 -40.0009 -40.0009
   -39.9123 -39.9123 -39.9123 -39.9123 -39.9122 -39.9122 -39.9122 -39.9122
   -39.8259 -39.8259 -39.8259 -39.8259 -39.8253 -39.8253 -39.8253 -39.8253
   -39.8134 -39.8134 -39.8134 -39.8134 -39.8134 -39.8134 -39.8134 -39.8134
     4.1131   4.1131   4.1131   4.1131   4.7332   4.7332   4.7332   4.7332
     5.0673   5.0673   5.0673   5.0673   5.0673   5.0673   5.0673   5.0673
     5.1807   5.1807   5.1807   5.1807   5.2360   5.2360   5.2360   5.2360
     5.2360   5.2360   5.2360   5.2360   5.3308   5.3308   5.3308   5.3308
     5.6202   5.6202   5.6202   5.6202   5.9418   5.9418   5.9418   5.9418
     5.9418   5.9418   5.9418   5.9418   6.2411   6.2411   6.2412   6.2412
     6.2412   6.2412   6.2412   6.2412   6.4092   6.4092   6.4092   6.4092
     6.6285   6.6285   6.6285   6.6285   6.8754   6.8754   6.8754   6.8754
     6.9782   6.9782   6.9782   6.9782   7.0170   7.0170   7.0171   7.0171
     7.0750   7.0750   7.0751   7.0751   7.2077   7.2077   7.2077   7.2077
     7.2077   7.2077   7.2077   7.2077   7.2520   7.2520   7.2520   7.2520
     7.5253   7.5253   7.5253   7.5253   7.6494   7.6494   7.6494   7.6494
     7.7875   7.7875   7.7875   7.7875   7.7875   7.7875   7.7876   7.7876
     7.8191   7.8191   7.8191   7.8192   7.8192   7.8192   7.8192   7.8192
     7.8712   7.8712   7.8712   7.8712   8.0920   8.0920   8.0920   8.0920
     8.3904   8.3904   8.3904   8.3904   8.3904   8.3904   8.3905   8.3905
     8.3998   8.3998   8.3998   8.3998   8.5171   8.5171   8.5171   8.5171
     8.6599   8.6599   8.6599   8.6599   8.8627   8.8627   8.8627   8.8627
     8.9976   8.9976   8.9976   8.9976   8.9976   8.9976   8.9977   8.9977
     9.2787   9.2787   9.2787   9.2787   9.3391   9.3391   9.3391   9.3391
     9.3391   9.3391   9.3391   9.3391   9.3485   9.3485   9.3485   9.3485
    10.1494  10.1494  10.1494  10.1494  12.3844  12.3844  12.3844  12.3844
    12.6006  12.6006  12.6006  12.6006  12.6006  12.6006  12.6006  12.6006
    13.7125  13.7125  13.7125  13.7125  13.7125  13.7125  13.7125  13.7125
    14.8481  14.8481  14.8481  14.8481  15.7245  15.7245  15.7245  15.7245
    15.7245  15.7245  15.7245  15.7245  16.0118  16.0118  16.0118  16.0118
    17.9567  17.9567  17.9567  17.9567  18.0325  18.0325  18.0326  18.0326
    18.0327  18.0327

     the Fermi energy is     9.3500 ev

!    total energy              =  -16384.05090664 Ry

     total all-electron energy =   -322944.904614 Ry
     estimated scf accuracy    <       0.00000081 Ry
     smearing contrib. (-TS)   =       0.12354534 Ry
     internal energy E=F+TS    =  -16384.17445198 Ry

     The total energy is F=E-TS. E is the sum of the following terms:
     one-electron contribution =  -16462.92589860 Ry
     hartree contribution      =    8444.13013040 Ry
     xc contribution           =    -985.38273494 Ry
     ewald contribution        =     787.33361518 Ry
     one-center paw contrib.   =   -8167.32956401 Ry

     convergence has been achieved in  27 iterations

     Forces acting on atoms (cartesian axes, Ry/au):

     atom    1 type  1   force =     0.00000000    0.00000000    0.00313735
     atom    2 type  1   force =    -0.00000034   -0.00000034    0.00313875
     atom    3 type  1   force =    -0.00000663    0.00000000   -0.00390782
     atom    4 type  1   force =     0.00000000   -0.00000663   -0.00390782
     atom    5 type  1   force =     0.00000000    0.00000000    0.00395321
     atom    6 type  1   force =    -0.00000905   -0.00000905    0.00395192
     atom    7 type  1   force =     0.00000958    0.00000000   -0.00320160
     atom    8 type  1   force =     0.00000000    0.00000958   -0.00320160
     atom    9 type  1   force =     0.00000000    0.00000000    0.00314884
     atom   10 type  1   force =    -0.00000034    0.00000034    0.00313875
     atom   11 type  1   force =     0.00000545    0.00000000   -0.00391571
     atom   12 type  1   force =     0.00000000    0.00000663   -0.00390782
     atom   13 type  1   force =     0.00000000    0.00000000    0.00397929
     atom   14 type  1   force =    -0.00000905    0.00000905    0.00395192
     atom   15 type  1   force =     0.00000343    0.00000000   -0.00318141
     atom   16 type  1   force =     0.00000000   -0.00000958   -0.00320160
     atom   17 type  1   force =     0.00000000    0.00000000    0.00314884
     atom   18 type  1   force =     0.00000034   -0.00000034    0.00313875
     atom   19 type  1   force =     0.00000663    0.00000000   -0.00390782
     atom   20 type  1   force =     0.00000000    0.00000545   -0.00391571
     atom   21 type  1   force =     0.00000000    0.00000000    0.00397929
     atom   22 type  1   force =     0.00000905   -0.00000905    0.00395192
     atom   23 type  1   force =    -0.00000958    0.00000000   -0.00320160
     atom   24 type  1   force =     0.00000000    0.00000343   -0.00318141
     atom   25 type  1   force =     0.00000000    0.00000000    0.00313504
     atom   26 type  1   force =     0.00000034    0.00000034    0.00313875
     atom   27 type  1   force =    -0.00000545    0.00000000   -0.00391571
     atom   28 type  1   force =     0.00000000   -0.00000545   -0.00391571
     atom   29 type  1   force =     0.00000000    0.00000000    0.00398160
     atom   30 type  1   force =     0.00000905    0.00000905    0.00395192
     atom   31 type  1   force =    -0.00000343    0.00000000   -0.00318141
     atom   32 type  1   force =     0.00000000   -0.00000343   -0.00318141

     Total force =     0.020210     Total SCF correction =     0.001790

     Computing stress (Cartesian axis) and pressure

          total   stress  (Ry/bohr**3)                   (kbar)     P=      -32.79
  -0.00027968   0.00000000   0.00000000          -41.14        0.00        0.00
   0.00000000  -0.00027968   0.00000000            0.00      -41.14        0.00
   0.00000000   0.00000000  -0.00010942            0.00        0.00      -16.10

     Writing output data file /scratch/AMHQTOVVqaEOzRDq.save/

     General routines

     Parallel routines

   This run was terminated on:   9:24:56   7Jan2022

   JOB DONE.