     Program PWSCF v.6.7MaX starts on  6Jan2022 at 23:43:17

     R & G space division:  proc/nbgrp/npool/nimage =      72
     Reading input from scf_10.in
Warning: card &CELL ignored
Warning: card CELL_DYNAMICS = 'BFGS', ignored
Warning: card CELL_FACTOR = 2.0, ignored
Warning: card PRESS = 0.0, ignored
Warning: card / ignored

     Current dimensions of program PWSCF are:
     Max number of different atomic species (ntypx) = 10
     Max number of k-points (npk) =  40000
     Max angular momentum in pseudopotentials (lmaxx) =  3
     file Pd.pbe-spn-kjpaw_psl.1.0.0.UPF: wavefunction(s)  4S 5S 4D renormalized

     Subspace diagonalization in iterative solution of the eigenvalue problem:
     one sub-group per band group will be used

     Found symmetry operation: I + (  0.2500  0.2500  0.0000)
     This is a supercell, fractional translations are disabled
     Message from routine setup:
     using ibrav=0 with symmetry is DISCOURAGED, use correct ibrav instead

     bravais-lattice index     =            0
     lattice parameter (alat)  =      14.8394  a.u.
     unit-cell volume          =    4186.8236 (a.u.)^3
     number of atoms/cell      =           32
     number of atomic types    =            1
     number of electrons       =       576.00
     number of Kohn-Sham states=          346
     kinetic-energy cutoff     =      71.0000  Ry
     charge density cutoff     =     430.0000  Ry
     scf convergence threshold =      1.0E-06
     mixing beta               =       0.1000
     number of iterations used =           10  TF        mixing
     Exchange-correlation= SLA  PW   PBX  PBC
                           (   1   4   3   4   0   0   0)

     celldm(1)=  14.839420  celldm(2)=   0.000000  celldm(3)=   0.000000
     celldm(4)=   0.000000  celldm(5)=   0.000000  celldm(6)=   0.000000

     crystal axes: (cart. coord. in units of alat)
               a(1) = (   1.000000   0.000000   0.000000 )
               a(2) = (   0.000000   1.000000   0.000000 )
               a(3) = (   0.000000   0.000000   1.281250 )

     reciprocal axes: (cart. coord. in units 2 pi/alat)
               b(1) = (  1.000000  0.000000  0.000000 )
               b(2) = (  0.000000  1.000000  0.000000 )
               b(3) = (  0.000000  0.000000  0.780488 )

     PseudoPot. # 1 for Pd read from file:
     /rds/homes/b/bxp912/pp/Pd.pbe-spn-kjpaw_psl.1.0.0.UPF
     MD5 check sum: 790f2ebce206edfd9790dcb9844eca51
     Pseudo is Projector augmented-wave + core cor, Zval = 18.0
     Generated using &quot;atomic&quot; code by A. Dal Corso  v.6.3
     Shape of augmentation charge: PSQ
     Using radial grid of 1235 points,  6 beta functions with:
                l(1) =   0
                l(2) =   0
                l(3) =   1
                l(4) =   1
                l(5) =   2
                l(6) =   2
     Q(r) pseudized with 0 coefficients

     atomic species   valence    mass     pseudopotential
        Pd            18.00   106.42000     Pd( 1.00)

      8 Sym. Ops. (no inversion) found

   Cartesian axes

     site n.     atom                  positions (alat units)
         1           Pd  tau(   1) = (   0.0000000   0.0000000   0.0000000  )
         2           Pd  tau(   2) = (   0.2500000   0.2500000   0.0000000  )
         3           Pd  tau(   3) = (   0.2500000   0.0000000   0.2500000  )
         4           Pd  tau(   4) = (   0.0000000   0.2500000   0.2500000  )
         5           Pd  tau(   5) = (   0.0000000   0.0000000   0.7812500  )
         6           Pd  tau(   6) = (   0.2500000   0.2500000   0.7812500  )
         7           Pd  tau(   7) = (   0.2500000   0.0000000   1.0312500  )
         8           Pd  tau(   8) = (   0.0000000   0.2500000   1.0312500  )
         9           Pd  tau(   9) = (   0.0000000   0.5000000   0.0000000  )
        10           Pd  tau(  10) = (   0.2500000   0.7500000   0.0000000  )
        11           Pd  tau(  11) = (   0.2500000   0.5000000   0.2500000  )
        12           Pd  tau(  12) = (   0.0000000   0.7500000   0.2500000  )
        13           Pd  tau(  13) = (   0.0000000   0.5000000   0.7812500  )
        14           Pd  tau(  14) = (   0.2500000   0.7500000   0.7812500  )
        15           Pd  tau(  15) = (   0.2500000   0.5000000   1.0312500  )
        16           Pd  tau(  16) = (   0.0000000   0.7500000   1.0312500  )
        17           Pd  tau(  17) = (   0.5000000   0.0000000   0.0000000  )
        18           Pd  tau(  18) = (   0.7500000   0.2500000   0.0000000  )
        19           Pd  tau(  19) = (   0.7500000   0.0000000   0.2500000  )
        20           Pd  tau(  20) = (   0.5000000   0.2500000   0.2500000  )
        21           Pd  tau(  21) = (   0.5000000   0.0000000   0.7812500  )
        22           Pd  tau(  22) = (   0.7500000   0.2500000   0.7812500  )
        23           Pd  tau(  23) = (   0.7500000   0.0000000   1.0312500  )
        24           Pd  tau(  24) = (   0.5000000   0.2500000   1.0312500  )
        25           Pd  tau(  25) = (   0.5000000   0.5000000   0.0000000  )
        26           Pd  tau(  26) = (   0.7500000   0.7500000   0.0000000  )
        27           Pd  tau(  27) = (   0.7500000   0.5000000   0.2500000  )
        28           Pd  tau(  28) = (   0.5000000   0.7500000   0.2500000  )
        29           Pd  tau(  29) = (   0.5000000   0.5000000   0.7812500  )
        30           Pd  tau(  30) = (   0.7500000   0.7500000   0.7812500  )
        31           Pd  tau(  31) = (   0.7500000   0.5000000   1.0312500  )
        32           Pd  tau(  32) = (   0.5000000   0.7500000   1.0312500  )

     number of k points=    75  Marzari-Vanderbilt smearing, width (Ry)=  0.0400
                       cart. coord. in units 2pi/alat
        k(    1) = (   0.0555556   0.0555556   0.0433604), wk =   0.0219479
        k(    2) = (   0.0555556   0.0555556   0.1300813), wk =   0.0219479
        k(    3) = (   0.0555556   0.0555556   0.2168022), wk =   0.0219479
        k(    4) = (   0.0555556   0.0555556   0.3035230), wk =   0.0219479
        k(    5) = (   0.0555556   0.0555556  -0.3902439), wk =   0.0109739
        k(    6) = (   0.0555556   0.1666667   0.0433604), wk =   0.0438957
        k(    7) = (   0.0555556   0.1666667   0.1300813), wk =   0.0438957
        k(    8) = (   0.0555556   0.1666667   0.2168022), wk =   0.0438957
        k(    9) = (   0.0555556   0.1666667   0.3035230), wk =   0.0438957
        k(   10) = (   0.0555556   0.1666667  -0.3902439), wk =   0.0219479
        k(   11) = (   0.0555556   0.2777778   0.0433604), wk =   0.0438957
        k(   12) = (   0.0555556   0.2777778   0.1300813), wk =   0.0438957
        k(   13) = (   0.0555556   0.2777778   0.2168022), wk =   0.0438957
        k(   14) = (   0.0555556   0.2777778   0.3035230), wk =   0.0438957
        k(   15) = (   0.0555556   0.2777778  -0.3902439), wk =   0.0219479
        k(   16) = (   0.0555556   0.3888889   0.0433604), wk =   0.0438957
        k(   17) = (   0.0555556   0.3888889   0.1300813), wk =   0.0438957
        k(   18) = (   0.0555556   0.3888889   0.2168022), wk =   0.0438957
        k(   19) = (   0.0555556   0.3888889   0.3035230), wk =   0.0438957
        k(   20) = (   0.0555556   0.3888889  -0.3902439), wk =   0.0219479
        k(   21) = (   0.0555556  -0.5000000   0.0433604), wk =   0.0219479
        k(   22) = (   0.0555556  -0.5000000   0.1300813), wk =   0.0219479
        k(   23) = (   0.0555556  -0.5000000   0.2168022), wk =   0.0219479
        k(   24) = (   0.0555556  -0.5000000   0.3035230), wk =   0.0219479
        k(   25) = (   0.0555556  -0.5000000  -0.3902439), wk =   0.0109739
        k(   26) = (   0.1666667   0.1666667   0.0433604), wk =   0.0219479
        k(   27) = (   0.1666667   0.1666667   0.1300813), wk =   0.0219479
        k(   28) = (   0.1666667   0.1666667   0.2168022), wk =   0.0219479
        k(   29) = (   0.1666667   0.1666667   0.3035230), wk =   0.0219479
        k(   30) = (   0.1666667   0.1666667  -0.3902439), wk =   0.0109739
        k(   31) = (   0.1666667   0.2777778   0.0433604), wk =   0.0438957
        k(   32) = (   0.1666667   0.2777778   0.1300813), wk =   0.0438957
        k(   33) = (   0.1666667   0.2777778   0.2168022), wk =   0.0438957
        k(   34) = (   0.1666667   0.2777778   0.3035230), wk =   0.0438957
        k(   35) = (   0.1666667   0.2777778  -0.3902439), wk =   0.0219479
        k(   36) = (   0.1666667   0.3888889   0.0433604), wk =   0.0438957
        k(   37) = (   0.1666667   0.3888889   0.1300813), wk =   0.0438957
        k(   38) = (   0.1666667   0.3888889   0.2168022), wk =   0.0438957
        k(   39) = (   0.1666667   0.3888889   0.3035230), wk =   0.0438957
        k(   40) = (   0.1666667   0.3888889  -0.3902439), wk =   0.0219479
        k(   41) = (   0.1666667  -0.5000000   0.0433604), wk =   0.0219479
        k(   42) = (   0.1666667  -0.5000000   0.1300813), wk =   0.0219479
        k(   43) = (   0.1666667  -0.5000000   0.2168022), wk =   0.0219479
        k(   44) = (   0.1666667  -0.5000000   0.3035230), wk =   0.0219479
        k(   45) = (   0.1666667  -0.5000000  -0.3902439), wk =   0.0109739
        k(   46) = (   0.2777778   0.2777778   0.0433604), wk =   0.0219479
        k(   47) = (   0.2777778   0.2777778   0.1300813), wk =   0.0219479
        k(   48) = (   0.2777778   0.2777778   0.2168022), wk =   0.0219479
        k(   49) = (   0.2777778   0.2777778   0.3035230), wk =   0.0219479
        k(   50) = (   0.2777778   0.2777778  -0.3902439), wk =   0.0109739
        k(   51) = (   0.2777778   0.3888889   0.0433604), wk =   0.0438957
        k(   52) = (   0.2777778   0.3888889   0.1300813), wk =   0.0438957
        k(   53) = (   0.2777778   0.3888889   0.2168022), wk =   0.0438957
        k(   54) = (   0.2777778   0.3888889   0.3035230), wk =   0.0438957
        k(   55) = (   0.2777778   0.3888889  -0.3902439), wk =   0.0219479
        k(   56) = (   0.2777778  -0.5000000   0.0433604), wk =   0.0219479
        k(   57) = (   0.2777778  -0.5000000   0.1300813), wk =   0.0219479
        k(   58) = (   0.2777778  -0.5000000   0.2168022), wk =   0.0219479
        k(   59) = (   0.2777778  -0.5000000   0.3035230), wk =   0.0219479
        k(   60) = (   0.2777778  -0.5000000  -0.3902439), wk =   0.0109739
        k(   61) = (   0.3888889   0.3888889   0.0433604), wk =   0.0219479
        k(   62) = (   0.3888889   0.3888889   0.1300813), wk =   0.0219479
        k(   63) = (   0.3888889   0.3888889   0.2168022), wk =   0.0219479
        k(   64) = (   0.3888889   0.3888889   0.3035230), wk =   0.0219479
        k(   65) = (   0.3888889   0.3888889  -0.3902439), wk =   0.0109739
        k(   66) = (   0.3888889  -0.5000000   0.0433604), wk =   0.0219479
        k(   67) = (   0.3888889  -0.5000000   0.1300813), wk =   0.0219479
        k(   68) = (   0.3888889  -0.5000000   0.2168022), wk =   0.0219479
        k(   69) = (   0.3888889  -0.5000000   0.3035230), wk =   0.0219479
        k(   70) = (   0.3888889  -0.5000000  -0.3902439), wk =   0.0109739
        k(   71) = (  -0.5000000  -0.5000000   0.0433604), wk =   0.0054870
        k(   72) = (  -0.5000000  -0.5000000   0.1300813), wk =   0.0054870
        k(   73) = (  -0.5000000  -0.5000000   0.2168022), wk =   0.0054870
        k(   74) = (  -0.5000000  -0.5000000   0.3035230), wk =   0.0054870
        k(   75) = (  -0.5000000  -0.5000000  -0.3902439), wk =   0.0027435

     Check: negative core charge=   -0.000001

     Initial potential from superposition of free atoms

     starting charge  575.98776, renormalised to  576.00000
     Starting wfcs are  320 randomized atomic wfcs +   26 random wfcs
     Checking if some PAW data can be deallocated...

     Self-consistent Calculation

     iteration #  1     ecut=    71.00 Ry     beta= 0.10
     Davidson diagonalization with overlap
     ethr =  1.00E-02,  avg # of iterations =  3.8

     Threshold (ethr) on eigenvalues was too large:
     Diagonalizing with lowered threshold

     Davidson diagonalization with overlap
     ethr =  6.95E-04,  avg # of iterations =  1.1

     total energy              =  -16384.78276209 Ry
     estimated scf accuracy    <       3.99555857 Ry

[...]

     iteration #  7     ecut=    71.00 Ry     beta= 0.10
     Davidson diagonalization with overlap
     c_bands:  1 eigenvalues not converged
     c_bands:  1 eigenvalues not converged
     c_bands:  2 eigenvalues not converged
     ethr =  2.07E-05,  avg # of iterations =  7.6

[...]

     iteration # 11     ecut=    71.00 Ry     beta= 0.10
     Davidson diagonalization with overlap
     c_bands:  1 eigenvalues not converged
     c_bands:  1 eigenvalues not converged
     ethr =  1.01E-06,  avg # of iterations =  3.8

[...]

     total energy              =  -16384.11075958 Ry
     estimated scf accuracy    <       0.00000117 Ry

     iteration # 21     ecut=    71.00 Ry     beta= 0.10
     Davidson diagonalization with overlap
     ethr =  2.03E-10,  avg # of iterations =  2.0

     End of self-consistent calculation

          k = 0.0556 0.0556 0.0434 ( 42268 PWs)   bands (ev):

   -70.2903 -70.2682 -70.2681 -70.2639 -70.2639 -70.2594 -70.2583 -70.2578
   -70.2576 -70.2565 -70.2507 -70.2507 -70.2493 -70.2493 -70.2421 -70.2419
   -69.7157 -69.7156 -69.7013 -69.7013 -69.7013 -69.7012 -69.7001 -69.7000
   -69.6998 -69.6997 -69.6985 -69.6985 -69.6985 -69.6985 -69.6839 -69.6839
   -36.1255 -36.1254 -36.1251 -36.1241 -36.1124 -36.1124 -36.1023 -36.0687
   -36.0687 -36.0661 -36.0661 -36.0308 -36.0308 -36.0193 -36.0193 -36.0102
   -36.0102 -36.0078 -36.0078 -35.9984 -35.9984 -35.9666 -35.9664 -35.9625
   -35.9625 -35.9613 -35.9567 -35.9566 -35.9513 -35.9485 -35.9485 -35.9326
   -35.9321 -35.9321 -35.9176 -35.9176 -35.9147 -35.9133 -35.9017 -35.9017
   -35.8965 -35.8965 -35.8647 -35.8628 -35.8628 -35.8585 -35.8465 -35.8449
   -35.5836 -35.5835 -35.5828 -35.5818 -35.5721 -35.5721 -35.5701 -35.5701
   -35.5017 -35.5017 -35.5016 -35.5016 -35.4867 -35.4867 -35.4865 -35.4865
   -35.4845 -35.4844 -35.4841 -35.4841 -35.4692 -35.4692 -35.4691 -35.4691
   -35.3988 -35.3984 -35.3973 -35.3967 -35.3853 -35.3853 -35.3840 -35.3839
   -35.3258 -35.3221 -35.3112 -35.3112 -35.3108 -35.3108 -35.3099 -35.3096
   -35.3096 -35.3094 -35.3091 -35.3091 -35.3088 -35.3088 -35.2992 -35.2991
     7.5073   8.8294   9.0490   9.0490   9.1150   9.1217   9.1276   9.1276
     9.1898   9.2408   9.3248   9.3248   9.4085   9.4085   9.5930   9.5930
     9.6465   9.8675   9.9945   9.9945  10.0166  10.0166  10.0461  10.0461
    10.0681  10.0681  10.1434  10.1434  10.1480  10.1522  10.1658  10.1658
    10.2794  10.2794  10.3496  10.3496  10.3835  10.3835  10.4663  10.4663
    10.4682  10.4682  10.5352  10.5352  10.5950  10.6558  10.6558  10.6738
    10.6738  10.8177  10.8177  10.8905  10.9361  10.9362  10.9798  10.9798
    10.9961  11.0041  11.0041  11.0151  11.1928  11.1928  11.2053  11.2069
    11.2069  11.2174  11.3639  11.3661  11.3720  11.3720  11.3728  11.3728
    11.4069  11.4161  11.4523  11.4523  11.4847  11.4847  11.8108  11.8108
    11.8519  11.8619  11.9160  11.9160  11.9420  11.9420  11.9600  11.9600
    12.1242  12.1242  12.1424  12.1424  12.1438  12.1438  12.1451  12.1620
    12.1939  12.2084  12.2084  12.2381  12.2381  12.2939  12.2987  12.2987
    12.3431  12.4002  12.4002  12.4103  12.4103  12.4783  12.5182  12.5182
    12.5445  12.5445  12.5767  12.5767  12.6159  12.7154  12.7154  12.8009
    12.8009  12.8041  12.8110  12.8110  12.9570  12.9570  13.0087  13.0087
    13.1417  13.1417  13.1507  13.1621  13.1621  13.1632  13.1632  13.1787
    13.1787  13.1796  13.2890  13.3045  13.3321  13.3321  13.3369  13.3665
    13.4768  13.4768  13.4827  13.4827  13.4985  13.6274  13.6274  13.6917
    13.6917  13.6926  13.6946  13.7488  13.8276  13.8540  13.8540  13.8607
    13.8607  13.8909  13.9525  14.0569  14.0569  14.4557  14.4557  14.6152
    14.6152  15.0454  15.0454  15.2727  15.5213  15.6423  15.6423  15.7893
    15.7893  15.8596  16.0921  16.1806  16.1806  16.3393  16.3393  16.7113
    16.8898  18.1667  18.1667  19.1093  19.1390  19.1390  19.2991  19.5287
    19.5287  20.0672  20.0672  20.3805  20.3805  20.7416  20.7416  20.9765
    20.9765  22.5961  22.7123  22.7123  22.7794  22.7794  22.8814  22.8814
    22.9632  23.3997  23.3997  24.1143  24.1143  24.1242  24.2324  24.2324
    24.3427  24.3427

[...]

          k = 0.3889-0.5000-0.3902 ( 42296 PWs)   bands (ev):

[...]

          k =-0.5000-0.5000 0.0434 ( 42276 PWs)   bands (ev):

[...]

          k =-0.5000-0.5000-0.3902 ( 42256 PWs)   bands (ev):

   -70.2775 -70.2775 -70.2775 -70.2775 -70.2548 -70.2548 -70.2548 -70.2548
   -70.2499 -70.2499 -70.2499 -70.2499 -70.2498 -70.2498 -70.2498 -70.2498
   -69.7079 -69.7079 -69.7079 -69.7079 -69.7078 -69.7078 -69.7078 -69.7078
   -69.6919 -69.6919 -69.6919 -69.6919 -69.6919 -69.6919 -69.6919 -69.6918
   -36.1034 -36.1034 -36.1033 -36.1033 -36.1033 -36.1033 -36.1033 -36.1033
   -36.0874 -36.0874 -36.0874 -36.0874 -36.0390 -36.0390 -36.0390 -36.0390
   -35.9770 -35.9770 -35.9770 -35.9770 -35.9770 -35.9770 -35.9770 -35.9770
   -35.9384 -35.9384 -35.9384 -35.9384 -35.9364 -35.9364 -35.9364 -35.9364
   -35.9363 -35.9363 -35.9363 -35.9363 -35.9127 -35.9127 -35.9127 -35.9127
   -35.8955 -35.8955 -35.8955 -35.8955 -35.8459 -35.8459 -35.8458 -35.8458
   -35.5771 -35.5771 -35.5771 -35.5771 -35.5771 -35.5771 -35.5771 -35.5771
   -35.4936 -35.4936 -35.4936 -35.4936 -35.4911 -35.4911 -35.4911 -35.4911
   -35.4790 -35.4790 -35.4790 -35.4790 -35.4789 -35.4789 -35.4789 -35.4789
   -35.3906 -35.3906 -35.3906 -35.3906 -35.3904 -35.3904 -35.3904 -35.3904
   -35.3165 -35.3165 -35.3165 -35.3165 -35.3158 -35.3158 -35.3158 -35.3158
   -35.3044 -35.3044 -35.3044 -35.3044 -35.3044 -35.3043 -35.3043 -35.3043
     8.6481   8.6481   8.6481   8.6481   9.2564   9.2564   9.2564   9.2564
     9.5989   9.5989   9.5989   9.5989   9.5989   9.5989   9.5989   9.5989
     9.6990   9.6990   9.6990   9.6990   9.7642   9.7642   9.7642   9.7642
     9.7642   9.7642   9.7642   9.7642   9.8814   9.8814   9.8814   9.8814
    10.1465  10.1465  10.1465  10.1465  10.4784  10.4784  10.4784  10.4784
    10.4785  10.4785  10.4785  10.4785  10.7688  10.7688  10.7688  10.7689
    10.7689  10.7689  10.7689  10.7689  10.9410  10.9410  10.9410  10.9410
    11.1581  11.1581  11.1581  11.1581  11.4074  11.4074  11.4074  11.4074
    11.4942  11.4942  11.4942  11.4942  11.5494  11.5494  11.5494  11.5494
    11.6375  11.6376  11.6376  11.6376  11.7371  11.7371  11.7371  11.7371
    11.7371  11.7371  11.7371  11.7371  11.7813  11.7813  11.7813  11.7813
    12.0272  12.0272  12.0272  12.0272  12.1949  12.1949  12.1949  12.1949
    12.3201  12.3201  12.3201  12.3201  12.3201  12.3201  12.3201  12.3201
    12.3666  12.3667  12.3667  12.3667  12.3667  12.3667  12.3667  12.3667
    12.4011  12.4011  12.4011  12.4011  12.6222  12.6222  12.6222  12.6222
    12.7833  12.7833  12.7833  12.7833  12.8589  12.8589  12.8589  12.8589
    12.8589  12.8589  12.8589  12.8589  12.9684  12.9684  12.9684  12.9684
    13.1897  13.1897  13.1897  13.1897  13.3847  13.3847  13.3847  13.3847
    13.5659  13.5659  13.5659  13.5659  13.5660  13.5660  13.5660  13.5660
    13.8098  13.8098  13.8098  13.8098  13.8757  13.8757  13.8757  13.8757
    13.8757  13.8757  13.8757  13.8757  13.8789  13.8789  13.8789  13.8790
    15.3035  15.3035  15.3035  15.3035  16.4810  16.4810  16.4810  16.4810
    17.1700  17.1700  17.1700  17.1700  17.1701  17.1701  17.1701  17.1701
    18.1065  18.1065  18.1065  18.1065  18.1065  18.1065  18.1065  18.1065
    20.5279  20.5279  20.5279  20.5279  20.5279  20.5279  20.5279  20.5279
    20.9214  20.9214  20.9214  20.9214  22.4003  22.4003  22.4003  22.4003
    22.4003  22.4003  22.4003  22.4003  22.5550  22.5550  22.5550  22.5550
    23.8229  23.8229

     the Fermi energy is    13.8836 ev

!    total energy              =  -16384.11076297 Ry

     total all-electron energy =   -322944.964470 Ry
     estimated scf accuracy    <       0.00000054 Ry
     smearing contrib. (-TS)   =       0.11945109 Ry
     internal energy E=F+TS    =  -16384.23021406 Ry

     The total energy is F=E-TS. E is the sum of the following terms:
     one-electron contribution =   -5879.56995629 Ry
     hartree contribution      =    3248.22152736 Ry
     xc contribution           =    -985.29878452 Ry
     ewald contribution        =   -4600.25322334 Ry
     one-center paw contrib.   =   -8167.32977726 Ry

     convergence has been achieved in  21 iterations

     Forces acting on atoms (cartesian axes, Ry/au):

     atom    1 type  1   force =     0.00000000    0.00000000    0.00371691
     atom    2 type  1   force =    -0.00000241   -0.00000241    0.00369913
     atom    3 type  1   force =    -0.00001308    0.00000000    0.00329823
     atom    4 type  1   force =     0.00000000   -0.00001308    0.00329823
     atom    5 type  1   force =     0.00000000    0.00000000   -0.00313081
     atom    6 type  1   force =     0.00000444    0.00000444   -0.00311573
     atom    7 type  1   force =     0.00000784    0.00000000   -0.00389227
     atom    8 type  1   force =     0.00000000    0.00000784   -0.00389227
     atom    9 type  1   force =     0.00000000    0.00000000    0.00371105
     atom   10 type  1   force =    -0.00000241    0.00000241    0.00369913
     atom   11 type  1   force =     0.00000484    0.00000000    0.00329937
     atom   12 type  1   force =     0.00000000    0.00001308    0.00329823
     atom   13 type  1   force =     0.00000000    0.00000000   -0.00311348
     atom   14 type  1   force =     0.00000444   -0.00000444   -0.00311573
     atom   15 type  1   force =     0.00001749    0.00000000   -0.00388397
     atom   16 type  1   force =     0.00000000   -0.00000784   -0.00389227
     atom   17 type  1   force =     0.00000000    0.00000000    0.00371105
     atom   18 type  1   force =     0.00000241   -0.00000241    0.00369913
     atom   19 type  1   force =     0.00001308    0.00000000    0.00329823
     atom   20 type  1   force =     0.00000000    0.00000484    0.00329937
     atom   21 type  1   force =     0.00000000    0.00000000   -0.00311348
     atom   22 type  1   force =    -0.00000444    0.00000444   -0.00311573
     atom   23 type  1   force =    -0.00000784    0.00000000   -0.00389227
     atom   24 type  1   force =     0.00000000    0.00001749   -0.00388397
     atom   25 type  1   force =     0.00000000    0.00000000    0.00370096
     atom   26 type  1   force =     0.00000241    0.00000241    0.00369913
     atom   27 type  1   force =    -0.00000484    0.00000000    0.00329937
     atom   28 type  1   force =     0.00000000   -0.00000484    0.00329937
     atom   29 type  1   force =     0.00000000    0.00000000   -0.00310123
     atom   30 type  1   force =    -0.00000444   -0.00000444   -0.00311573
     atom   31 type  1   force =    -0.00001749    0.00000000   -0.00388397
     atom   32 type  1   force =     0.00000000   -0.00001749   -0.00388397

     Total force =     0.019885     Total SCF correction =     0.001987

     Computing stress (Cartesian axis) and pressure

          total   stress  (Ry/bohr**3)                   (kbar)     P=      -47.99
  -0.00036351   0.00000000   0.00000000          -53.47        0.00        0.00
   0.00000000  -0.00036351   0.00000000            0.00      -53.47        0.00
   0.00000000   0.00000000  -0.00025171            0.00        0.00      -37.03

     Writing output data file /scratch/QiAjRvwYjgHzZYdf.save/

     General routines

     Parallel routines

   This run was terminated on:   0:15:50   7Jan2022

   JOB DONE.