     Program PWSCF v.6.7MaX starts on  7Jan2022 at  2:38:44

     R & G space division:  proc/nbgrp/npool/nimage =      72
     Reading input from scf_15.in
Warning: card &CELL ignored
Warning: card CELL_DYNAMICS = 'BFGS', ignored
Warning: card CELL_FACTOR = 2.0, ignored
Warning: card PRESS = 0.0, ignored
Warning: card / ignored

     Current dimensions of program PWSCF are:
     Max number of different atomic species (ntypx) = 10
     Max number of k-points (npk) =  40000
     Max angular momentum in pseudopotentials (lmaxx) =  3
     file Pd.pbe-spn-kjpaw_psl.1.0.0.UPF: wavefunction(s)  4S 5S 4D renormalized

     Subspace diagonalization in iterative solution of the eigenvalue problem:
     one sub-group per band group will be used

     Found symmetry operation: I + (  0.2500  0.2500  0.0000)
     This is a supercell, fractional translations are disabled
     Message from routine setup:
     using ibrav=0 with symmetry is DISCOURAGED, use correct ibrav instead

     bravais-lattice index     =            0
     lattice parameter (alat)  =      14.8394  a.u.
     unit-cell volume          =    4697.4118 (a.u.)^3
     number of atoms/cell      =           32
     number of atomic types    =            1
     number of electrons       =       576.00
     number of Kohn-Sham states=          346
     kinetic-energy cutoff     =      71.0000  Ry
     charge density cutoff     =     430.0000  Ry
     scf convergence threshold =      1.0E-06
     mixing beta               =       0.1000
     number of iterations used =           10  TF        mixing
     Exchange-correlation= SLA  PW   PBX  PBC
                           (   1   4   3   4   0   0   0)

     celldm(1)=  14.839420  celldm(2)=   0.000000  celldm(3)=   0.000000
     celldm(4)=   0.000000  celldm(5)=   0.000000  celldm(6)=   0.000000

     crystal axes: (cart. coord. in units of alat)
               a(1) = (   1.000000   0.000000   0.000000 )
               a(2) = (   0.000000   1.000000   0.000000 )
               a(3) = (   0.000000   0.000000   1.437500 )

     reciprocal axes: (cart. coord. in units 2 pi/alat)
               b(1) = (  1.000000  0.000000  0.000000 )
               b(2) = (  0.000000  1.000000  0.000000 )
               b(3) = (  0.000000  0.000000  0.695652 )

     PseudoPot. # 1 for Pd read from file:
     /rds/homes/b/bxp912/pp/Pd.pbe-spn-kjpaw_psl.1.0.0.UPF
     MD5 check sum: 790f2ebce206edfd9790dcb9844eca51
     Pseudo is Projector augmented-wave + core cor, Zval = 18.0
     Generated using &quot;atomic&quot; code by A. Dal Corso  v.6.3
     Shape of augmentation charge: PSQ
     Using radial grid of 1235 points,  6 beta functions with:
                l(1) =   0
                l(2) =   0
                l(3) =   1
                l(4) =   1
                l(5) =   2
                l(6) =   2
     Q(r) pseudized with 0 coefficients

     atomic species   valence    mass     pseudopotential
        Pd            18.00   106.42000     Pd( 1.00)

      8 Sym. Ops. (no inversion) found

   Cartesian axes

     site n.     atom                  positions (alat units)
         1           Pd  tau(   1) = (   0.0000000   0.0000000   0.0000000  )
         2           Pd  tau(   2) = (   0.2500000   0.2500000   0.0000000  )
         3           Pd  tau(   3) = (   0.2500000   0.0000000   0.2500000  )
         4           Pd  tau(   4) = (   0.0000000   0.2500000   0.2500000  )
         5           Pd  tau(   5) = (   0.0000000   0.0000000   0.9375000  )
         6           Pd  tau(   6) = (   0.2500000   0.2500000   0.9375000  )
         7           Pd  tau(   7) = (   0.2500000   0.0000000   1.1875000  )
         8           Pd  tau(   8) = (   0.0000000   0.2500000   1.1875000  )
         9           Pd  tau(   9) = (   0.0000000   0.5000000   0.0000000  )
        10           Pd  tau(  10) = (   0.2500000   0.7500000   0.0000000  )
        11           Pd  tau(  11) = (   0.2500000   0.5000000   0.2500000  )
        12           Pd  tau(  12) = (   0.0000000   0.7500000   0.2500000  )
        13           Pd  tau(  13) = (   0.0000000   0.5000000   0.9375000  )
        14           Pd  tau(  14) = (   0.2500000   0.7500000   0.9375000  )
        15           Pd  tau(  15) = (   0.2500000   0.5000000   1.1875000  )
        16           Pd  tau(  16) = (   0.0000000   0.7500000   1.1875000  )
        17           Pd  tau(  17) = (   0.5000000   0.0000000   0.0000000  )
        18           Pd  tau(  18) = (   0.7500000   0.2500000   0.0000000  )
        19           Pd  tau(  19) = (   0.7500000   0.0000000   0.2500000  )
        20           Pd  tau(  20) = (   0.5000000   0.2500000   0.2500000  )
        21           Pd  tau(  21) = (   0.5000000   0.0000000   0.9375000  )
        22           Pd  tau(  22) = (   0.7500000   0.2500000   0.9375000  )
        23           Pd  tau(  23) = (   0.7500000   0.0000000   1.1875000  )
        24           Pd  tau(  24) = (   0.5000000   0.2500000   1.1875000  )
        25           Pd  tau(  25) = (   0.5000000   0.5000000   0.0000000  )
        26           Pd  tau(  26) = (   0.7500000   0.7500000   0.0000000  )
        27           Pd  tau(  27) = (   0.7500000   0.5000000   0.2500000  )
        28           Pd  tau(  28) = (   0.5000000   0.7500000   0.2500000  )
        29           Pd  tau(  29) = (   0.5000000   0.5000000   0.9375000  )
        30           Pd  tau(  30) = (   0.7500000   0.7500000   0.9375000  )
        31           Pd  tau(  31) = (   0.7500000   0.5000000   1.1875000  )
        32           Pd  tau(  32) = (   0.5000000   0.7500000   1.1875000  )

     number of k points=    75  Marzari-Vanderbilt smearing, width (Ry)=  0.0400
                       cart. coord. in units 2pi/alat
        k(    1) = (   0.0555556   0.0555556   0.0386473), wk =   0.0219479
        k(    2) = (   0.0555556   0.0555556   0.1159420), wk =   0.0219479
        k(    3) = (   0.0555556   0.0555556   0.1932367), wk =   0.0219479
        k(    4) = (   0.0555556   0.0555556   0.2705314), wk =   0.0219479
        k(    5) = (   0.0555556   0.0555556  -0.3478261), wk =   0.0109739
        k(    6) = (   0.0555556   0.1666667   0.0386473), wk =   0.0438957
        k(    7) = (   0.0555556   0.1666667   0.1159420), wk =   0.0438957
        k(    8) = (   0.0555556   0.1666667   0.1932367), wk =   0.0438957
        k(    9) = (   0.0555556   0.1666667   0.2705314), wk =   0.0438957
        k(   10) = (   0.0555556   0.1666667  -0.3478261), wk =   0.0219479
        k(   11) = (   0.0555556   0.2777778   0.0386473), wk =   0.0438957
        k(   12) = (   0.0555556   0.2777778   0.1159420), wk =   0.0438957
        k(   13) = (   0.0555556   0.2777778   0.1932367), wk =   0.0438957
        k(   14) = (   0.0555556   0.2777778   0.2705314), wk =   0.0438957
        k(   15) = (   0.0555556   0.2777778  -0.3478261), wk =   0.0219479
        k(   16) = (   0.0555556   0.3888889   0.0386473), wk =   0.0438957
        k(   17) = (   0.0555556   0.3888889   0.1159420), wk =   0.0438957
        k(   18) = (   0.0555556   0.3888889   0.1932367), wk =   0.0438957
        k(   19) = (   0.0555556   0.3888889   0.2705314), wk =   0.0438957
        k(   20) = (   0.0555556   0.3888889  -0.3478261), wk =   0.0219479
        k(   21) = (   0.0555556  -0.5000000   0.0386473), wk =   0.0219479
        k(   22) = (   0.0555556  -0.5000000   0.1159420), wk =   0.0219479
        k(   23) = (   0.0555556  -0.5000000   0.1932367), wk =   0.0219479
        k(   24) = (   0.0555556  -0.5000000   0.2705314), wk =   0.0219479
        k(   25) = (   0.0555556  -0.5000000  -0.3478261), wk =   0.0109739
        k(   26) = (   0.1666667   0.1666667   0.0386473), wk =   0.0219479
        k(   27) = (   0.1666667   0.1666667   0.1159420), wk =   0.0219479
        k(   28) = (   0.1666667   0.1666667   0.1932367), wk =   0.0219479
        k(   29) = (   0.1666667   0.1666667   0.2705314), wk =   0.0219479
        k(   30) = (   0.1666667   0.1666667  -0.3478261), wk =   0.0109739
        k(   31) = (   0.1666667   0.2777778   0.0386473), wk =   0.0438957
        k(   32) = (   0.1666667   0.2777778   0.1159420), wk =   0.0438957
        k(   33) = (   0.1666667   0.2777778   0.1932367), wk =   0.0438957
        k(   34) = (   0.1666667   0.2777778   0.2705314), wk =   0.0438957
        k(   35) = (   0.1666667   0.2777778  -0.3478261), wk =   0.0219479
        k(   36) = (   0.1666667   0.3888889   0.0386473), wk =   0.0438957
        k(   37) = (   0.1666667   0.3888889   0.1159420), wk =   0.0438957
        k(   38) = (   0.1666667   0.3888889   0.1932367), wk =   0.0438957
        k(   39) = (   0.1666667   0.3888889   0.2705314), wk =   0.0438957
        k(   40) = (   0.1666667   0.3888889  -0.3478261), wk =   0.0219479
        k(   41) = (   0.1666667  -0.5000000   0.0386473), wk =   0.0219479
        k(   42) = (   0.1666667  -0.5000000   0.1159420), wk =   0.0219479
        k(   43) = (   0.1666667  -0.5000000   0.1932367), wk =   0.0219479
        k(   44) = (   0.1666667  -0.5000000   0.2705314), wk =   0.0219479
        k(   45) = (   0.1666667  -0.5000000  -0.3478261), wk =   0.0109739
        k(   46) = (   0.2777778   0.2777778   0.0386473), wk =   0.0219479
        k(   47) = (   0.2777778   0.2777778   0.1159420), wk =   0.0219479
        k(   48) = (   0.2777778   0.2777778   0.1932367), wk =   0.0219479
        k(   49) = (   0.2777778   0.2777778   0.2705314), wk =   0.0219479
        k(   50) = (   0.2777778   0.2777778  -0.3478261), wk =   0.0109739
        k(   51) = (   0.2777778   0.3888889   0.0386473), wk =   0.0438957
        k(   52) = (   0.2777778   0.3888889   0.1159420), wk =   0.0438957
        k(   53) = (   0.2777778   0.3888889   0.1932367), wk =   0.0438957
        k(   54) = (   0.2777778   0.3888889   0.2705314), wk =   0.0438957
        k(   55) = (   0.2777778   0.3888889  -0.3478261), wk =   0.0219479
        k(   56) = (   0.2777778  -0.5000000   0.0386473), wk =   0.0219479
        k(   57) = (   0.2777778  -0.5000000   0.1159420), wk =   0.0219479
        k(   58) = (   0.2777778  -0.5000000   0.1932367), wk =   0.0219479
        k(   59) = (   0.2777778  -0.5000000   0.2705314), wk =   0.0219479
        k(   60) = (   0.2777778  -0.5000000  -0.3478261), wk =   0.0109739
        k(   61) = (   0.3888889   0.3888889   0.0386473), wk =   0.0219479
        k(   62) = (   0.3888889   0.3888889   0.1159420), wk =   0.0219479
        k(   63) = (   0.3888889   0.3888889   0.1932367), wk =   0.0219479
        k(   64) = (   0.3888889   0.3888889   0.2705314), wk =   0.0219479
        k(   65) = (   0.3888889   0.3888889  -0.3478261), wk =   0.0109739
        k(   66) = (   0.3888889  -0.5000000   0.0386473), wk =   0.0219479
        k(   67) = (   0.3888889  -0.5000000   0.1159420), wk =   0.0219479
        k(   68) = (   0.3888889  -0.5000000   0.1932367), wk =   0.0219479
        k(   69) = (   0.3888889  -0.5000000   0.2705314), wk =   0.0219479
        k(   70) = (   0.3888889  -0.5000000  -0.3478261), wk =   0.0109739
        k(   71) = (  -0.5000000  -0.5000000   0.0386473), wk =   0.0054870
        k(   72) = (  -0.5000000  -0.5000000   0.1159420), wk =   0.0054870
        k(   73) = (  -0.5000000  -0.5000000   0.1932367), wk =   0.0054870
        k(   74) = (  -0.5000000  -0.5000000   0.2705314), wk =   0.0054870
        k(   75) = (  -0.5000000  -0.5000000  -0.3478261), wk =   0.0027435

     Check: negative core charge=   -0.000001

     Initial potential from superposition of free atoms

     starting charge  575.98776, renormalised to  576.00000
     Starting wfcs are  320 randomized atomic wfcs +   26 random wfcs
     Checking if some PAW data can be deallocated...

     Self-consistent Calculation

     iteration #  1     ecut=    71.00 Ry     beta= 0.10
     Davidson diagonalization with overlap
     ethr =  1.00E-02,  avg # of iterations =  4.0

     Threshold (ethr) on eigenvalues was too large:
     Diagonalizing with lowered threshold

     Davidson diagonalization with overlap
     ethr =  7.45E-04,  avg # of iterations =  1.1

     total energy              =  -16384.82020569 Ry
     estimated scf accuracy    <       4.28209241 Ry

[...]

     iteration #  7     ecut=    71.00 Ry     beta= 0.10
     Davidson diagonalization with overlap
     c_bands:  1 eigenvalues not converged
     c_bands:  1 eigenvalues not converged
     ethr =  4.21E-05,  avg # of iterations =  7.3

[...]

     iteration # 13     ecut=    71.00 Ry     beta= 0.10
     Davidson diagonalization with overlap
     c_bands:  3 eigenvalues not converged
     c_bands:  1 eigenvalues not converged
     c_bands:  1 eigenvalues not converged
     c_bands:  2 eigenvalues not converged
     ethr =  1.18E-06,  avg # of iterations =  5.1

[...]

     total energy              =  -16384.05662071 Ry
     estimated scf accuracy    <       0.00000113 Ry

     iteration # 23     ecut=    71.00 Ry     beta= 0.10
     Davidson diagonalization with overlap
     ethr =  1.97E-10,  avg # of iterations =  2.0

     End of self-consistent calculation

          k = 0.0556 0.0556 0.0386 ( 47382 PWs)   bands (ev):

   -72.3196 -72.2975 -72.2975 -72.2932 -72.2932 -72.2887 -72.2876 -72.2870
   -72.2870 -72.2859 -72.2800 -72.2800 -72.2786 -72.2786 -72.2713 -72.2713
   -71.7291 -71.7291 -71.7147 -71.7147 -71.7147 -71.7147 -71.7135 -71.7135
   -71.7132 -71.7132 -71.7119 -71.7119 -71.7119 -71.7119 -71.6974 -71.6973
   -38.1543 -38.1543 -38.1538 -38.1530 -38.1404 -38.1404 -38.1336 -38.0993
   -38.0993 -38.0964 -38.0964 -38.0594 -38.0594 -38.0482 -38.0482 -38.0391
   -38.0391 -38.0359 -38.0359 -38.0270 -38.0270 -37.9978 -37.9978 -37.9914
   -37.9914 -37.9913 -37.9868 -37.9868 -37.9815 -37.9771 -37.9771 -37.9632
   -37.9602 -37.9602 -37.9457 -37.9457 -37.9428 -37.9418 -37.9316 -37.9316
   -37.9264 -37.9264 -37.8928 -37.8910 -37.8910 -37.8867 -37.8746 -37.8730
   -37.6029 -37.6028 -37.6020 -37.6011 -37.5910 -37.5910 -37.5890 -37.5890
   -37.5205 -37.5205 -37.5204 -37.5204 -37.5056 -37.5056 -37.5054 -37.5054
   -37.5033 -37.5033 -37.5029 -37.5029 -37.4880 -37.4880 -37.4879 -37.4879
   -37.4174 -37.4172 -37.4159 -37.4156 -37.4040 -37.4039 -37.4026 -37.4025
   -37.3330 -37.3298 -37.3184 -37.3184 -37.3179 -37.3179 -37.3170 -37.3167
   -37.3167 -37.3166 -37.3162 -37.3162 -37.3159 -37.3159 -37.3059 -37.3059
     5.4932   6.7873   7.0243   7.0243   7.0906   7.0969   7.1030   7.1030
     7.1624   7.1814   7.2990   7.2990   7.3872   7.3872   7.5707   7.5707
     7.6340   7.8390   7.9612   7.9612   7.9896   7.9896   8.0195   8.0195
     8.0402   8.0402   8.1106   8.1128   8.1128   8.1157   8.1283   8.1283
     8.2526   8.2526   8.3209   8.3209   8.3569   8.3569   8.4336   8.4336
     8.4441   8.4441   8.5076   8.5076   8.5694   8.6290   8.6290   8.6472
     8.6472   8.7908   8.7908   8.8578   8.9052   8.9052   8.9541   8.9541
     8.9667   8.9752   8.9752   8.9860   9.1649   9.1649   9.1652   9.1652
     9.1782   9.1888   9.3298   9.3298   9.3371   9.3392   9.3465   9.3465
     9.3793   9.3885   9.4458   9.4458   9.4803   9.4803   9.8281   9.8281
     9.8817   9.8866   9.8984   9.8984   9.9194   9.9194   9.9404   9.9404
    10.0752  10.0752  10.1000  10.1000  10.1111  10.1111  10.1183  10.1349
    10.1730  10.1730  10.1891  10.1891  10.2157  10.2641  10.2662  10.2870
    10.2870  10.3961  10.3961  10.4080  10.4080  10.4881  10.5210  10.5210
    10.5400  10.5400  10.5583  10.5583  10.6882  10.6882  10.7491  10.7491
    10.7524  10.7524  10.7772  10.8368  10.9270  10.9270  10.9937  10.9937
    11.1188  11.1188  11.1266  11.1266  11.1274  11.1464  11.1464  11.1564
    11.2421  11.2421  11.2541  11.2658  11.2746  11.3474  11.3950  11.4057
    11.4057  11.4062  11.4062  11.4271  11.4271  11.5934  11.5934  11.6659
    11.6684  11.6684  11.6700  11.7235  11.8023  11.8198  11.8198  11.8266
    11.8266  11.8709  11.9225  12.0292  12.0292  12.4114  12.4114  12.4331
    12.4331  12.8458  12.8458  13.2793  13.4924  13.5558  13.6888  13.6888
    13.9582  13.9582  13.9626  14.1300  14.1300  14.3220  14.5112  14.5112
    14.6381  16.2011  16.2011  16.8079  16.8079  17.0020  17.0696  17.0696
    17.2242  17.3737  17.3737  17.9851  17.9851  18.5574  18.5574  18.5648
    18.5648  20.1218  20.2120  20.5122  20.5122  20.6514  20.7503  20.7503
    20.9384  20.9384  21.1643  21.3745  21.3745  21.4363  21.4363  21.8563
    22.2846  22.2848

[...]

          k = 0.3889-0.5000-0.3478 ( 47444 PWs)   bands (ev):

[...]

          k =-0.5000-0.5000 0.0386 ( 47412 PWs)   bands (ev):

[...]

          k =-0.5000-0.5000-0.3478 ( 47384 PWs)   bands (ev):

   -72.3068 -72.3068 -72.3068 -72.3068 -72.2841 -72.2841 -72.2841 -72.2841
   -72.2792 -72.2792 -72.2792 -72.2792 -72.2792 -72.2792 -72.2792 -72.2792
   -71.7213 -71.7213 -71.7213 -71.7213 -71.7213 -71.7213 -71.7213 -71.7213
   -71.7053 -71.7053 -71.7053 -71.7053 -71.7053 -71.7053 -71.7053 -71.7053
   -38.1319 -38.1319 -38.1319 -38.1319 -38.1319 -38.1319 -38.1319 -38.1319
   -38.1182 -38.1182 -38.1182 -38.1182 -38.0678 -38.0678 -38.0678 -38.0678
   -38.0067 -38.0067 -38.0067 -38.0067 -38.0067 -38.0067 -38.0067 -38.0067
   -37.9667 -37.9667 -37.9667 -37.9667 -37.9654 -37.9654 -37.9654 -37.9654
   -37.9654 -37.9654 -37.9654 -37.9654 -37.9431 -37.9431 -37.9431 -37.9431
   -37.9237 -37.9237 -37.9237 -37.9237 -37.8740 -37.8740 -37.8740 -37.8740
   -37.5963 -37.5963 -37.5963 -37.5963 -37.5962 -37.5962 -37.5962 -37.5962
   -37.5126 -37.5126 -37.5126 -37.5126 -37.5101 -37.5101 -37.5101 -37.5101
   -37.4977 -37.4977 -37.4977 -37.4977 -37.4977 -37.4977 -37.4977 -37.4977
   -37.4092 -37.4092 -37.4092 -37.4092 -37.4091 -37.4091 -37.4091 -37.4091
   -37.3237 -37.3237 -37.3237 -37.3237 -37.3231 -37.3231 -37.3231 -37.3231
   -37.3113 -37.3113 -37.3113 -37.3113 -37.3113 -37.3113 -37.3113 -37.3113
     6.6177   6.6177   6.6177   6.6177   7.2359   7.2359   7.2359   7.2359
     7.5712   7.5712   7.5712   7.5712   7.5712   7.5712   7.5712   7.5712
     7.6825   7.6825   7.6825   7.6825   7.7396   7.7396   7.7396   7.7396
     7.7396   7.7396   7.7396   7.7396   7.8380   7.8380   7.8380   7.8380
     8.1233   8.1233   8.1233   8.1233   8.4466   8.4466   8.4466   8.4466
     8.4466   8.4466   8.4466   8.4466   8.7447   8.7447   8.7447   8.7447
     8.7447   8.7447   8.7447   8.7447   8.9141   8.9141   8.9141   8.9141
     9.1320   9.1320   9.1320   9.1320   9.3794   9.3794   9.3794   9.3794
     9.4797   9.4797   9.4797   9.4797   9.5209   9.5209   9.5209   9.5209
     9.5862   9.5862   9.5862   9.5862   9.7114   9.7114   9.7115   9.7115
     9.7115   9.7115   9.7115   9.7115   9.7558   9.7558   9.7558   9.7558
    10.0234  10.0234  10.0234  10.0234  10.1601  10.1601  10.1601  10.1601
    10.2919  10.2919  10.2919  10.2919  10.2919  10.2919  10.2919  10.2919
    10.3251  10.3251  10.3251  10.3251  10.3251  10.3251  10.3251  10.3252
    10.3749  10.3749  10.3749  10.3749  10.5957  10.5957  10.5957  10.5957
    10.8863  10.8863  10.8863  10.8863  10.8863  10.8863  10.8863  10.8863
    10.9140  10.9140  10.9140  10.9140  10.9559  10.9559  10.9559  10.9559
    11.1637  11.1637  11.1637  11.1637  11.3660  11.3660  11.3660  11.3660
    11.5072  11.5072  11.5072  11.5072  11.5072  11.5072  11.5072  11.5072
    11.7825  11.7825  11.7825  11.7825  11.8437  11.8437  11.8437  11.8437
    11.8437  11.8438  11.8438  11.8438  11.8523  11.8523  11.8523  11.8523
    12.8178  12.8178  12.8178  12.8178  14.6617  14.6617  14.6617  14.6617
    15.1129  15.1129  15.1129  15.1129  15.1129  15.1129  15.1129  15.1129
    16.1865  16.1865  16.1865  16.1865  16.1865  16.1865  16.1865  16.1865
    17.9654  17.9654  17.9654  17.9654  18.2995  18.2995  18.2995  18.2995
    18.2995  18.2995  18.2995  18.2995  20.2203  20.2203  20.2204  20.2204
    20.4100  20.4100  20.4100  20.4100  20.4100  20.4100  20.4100  20.4100
    20.4868  20.4868

     the Fermi energy is    11.8540 ev

!    total energy              =  -16384.05662790 Ry

     total all-electron energy =   -322944.910335 Ry
     estimated scf accuracy    <       0.00000081 Ry
     smearing contrib. (-TS)   =       0.12332138 Ry
     internal energy E=F+TS    =  -16384.17994928 Ry

     The total energy is F=E-TS. E is the sum of the following terms:
     one-electron contribution =   -9386.63554511 Ry
     hartree contribution      =    4958.96102391 Ry
     xc contribution           =    -985.36993643 Ry
     ewald contribution        =   -2803.80617953 Ry
     one-center paw contrib.   =   -8167.32931213 Ry

     convergence has been achieved in  23 iterations

     Forces acting on atoms (cartesian axes, Ry/au):

     atom    1 type  1   force =     0.00000000    0.00000000    0.00328917
     atom    2 type  1   force =     0.00000215    0.00000215    0.00328804
     atom    3 type  1   force =     0.00001488    0.00000000   -0.00401690
     atom    4 type  1   force =     0.00000000    0.00001488   -0.00401690
     atom    5 type  1   force =     0.00000000    0.00000000    0.00400001
     atom    6 type  1   force =     0.00001248    0.00001248    0.00402100
     atom    7 type  1   force =    -0.00000120   -0.00000000   -0.00326448
     atom    8 type  1   force =     0.00000000   -0.00000120   -0.00326448
     atom    9 type  1   force =     0.00000000    0.00000000    0.00327700
     atom   10 type  1   force =     0.00000215   -0.00000215    0.00328804
     atom   11 type  1   force =    -0.00001588    0.00000000   -0.00400620
     atom   12 type  1   force =     0.00000000   -0.00001488   -0.00401690
     atom   13 type  1   force =     0.00000000    0.00000000    0.00398308
     atom   14 type  1   force =     0.00001248   -0.00001248    0.00402100
     atom   15 type  1   force =    -0.00001090    0.00000000   -0.00329111
     atom   16 type  1   force =    -0.00000000    0.00000120   -0.00326448
     atom   17 type  1   force =     0.00000000    0.00000000    0.00327700
     atom   18 type  1   force =    -0.00000215    0.00000215    0.00328804
     atom   19 type  1   force =    -0.00001488   -0.00000000   -0.00401690
     atom   20 type  1   force =     0.00000000   -0.00001588   -0.00400620
     atom   21 type  1   force =     0.00000000    0.00000000    0.00398308
     atom   22 type  1   force =    -0.00001248    0.00001248    0.00402100
     atom   23 type  1   force =     0.00000120    0.00000000   -0.00326448
     atom   24 type  1   force =     0.00000000   -0.00001090   -0.00329111
     atom   25 type  1   force =     0.00000000    0.00000000    0.00328558
     atom   26 type  1   force =    -0.00000215   -0.00000215    0.00328804
     atom   27 type  1   force =     0.00001588    0.00000000   -0.00400620
     atom   28 type  1   force =     0.00000000    0.00001588   -0.00400620
     atom   29 type  1   force =     0.00000000    0.00000000    0.00398361
     atom   30 type  1   force =    -0.00001248   -0.00001248    0.00402100
     atom   31 type  1   force =     0.00001090    0.00000000   -0.00329111
     atom   32 type  1   force =     0.00000000    0.00001090   -0.00329111

     Total force =     0.020720     Total SCF correction =     0.004465
     SCF correction compared to forces is large: reduce conv_thr to get better values

     Computing stress (Cartesian axis) and pressure

          total   stress  (Ry/bohr**3)                   (kbar)     P=      -39.15
  -0.00032835   0.00000000   0.00000000          -48.30        0.00        0.00
   0.00000000  -0.00032835   0.00000000            0.00      -48.30        0.00
   0.00000000   0.00000000  -0.00014163            0.00        0.00      -20.83

     Writing output data file /scratch/oWrCbuFSMbYpeDny.save/

     General routines

     Parallel routines

   This run was terminated on:   3:20:50   7Jan2022

   JOB DONE.