     Program PWSCF v.6.7MaX starts on  6Jan2022 at 22:19:15

     R & G space division:  proc/nbgrp/npool/nimage =      72
     Reading input from scf_7.in
Warning: card &CELL ignored
Warning: card CELL_DYNAMICS = 'BFGS', ignored
Warning: card CELL_FACTOR = 2.0, ignored
Warning: card PRESS = 0.0, ignored
Warning: card / ignored

     Current dimensions of program PWSCF are:
     Max number of different atomic species (ntypx) = 10
     Max number of k-points (npk) =  40000
     Max angular momentum in pseudopotentials (lmaxx) =  3
     file Pd.pbe-spn-kjpaw_psl.1.0.0.UPF: wavefunction(s)  4S 5S 4D renormalized

     Subspace diagonalization in iterative solution of the eigenvalue problem:
     one sub-group per band group will be used

     Found symmetry operation: I + (  0.2500  0.2500  0.0000)
     This is a supercell, fractional translations are disabled
     Message from routine setup:
     using ibrav=0 with symmetry is DISCOURAGED, use correct ibrav instead

     bravais-lattice index     =            0
     lattice parameter (alat)  =      14.8394  a.u.
     unit-cell volume          =    3880.4706 (a.u.)^3
     number of atoms/cell      =           32
     number of atomic types    =            1
     number of electrons       =       576.00
     number of Kohn-Sham states=          346
     kinetic-energy cutoff     =      71.0000  Ry
     charge density cutoff     =     430.0000  Ry
     scf convergence threshold =      1.0E-06
     mixing beta               =       0.1000
     number of iterations used =           10  TF        mixing
     Exchange-correlation= SLA  PW   PBX  PBC
                           (   1   4   3   4   0   0   0)

     celldm(1)=  14.839420  celldm(2)=   0.000000  celldm(3)=   0.000000
     celldm(4)=   0.000000  celldm(5)=   0.000000  celldm(6)=   0.000000

     crystal axes: (cart. coord. in units of alat)
               a(1) = (   1.000000   0.000000   0.000000 )
               a(2) = (   0.000000   1.000000   0.000000 )
               a(3) = (   0.000000   0.000000   1.187500 )

     reciprocal axes: (cart. coord. in units 2 pi/alat)
               b(1) = (  1.000000  0.000000  0.000000 )
               b(2) = (  0.000000  1.000000  0.000000 )
               b(3) = (  0.000000  0.000000  0.842105 )

     PseudoPot. # 1 for Pd read from file:
     /rds/homes/b/bxp912/pp/Pd.pbe-spn-kjpaw_psl.1.0.0.UPF
     MD5 check sum: 790f2ebce206edfd9790dcb9844eca51
     Pseudo is Projector augmented-wave + core cor, Zval = 18.0
     Generated using &quot;atomic&quot; code by A. Dal Corso  v.6.3
     Shape of augmentation charge: PSQ
     Using radial grid of 1235 points,  6 beta functions with:
                l(1) =   0
                l(2) =   0
                l(3) =   1
                l(4) =   1
                l(5) =   2
                l(6) =   2
     Q(r) pseudized with 0 coefficients

     atomic species   valence    mass     pseudopotential
        Pd            18.00   106.42000     Pd( 1.00)

      8 Sym. Ops. (no inversion) found

   Cartesian axes

     site n.     atom                  positions (alat units)
         1           Pd  tau(   1) = (   0.0000000   0.0000000   0.0000000  )
         2           Pd  tau(   2) = (   0.2500000   0.2500000   0.0000000  )
         3           Pd  tau(   3) = (   0.2500000   0.0000000   0.2500000  )
         4           Pd  tau(   4) = (   0.0000000   0.2500000   0.2500000  )
         5           Pd  tau(   5) = (   0.0000000   0.0000000   0.6875000  )
         6           Pd  tau(   6) = (   0.2500000   0.2500000   0.6875000  )
         7           Pd  tau(   7) = (   0.2500000   0.0000000   0.9375000  )
         8           Pd  tau(   8) = (   0.0000000   0.2500000   0.9375000  )
         9           Pd  tau(   9) = (   0.0000000   0.5000000   0.0000000  )
        10           Pd  tau(  10) = (   0.2500000   0.7500000   0.0000000  )
        11           Pd  tau(  11) = (   0.2500000   0.5000000   0.2500000  )
        12           Pd  tau(  12) = (   0.0000000   0.7500000   0.2500000  )
        13           Pd  tau(  13) = (   0.0000000   0.5000000   0.6875000  )
        14           Pd  tau(  14) = (   0.2500000   0.7500000   0.6875000  )
        15           Pd  tau(  15) = (   0.2500000   0.5000000   0.9375000  )
        16           Pd  tau(  16) = (   0.0000000   0.7500000   0.9375000  )
        17           Pd  tau(  17) = (   0.5000000   0.0000000   0.0000000  )
        18           Pd  tau(  18) = (   0.7500000   0.2500000   0.0000000  )
        19           Pd  tau(  19) = (   0.7500000   0.0000000   0.2500000  )
        20           Pd  tau(  20) = (   0.5000000   0.2500000   0.2500000  )
        21           Pd  tau(  21) = (   0.5000000   0.0000000   0.6875000  )
        22           Pd  tau(  22) = (   0.7500000   0.2500000   0.6875000  )
        23           Pd  tau(  23) = (   0.7500000   0.0000000   0.9375000  )
        24           Pd  tau(  24) = (   0.5000000   0.2500000   0.9375000  )
        25           Pd  tau(  25) = (   0.5000000   0.5000000   0.0000000  )
        26           Pd  tau(  26) = (   0.7500000   0.7500000   0.0000000  )
        27           Pd  tau(  27) = (   0.7500000   0.5000000   0.2500000  )
        28           Pd  tau(  28) = (   0.5000000   0.7500000   0.2500000  )
        29           Pd  tau(  29) = (   0.5000000   0.5000000   0.6875000  )
        30           Pd  tau(  30) = (   0.7500000   0.7500000   0.6875000  )
        31           Pd  tau(  31) = (   0.7500000   0.5000000   0.9375000  )
        32           Pd  tau(  32) = (   0.5000000   0.7500000   0.9375000  )

     number of k points=    75  Marzari-Vanderbilt smearing, width (Ry)=  0.0400
                       cart. coord. in units 2pi/alat
        k(    1) = (   0.0555556   0.0555556   0.0467836), wk =   0.0219479
        k(    2) = (   0.0555556   0.0555556   0.1403509), wk =   0.0219479
        k(    3) = (   0.0555556   0.0555556   0.2339181), wk =   0.0219479
        k(    4) = (   0.0555556   0.0555556   0.3274854), wk =   0.0219479
        k(    5) = (   0.0555556   0.0555556  -0.4210526), wk =   0.0109739
        k(    6) = (   0.0555556   0.1666667   0.0467836), wk =   0.0438957
        k(    7) = (   0.0555556   0.1666667   0.1403509), wk =   0.0438957
        k(    8) = (   0.0555556   0.1666667   0.2339181), wk =   0.0438957
        k(    9) = (   0.0555556   0.1666667   0.3274854), wk =   0.0438957
        k(   10) = (   0.0555556   0.1666667  -0.4210526), wk =   0.0219479
        k(   11) = (   0.0555556   0.2777778   0.0467836), wk =   0.0438957
        k(   12) = (   0.0555556   0.2777778   0.1403509), wk =   0.0438957
        k(   13) = (   0.0555556   0.2777778   0.2339181), wk =   0.0438957
        k(   14) = (   0.0555556   0.2777778   0.3274854), wk =   0.0438957
        k(   15) = (   0.0555556   0.2777778  -0.4210526), wk =   0.0219479
        k(   16) = (   0.0555556   0.3888889   0.0467836), wk =   0.0438957
        k(   17) = (   0.0555556   0.3888889   0.1403509), wk =   0.0438957
        k(   18) = (   0.0555556   0.3888889   0.2339181), wk =   0.0438957
        k(   19) = (   0.0555556   0.3888889   0.3274854), wk =   0.0438957
        k(   20) = (   0.0555556   0.3888889  -0.4210526), wk =   0.0219479
        k(   21) = (   0.0555556  -0.5000000   0.0467836), wk =   0.0219479
        k(   22) = (   0.0555556  -0.5000000   0.1403509), wk =   0.0219479
        k(   23) = (   0.0555556  -0.5000000   0.2339181), wk =   0.0219479
        k(   24) = (   0.0555556  -0.5000000   0.3274854), wk =   0.0219479
        k(   25) = (   0.0555556  -0.5000000  -0.4210526), wk =   0.0109739
        k(   26) = (   0.1666667   0.1666667   0.0467836), wk =   0.0219479
        k(   27) = (   0.1666667   0.1666667   0.1403509), wk =   0.0219479
        k(   28) = (   0.1666667   0.1666667   0.2339181), wk =   0.0219479
        k(   29) = (   0.1666667   0.1666667   0.3274854), wk =   0.0219479
        k(   30) = (   0.1666667   0.1666667  -0.4210526), wk =   0.0109739
        k(   31) = (   0.1666667   0.2777778   0.0467836), wk =   0.0438957
        k(   32) = (   0.1666667   0.2777778   0.1403509), wk =   0.0438957
        k(   33) = (   0.1666667   0.2777778   0.2339181), wk =   0.0438957
        k(   34) = (   0.1666667   0.2777778   0.3274854), wk =   0.0438957
        k(   35) = (   0.1666667   0.2777778  -0.4210526), wk =   0.0219479
        k(   36) = (   0.1666667   0.3888889   0.0467836), wk =   0.0438957
        k(   37) = (   0.1666667   0.3888889   0.1403509), wk =   0.0438957
        k(   38) = (   0.1666667   0.3888889   0.2339181), wk =   0.0438957
        k(   39) = (   0.1666667   0.3888889   0.3274854), wk =   0.0438957
        k(   40) = (   0.1666667   0.3888889  -0.4210526), wk =   0.0219479
        k(   41) = (   0.1666667  -0.5000000   0.0467836), wk =   0.0219479
        k(   42) = (   0.1666667  -0.5000000   0.1403509), wk =   0.0219479
        k(   43) = (   0.1666667  -0.5000000   0.2339181), wk =   0.0219479
        k(   44) = (   0.1666667  -0.5000000   0.3274854), wk =   0.0219479
        k(   45) = (   0.1666667  -0.5000000  -0.4210526), wk =   0.0109739
        k(   46) = (   0.2777778   0.2777778   0.0467836), wk =   0.0219479
        k(   47) = (   0.2777778   0.2777778   0.1403509), wk =   0.0219479
        k(   48) = (   0.2777778   0.2777778   0.2339181), wk =   0.0219479
        k(   49) = (   0.2777778   0.2777778   0.3274854), wk =   0.0219479
        k(   50) = (   0.2777778   0.2777778  -0.4210526), wk =   0.0109739
        k(   51) = (   0.2777778   0.3888889   0.0467836), wk =   0.0438957
        k(   52) = (   0.2777778   0.3888889   0.1403509), wk =   0.0438957
        k(   53) = (   0.2777778   0.3888889   0.2339181), wk =   0.0438957
        k(   54) = (   0.2777778   0.3888889   0.3274854), wk =   0.0438957
        k(   55) = (   0.2777778   0.3888889  -0.4210526), wk =   0.0219479
        k(   56) = (   0.2777778  -0.5000000   0.0467836), wk =   0.0219479
        k(   57) = (   0.2777778  -0.5000000   0.1403509), wk =   0.0219479
        k(   58) = (   0.2777778  -0.5000000   0.2339181), wk =   0.0219479
        k(   59) = (   0.2777778  -0.5000000   0.3274854), wk =   0.0219479
        k(   60) = (   0.2777778  -0.5000000  -0.4210526), wk =   0.0109739
        k(   61) = (   0.3888889   0.3888889   0.0467836), wk =   0.0219479
        k(   62) = (   0.3888889   0.3888889   0.1403509), wk =   0.0219479
        k(   63) = (   0.3888889   0.3888889   0.2339181), wk =   0.0219479
        k(   64) = (   0.3888889   0.3888889   0.3274854), wk =   0.0219479
        k(   65) = (   0.3888889   0.3888889  -0.4210526), wk =   0.0109739
        k(   66) = (   0.3888889  -0.5000000   0.0467836), wk =   0.0219479
        k(   67) = (   0.3888889  -0.5000000   0.1403509), wk =   0.0219479
        k(   68) = (   0.3888889  -0.5000000   0.2339181), wk =   0.0219479
        k(   69) = (   0.3888889  -0.5000000   0.3274854), wk =   0.0219479
        k(   70) = (   0.3888889  -0.5000000  -0.4210526), wk =   0.0109739
        k(   71) = (  -0.5000000  -0.5000000   0.0467836), wk =   0.0054870
        k(   72) = (  -0.5000000  -0.5000000   0.1403509), wk =   0.0054870
        k(   73) = (  -0.5000000  -0.5000000   0.2339181), wk =   0.0054870
        k(   74) = (  -0.5000000  -0.5000000   0.3274854), wk =   0.0054870
        k(   75) = (  -0.5000000  -0.5000000  -0.4210526), wk =   0.0027435

     Check: negative core charge=   -0.000001

     Initial potential from superposition of free atoms

     starting charge  575.98776, renormalised to  576.00000
     Starting wfcs are  320 randomized atomic wfcs +   26 random wfcs
     Checking if some PAW data can be deallocated...

     Self-consistent Calculation

     iteration #  1     ecut=    71.00 Ry     beta= 0.10
     Davidson diagonalization with overlap
     ethr =  1.00E-02,  avg # of iterations =  3.4

     Threshold (ethr) on eigenvalues was too large:
     Diagonalizing with lowered threshold

     Davidson diagonalization with overlap
     ethr =  5.38E-04,  avg # of iterations =  1.3

     total energy              =  -16384.75770760 Ry
     estimated scf accuracy    <       3.08387280 Ry

[...]

     iteration #  9     ecut=    71.00 Ry     beta= 0.10
     Davidson diagonalization with overlap
     c_bands:  1 eigenvalues not converged
     ethr =  2.75E-06,  avg # of iterations =  2.6

[...]

     iteration # 14     ecut=    71.00 Ry     beta= 0.10
     Davidson diagonalization with overlap
     c_bands:  2 eigenvalues not converged
     ethr =  1.78E-08,  avg # of iterations =  1.4

[...]

     total energy              =  -16384.25997489 Ry
     estimated scf accuracy    <       0.00000323 Ry

     iteration # 18     ecut=    71.00 Ry     beta= 0.10
     Davidson diagonalization with overlap
     ethr =  5.61E-10,  avg # of iterations =  2.0

     End of self-consistent calculation

          k = 0.0556 0.0556 0.0468 ( 39164 PWs)   bands (ev):

   -68.8165 -68.7944 -68.7943 -68.7902 -68.7900 -68.7855 -68.7845 -68.7839
   -68.7838 -68.7827 -68.7769 -68.7768 -68.7755 -68.7754 -68.7682 -68.7681
   -68.2815 -68.2814 -68.2671 -68.2671 -68.2671 -68.2671 -68.2660 -68.2659
   -68.2656 -68.2656 -68.2643 -68.2643 -68.2643 -68.2643 -68.2498 -68.2498
   -34.6529 -34.6529 -34.6527 -34.6513 -34.6411 -34.6411 -34.6255 -34.5923
   -34.5923 -34.5905 -34.5904 -34.5588 -34.5587 -34.5467 -34.5467 -34.5374
   -34.5374 -34.5366 -34.5366 -34.5262 -34.5261 -34.4897 -34.4896 -34.4886
   -34.4886 -34.4863 -34.4815 -34.4815 -34.4764 -34.4764 -34.4761 -34.4608
   -34.4608 -34.4572 -34.4464 -34.4463 -34.4433 -34.4409 -34.4266 -34.4266
   -34.4216 -34.4215 -34.3931 -34.3913 -34.3913 -34.3870 -34.3752 -34.3736
   -34.1352 -34.1352 -34.1345 -34.1334 -34.1250 -34.1250 -34.1224 -34.1224
   -34.0544 -34.0544 -34.0543 -34.0543 -34.0395 -34.0395 -34.0393 -34.0393
   -34.0374 -34.0374 -34.0369 -34.0369 -34.0222 -34.0222 -34.0219 -34.0219
   -33.9522 -33.9515 -33.9507 -33.9499 -33.9387 -33.9387 -33.9374 -33.9373
   -33.9068 -33.8997 -33.8910 -33.8910 -33.8901 -33.8901 -33.8897 -33.8895
   -33.8893 -33.8893 -33.8890 -33.8890 -33.8883 -33.8883 -33.8796 -33.8795
     8.9397  10.3150  10.5083  10.5083  10.5736  10.5811  10.5864  10.5864
    10.6575  10.7554  10.7861  10.7861  10.8601  10.8601  11.0465  11.0465
    11.0788  11.3412  11.4736  11.4736  11.4825  11.4825  11.5097  11.5097
    11.5359  11.5360  11.6161  11.6161  11.6348  11.6410  11.6547  11.6547
    11.7469  11.7469  11.8160  11.8160  11.8443  11.8443  11.9204  11.9204
    11.9568  11.9568  12.0029  12.0030  12.0508  12.1233  12.1233  12.1404
    12.1404  12.2836  12.2836  12.3656  12.4100  12.4100  12.4429  12.4429
    12.4687  12.4786  12.4786  12.4908  12.6538  12.6538  12.6640  12.6768
    12.6877  12.6877  12.8301  12.8313  12.8313  12.8329  12.8442  12.8442
    12.8586  12.8586  12.8732  12.8825  12.8920  12.8920  13.1637  13.1637
    13.1742  13.2087  13.3185  13.3185  13.3349  13.3349  13.4458  13.4690
    13.4690  13.5313  13.5313  13.6151  13.6320  13.6321  13.6321  13.6549
    13.6549  13.6663  13.6663  13.7266  13.7266  13.7285  13.7286  13.7669
    13.7993  13.8053  13.8054  13.8321  13.8321  13.9094  13.9182  13.9183
    13.9765  13.9765  14.0301  14.0380  14.0380  14.1760  14.1760  14.2722
    14.3075  14.3075  14.3193  14.3193  14.4230  14.4231  14.4336  14.4336
    14.5605  14.5605  14.5674  14.5674  14.5964  14.5964  14.5998  14.6300
    14.6365  14.6365  14.6787  14.6787  14.7392  14.7416  14.8053  14.9045
    15.0211  15.0211  15.0229  15.0230  15.0857  15.1109  15.1109  15.1554
    15.1585  15.1585  15.1629  15.2140  15.2928  15.3429  15.3429  15.3498
    15.3498  15.3671  15.4326  15.5273  15.5274  15.9123  15.9123  16.3286
    16.3286  16.6550  16.7574  16.7574  16.9503  16.9793  16.9793  17.1599
    17.1599  17.1850  17.6681  17.6681  17.7023  17.7023  17.7032  18.2184
    19.4997  19.4997  19.8984  20.8636  20.8636  20.8805  20.9985  21.7146
    21.7146  22.2495  22.2495  22.4601  22.4601  22.4830  22.4831  23.0352
    23.0352  24.0697  24.0697  24.1016  24.1016  24.4520  24.7268  24.7268
    24.7590  24.7590  24.8038  25.3963  25.3963  25.8180  25.8180  26.3281
    26.3283  26.4169

[...]

          k = 0.3889-0.5000-0.4211 ( 39164 PWs)   bands (ev):

[...]

          k =-0.5000-0.5000 0.0468 ( 39224 PWs)   bands (ev):

[...]

          k =-0.5000-0.5000-0.4211 ( 39248 PWs)   bands (ev):

   -68.8038 -68.8038 -68.8037 -68.8036 -68.7810 -68.7810 -68.7809 -68.7809
   -68.7762 -68.7762 -68.7760 -68.7760 -68.7760 -68.7760 -68.7760 -68.7760
   -68.2737 -68.2737 -68.2737 -68.2737 -68.2736 -68.2736 -68.2736 -68.2736
   -68.2578 -68.2577 -68.2577 -68.2577 -68.2577 -68.2577 -68.2577 -68.2577
   -34.6314 -34.6314 -34.6312 -34.6312 -34.6312 -34.6312 -34.6312 -34.6312
   -34.6109 -34.6109 -34.6108 -34.6108 -34.5667 -34.5667 -34.5667 -34.5667
   -34.5029 -34.5029 -34.5029 -34.5029 -34.5029 -34.5029 -34.5029 -34.5028
   -34.4669 -34.4669 -34.4668 -34.4668 -34.4628 -34.4628 -34.4628 -34.4628
   -34.4628 -34.4628 -34.4627 -34.4627 -34.4373 -34.4373 -34.4372 -34.4372
   -34.4241 -34.4241 -34.4240 -34.4240 -34.3745 -34.3745 -34.3744 -34.3744
   -34.1292 -34.1292 -34.1292 -34.1292 -34.1292 -34.1292 -34.1292 -34.1292
   -34.0466 -34.0466 -34.0466 -34.0466 -34.0436 -34.0436 -34.0436 -34.0436
   -34.0320 -34.0320 -34.0320 -34.0320 -34.0320 -34.0320 -34.0320 -34.0320
   -33.9439 -33.9439 -33.9439 -33.9439 -33.9437 -33.9437 -33.9437 -33.9437
   -33.8971 -33.8970 -33.8970 -33.8970 -33.8942 -33.8942 -33.8942 -33.8942
   -33.8845 -33.8845 -33.8845 -33.8844 -33.8844 -33.8844 -33.8844 -33.8844
    10.1203  10.1203  10.1203  10.1203  10.7046  10.7046  10.7046  10.7046
    11.0678  11.0678  11.0678  11.0678  11.0678  11.0678  11.0678  11.0678
    11.1371  11.1371  11.1371  11.1371  11.2243  11.2243  11.2244  11.2244
    11.2244  11.2244  11.2244  11.2244  11.3704  11.3704  11.3704  11.3704
    11.6078  11.6078  11.6078  11.6078  11.9481  11.9481  11.9481  11.9481
    11.9481  11.9481  11.9481  11.9481  12.2224  12.2224  12.2224  12.2224
    12.2224  12.2224  12.2224  12.2224  12.3943  12.3943  12.3943  12.3943
    12.6282  12.6282  12.6282  12.6282  12.8768  12.8768  12.8768  12.8768
    12.9293  12.9293  12.9293  12.9293  13.0204  13.0204  13.0204  13.0204
    13.1267  13.1267  13.1267  13.1267  13.2001  13.2001  13.2001  13.2001
    13.2001  13.2002  13.2002  13.2002  13.2435  13.2435  13.2435  13.2435
    13.4158  13.4158  13.4158  13.4158  13.6181  13.6181  13.6181  13.6181
    13.7823  13.7823  13.7823  13.7823  13.7824  13.7824  13.7824  13.7824
    13.8580  13.8580  13.8581  13.8581  13.8581  13.8581  13.8581  13.8581
    13.8697  13.8697  13.8698  13.8698  14.0674  14.0675  14.0675  14.0675
    14.0892  14.0892  14.0892  14.0892  14.1914  14.1914  14.1914  14.1914
    14.1915  14.1915  14.1915  14.1915  14.4604  14.4604  14.4604  14.4605
    14.6550  14.6550  14.6550  14.6550  14.8165  14.8165  14.8165  14.8165
    15.0940  15.0940  15.0940  15.0940  15.0940  15.0940  15.0940  15.0940
    15.2815  15.2815  15.2815  15.2815  15.3467  15.3467  15.3467  15.3467
    15.3559  15.3559  15.3559  15.3559  15.3559  15.3559  15.3559  15.3559
    17.3682  17.3682  17.3682  17.3682  17.9543  17.9543  17.9543  17.9543
    18.6808  18.6808  18.6809  18.6809  18.6809  18.6809  18.6809  18.6809
    19.4217  19.4217  19.4217  19.4217  19.4217  19.4217  19.4217  19.4217
    22.3511  22.3511  22.3511  22.3511  22.3511  22.3511  22.3511  22.3511
    23.4492  23.4492  23.4492  23.4492  23.9574  23.9574  23.9574  23.9574
    23.9574  23.9574  23.9574  23.9574  24.0963  24.0963  24.0963  24.0963
    25.1904  25.1904

     the Fermi energy is    15.3595 ev

!    total energy              =  -16384.25997880 Ry

     total all-electron energy =   -322945.113686 Ry
     estimated scf accuracy    <       0.00000072 Ry
     smearing contrib. (-TS)   =       0.10925886 Ry
     internal energy E=F+TS    =  -16384.36923766 Ry

     The total energy is F=E-TS. E is the sum of the following terms:
     one-electron contribution =   -4254.04997339 Ry
     hartree contribution      =    2466.27572805 Ry
     xc contribution           =    -985.24972773 Ry
     ewald contribution        =   -5444.00981398 Ry
     one-center paw contrib.   =   -8167.33545060 Ry

     convergence has been achieved in  18 iterations

     Forces acting on atoms (cartesian axes, Ry/au):

     atom    1 type  1   force =     0.00000000    0.00000000    0.00437870
     atom    2 type  1   force =    -0.00001194   -0.00001194    0.00438623
     atom    3 type  1   force =     0.00000739    0.00000000    0.01724795
     atom    4 type  1   force =     0.00000000    0.00000739    0.01724795
     atom    5 type  1   force =     0.00000000    0.00000000   -0.01715550
     atom    6 type  1   force =    -0.00002668   -0.00002668   -0.01718815
     atom    7 type  1   force =     0.00000112    0.00000000   -0.00446796
     atom    8 type  1   force =     0.00000000    0.00000112   -0.00446796
     atom    9 type  1   force =     0.00000000    0.00000000    0.00439270
     atom   10 type  1   force =    -0.00001194    0.00001194    0.00438623
     atom   11 type  1   force =    -0.00002106    0.00000000    0.01724184
     atom   12 type  1   force =     0.00000000   -0.00000739    0.01724795
     atom   13 type  1   force =     0.00000000    0.00000000   -0.01715719
     atom   14 type  1   force =    -0.00002668    0.00002668   -0.01718815
     atom   15 type  1   force =    -0.00003811    0.00000000   -0.00444955
     atom   16 type  1   force =     0.00000000   -0.00000112   -0.00446796
     atom   17 type  1   force =     0.00000000    0.00000000    0.00439270
     atom   18 type  1   force =     0.00001194   -0.00001194    0.00438623
     atom   19 type  1   force =    -0.00000739    0.00000000    0.01724795
     atom   20 type  1   force =     0.00000000   -0.00002106    0.01724184
     atom   21 type  1   force =     0.00000000    0.00000000   -0.01715719
     atom   22 type  1   force =     0.00002668   -0.00002668   -0.01718815
     atom   23 type  1   force =    -0.00000112    0.00000000   -0.00446796
     atom   24 type  1   force =     0.00000000   -0.00003811   -0.00444955
     atom   25 type  1   force =     0.00000000    0.00000000    0.00439938
     atom   26 type  1   force =     0.00001194    0.00001194    0.00438623
     atom   27 type  1   force =     0.00002106    0.00000000    0.01724184
     atom   28 type  1   force =     0.00000000    0.00002106    0.01724184
     atom   29 type  1   force =     0.00000000    0.00000000   -0.01717503
     atom   30 type  1   force =     0.00002668    0.00002668   -0.01718815
     atom   31 type  1   force =     0.00003811    0.00000000   -0.00444955
     atom   32 type  1   force =     0.00000000    0.00003811   -0.00444955

     Total force =     0.071077     Total SCF correction =     0.001574

     Computing stress (Cartesian axis) and pressure

          total   stress  (Ry/bohr**3)                   (kbar)     P=      -58.06
  -0.00037822   0.00000000   0.00000000          -55.64        0.00        0.00
   0.00000000  -0.00037822   0.00000000            0.00      -55.64        0.00
   0.00000000   0.00000000  -0.00042769            0.00        0.00      -62.92

     Writing output data file /scratch/wGVundTcmDxcwcJS.save/

     General routines

     Parallel routines

   This run was terminated on:  22:45:44   6Jan2022

   JOB DONE.