     Program PWSCF v.6.7MaX starts on  6Jan2022 at 20:39:47

     R & G space division:  proc/nbgrp/npool/nimage =      72
     Reading input from scf_3.in
Warning: card &CELL ignored
Warning: card CELL_DYNAMICS = 'BFGS', ignored
Warning: card CELL_FACTOR = 2.0, ignored
Warning: card PRESS = 0.0, ignored
Warning: card / ignored

     Current dimensions of program PWSCF are:
     Max number of different atomic species (ntypx) = 10
     Max number of k-points (npk) =  40000
     Max angular momentum in pseudopotentials (lmaxx) =  3
     file Pd.pbe-spn-kjpaw_psl.1.0.0.UPF: wavefunction(s)  4S 5S 4D renormalized

     Subspace diagonalization in iterative solution of the eigenvalue problem:
     one sub-group per band group will be used

     Found symmetry operation: I + (  0.2500  0.2500  0.0000)
     This is a supercell, fractional translations are disabled
     Message from routine setup:
     using ibrav=0 with symmetry is DISCOURAGED, use correct ibrav instead

     bravais-lattice index     =            0
     lattice parameter (alat)  =      14.8394  a.u.
     unit-cell volume          =    3472.0000 (a.u.)^3
     number of atoms/cell      =           32
     number of atomic types    =            1
     number of electrons       =       576.00
     number of Kohn-Sham states=          346
     kinetic-energy cutoff     =      71.0000  Ry
     charge density cutoff     =     430.0000  Ry
     scf convergence threshold =      1.0E-06
     mixing beta               =       0.1000
     number of iterations used =           10  TF        mixing
     Exchange-correlation= SLA  PW   PBX  PBC
                           (   1   4   3   4   0   0   0)

     celldm(1)=  14.839420  celldm(2)=   0.000000  celldm(3)=   0.000000
     celldm(4)=   0.000000  celldm(5)=   0.000000  celldm(6)=   0.000000

     crystal axes: (cart. coord. in units of alat)
               a(1) = (   1.000000   0.000000   0.000000 )
               a(2) = (   0.000000   1.000000   0.000000 )
               a(3) = (   0.000000   0.000000   1.062500 )

     reciprocal axes: (cart. coord. in units 2 pi/alat)
               b(1) = (  1.000000  0.000000  0.000000 )
               b(2) = (  0.000000  1.000000  0.000000 )
               b(3) = (  0.000000  0.000000  0.941176 )

     PseudoPot. # 1 for Pd read from file:
     /rds/homes/b/bxp912/pp/Pd.pbe-spn-kjpaw_psl.1.0.0.UPF
     MD5 check sum: 790f2ebce206edfd9790dcb9844eca51
     Pseudo is Projector augmented-wave + core cor, Zval = 18.0
     Generated using &quot;atomic&quot; code by A. Dal Corso  v.6.3
     Shape of augmentation charge: PSQ
     Using radial grid of 1235 points,  6 beta functions with:
                l(1) =   0
                l(2) =   0
                l(3) =   1
                l(4) =   1
                l(5) =   2
                l(6) =   2
     Q(r) pseudized with 0 coefficients

     atomic species   valence    mass     pseudopotential
        Pd            18.00   106.42000     Pd( 1.00)

      8 Sym. Ops. (no inversion) found

   Cartesian axes

     site n.     atom                  positions (alat units)
         1           Pd  tau(   1) = (   0.0000000   0.0000000   0.0000000  )
         2           Pd  tau(   2) = (   0.2500000   0.2500000   0.0000000  )
         3           Pd  tau(   3) = (   0.2500000   0.0000000   0.2500000  )
         4           Pd  tau(   4) = (   0.0000000   0.2500000   0.2500000  )
         5           Pd  tau(   5) = (   0.0000000   0.0000000   0.5625000  )
         6           Pd  tau(   6) = (   0.2500000   0.2500000   0.5625000  )
         7           Pd  tau(   7) = (   0.2500000   0.0000000   0.8125000  )
         8           Pd  tau(   8) = (   0.0000000   0.2500000   0.8125000  )
         9           Pd  tau(   9) = (   0.0000000   0.5000000   0.0000000  )
        10           Pd  tau(  10) = (   0.2500000   0.7500000   0.0000000  )
        11           Pd  tau(  11) = (   0.2500000   0.5000000   0.2500000  )
        12           Pd  tau(  12) = (   0.0000000   0.7500000   0.2500000  )
        13           Pd  tau(  13) = (   0.0000000   0.5000000   0.5625000  )
        14           Pd  tau(  14) = (   0.2500000   0.7500000   0.5625000  )
        15           Pd  tau(  15) = (   0.2500000   0.5000000   0.8125000  )
        16           Pd  tau(  16) = (   0.0000000   0.7500000   0.8125000  )
        17           Pd  tau(  17) = (   0.5000000   0.0000000   0.0000000  )
        18           Pd  tau(  18) = (   0.7500000   0.2500000   0.0000000  )
        19           Pd  tau(  19) = (   0.7500000   0.0000000   0.2500000  )
        20           Pd  tau(  20) = (   0.5000000   0.2500000   0.2500000  )
        21           Pd  tau(  21) = (   0.5000000   0.0000000   0.5625000  )
        22           Pd  tau(  22) = (   0.7500000   0.2500000   0.5625000  )
        23           Pd  tau(  23) = (   0.7500000   0.0000000   0.8125000  )
        24           Pd  tau(  24) = (   0.5000000   0.2500000   0.8125000  )
        25           Pd  tau(  25) = (   0.5000000   0.5000000   0.0000000  )
        26           Pd  tau(  26) = (   0.7500000   0.7500000   0.0000000  )
        27           Pd  tau(  27) = (   0.7500000   0.5000000   0.2500000  )
        28           Pd  tau(  28) = (   0.5000000   0.7500000   0.2500000  )
        29           Pd  tau(  29) = (   0.5000000   0.5000000   0.5625000  )
        30           Pd  tau(  30) = (   0.7500000   0.7500000   0.5625000  )
        31           Pd  tau(  31) = (   0.7500000   0.5000000   0.8125000  )
        32           Pd  tau(  32) = (   0.5000000   0.7500000   0.8125000  )

     number of k points=    75  Marzari-Vanderbilt smearing, width (Ry)=  0.0400
                       cart. coord. in units 2pi/alat
        k(    1) = (   0.0555556   0.0555556   0.0522876), wk =   0.0219479
        k(    2) = (   0.0555556   0.0555556   0.1568627), wk =   0.0219479
        k(    3) = (   0.0555556   0.0555556   0.2614379), wk =   0.0219479
        k(    4) = (   0.0555556   0.0555556   0.3660131), wk =   0.0219479
        k(    5) = (   0.0555556   0.0555556  -0.4705882), wk =   0.0109739
        k(    6) = (   0.0555556   0.1666667   0.0522876), wk =   0.0438957
        k(    7) = (   0.0555556   0.1666667   0.1568627), wk =   0.0438957
        k(    8) = (   0.0555556   0.1666667   0.2614379), wk =   0.0438957
        k(    9) = (   0.0555556   0.1666667   0.3660131), wk =   0.0438957
        k(   10) = (   0.0555556   0.1666667  -0.4705882), wk =   0.0219479
        k(   11) = (   0.0555556   0.2777778   0.0522876), wk =   0.0438957
        k(   12) = (   0.0555556   0.2777778   0.1568627), wk =   0.0438957
        k(   13) = (   0.0555556   0.2777778   0.2614379), wk =   0.0438957
        k(   14) = (   0.0555556   0.2777778   0.3660131), wk =   0.0438957
        k(   15) = (   0.0555556   0.2777778  -0.4705882), wk =   0.0219479
        k(   16) = (   0.0555556   0.3888889   0.0522876), wk =   0.0438957
        k(   17) = (   0.0555556   0.3888889   0.1568627), wk =   0.0438957
        k(   18) = (   0.0555556   0.3888889   0.2614379), wk =   0.0438957
        k(   19) = (   0.0555556   0.3888889   0.3660131), wk =   0.0438957
        k(   20) = (   0.0555556   0.3888889  -0.4705882), wk =   0.0219479
        k(   21) = (   0.0555556  -0.5000000   0.0522876), wk =   0.0219479
        k(   22) = (   0.0555556  -0.5000000   0.1568627), wk =   0.0219479
        k(   23) = (   0.0555556  -0.5000000   0.2614379), wk =   0.0219479
        k(   24) = (   0.0555556  -0.5000000   0.3660131), wk =   0.0219479
        k(   25) = (   0.0555556  -0.5000000  -0.4705882), wk =   0.0109739
        k(   26) = (   0.1666667   0.1666667   0.0522876), wk =   0.0219479
        k(   27) = (   0.1666667   0.1666667   0.1568627), wk =   0.0219479
        k(   28) = (   0.1666667   0.1666667   0.2614379), wk =   0.0219479
        k(   29) = (   0.1666667   0.1666667   0.3660131), wk =   0.0219479
        k(   30) = (   0.1666667   0.1666667  -0.4705882), wk =   0.0109739
        k(   31) = (   0.1666667   0.2777778   0.0522876), wk =   0.0438957
        k(   32) = (   0.1666667   0.2777778   0.1568627), wk =   0.0438957
        k(   33) = (   0.1666667   0.2777778   0.2614379), wk =   0.0438957
        k(   34) = (   0.1666667   0.2777778   0.3660131), wk =   0.0438957
        k(   35) = (   0.1666667   0.2777778  -0.4705882), wk =   0.0219479
        k(   36) = (   0.1666667   0.3888889   0.0522876), wk =   0.0438957
        k(   37) = (   0.1666667   0.3888889   0.1568627), wk =   0.0438957
        k(   38) = (   0.1666667   0.3888889   0.2614379), wk =   0.0438957
        k(   39) = (   0.1666667   0.3888889   0.3660131), wk =   0.0438957
        k(   40) = (   0.1666667   0.3888889  -0.4705882), wk =   0.0219479
        k(   41) = (   0.1666667  -0.5000000   0.0522876), wk =   0.0219479
        k(   42) = (   0.1666667  -0.5000000   0.1568627), wk =   0.0219479
        k(   43) = (   0.1666667  -0.5000000   0.2614379), wk =   0.0219479
        k(   44) = (   0.1666667  -0.5000000   0.3660131), wk =   0.0219479
        k(   45) = (   0.1666667  -0.5000000  -0.4705882), wk =   0.0109739
        k(   46) = (   0.2777778   0.2777778   0.0522876), wk =   0.0219479
        k(   47) = (   0.2777778   0.2777778   0.1568627), wk =   0.0219479
        k(   48) = (   0.2777778   0.2777778   0.2614379), wk =   0.0219479
        k(   49) = (   0.2777778   0.2777778   0.3660131), wk =   0.0219479
        k(   50) = (   0.2777778   0.2777778  -0.4705882), wk =   0.0109739
        k(   51) = (   0.2777778   0.3888889   0.0522876), wk =   0.0438957
        k(   52) = (   0.2777778   0.3888889   0.1568627), wk =   0.0438957
        k(   53) = (   0.2777778   0.3888889   0.2614379), wk =   0.0438957
        k(   54) = (   0.2777778   0.3888889   0.3660131), wk =   0.0438957
        k(   55) = (   0.2777778   0.3888889  -0.4705882), wk =   0.0219479
        k(   56) = (   0.2777778  -0.5000000   0.0522876), wk =   0.0219479
        k(   57) = (   0.2777778  -0.5000000   0.1568627), wk =   0.0219479
        k(   58) = (   0.2777778  -0.5000000   0.2614379), wk =   0.0219479
        k(   59) = (   0.2777778  -0.5000000   0.3660131), wk =   0.0219479
        k(   60) = (   0.2777778  -0.5000000  -0.4705882), wk =   0.0109739
        k(   61) = (   0.3888889   0.3888889   0.0522876), wk =   0.0219479
        k(   62) = (   0.3888889   0.3888889   0.1568627), wk =   0.0219479
        k(   63) = (   0.3888889   0.3888889   0.2614379), wk =   0.0219479
        k(   64) = (   0.3888889   0.3888889   0.3660131), wk =   0.0219479
        k(   65) = (   0.3888889   0.3888889  -0.4705882), wk =   0.0109739
        k(   66) = (   0.3888889  -0.5000000   0.0522876), wk =   0.0219479
        k(   67) = (   0.3888889  -0.5000000   0.1568627), wk =   0.0219479
        k(   68) = (   0.3888889  -0.5000000   0.2614379), wk =   0.0219479
        k(   69) = (   0.3888889  -0.5000000   0.3660131), wk =   0.0219479
        k(   70) = (   0.3888889  -0.5000000  -0.4705882), wk =   0.0109739
        k(   71) = (  -0.5000000  -0.5000000   0.0522876), wk =   0.0054870
        k(   72) = (  -0.5000000  -0.5000000   0.1568627), wk =   0.0054870
        k(   73) = (  -0.5000000  -0.5000000   0.2614379), wk =   0.0054870
        k(   74) = (  -0.5000000  -0.5000000   0.3660131), wk =   0.0054870
        k(   75) = (  -0.5000000  -0.5000000  -0.4705882), wk =   0.0027435

     Check: negative core charge=   -0.000001

     Initial potential from superposition of free atoms

     starting charge  575.98776, renormalised to  576.00000
     Starting wfcs are  320 randomized atomic wfcs +   26 random wfcs
     Checking if some PAW data can be deallocated...

     Self-consistent Calculation

     iteration #  1     ecut=    71.00 Ry     beta= 0.10
     Davidson diagonalization with overlap
     ethr =  1.00E-02,  avg # of iterations =  3.0

     Threshold (ethr) on eigenvalues was too large:
     Diagonalizing with lowered threshold

     Davidson diagonalization with overlap
     ethr =  1.77E-04,  avg # of iterations =  2.5

     total energy              =  -16384.93974674 Ry
     estimated scf accuracy    <       0.99186168 Ry

[...]

     total energy              =  -16384.76377326 Ry
     estimated scf accuracy    <       0.00000179 Ry

     iteration # 18     ecut=    71.00 Ry     beta= 0.10
     Davidson diagonalization with overlap
     ethr =  2.06E-10,  avg # of iterations =  2.0

     End of self-consistent calculation

          k = 0.0556 0.0556 0.0523 ( 35023 PWs)   bands (ev):

   -66.3853 -66.3628 -66.3628 -66.3586 -66.3586 -66.3539 -66.3533 -66.3523
   -66.3523 -66.3511 -66.3454 -66.3454 -66.3439 -66.3439 -66.3366 -66.3366
   -66.0566 -66.0514 -66.0414 -66.0414 -66.0391 -66.0387 -66.0386 -66.0386
   -66.0386 -66.0386 -66.0385 -66.0384 -66.0361 -66.0361 -66.0229 -66.0229
   -32.2280 -32.2280 -32.2280 -32.2262 -32.2167 -32.2167 -32.1953 -32.1596
   -32.1596 -32.1584 -32.1584 -32.1338 -32.1338 -32.1219 -32.1218 -32.1136
   -32.1136 -32.1127 -32.1127 -32.1012 -32.1011 -32.0664 -32.0664 -32.0635
   -32.0593 -32.0593 -32.0545 -32.0545 -32.0545 -32.0523 -32.0523 -32.0366
   -32.0366 -32.0314 -32.0219 -32.0219 -32.0172 -32.0145 -31.9960 -31.9960
   -31.9917 -31.9917 -31.9658 -31.9640 -31.9639 -31.9597 -31.9497 -31.9480
   -31.8648 -31.8648 -31.8589 -31.8584 -31.8584 -31.8558 -31.8426 -31.8426
   -31.7893 -31.7893 -31.7885 -31.7885 -31.7749 -31.7749 -31.7744 -31.7744
   -31.7688 -31.7688 -31.7646 -31.7646 -31.7549 -31.7549 -31.7504 -31.7504
   -31.7445 -31.7107 -31.7107 -31.7094 -31.7093 -31.7041 -31.7026 -31.7026
   -31.7011 -31.6995 -31.6995 -31.6921 -31.6921 -31.6911 -31.6910 -31.6908
   -31.6893 -31.6840 -31.6781 -31.6766 -31.6729 -31.6729 -31.6722 -31.6711
    11.1323  12.7274  12.8277  12.8277  12.8838  12.8954  12.8975  12.8975
    13.0296  13.0942  13.1007  13.1007  13.1304  13.1304  13.2788  13.3243
    13.3243  13.7699  13.8028  13.8028  13.8263  13.8263  13.8372  13.8373
    13.9069  13.9069  14.0072  14.0072  14.0542  14.0844  14.0956  14.0956
    14.1263  14.1263  14.1520  14.1520  14.1660  14.1660  14.1999  14.1999
    14.2526  14.3877  14.3877  14.4232  14.4232  14.5046  14.5046  14.5078
    14.5078  14.6523  14.6523  14.6746  14.6746  14.6750  14.7121  14.7121
    14.7591  14.8482  14.8482  14.9119  14.9119  14.9214  14.9225  14.9225
    14.9308  14.9381  14.9432  14.9432  14.9981  14.9981  15.1101  15.1101
    15.1265  15.1265  15.1605  15.1605  15.1645  15.1853  15.1928  15.1979
    15.2206  15.2307  15.2307  15.2322  15.2432  15.2432  15.3819  15.3819
    15.6054  15.8631  15.8631  15.9520  15.9520  16.0063  16.0063  16.0170
    16.0306  16.0306  16.0330  16.0555  16.0555  16.1135  16.1135  16.1668
    16.1668  16.1670  16.1962  16.2190  16.2190  16.2461  16.3009  16.3009
    16.3322  16.3322  16.3957  16.3957  16.4575  16.4652  16.4652  16.5856
    16.5857  16.6139  16.6139  16.6693  16.6817  16.6817  16.7391  16.7391
    16.7418  16.7418  16.7424  16.7599  16.8188  16.8235  16.8235  16.8505
    16.8505  16.9350  16.9817  16.9817  17.0795  17.0795  17.1211  17.4297
    17.4995  17.4995  17.5298  17.5928  17.5928  17.6015  17.6265  17.6760
    17.6818  17.6818  17.7005  17.7152  17.7152  17.8509  17.8543  17.8543
    17.8615  17.8615  17.9127  17.9480  17.9480  18.2117  18.2117  18.7974
    19.0825  19.0860  19.0860  19.2353  19.2353  19.5417  19.7038  19.7038
    19.7280  19.7280  20.0719  20.0719  20.2469  20.2469  20.5575  20.6173
    21.4519  21.4519  24.2764  24.2764  24.2880  24.4286  25.2535  25.2535
    25.5619  25.5619  25.9076  25.9076  26.1854  26.1854  26.2187  26.4821
    26.4821  26.7727  26.7727  27.0321  27.0321  27.1577  27.1577  27.8904
    27.8904  28.0738  28.2454  28.2454  28.4628  28.4628  28.6099  28.8765
    28.8765  29.0208

[...]

          k = 0.3889-0.5000-0.4706 ( 35068 PWs)   bands (ev):

[...]

          k =-0.5000-0.5000 0.0523 ( 35068 PWs)   bands (ev):

[...]

          k =-0.5000-0.5000-0.4706 ( 35088 PWs)   bands (ev):

   -66.3723 -66.3723 -66.3723 -66.3723 -66.3496 -66.3496 -66.3495 -66.3495
   -66.3445 -66.3444 -66.3444 -66.3444 -66.3444 -66.3444 -66.3444 -66.3444
   -66.0483 -66.0482 -66.0482 -66.0482 -66.0446 -66.0446 -66.0446 -66.0446
   -66.0309 -66.0308 -66.0308 -66.0308 -66.0308 -66.0308 -66.0308 -66.0308
   -32.2052 -32.2052 -32.2052 -32.2052 -32.2052 -32.2052 -32.2052 -32.2052
   -32.1798 -32.1798 -32.1798 -32.1798 -32.1433 -32.1433 -32.1433 -32.1433
   -32.0800 -32.0800 -32.0800 -32.0800 -32.0800 -32.0800 -32.0800 -32.0800
   -32.0447 -32.0447 -32.0447 -32.0447 -32.0332 -32.0332 -32.0332 -32.0332
   -32.0332 -32.0332 -32.0332 -32.0332 -32.0101 -32.0101 -32.0101 -32.0101
   -31.9974 -31.9974 -31.9974 -31.9974 -31.9479 -31.9479 -31.9479 -31.9479
   -31.8547 -31.8547 -31.8547 -31.8547 -31.8547 -31.8547 -31.8547 -31.8547
   -31.7822 -31.7822 -31.7822 -31.7822 -31.7750 -31.7750 -31.7750 -31.7750
   -31.7643 -31.7643 -31.7643 -31.7643 -31.7643 -31.7643 -31.7643 -31.7643
   -31.7199 -31.7199 -31.7199 -31.7199 -31.7011 -31.7011 -31.7011 -31.7011
   -31.7011 -31.7011 -31.7011 -31.7011 -31.6880 -31.6880 -31.6880 -31.6880
   -31.6813 -31.6813 -31.6813 -31.6813 -31.6732 -31.6732 -31.6732 -31.6732
    12.5135  12.5135  12.5135  12.5135  12.9028  12.9028  12.9028  12.9028
    13.3773  13.3773  13.3773  13.3773  13.4455  13.4455  13.4455  13.4455
    13.4455  13.4455  13.4455  13.4455  13.5533  13.5533  13.5533  13.5533
    13.5533  13.5533  13.5533  13.5533  13.6974  13.6974  13.6974  13.6974
    14.0128  14.0128  14.0128  14.0128  14.2437  14.2437  14.2437  14.2437
    14.2437  14.2437  14.2437  14.2437  14.4362  14.4362  14.4362  14.4362
    14.4362  14.4362  14.4362  14.4362  14.5813  14.5813  14.5813  14.5813
    15.0771  15.0771  15.0771  15.0771  15.1533  15.1533  15.1533  15.1533
    15.2540  15.2540  15.2540  15.2540  15.4120  15.4120  15.4120  15.4120
    15.4282  15.4282  15.4282  15.4282  15.5538  15.5538  15.5538  15.5538
    15.5616  15.5616  15.5616  15.5616  15.5616  15.5616  15.5617  15.5617
    15.5788  15.5788  15.5788  15.5788  15.6547  15.6547  15.6547  15.6547
    15.9122  15.9122  15.9122  15.9122  15.9122  15.9122  15.9122  15.9122
    16.1995  16.1995  16.1995  16.1995  16.1995  16.1995  16.1995  16.1995
    16.2809  16.2809  16.2809  16.2809  16.3187  16.3187  16.3187  16.3187
    16.3187  16.3187  16.3187  16.3187  16.4472  16.4472  16.4472  16.4473
    16.5452  16.5452  16.5452  16.5452  16.8222  16.8222  16.8222  16.8222
    16.9119  16.9119  16.9119  16.9119  16.9571  16.9571  16.9571  16.9571
    17.6732  17.6732  17.6732  17.6732  17.6732  17.6732  17.6732  17.6732
    17.7161  17.7161  17.7161  17.7161  17.7558  17.7558  17.7558  17.7558
    17.8111  17.8111  17.8111  17.8111  17.8111  17.8111  17.8111  17.8111
    20.8171  20.8171  20.8171  20.8171  20.9001  20.9001  20.9001  20.9001
    21.2128  21.2128  21.2128  21.2128  21.2128  21.2128  21.2128  21.2128
    21.5393  21.5393  21.5393  21.5393  21.5393  21.5393  21.5393  21.5393
    25.8884  25.8884  25.8884  25.8884  25.8884  25.8884  25.8884  25.8884
    26.6260  26.6260  26.6260  26.6260  26.6260  26.6260  26.6260  26.6260
    26.6759  26.6759  26.6759  26.6759  26.8430  26.8430  26.8430  26.8430
    29.6417  29.6417

     the Fermi energy is    17.7896 ev

!    total energy              =  -16384.76377615 Ry

     total all-electron energy =   -322945.617483 Ry
     estimated scf accuracy    <       0.00000008 Ry
     smearing contrib. (-TS)   =       0.06861590 Ry
     internal energy E=F+TS    =  -16384.83239205 Ry

     The total energy is F=E-TS. E is the sum of the following terms:
     one-electron contribution =   -2824.47654203 Ry
     hartree contribution      =    1800.94690840 Ry
     xc contribution           =    -985.60091869 Ry
     ewald contribution        =   -6208.32825267 Ry
     one-center paw contrib.   =   -8167.37358707 Ry

     convergence has been achieved in  18 iterations

     Forces acting on atoms (cartesian axes, Ry/au):

     atom    1 type  1   force =     0.00000000    0.00000000    0.00252764
     atom    2 type  1   force =    -0.00000205   -0.00000205    0.00252782
     atom    3 type  1   force =    -0.00000550    0.00000000    0.04020258
     atom    4 type  1   force =     0.00000000   -0.00000550    0.04020258
     atom    5 type  1   force =     0.00000000    0.00000000   -0.04013539
     atom    6 type  1   force =     0.00000544    0.00000544   -0.04014014
     atom    7 type  1   force =    -0.00000351    0.00000000   -0.00258718
     atom    8 type  1   force =     0.00000000   -0.00000351   -0.00258718
     atom    9 type  1   force =     0.00000000    0.00000000    0.00252728
     atom   10 type  1   force =    -0.00000205    0.00000205    0.00252782
     atom   11 type  1   force =     0.00000534    0.00000000    0.04020307
     atom   12 type  1   force =     0.00000000    0.00000550    0.04020258
     atom   13 type  1   force =     0.00000000    0.00000000   -0.04013491
     atom   14 type  1   force =     0.00000544   -0.00000544   -0.04014014
     atom   15 type  1   force =     0.00000734    0.00000000   -0.00259687
     atom   16 type  1   force =     0.00000000    0.00000351   -0.00258718
     atom   17 type  1   force =     0.00000000    0.00000000    0.00252728
     atom   18 type  1   force =     0.00000205   -0.00000205    0.00252782
     atom   19 type  1   force =     0.00000550    0.00000000    0.04020258
     atom   20 type  1   force =     0.00000000    0.00000534    0.04020307
     atom   21 type  1   force =     0.00000000    0.00000000   -0.04013491
     atom   22 type  1   force =    -0.00000544    0.00000544   -0.04014014
     atom   23 type  1   force =     0.00000351    0.00000000   -0.00258718
     atom   24 type  1   force =     0.00000000    0.00000734   -0.00259687
     atom   25 type  1   force =     0.00000000    0.00000000    0.00252648
     atom   26 type  1   force =     0.00000205    0.00000205    0.00252782
     atom   27 type  1   force =    -0.00000534    0.00000000    0.04020307
     atom   28 type  1   force =     0.00000000   -0.00000534    0.04020307
     atom   29 type  1   force =     0.00000000    0.00000000   -0.04014056
     atom   30 type  1   force =    -0.00000544   -0.00000544   -0.04014014
     atom   31 type  1   force =    -0.00000734    0.00000000   -0.00259687
     atom   32 type  1   force =     0.00000000   -0.00000734   -0.00259687

     Total force =     0.161008     Total SCF correction =     0.002132

     Computing stress (Cartesian axis) and pressure

          total   stress  (Ry/bohr**3)                   (kbar)     P=      -58.20
  -0.00032532   0.00000000   0.00000000          -47.86        0.00        0.00
   0.00000000  -0.00032532   0.00000000            0.00      -47.86        0.00
   0.00000000   0.00000000  -0.00053632            0.00        0.00      -78.89

     Writing output data file /scratch/UlIymGAMopeMfmiY.save/

     General routines

     Parallel routines

   This run was terminated on:  21: 6:27   6Jan2022

   JOB DONE.