     Program PWSCF v.6.7MaX starts on  7Jan2022 at  4:45:17

     R & G space division:  proc/nbgrp/npool/nimage =      72
     Reading input from scf_18.in
Warning: card &CELL ignored
Warning: card CELL_DYNAMICS = 'BFGS', ignored
Warning: card CELL_FACTOR = 2.0, ignored
Warning: card PRESS = 0.0, ignored
Warning: card / ignored

     Current dimensions of program PWSCF are:
     Max number of different atomic species (ntypx) = 10
     Max number of k-points (npk) =  40000
     Max angular momentum in pseudopotentials (lmaxx) =  3
     file Pd.pbe-spn-kjpaw_psl.1.0.0.UPF: wavefunction(s)  4S 5S 4D renormalized

     Subspace diagonalization in iterative solution of the eigenvalue problem:
     one sub-group per band group will be used

     Found symmetry operation: I + (  0.2500  0.2500  0.0000)
     This is a supercell, fractional translations are disabled
     Message from routine setup:
     using ibrav=0 with symmetry is DISCOURAGED, use correct ibrav instead

     bravais-lattice index     =            0
     lattice parameter (alat)  =      14.8394  a.u.
     unit-cell volume          =    5003.7647 (a.u.)^3
     number of atoms/cell      =           32
     number of atomic types    =            1
     number of electrons       =       576.00
     number of Kohn-Sham states=          346
     kinetic-energy cutoff     =      71.0000  Ry
     charge density cutoff     =     430.0000  Ry
     scf convergence threshold =      1.0E-06
     mixing beta               =       0.1000
     number of iterations used =           10  TF        mixing
     Exchange-correlation= SLA  PW   PBX  PBC
                           (   1   4   3   4   0   0   0)

     celldm(1)=  14.839420  celldm(2)=   0.000000  celldm(3)=   0.000000
     celldm(4)=   0.000000  celldm(5)=   0.000000  celldm(6)=   0.000000

     crystal axes: (cart. coord. in units of alat)
               a(1) = (   1.000000   0.000000   0.000000 )
               a(2) = (   0.000000   1.000000   0.000000 )
               a(3) = (   0.000000   0.000000   1.531250 )

     reciprocal axes: (cart. coord. in units 2 pi/alat)
               b(1) = (  1.000000  0.000000  0.000000 )
               b(2) = (  0.000000  1.000000  0.000000 )
               b(3) = (  0.000000  0.000000  0.653061 )

     PseudoPot. # 1 for Pd read from file:
     /rds/homes/b/bxp912/pp/Pd.pbe-spn-kjpaw_psl.1.0.0.UPF
     MD5 check sum: 790f2ebce206edfd9790dcb9844eca51
     Pseudo is Projector augmented-wave + core cor, Zval = 18.0
     Generated using &quot;atomic&quot; code by A. Dal Corso  v.6.3
     Shape of augmentation charge: PSQ
     Using radial grid of 1235 points,  6 beta functions with:
                l(1) =   0
                l(2) =   0
                l(3) =   1
                l(4) =   1
                l(5) =   2
                l(6) =   2
     Q(r) pseudized with 0 coefficients

     atomic species   valence    mass     pseudopotential
        Pd            18.00   106.42000     Pd( 1.00)

      8 Sym. Ops. (no inversion) found

   Cartesian axes

     site n.     atom                  positions (alat units)
         1           Pd  tau(   1) = (   0.0000000   0.0000000   0.0000000  )
         2           Pd  tau(   2) = (   0.2500000   0.2500000   0.0000000  )
         3           Pd  tau(   3) = (   0.2500000   0.0000000   0.2500000  )
         4           Pd  tau(   4) = (   0.0000000   0.2500000   0.2500000  )
         5           Pd  tau(   5) = (   0.0000000   0.0000000   1.0312500  )
         6           Pd  tau(   6) = (   0.2500000   0.2500000   1.0312500  )
         7           Pd  tau(   7) = (   0.2500000   0.0000000   1.2812500  )
         8           Pd  tau(   8) = (   0.0000000   0.2500000   1.2812500  )
         9           Pd  tau(   9) = (   0.0000000   0.5000000   0.0000000  )
        10           Pd  tau(  10) = (   0.2500000   0.7500000   0.0000000  )
        11           Pd  tau(  11) = (   0.2500000   0.5000000   0.2500000  )
        12           Pd  tau(  12) = (   0.0000000   0.7500000   0.2500000  )
        13           Pd  tau(  13) = (   0.0000000   0.5000000   1.0312500  )
        14           Pd  tau(  14) = (   0.2500000   0.7500000   1.0312500  )
        15           Pd  tau(  15) = (   0.2500000   0.5000000   1.2812500  )
        16           Pd  tau(  16) = (   0.0000000   0.7500000   1.2812500  )
        17           Pd  tau(  17) = (   0.5000000   0.0000000   0.0000000  )
        18           Pd  tau(  18) = (   0.7500000   0.2500000   0.0000000  )
        19           Pd  tau(  19) = (   0.7500000   0.0000000   0.2500000  )
        20           Pd  tau(  20) = (   0.5000000   0.2500000   0.2500000  )
        21           Pd  tau(  21) = (   0.5000000   0.0000000   1.0312500  )
        22           Pd  tau(  22) = (   0.7500000   0.2500000   1.0312500  )
        23           Pd  tau(  23) = (   0.7500000   0.0000000   1.2812500  )
        24           Pd  tau(  24) = (   0.5000000   0.2500000   1.2812500  )
        25           Pd  tau(  25) = (   0.5000000   0.5000000   0.0000000  )
        26           Pd  tau(  26) = (   0.7500000   0.7500000   0.0000000  )
        27           Pd  tau(  27) = (   0.7500000   0.5000000   0.2500000  )
        28           Pd  tau(  28) = (   0.5000000   0.7500000   0.2500000  )
        29           Pd  tau(  29) = (   0.5000000   0.5000000   1.0312500  )
        30           Pd  tau(  30) = (   0.7500000   0.7500000   1.0312500  )
        31           Pd  tau(  31) = (   0.7500000   0.5000000   1.2812500  )
        32           Pd  tau(  32) = (   0.5000000   0.7500000   1.2812500  )

     number of k points=    75  Marzari-Vanderbilt smearing, width (Ry)=  0.0400
                       cart. coord. in units 2pi/alat
        k(    1) = (   0.0555556   0.0555556   0.0362812), wk =   0.0219479
        k(    2) = (   0.0555556   0.0555556   0.1088435), wk =   0.0219479
        k(    3) = (   0.0555556   0.0555556   0.1814059), wk =   0.0219479
        k(    4) = (   0.0555556   0.0555556   0.2539683), wk =   0.0219479
        k(    5) = (   0.0555556   0.0555556  -0.3265306), wk =   0.0109739
        k(    6) = (   0.0555556   0.1666667   0.0362812), wk =   0.0438957
        k(    7) = (   0.0555556   0.1666667   0.1088435), wk =   0.0438957
        k(    8) = (   0.0555556   0.1666667   0.1814059), wk =   0.0438957
        k(    9) = (   0.0555556   0.1666667   0.2539683), wk =   0.0438957
        k(   10) = (   0.0555556   0.1666667  -0.3265306), wk =   0.0219479
        k(   11) = (   0.0555556   0.2777778   0.0362812), wk =   0.0438957
        k(   12) = (   0.0555556   0.2777778   0.1088435), wk =   0.0438957
        k(   13) = (   0.0555556   0.2777778   0.1814059), wk =   0.0438957
        k(   14) = (   0.0555556   0.2777778   0.2539683), wk =   0.0438957
        k(   15) = (   0.0555556   0.2777778  -0.3265306), wk =   0.0219479
        k(   16) = (   0.0555556   0.3888889   0.0362812), wk =   0.0438957
        k(   17) = (   0.0555556   0.3888889   0.1088435), wk =   0.0438957
        k(   18) = (   0.0555556   0.3888889   0.1814059), wk =   0.0438957
        k(   19) = (   0.0555556   0.3888889   0.2539683), wk =   0.0438957
        k(   20) = (   0.0555556   0.3888889  -0.3265306), wk =   0.0219479
        k(   21) = (   0.0555556  -0.5000000   0.0362812), wk =   0.0219479
        k(   22) = (   0.0555556  -0.5000000   0.1088435), wk =   0.0219479
        k(   23) = (   0.0555556  -0.5000000   0.1814059), wk =   0.0219479
        k(   24) = (   0.0555556  -0.5000000   0.2539683), wk =   0.0219479
        k(   25) = (   0.0555556  -0.5000000  -0.3265306), wk =   0.0109739
        k(   26) = (   0.1666667   0.1666667   0.0362812), wk =   0.0219479
        k(   27) = (   0.1666667   0.1666667   0.1088435), wk =   0.0219479
        k(   28) = (   0.1666667   0.1666667   0.1814059), wk =   0.0219479
        k(   29) = (   0.1666667   0.1666667   0.2539683), wk =   0.0219479
        k(   30) = (   0.1666667   0.1666667  -0.3265306), wk =   0.0109739
        k(   31) = (   0.1666667   0.2777778   0.0362812), wk =   0.0438957
        k(   32) = (   0.1666667   0.2777778   0.1088435), wk =   0.0438957
        k(   33) = (   0.1666667   0.2777778   0.1814059), wk =   0.0438957
        k(   34) = (   0.1666667   0.2777778   0.2539683), wk =   0.0438957
        k(   35) = (   0.1666667   0.2777778  -0.3265306), wk =   0.0219479
        k(   36) = (   0.1666667   0.3888889   0.0362812), wk =   0.0438957
        k(   37) = (   0.1666667   0.3888889   0.1088435), wk =   0.0438957
        k(   38) = (   0.1666667   0.3888889   0.1814059), wk =   0.0438957
        k(   39) = (   0.1666667   0.3888889   0.2539683), wk =   0.0438957
        k(   40) = (   0.1666667   0.3888889  -0.3265306), wk =   0.0219479
        k(   41) = (   0.1666667  -0.5000000   0.0362812), wk =   0.0219479
        k(   42) = (   0.1666667  -0.5000000   0.1088435), wk =   0.0219479
        k(   43) = (   0.1666667  -0.5000000   0.1814059), wk =   0.0219479
        k(   44) = (   0.1666667  -0.5000000   0.2539683), wk =   0.0219479
        k(   45) = (   0.1666667  -0.5000000  -0.3265306), wk =   0.0109739
        k(   46) = (   0.2777778   0.2777778   0.0362812), wk =   0.0219479
        k(   47) = (   0.2777778   0.2777778   0.1088435), wk =   0.0219479
        k(   48) = (   0.2777778   0.2777778   0.1814059), wk =   0.0219479
        k(   49) = (   0.2777778   0.2777778   0.2539683), wk =   0.0219479
        k(   50) = (   0.2777778   0.2777778  -0.3265306), wk =   0.0109739
        k(   51) = (   0.2777778   0.3888889   0.0362812), wk =   0.0438957
        k(   52) = (   0.2777778   0.3888889   0.1088435), wk =   0.0438957
        k(   53) = (   0.2777778   0.3888889   0.1814059), wk =   0.0438957
        k(   54) = (   0.2777778   0.3888889   0.2539683), wk =   0.0438957
        k(   55) = (   0.2777778   0.3888889  -0.3265306), wk =   0.0219479
        k(   56) = (   0.2777778  -0.5000000   0.0362812), wk =   0.0219479
        k(   57) = (   0.2777778  -0.5000000   0.1088435), wk =   0.0219479
        k(   58) = (   0.2777778  -0.5000000   0.1814059), wk =   0.0219479
        k(   59) = (   0.2777778  -0.5000000   0.2539683), wk =   0.0219479
        k(   60) = (   0.2777778  -0.5000000  -0.3265306), wk =   0.0109739
        k(   61) = (   0.3888889   0.3888889   0.0362812), wk =   0.0219479
        k(   62) = (   0.3888889   0.3888889   0.1088435), wk =   0.0219479
        k(   63) = (   0.3888889   0.3888889   0.1814059), wk =   0.0219479
        k(   64) = (   0.3888889   0.3888889   0.2539683), wk =   0.0219479
        k(   65) = (   0.3888889   0.3888889  -0.3265306), wk =   0.0109739
        k(   66) = (   0.3888889  -0.5000000   0.0362812), wk =   0.0219479
        k(   67) = (   0.3888889  -0.5000000   0.1088435), wk =   0.0219479
        k(   68) = (   0.3888889  -0.5000000   0.1814059), wk =   0.0219479
        k(   69) = (   0.3888889  -0.5000000   0.2539683), wk =   0.0219479
        k(   70) = (   0.3888889  -0.5000000  -0.3265306), wk =   0.0109739
        k(   71) = (  -0.5000000  -0.5000000   0.0362812), wk =   0.0054870
        k(   72) = (  -0.5000000  -0.5000000   0.1088435), wk =   0.0054870
        k(   73) = (  -0.5000000  -0.5000000   0.1814059), wk =   0.0054870
        k(   74) = (  -0.5000000  -0.5000000   0.2539683), wk =   0.0054870
        k(   75) = (  -0.5000000  -0.5000000  -0.3265306), wk =   0.0027435

     Check: negative core charge=   -0.000001

     Initial potential from superposition of free atoms

     starting charge  575.98776, renormalised to  576.00000
     Starting wfcs are  320 randomized atomic wfcs +   26 random wfcs
     Checking if some PAW data can be deallocated...

     Self-consistent Calculation

     iteration #  1     ecut=    71.00 Ry     beta= 0.10
     Davidson diagonalization with overlap
     ethr =  1.00E-02,  avg # of iterations =  4.1

     Threshold (ethr) on eigenvalues was too large:
     Diagonalizing with lowered threshold

     Davidson diagonalization with overlap
     ethr =  7.48E-04,  avg # of iterations =  1.2

     total energy              =  -16384.82457364 Ry
     estimated scf accuracy    <       4.29707888 Ry

[...]

     total energy              =  -16384.05241155 Ry
     estimated scf accuracy    <       0.00000101 Ry

     iteration # 26     ecut=    71.00 Ry     beta= 0.10
     Davidson diagonalization with overlap
     ethr =  1.76E-10,  avg # of iterations =  2.0

     End of self-consistent calculation

          k = 0.0556 0.0556 0.0363 ( 50539 PWs)   bands (ev):

   -73.3514 -73.3293 -73.3293 -73.3251 -73.3250 -73.3205 -73.3194 -73.3189
   -73.3188 -73.3177 -73.3118 -73.3118 -73.3104 -73.3104 -73.3032 -73.3031
   -72.7598 -72.7597 -72.7453 -72.7453 -72.7453 -72.7453 -72.7441 -72.7441
   -72.7439 -72.7438 -72.7425 -72.7425 -72.7425 -72.7425 -72.7280 -72.7279
   -39.1860 -39.1860 -39.1857 -39.1848 -39.1722 -39.1722 -39.1654 -39.1312
   -39.1312 -39.1283 -39.1282 -39.0911 -39.0911 -39.0800 -39.0800 -39.0708
   -39.0708 -39.0676 -39.0676 -39.0588 -39.0587 -39.0299 -39.0298 -39.0232
   -39.0232 -39.0232 -39.0188 -39.0187 -39.0135 -39.0088 -39.0088 -38.9950
   -38.9919 -38.9919 -38.9775 -38.9775 -38.9745 -38.9736 -38.9635 -38.9635
   -38.9582 -38.9582 -38.9246 -38.9228 -38.9227 -38.9185 -38.9064 -38.9048
   -38.6338 -38.6338 -38.6331 -38.6321 -38.6220 -38.6220 -38.6201 -38.6200
   -38.5516 -38.5515 -38.5514 -38.5514 -38.5366 -38.5366 -38.5363 -38.5363
   -38.5343 -38.5343 -38.5339 -38.5339 -38.5190 -38.5190 -38.5189 -38.5189
   -38.4484 -38.4481 -38.4469 -38.4465 -38.4349 -38.4349 -38.4336 -38.4335
   -38.3631 -38.3599 -38.3486 -38.3486 -38.3480 -38.3480 -38.3473 -38.3470
   -38.3469 -38.3468 -38.3465 -38.3464 -38.3460 -38.3460 -38.3362 -38.3361
     4.4629   5.7531   5.9928   5.9929   6.0592   6.0654   6.0716   6.0716
     6.1307   6.1451   6.2674   6.2674   6.3562   6.3562   6.5396   6.5396
     6.6046   6.8073   6.9290   6.9291   6.9580   6.9580   6.9878   6.9878
     7.0085   7.0085   7.0777   7.0807   7.0807   7.0831   7.0955   7.0955
     7.2211   7.2211   7.2888   7.2888   7.3251   7.3251   7.4013   7.4013
     7.4130   7.4131   7.4759   7.4759   7.5379   7.5973   7.5973   7.6156
     7.6156   7.7591   7.7592   7.8254   7.8731   7.8731   7.9227   7.9227
     7.9349   7.9435   7.9435   7.9542   8.1309   8.1309   8.1334   8.1334
     8.1464   8.1568   8.2952   8.2952   8.3055   8.3076   8.3149   8.3149
     8.3476   8.3568   8.4166   8.4166   8.4514   8.4514   8.8011   8.8011
     8.8548   8.8620   8.8671   8.8671   8.8869   8.8869   8.9106   8.9106
     9.0359   9.0359   9.0674   9.0674   9.0801   9.0801   9.0868   9.1034
     9.1345   9.1345   9.1585   9.1585   9.1881   9.2148   9.2346   9.2571
     9.2571   9.3653   9.3653   9.3807   9.3807   9.4592   9.4888   9.4888
     9.5156   9.5156   9.5283   9.5283   9.6565   9.6565   9.7132   9.7132
     9.7150   9.7150   9.7456   9.8783   9.8952   9.8952   9.9629   9.9629
    10.0841  10.0841  10.0958  10.0958  10.0960  10.1155  10.1155  10.1250
    10.2150  10.2282  10.2282  10.2343  10.2400  10.3163  10.3516  10.3680
    10.3680  10.3925  10.3925  10.3928  10.3928  10.5610  10.5611  10.6343
    10.6372  10.6372  10.6386  10.6920  10.7708  10.7876  10.7876  10.7944
    10.7944  10.8431  10.8907  10.9974  10.9975  11.3445  11.3445  11.4019
    11.4019  11.7801  11.7801  12.2512  12.2949  12.4596  12.6685  12.6685
    12.9557  12.9905  12.9905  13.0929  13.0929  13.3258  13.5436  13.5436
    13.5954  15.1775  15.1775  15.5737  15.5737  15.9795  16.0453  16.0453
    16.1440  16.1440  16.1815  16.8641  16.8641  17.4357  17.4357  17.4989
    17.4989  17.9007  19.0606  19.3465  19.3465  19.5146  19.7293  19.7293
    19.8211  19.9573  19.9573  20.0901  20.0902  20.4144  20.4144  20.5942
    20.7689  20.7689

[...]

          k = 0.3889-0.5000-0.3265 ( 50572 PWs)   bands (ev):

[...]

          k =-0.5000-0.5000 0.0363 ( 50504 PWs)   bands (ev):

[...]

          k =-0.5000-0.5000-0.3265 ( 50520 PWs)   bands (ev):

   -73.3387 -73.3386 -73.3386 -73.3386 -73.3159 -73.3159 -73.3159 -73.3159
   -73.3111 -73.3110 -73.3110 -73.3110 -73.3110 -73.3110 -73.3109 -73.3109
   -72.7520 -72.7519 -72.7519 -72.7519 -72.7519 -72.7519 -72.7519 -72.7518
   -72.7360 -72.7359 -72.7359 -72.7359 -72.7359 -72.7359 -72.7359 -72.7358
   -39.1636 -39.1636 -39.1636 -39.1636 -39.1635 -39.1635 -39.1635 -39.1635
   -39.1502 -39.1502 -39.1502 -39.1502 -39.0996 -39.0996 -39.0996 -39.0996
   -39.0385 -39.0385 -39.0385 -39.0385 -39.0385 -39.0384 -39.0384 -39.0384
   -38.9985 -38.9985 -38.9985 -38.9985 -38.9972 -38.9972 -38.9972 -38.9972
   -38.9972 -38.9972 -38.9972 -38.9971 -38.9751 -38.9751 -38.9751 -38.9751
   -38.9554 -38.9554 -38.9554 -38.9554 -38.9058 -38.9058 -38.9057 -38.9057
   -38.6272 -38.6272 -38.6272 -38.6272 -38.6272 -38.6272 -38.6272 -38.6272
   -38.5435 -38.5435 -38.5435 -38.5435 -38.5411 -38.5411 -38.5411 -38.5411
   -38.5287 -38.5287 -38.5287 -38.5287 -38.5286 -38.5286 -38.5286 -38.5286
   -38.4402 -38.4402 -38.4402 -38.4402 -38.4400 -38.4400 -38.4400 -38.4400
   -38.3540 -38.3540 -38.3540 -38.3540 -38.3535 -38.3535 -38.3535 -38.3534
   -38.3415 -38.3414 -38.3414 -38.3414 -38.3414 -38.3414 -38.3414 -38.3413
     5.5855   5.5855   5.5855   5.5855   6.2050   6.2051   6.2051   6.2051
     6.5395   6.5395   6.5395   6.5395   6.5395   6.5395   6.5395   6.5395
     6.6523   6.6523   6.6523   6.6523   6.7081   6.7081   6.7081   6.7081
     6.7081   6.7082   6.7082   6.7082   6.8040   6.8040   6.8040   6.8040
     7.0922   7.0922   7.0922   7.0922   7.4143   7.4143   7.4143   7.4143
     7.4143   7.4143   7.4143   7.4143   7.7133   7.7133   7.7133   7.7133
     7.7133   7.7133   7.7133   7.7133   7.8818   7.8818   7.8818   7.8818
     8.1006   8.1006   8.1006   8.1006   8.3476   8.3476   8.3476   8.3476
     8.4497   8.4497   8.4497   8.4497   8.4892   8.4892   8.4892   8.4892
     8.5497   8.5497   8.5497   8.5497   8.6799   8.6799   8.6799   8.6799
     8.6799   8.6799   8.6799   8.6799   8.7242   8.7242   8.7242   8.7242
     8.9954   8.9954   8.9954   8.9954   9.1242   9.1242   9.1242   9.1242
     9.2600   9.2600   9.2600   9.2600   9.2600   9.2600   9.2600   9.2600
     9.2919   9.2919   9.2919   9.2919   9.2919   9.2919   9.2919   9.2919
     9.3433   9.3434   9.3434   9.3434   9.5642   9.5642   9.5642   9.5642
     9.8605   9.8605   9.8605   9.8605   9.8605   9.8605   9.8605   9.8605
     9.8758   9.8758   9.8758   9.8758   9.9658   9.9658   9.9658   9.9658
    10.1322  10.1322  10.1322  10.1322  10.3348  10.3348  10.3348  10.3348
    10.4715  10.4715  10.4715  10.4715  10.4715  10.4715  10.4715  10.4715
    10.7509  10.7509  10.7509  10.7509  10.8116  10.8116  10.8116  10.8116
    10.8116  10.8116  10.8116  10.8116  10.8207  10.8207  10.8207  10.8207
    11.6854  11.6854  11.6854  11.6854  13.7371  13.7371  13.7371  13.7371
    14.0757  14.0757  14.0757  14.0757  14.0757  14.0757  14.0757  14.0757
    15.1741  15.1741  15.1741  15.1741  15.1741  15.1741  15.1741  15.1741
    16.6320  16.6320  16.6320  16.6320  17.2251  17.2251  17.2251  17.2251
    17.2252  17.2252  17.2252  17.2252  18.3570  18.3570  18.3570  18.3570
    19.4275  19.4275  19.4275  19.4275  19.4275  19.4275  19.4360  19.4360
    19.4360  19.4360

     the Fermi energy is    10.8222 ev

!    total energy              =  -16384.05241575 Ry

     total all-electron energy =   -322944.906123 Ry
     estimated scf accuracy    <       0.00000049 Ry
     smearing contrib. (-TS)   =       0.12350676 Ry
     internal energy E=F+TS    =  -16384.17592251 Ry

     The total energy is F=E-TS. E is the sum of the following terms:
     one-electron contribution =  -11863.17770555 Ry
     hartree contribution      =    6175.39005710 Ry
     xc contribution           =    -985.37767633 Ry
     ewald contribution        =   -1543.68124864 Ry
     one-center paw contrib.   =   -8167.32934908 Ry

     convergence has been achieved in  26 iterations

     Forces acting on atoms (cartesian axes, Ry/au):

     atom    1 type  1   force =     0.00000000    0.00000000    0.00317492
     atom    2 type  1   force =     0.00000045    0.00000045    0.00319614
     atom    3 type  1   force =     0.00000563   -0.00000000   -0.00422039
     atom    4 type  1   force =     0.00000000    0.00000563   -0.00422039
     atom    5 type  1   force =     0.00000000    0.00000000    0.00425182
     atom    6 type  1   force =    -0.00001806   -0.00001806    0.00424151
     atom    7 type  1   force =    -0.00002258    0.00000000   -0.00321770
     atom    8 type  1   force =     0.00000000   -0.00002258   -0.00321770
     atom    9 type  1   force =     0.00000000    0.00000000    0.00318915
     atom   10 type  1   force =     0.00000045   -0.00000045    0.00319614
     atom   11 type  1   force =     0.00001251    0.00000000   -0.00421931
     atom   12 type  1   force =    -0.00000000   -0.00000563   -0.00422039
     atom   13 type  1   force =     0.00000000    0.00000000    0.00423852
     atom   14 type  1   force =    -0.00001806    0.00001806    0.00424151
     atom   15 type  1   force =    -0.00001422    0.00000000   -0.00321073
     atom   16 type  1   force =     0.00000000    0.00002258   -0.00321770
     atom   17 type  1   force =     0.00000000    0.00000000    0.00318915
     atom   18 type  1   force =    -0.00000045    0.00000045    0.00319614
     atom   19 type  1   force =    -0.00000563    0.00000000   -0.00422039
     atom   20 type  1   force =     0.00000000    0.00001251   -0.00421931
     atom   21 type  1   force =     0.00000000    0.00000000    0.00423852
     atom   22 type  1   force =     0.00001806   -0.00001806    0.00424151
     atom   23 type  1   force =     0.00002258    0.00000000   -0.00321770
     atom   24 type  1   force =     0.00000000   -0.00001422   -0.00321073
     atom   25 type  1   force =     0.00000000    0.00000000    0.00321103
     atom   26 type  1   force =    -0.00000045   -0.00000045    0.00319614
     atom   27 type  1   force =    -0.00001251    0.00000000   -0.00421931
     atom   28 type  1   force =     0.00000000   -0.00001251   -0.00421931
     atom   29 type  1   force =     0.00000000    0.00000000    0.00422881
     atom   30 type  1   force =     0.00001806    0.00001806    0.00424151
     atom   31 type  1   force =     0.00001422    0.00000000   -0.00321073
     atom   32 type  1   force =     0.00000000    0.00001422   -0.00321073

     Total force =     0.021226     Total SCF correction =     0.001131

     Computing stress (Cartesian axis) and pressure

          total   stress  (Ry/bohr**3)                   (kbar)     P=      -36.46
  -0.00030910   0.00000000   0.00000000          -45.47        0.00        0.00
   0.00000000  -0.00030910   0.00000000            0.00      -45.47        0.00
   0.00000000   0.00000000  -0.00012538            0.00        0.00      -18.44

     Writing output data file /scratch/EDOrHCGgXZWkLSRr.save/

     General routines

     Parallel routines

   This run was terminated on:   5:29:43   7Jan2022

   JOB DONE.