     Program PWSCF v.6.7MaX starts on  7Jan2022 at  4: 2:40

     R & G space division:  proc/nbgrp/npool/nimage =      72
     Reading input from scf_17.in
Warning: card &CELL ignored
Warning: card CELL_DYNAMICS = 'BFGS', ignored
Warning: card CELL_FACTOR = 2.0, ignored
Warning: card PRESS = 0.0, ignored
Warning: card / ignored

     Current dimensions of program PWSCF are:
     Max number of different atomic species (ntypx) = 10
     Max number of k-points (npk) =  40000
     Max angular momentum in pseudopotentials (lmaxx) =  3
     file Pd.pbe-spn-kjpaw_psl.1.0.0.UPF: wavefunction(s)  4S 5S 4D renormalized

     Subspace diagonalization in iterative solution of the eigenvalue problem:
     one sub-group per band group will be used

     Found symmetry operation: I + (  0.2500  0.2500  0.0000)
     This is a supercell, fractional translations are disabled
     Message from routine setup:
     using ibrav=0 with symmetry is DISCOURAGED, use correct ibrav instead

     bravais-lattice index     =            0
     lattice parameter (alat)  =      14.8394  a.u.
     unit-cell volume          =    4901.6471 (a.u.)^3
     number of atoms/cell      =           32
     number of atomic types    =            1
     number of electrons       =       576.00
     number of Kohn-Sham states=          346
     kinetic-energy cutoff     =      71.0000  Ry
     charge density cutoff     =     430.0000  Ry
     scf convergence threshold =      1.0E-06
     mixing beta               =       0.1000
     number of iterations used =           10  TF        mixing
     Exchange-correlation= SLA  PW   PBX  PBC
                           (   1   4   3   4   0   0   0)

     celldm(1)=  14.839420  celldm(2)=   0.000000  celldm(3)=   0.000000
     celldm(4)=   0.000000  celldm(5)=   0.000000  celldm(6)=   0.000000

     crystal axes: (cart. coord. in units of alat)
               a(1) = (   1.000000   0.000000   0.000000 )
               a(2) = (   0.000000   1.000000   0.000000 )
               a(3) = (   0.000000   0.000000   1.500000 )

     reciprocal axes: (cart. coord. in units 2 pi/alat)
               b(1) = (  1.000000  0.000000  0.000000 )
               b(2) = (  0.000000  1.000000  0.000000 )
               b(3) = (  0.000000  0.000000  0.666667 )

     PseudoPot. # 1 for Pd read from file:
     /rds/homes/b/bxp912/pp/Pd.pbe-spn-kjpaw_psl.1.0.0.UPF
     MD5 check sum: 790f2ebce206edfd9790dcb9844eca51
     Pseudo is Projector augmented-wave + core cor, Zval = 18.0
     Generated using &quot;atomic&quot; code by A. Dal Corso  v.6.3
     Shape of augmentation charge: PSQ
     Using radial grid of 1235 points,  6 beta functions with:
                l(1) =   0
                l(2) =   0
                l(3) =   1
                l(4) =   1
                l(5) =   2
                l(6) =   2
     Q(r) pseudized with 0 coefficients

     atomic species   valence    mass     pseudopotential
        Pd            18.00   106.42000     Pd( 1.00)

      8 Sym. Ops. (no inversion) found

   Cartesian axes

     site n.     atom                  positions (alat units)
         1           Pd  tau(   1) = (   0.0000000   0.0000000   0.0000000  )
         2           Pd  tau(   2) = (   0.2500000   0.2500000   0.0000000  )
         3           Pd  tau(   3) = (   0.2500000   0.0000000   0.2500000  )
         4           Pd  tau(   4) = (   0.0000000   0.2500000   0.2500000  )
         5           Pd  tau(   5) = (   0.0000000   0.0000000   1.0000000  )
         6           Pd  tau(   6) = (   0.2500000   0.2500000   1.0000000  )
         7           Pd  tau(   7) = (   0.2500000   0.0000000   1.2500000  )
         8           Pd  tau(   8) = (   0.0000000   0.2500000   1.2500000  )
         9           Pd  tau(   9) = (   0.0000000   0.5000000   0.0000000  )
        10           Pd  tau(  10) = (   0.2500000   0.7500000   0.0000000  )
        11           Pd  tau(  11) = (   0.2500000   0.5000000   0.2500000  )
        12           Pd  tau(  12) = (   0.0000000   0.7500000   0.2500000  )
        13           Pd  tau(  13) = (   0.0000000   0.5000000   1.0000000  )
        14           Pd  tau(  14) = (   0.2500000   0.7500000   1.0000000  )
        15           Pd  tau(  15) = (   0.2500000   0.5000000   1.2500000  )
        16           Pd  tau(  16) = (   0.0000000   0.7500000   1.2500000  )
        17           Pd  tau(  17) = (   0.5000000   0.0000000   0.0000000  )
        18           Pd  tau(  18) = (   0.7500000   0.2500000   0.0000000  )
        19           Pd  tau(  19) = (   0.7500000   0.0000000   0.2500000  )
        20           Pd  tau(  20) = (   0.5000000   0.2500000   0.2500000  )
        21           Pd  tau(  21) = (   0.5000000   0.0000000   1.0000000  )
        22           Pd  tau(  22) = (   0.7500000   0.2500000   1.0000000  )
        23           Pd  tau(  23) = (   0.7500000   0.0000000   1.2500000  )
        24           Pd  tau(  24) = (   0.5000000   0.2500000   1.2500000  )
        25           Pd  tau(  25) = (   0.5000000   0.5000000   0.0000000  )
        26           Pd  tau(  26) = (   0.7500000   0.7500000   0.0000000  )
        27           Pd  tau(  27) = (   0.7500000   0.5000000   0.2500000  )
        28           Pd  tau(  28) = (   0.5000000   0.7500000   0.2500000  )
        29           Pd  tau(  29) = (   0.5000000   0.5000000   1.0000000  )
        30           Pd  tau(  30) = (   0.7500000   0.7500000   1.0000000  )
        31           Pd  tau(  31) = (   0.7500000   0.5000000   1.2500000  )
        32           Pd  tau(  32) = (   0.5000000   0.7500000   1.2500000  )

     number of k points=    75  Marzari-Vanderbilt smearing, width (Ry)=  0.0400
                       cart. coord. in units 2pi/alat
        k(    1) = (   0.0555556   0.0555556   0.0370370), wk =   0.0219479
        k(    2) = (   0.0555556   0.0555556   0.1111111), wk =   0.0219479
        k(    3) = (   0.0555556   0.0555556   0.1851852), wk =   0.0219479
        k(    4) = (   0.0555556   0.0555556   0.2592593), wk =   0.0219479
        k(    5) = (   0.0555556   0.0555556  -0.3333333), wk =   0.0109739
        k(    6) = (   0.0555556   0.1666667   0.0370370), wk =   0.0438957
        k(    7) = (   0.0555556   0.1666667   0.1111111), wk =   0.0438957
        k(    8) = (   0.0555556   0.1666667   0.1851852), wk =   0.0438957
        k(    9) = (   0.0555556   0.1666667   0.2592593), wk =   0.0438957
        k(   10) = (   0.0555556   0.1666667  -0.3333333), wk =   0.0219479
        k(   11) = (   0.0555556   0.2777778   0.0370370), wk =   0.0438957
        k(   12) = (   0.0555556   0.2777778   0.1111111), wk =   0.0438957
        k(   13) = (   0.0555556   0.2777778   0.1851852), wk =   0.0438957
        k(   14) = (   0.0555556   0.2777778   0.2592593), wk =   0.0438957
        k(   15) = (   0.0555556   0.2777778  -0.3333333), wk =   0.0219479
        k(   16) = (   0.0555556   0.3888889   0.0370370), wk =   0.0438957
        k(   17) = (   0.0555556   0.3888889   0.1111111), wk =   0.0438957
        k(   18) = (   0.0555556   0.3888889   0.1851852), wk =   0.0438957
        k(   19) = (   0.0555556   0.3888889   0.2592593), wk =   0.0438957
        k(   20) = (   0.0555556   0.3888889  -0.3333333), wk =   0.0219479
        k(   21) = (   0.0555556  -0.5000000   0.0370370), wk =   0.0219479
        k(   22) = (   0.0555556  -0.5000000   0.1111111), wk =   0.0219479
        k(   23) = (   0.0555556  -0.5000000   0.1851852), wk =   0.0219479
        k(   24) = (   0.0555556  -0.5000000   0.2592593), wk =   0.0219479
        k(   25) = (   0.0555556  -0.5000000  -0.3333333), wk =   0.0109739
        k(   26) = (   0.1666667   0.1666667   0.0370370), wk =   0.0219479
        k(   27) = (   0.1666667   0.1666667   0.1111111), wk =   0.0219479
        k(   28) = (   0.1666667   0.1666667   0.1851852), wk =   0.0219479
        k(   29) = (   0.1666667   0.1666667   0.2592593), wk =   0.0219479
        k(   30) = (   0.1666667   0.1666667  -0.3333333), wk =   0.0109739
        k(   31) = (   0.1666667   0.2777778   0.0370370), wk =   0.0438957
        k(   32) = (   0.1666667   0.2777778   0.1111111), wk =   0.0438957
        k(   33) = (   0.1666667   0.2777778   0.1851852), wk =   0.0438957
        k(   34) = (   0.1666667   0.2777778   0.2592593), wk =   0.0438957
        k(   35) = (   0.1666667   0.2777778  -0.3333333), wk =   0.0219479
        k(   36) = (   0.1666667   0.3888889   0.0370370), wk =   0.0438957
        k(   37) = (   0.1666667   0.3888889   0.1111111), wk =   0.0438957
        k(   38) = (   0.1666667   0.3888889   0.1851852), wk =   0.0438957
        k(   39) = (   0.1666667   0.3888889   0.2592593), wk =   0.0438957
        k(   40) = (   0.1666667   0.3888889  -0.3333333), wk =   0.0219479
        k(   41) = (   0.1666667  -0.5000000   0.0370370), wk =   0.0219479
        k(   42) = (   0.1666667  -0.5000000   0.1111111), wk =   0.0219479
        k(   43) = (   0.1666667  -0.5000000   0.1851852), wk =   0.0219479
        k(   44) = (   0.1666667  -0.5000000   0.2592593), wk =   0.0219479
        k(   45) = (   0.1666667  -0.5000000  -0.3333333), wk =   0.0109739
        k(   46) = (   0.2777778   0.2777778   0.0370370), wk =   0.0219479
        k(   47) = (   0.2777778   0.2777778   0.1111111), wk =   0.0219479
        k(   48) = (   0.2777778   0.2777778   0.1851852), wk =   0.0219479
        k(   49) = (   0.2777778   0.2777778   0.2592593), wk =   0.0219479
        k(   50) = (   0.2777778   0.2777778  -0.3333333), wk =   0.0109739
        k(   51) = (   0.2777778   0.3888889   0.0370370), wk =   0.0438957
        k(   52) = (   0.2777778   0.3888889   0.1111111), wk =   0.0438957
        k(   53) = (   0.2777778   0.3888889   0.1851852), wk =   0.0438957
        k(   54) = (   0.2777778   0.3888889   0.2592593), wk =   0.0438957
        k(   55) = (   0.2777778   0.3888889  -0.3333333), wk =   0.0219479
        k(   56) = (   0.2777778  -0.5000000   0.0370370), wk =   0.0219479
        k(   57) = (   0.2777778  -0.5000000   0.1111111), wk =   0.0219479
        k(   58) = (   0.2777778  -0.5000000   0.1851852), wk =   0.0219479
        k(   59) = (   0.2777778  -0.5000000   0.2592593), wk =   0.0219479
        k(   60) = (   0.2777778  -0.5000000  -0.3333333), wk =   0.0109739
        k(   61) = (   0.3888889   0.3888889   0.0370370), wk =   0.0219479
        k(   62) = (   0.3888889   0.3888889   0.1111111), wk =   0.0219479
        k(   63) = (   0.3888889   0.3888889   0.1851852), wk =   0.0219479
        k(   64) = (   0.3888889   0.3888889   0.2592593), wk =   0.0219479
        k(   65) = (   0.3888889   0.3888889  -0.3333333), wk =   0.0109739
        k(   66) = (   0.3888889  -0.5000000   0.0370370), wk =   0.0219479
        k(   67) = (   0.3888889  -0.5000000   0.1111111), wk =   0.0219479
        k(   68) = (   0.3888889  -0.5000000   0.1851852), wk =   0.0219479
        k(   69) = (   0.3888889  -0.5000000   0.2592593), wk =   0.0219479
        k(   70) = (   0.3888889  -0.5000000  -0.3333333), wk =   0.0109739
        k(   71) = (  -0.5000000  -0.5000000   0.0370370), wk =   0.0054870
        k(   72) = (  -0.5000000  -0.5000000   0.1111111), wk =   0.0054870
        k(   73) = (  -0.5000000  -0.5000000   0.1851852), wk =   0.0054870
        k(   74) = (  -0.5000000  -0.5000000   0.2592593), wk =   0.0054870
        k(   75) = (  -0.5000000  -0.5000000  -0.3333333), wk =   0.0027435

     Check: negative core charge=   -0.000001

     Initial potential from superposition of free atoms

     starting charge  575.98776, renormalised to  576.00000
     Starting wfcs are  320 randomized atomic wfcs +   26 random wfcs
     Checking if some PAW data can be deallocated...

     Self-consistent Calculation

     iteration #  1     ecut=    71.00 Ry     beta= 0.10
     Davidson diagonalization with overlap
     ethr =  1.00E-02,  avg # of iterations =  4.0

     Threshold (ethr) on eigenvalues was too large:
     Diagonalizing with lowered threshold

     Davidson diagonalization with overlap
     ethr =  7.47E-04,  avg # of iterations =  1.2

     total energy              =  -16384.82384516 Ry
     estimated scf accuracy    <       4.29458059 Ry

[...]

     iteration #  8     ecut=    71.00 Ry     beta= 0.10
     Davidson diagonalization with overlap
     c_bands:  1 eigenvalues not converged
     ethr =  3.26E-05,  avg # of iterations =  3.0

[...]

     iteration # 13     ecut=    71.00 Ry     beta= 0.10
     Davidson diagonalization with overlap
     c_bands:  1 eigenvalues not converged
     ethr =  3.54E-06,  avg # of iterations =  6.9

[...]

     total energy              =  -16384.05318861 Ry
     estimated scf accuracy    <       0.00000106 Ry

     iteration # 25     ecut=    71.00 Ry     beta= 0.10
     Davidson diagonalization with overlap
     ethr =  1.83E-10,  avg # of iterations =  2.0

     End of self-consistent calculation

          k = 0.0556 0.0556 0.0370 ( 49486 PWs)   bands (ev):

   -73.0210 -72.9989 -72.9988 -72.9946 -72.9946 -72.9901 -72.9890 -72.9884
   -72.9884 -72.9873 -72.9814 -72.9814 -72.9800 -72.9800 -72.9727 -72.9727
   -72.4296 -72.4295 -72.4151 -72.4151 -72.4151 -72.4151 -72.4139 -72.4139
   -72.4137 -72.4137 -72.4124 -72.4123 -72.4123 -72.4123 -72.3978 -72.3978
   -38.8556 -38.8556 -38.8552 -38.8543 -38.8418 -38.8418 -38.8350 -38.8008
   -38.8008 -38.7979 -38.7978 -38.7607 -38.7607 -38.7496 -38.7496 -38.7404
   -38.7404 -38.7373 -38.7373 -38.7283 -38.7283 -38.6995 -38.6995 -38.6928
   -38.6928 -38.6927 -38.6882 -38.6882 -38.6830 -38.6784 -38.6784 -38.6646
   -38.6615 -38.6615 -38.6470 -38.6470 -38.6442 -38.6432 -38.6330 -38.6330
   -38.6278 -38.6277 -38.5942 -38.5924 -38.5923 -38.5881 -38.5759 -38.5743
   -38.3036 -38.3036 -38.3029 -38.3020 -38.2919 -38.2919 -38.2899 -38.2899
   -38.2214 -38.2214 -38.2212 -38.2212 -38.2064 -38.2064 -38.2062 -38.2062
   -38.2041 -38.2041 -38.2037 -38.2037 -38.1888 -38.1888 -38.1887 -38.1887
   -38.1182 -38.1179 -38.1167 -38.1163 -38.1047 -38.1047 -38.1034 -38.1034
   -38.0330 -38.0297 -38.0183 -38.0183 -38.0179 -38.0179 -38.0169 -38.0166
   -38.0166 -38.0165 -38.0162 -38.0162 -38.0159 -38.0159 -38.0060 -38.0060
     4.7929   6.0840   6.3231   6.3231   6.3895   6.3957   6.4019   6.4019
     6.4611   6.4766   6.5977   6.5977   6.6863   6.6863   6.8698   6.8698
     6.9345   7.1377   7.2595   7.2595   7.2884   7.2884   7.3182   7.3182
     7.3388   7.3388   7.4083   7.4111   7.4111   7.4136   7.4261   7.4261
     7.5514   7.5514   7.6193   7.6193   7.6555   7.6555   7.7318   7.7318
     7.7432   7.7432   7.8062   7.8062   7.8682   7.9277   7.9277   7.9459
     7.9459   8.0895   8.0895   8.1559   8.2036   8.2036   8.2530   8.2530
     8.2653   8.2739   8.2739   8.2847   8.4618   8.4618   8.4638   8.4638
     8.4769   8.4873   8.6263   8.6263   8.6359   8.6379   8.6453   8.6453
     8.6780   8.6873   8.7465   8.7465   8.7812   8.7812   9.1306   9.1306
     9.1843   9.1909   9.1974   9.1975   9.2175   9.2175   9.2407   9.2407
     9.3681   9.3681   9.3979   9.3979   9.4104   9.4104   9.4171   9.4337
     9.4665   9.4665   9.4886   9.4886   9.5176   9.5498   9.5650   9.5871
     9.5871   9.6955   9.6955   9.7101   9.7101   9.7890   9.8194   9.8194
     9.8443   9.8443   9.8583   9.8583   9.9870   9.9870  10.0446  10.0446
    10.0467  10.0467  10.0760  10.1900  10.2256  10.2256  10.2931  10.2931
    10.4152  10.4152  10.4260  10.4260  10.4264  10.4458  10.4458  10.4554
    10.5470  10.5544  10.5544  10.5647  10.5712  10.6466  10.6846  10.6998
    10.6998  10.7187  10.7187  10.7236  10.7236  10.8916  10.8916  10.9647
    10.9675  10.9675  10.9689  11.0224  11.1011  11.1181  11.1181  11.1249
    11.1249  11.1724  11.2211  11.3278  11.3278  11.6836  11.6836  11.7321
    11.7321  12.1188  12.1188  12.5808  12.6868  12.7902  12.9962  12.9962
    13.2801  13.3036  13.3036  13.4246  13.4246  13.6416  13.8567  13.8567
    13.9285  15.5060  15.5060  15.9602  15.9602  16.3061  16.3733  16.3733
    16.5157  16.5295  16.5295  17.2189  17.2189  17.7929  17.7929  17.8356
    17.8356  18.5788  19.4255  19.7171  19.7171  19.8778  20.0571  20.0571
    20.2388  20.2744  20.2744  20.4912  20.4912  20.7427  20.7427  20.9899
    21.3909  21.3909

[...]

          k = 0.3889-0.5000-0.3333 ( 49528 PWs)   bands (ev):

[...]

          k =-0.5000-0.5000 0.0370 ( 49500 PWs)   bands (ev):

[...]

          k =-0.5000-0.5000-0.3333 ( 49560 PWs)   bands (ev):

   -73.0082 -73.0082 -73.0082 -73.0082 -72.9855 -72.9855 -72.9855 -72.9855
   -72.9806 -72.9806 -72.9806 -72.9806 -72.9806 -72.9806 -72.9806 -72.9806
   -72.4218 -72.4217 -72.4217 -72.4217 -72.4217 -72.4217 -72.4217 -72.4217
   -72.4058 -72.4057 -72.4057 -72.4057 -72.4057 -72.4057 -72.4057 -72.4057
   -38.8333 -38.8333 -38.8333 -38.8333 -38.8332 -38.8332 -38.8332 -38.8332
   -38.8198 -38.8198 -38.8198 -38.8198 -38.7692 -38.7692 -38.7691 -38.7691
   -38.7081 -38.7081 -38.7081 -38.7081 -38.7081 -38.7081 -38.7081 -38.7081
   -38.6680 -38.6680 -38.6680 -38.6680 -38.6668 -38.6668 -38.6668 -38.6668
   -38.6668 -38.6668 -38.6668 -38.6668 -38.6446 -38.6446 -38.6446 -38.6445
   -38.6250 -38.6250 -38.6250 -38.6250 -38.5753 -38.5753 -38.5753 -38.5753
   -38.2971 -38.2971 -38.2971 -38.2971 -38.2971 -38.2971 -38.2971 -38.2971
   -38.2134 -38.2134 -38.2134 -38.2134 -38.2109 -38.2109 -38.2109 -38.2109
   -38.1986 -38.1986 -38.1986 -38.1986 -38.1986 -38.1985 -38.1985 -38.1985
   -38.1100 -38.1100 -38.1100 -38.1100 -38.1099 -38.1099 -38.1099 -38.1099
   -38.0238 -38.0238 -38.0238 -38.0238 -38.0232 -38.0232 -38.0232 -38.0232
   -38.0113 -38.0113 -38.0113 -38.0113 -38.0113 -38.0113 -38.0113 -38.0113
     5.9159   5.9159   5.9159   5.9159   6.5352   6.5352   6.5352   6.5352
     6.8698   6.8698   6.8698   6.8698   6.8698   6.8698   6.8698   6.8698
     6.9824   6.9824   6.9824   6.9824   7.0384   7.0384   7.0384   7.0384
     7.0384   7.0384   7.0384   7.0384   7.1349   7.1349   7.1349   7.1349
     7.4224   7.4224   7.4224   7.4224   7.7448   7.7448   7.7448   7.7448
     7.7448   7.7448   7.7448   7.7448   8.0436   8.0436   8.0436   8.0436
     8.0436   8.0436   8.0436   8.0436   8.2124   8.2124   8.2124   8.2124
     8.4309   8.4309   8.4309   8.4309   8.6780   8.6780   8.6780   8.6780
     8.7797   8.7797   8.7797   8.7797   8.8196   8.8196   8.8196   8.8196
     8.8812   8.8812   8.8813   8.8813   9.0102   9.0102   9.0102   9.0102
     9.0102   9.0102   9.0102   9.0102   9.0546   9.0546   9.0546   9.0546
     9.3250   9.3250   9.3250   9.3250   9.4557   9.4557   9.4557   9.4557
     9.5904   9.5904   9.5904   9.5904   9.5904   9.5904   9.5904   9.5904
     9.6226   9.6226   9.6226   9.6226   9.6226   9.6226   9.6226   9.6226
     9.6737   9.6737   9.6737   9.6737   9.8946   9.8946   9.8946   9.8946
    10.1897  10.1897  10.1897  10.1897  10.1897  10.1897  10.1897  10.1897
    10.2079  10.2079  10.2079  10.2079  10.2860  10.2860  10.2860  10.2860
    10.4625  10.4625  10.4625  10.4625  10.6652  10.6652  10.6652  10.6652
    10.8027  10.8027  10.8027  10.8027  10.8027  10.8027  10.8027  10.8027
    11.0813  11.0813  11.0813  11.0813  11.1420  11.1420  11.1420  11.1420
    11.1420  11.1420  11.1421  11.1421  11.1511  11.1511  11.1511  11.1511
    12.0415  12.0415  12.0415  12.0415  14.0354  14.0354  14.0354  14.0354
    14.4073  14.4073  14.4073  14.4073  14.4073  14.4073  14.4073  14.4073
    15.4998  15.4998  15.4998  15.4998  15.4998  15.4998  15.4998  15.4998
    17.0501  17.0501  17.0501  17.0501  17.5666  17.5666  17.5666  17.5666
    17.5666  17.5666  17.5666  17.5666  18.9384  18.9384  18.9384  18.9384
    19.7417  19.7417  19.7417  19.7417  19.7417  19.7417  19.7697  19.7697
    19.7697  19.7697

     the Fermi energy is    11.1526 ev

!    total energy              =  -16384.05319421 Ry

     total all-electron energy =   -322944.906901 Ry
     estimated scf accuracy    <       0.00000080 Ry
     smearing contrib. (-TS)   =       0.12347393 Ry
     internal energy E=F+TS    =  -16384.17666814 Ry

     The total energy is F=E-TS. E is the sum of the following terms:
     one-electron contribution =  -11011.15393387 Ry
     hartree contribution      =    5756.38781506 Ry
     xc contribution           =    -985.37656398 Ry
     ewald contribution        =   -1976.70455589 Ry
     one-center paw contrib.   =   -8167.32942945 Ry

     convergence has been achieved in  25 iterations

     Forces acting on atoms (cartesian axes, Ry/au):

     atom    1 type  1   force =     0.00000000    0.00000000    0.00317494
     atom    2 type  1   force =     0.00000121    0.00000121    0.00318091
     atom    3 type  1   force =     0.00001462    0.00000000   -0.00448313
     atom    4 type  1   force =     0.00000000    0.00001462   -0.00448313
     atom    5 type  1   force =     0.00000000    0.00000000    0.00449206
     atom    6 type  1   force =     0.00000431    0.00000431    0.00448711
     atom    7 type  1   force =    -0.00000460    0.00000000   -0.00316499
     atom    8 type  1   force =     0.00000000   -0.00000460   -0.00316499
     atom    9 type  1   force =     0.00000000    0.00000000    0.00316740
     atom   10 type  1   force =     0.00000121   -0.00000121    0.00318091
     atom   11 type  1   force =    -0.00001157    0.00000000   -0.00447911
     atom   12 type  1   force =     0.00000000   -0.00001462   -0.00448313
     atom   13 type  1   force =     0.00000000    0.00000000    0.00446982
     atom   14 type  1   force =     0.00000431   -0.00000431    0.00448711
     atom   15 type  1   force =    -0.00001527    0.00000000   -0.00318578
     atom   16 type  1   force =     0.00000000    0.00000460   -0.00316499
     atom   17 type  1   force =     0.00000000    0.00000000    0.00316740
     atom   18 type  1   force =    -0.00000121    0.00000121    0.00318091
     atom   19 type  1   force =    -0.00001462    0.00000000   -0.00448313
     atom   20 type  1   force =     0.00000000   -0.00001157   -0.00447911
     atom   21 type  1   force =     0.00000000    0.00000000    0.00446982
     atom   22 type  1   force =    -0.00000431    0.00000431    0.00448711
     atom   23 type  1   force =     0.00000460    0.00000000   -0.00316499
     atom   24 type  1   force =     0.00000000   -0.00001527   -0.00318578
     atom   25 type  1   force =     0.00000000    0.00000000    0.00317945
     atom   26 type  1   force =    -0.00000121   -0.00000121    0.00318091
     atom   27 type  1   force =     0.00001157    0.00000000   -0.00447911
     atom   28 type  1   force =     0.00000000    0.00001157   -0.00447911
     atom   29 type  1   force =     0.00000000    0.00000000    0.00445901
     atom   30 type  1   force =    -0.00000431   -0.00000431    0.00448711
     atom   31 type  1   force =     0.00001527    0.00000000   -0.00318578
     atom   32 type  1   force =     0.00000000    0.00001527   -0.00318578

     Total force =     0.021968     Total SCF correction =     0.006633
     SCF correction compared to forces is large: reduce conv_thr to get better values

     Computing stress (Cartesian axis) and pressure

          total   stress  (Ry/bohr**3)                   (kbar)     P=      -37.22
  -0.00031505   0.00000000   0.00000000          -46.35        0.00        0.00
   0.00000000  -0.00031505   0.00000000            0.00      -46.35        0.00
   0.00000000   0.00000000  -0.00012892            0.00        0.00      -18.97

     Writing output data file /scratch/QfWGyAWcnYTdoLzF.save/

     General routines

     Parallel routines

   This run was terminated on:   4:45:13   7Jan2022

   JOB DONE.