     Program PWSCF v.6.7MaX starts on  6Jan2022 at 20:10:39

     R & G space division:  proc/nbgrp/npool/nimage =      72
     Reading input from scf_1.in
Warning: card &CELL ignored
Warning: card CELL_DYNAMICS = 'BFGS', ignored
Warning: card CELL_FACTOR = 2.0, ignored
Warning: card PRESS = 0.0, ignored
Warning: card / ignored

     Current dimensions of program PWSCF are:
     Max number of different atomic species (ntypx) = 10
     Max number of k-points (npk) =  40000
     Max angular momentum in pseudopotentials (lmaxx) =  3
     file Pd.pbe-spn-kjpaw_psl.1.0.0.UPF: wavefunction(s)  4S 5S 4D renormalized

     Subspace diagonalization in iterative solution of the eigenvalue problem:
     one sub-group per band group will be used

     Found symmetry operation: I + (  0.2500  0.2500  0.0000)
     This is a supercell, fractional translations are disabled
     Message from routine setup:
     using ibrav=0 with symmetry is DISCOURAGED, use correct ibrav instead

     bravais-lattice index     =            0
     lattice parameter (alat)  =      14.8394  a.u.
     unit-cell volume          =    3267.7647 (a.u.)^3
     number of atoms/cell      =           32
     number of atomic types    =            1
     number of electrons       =       576.00
     number of Kohn-Sham states=          346
     kinetic-energy cutoff     =      71.0000  Ry
     charge density cutoff     =     430.0000  Ry
     scf convergence threshold =      1.0E-06
     mixing beta               =       0.1000
     number of iterations used =           10  TF        mixing
     Exchange-correlation= SLA  PW   PBX  PBC
                           (   1   4   3   4   0   0   0)

     celldm(1)=  14.839420  celldm(2)=   0.000000  celldm(3)=   0.000000
     celldm(4)=   0.000000  celldm(5)=   0.000000  celldm(6)=   0.000000

     crystal axes: (cart. coord. in units of alat)
               a(1) = (   1.000000   0.000000   0.000000 )
               a(2) = (   0.000000   1.000000   0.000000 )
               a(3) = (   0.000000   0.000000   1.000000 )

     reciprocal axes: (cart. coord. in units 2 pi/alat)
               b(1) = (  1.000000  0.000000  0.000000 )
               b(2) = (  0.000000  1.000000  0.000000 )
               b(3) = (  0.000000  0.000000  1.000000 )

     PseudoPot. # 1 for Pd read from file:
     /rds/homes/b/bxp912/pp/Pd.pbe-spn-kjpaw_psl.1.0.0.UPF
     MD5 check sum: 790f2ebce206edfd9790dcb9844eca51
     Pseudo is Projector augmented-wave + core cor, Zval = 18.0
     Generated using &quot;atomic&quot; code by A. Dal Corso  v.6.3
     Shape of augmentation charge: PSQ
     Using radial grid of 1235 points,  6 beta functions with:
                l(1) =   0
                l(2) =   0
                l(3) =   1
                l(4) =   1
                l(5) =   2
                l(6) =   2
     Q(r) pseudized with 0 coefficients

     atomic species   valence    mass     pseudopotential
        Pd            18.00   106.42000     Pd( 1.00)

     48 Sym. Ops., with inversion, found

   Cartesian axes

     site n.     atom                  positions (alat units)
         1           Pd  tau(   1) = (   0.0000000   0.0000000   0.0000000  )
         2           Pd  tau(   2) = (   0.2500000   0.2500000   0.0000000  )
         3           Pd  tau(   3) = (   0.2500000   0.0000000   0.2500000  )
         4           Pd  tau(   4) = (   0.0000000   0.2500000   0.2500000  )
         5           Pd  tau(   5) = (   0.0000000   0.0000000   0.5000000  )
         6           Pd  tau(   6) = (   0.2500000   0.2500000   0.5000000  )
         7           Pd  tau(   7) = (   0.2500000   0.0000000   0.7500000  )
         8           Pd  tau(   8) = (   0.0000000   0.2500000   0.7500000  )
         9           Pd  tau(   9) = (   0.0000000   0.5000000   0.0000000  )
        10           Pd  tau(  10) = (   0.2500000   0.7500000   0.0000000  )
        11           Pd  tau(  11) = (   0.2500000   0.5000000   0.2500000  )
        12           Pd  tau(  12) = (   0.0000000   0.7500000   0.2500000  )
        13           Pd  tau(  13) = (   0.0000000   0.5000000   0.5000000  )
        14           Pd  tau(  14) = (   0.2500000   0.7500000   0.5000000  )
        15           Pd  tau(  15) = (   0.2500000   0.5000000   0.7500000  )
        16           Pd  tau(  16) = (   0.0000000   0.7500000   0.7500000  )
        17           Pd  tau(  17) = (   0.5000000   0.0000000   0.0000000  )
        18           Pd  tau(  18) = (   0.7500000   0.2500000   0.0000000  )
        19           Pd  tau(  19) = (   0.7500000   0.0000000   0.2500000  )
        20           Pd  tau(  20) = (   0.5000000   0.2500000   0.2500000  )
        21           Pd  tau(  21) = (   0.5000000   0.0000000   0.5000000  )
        22           Pd  tau(  22) = (   0.7500000   0.2500000   0.5000000  )
        23           Pd  tau(  23) = (   0.7500000   0.0000000   0.7500000  )
        24           Pd  tau(  24) = (   0.5000000   0.2500000   0.7500000  )
        25           Pd  tau(  25) = (   0.5000000   0.5000000   0.0000000  )
        26           Pd  tau(  26) = (   0.7500000   0.7500000   0.0000000  )
        27           Pd  tau(  27) = (   0.7500000   0.5000000   0.2500000  )
        28           Pd  tau(  28) = (   0.5000000   0.7500000   0.2500000  )
        29           Pd  tau(  29) = (   0.5000000   0.5000000   0.5000000  )
        30           Pd  tau(  30) = (   0.7500000   0.7500000   0.5000000  )
        31           Pd  tau(  31) = (   0.7500000   0.5000000   0.7500000  )
        32           Pd  tau(  32) = (   0.5000000   0.7500000   0.7500000  )

     number of k points=    35  Marzari-Vanderbilt smearing, width (Ry)=  0.0400
                       cart. coord. in units 2pi/alat
        k(    1) = (   0.0555556   0.0555556   0.0555556), wk =   0.0219479
        k(    2) = (   0.0555556   0.0555556   0.1666667), wk =   0.0658436
        k(    3) = (   0.0555556   0.0555556   0.2777778), wk =   0.0658436
        k(    4) = (   0.0555556   0.0555556   0.3888889), wk =   0.0658436
        k(    5) = (   0.0555556   0.0555556  -0.5000000), wk =   0.0329218
        k(    6) = (   0.0555556   0.1666667   0.1666667), wk =   0.0658436
        k(    7) = (   0.0555556   0.1666667   0.2777778), wk =   0.1316872
        k(    8) = (   0.0555556   0.1666667   0.3888889), wk =   0.1316872
        k(    9) = (   0.0555556   0.1666667  -0.5000000), wk =   0.0658436
        k(   10) = (   0.0555556   0.2777778   0.2777778), wk =   0.0658436
        k(   11) = (   0.0555556   0.2777778   0.3888889), wk =   0.1316872
        k(   12) = (   0.0555556   0.2777778  -0.5000000), wk =   0.0658436
        k(   13) = (   0.0555556   0.3888889   0.3888889), wk =   0.0658436
        k(   14) = (   0.0555556   0.3888889  -0.5000000), wk =   0.0658436
        k(   15) = (   0.0555556  -0.5000000  -0.5000000), wk =   0.0164609
        k(   16) = (   0.1666667   0.1666667   0.1666667), wk =   0.0219479
        k(   17) = (   0.1666667   0.1666667   0.2777778), wk =   0.0658436
        k(   18) = (   0.1666667   0.1666667   0.3888889), wk =   0.0658436
        k(   19) = (   0.1666667   0.1666667  -0.5000000), wk =   0.0329218
        k(   20) = (   0.1666667   0.2777778   0.2777778), wk =   0.0658436
        k(   21) = (   0.1666667   0.2777778   0.3888889), wk =   0.1316872
        k(   22) = (   0.1666667   0.2777778  -0.5000000), wk =   0.0658436
        k(   23) = (   0.1666667   0.3888889   0.3888889), wk =   0.0658436
        k(   24) = (   0.1666667   0.3888889  -0.5000000), wk =   0.0658436
        k(   25) = (   0.1666667  -0.5000000  -0.5000000), wk =   0.0164609
        k(   26) = (   0.2777778   0.2777778   0.2777778), wk =   0.0219479
        k(   27) = (   0.2777778   0.2777778   0.3888889), wk =   0.0658436
        k(   28) = (   0.2777778   0.2777778  -0.5000000), wk =   0.0329218
        k(   29) = (   0.2777778   0.3888889   0.3888889), wk =   0.0658436
        k(   30) = (   0.2777778   0.3888889  -0.5000000), wk =   0.0658436
        k(   31) = (   0.2777778  -0.5000000  -0.5000000), wk =   0.0164609
        k(   32) = (   0.3888889   0.3888889   0.3888889), wk =   0.0219479
        k(   33) = (   0.3888889   0.3888889  -0.5000000), wk =   0.0329218
        k(   34) = (   0.3888889  -0.5000000  -0.5000000), wk =   0.0164609
        k(   35) = (  -0.5000000  -0.5000000  -0.5000000), wk =   0.0027435

     Check: negative core charge=   -0.000002

     Initial potential from superposition of free atoms

     starting charge  575.98776, renormalised to  576.00000
     Starting wfcs are  320 randomized atomic wfcs +   26 random wfcs
     Checking if some PAW data can be deallocated...

     Self-consistent Calculation

     iteration #  1     ecut=    71.00 Ry     beta= 0.10
     Davidson diagonalization with overlap
     ethr =  1.00E-02,  avg # of iterations =  3.0

     Threshold (ethr) on eigenvalues was too large:
     Diagonalizing with lowered threshold

     Davidson diagonalization with overlap
     ethr =  8.87E-05,  avg # of iterations =  3.7

     total energy              =  -16385.04837159 Ry
     estimated scf accuracy    <       0.47442218 Ry

[...]

     total energy              =  -16384.95814944 Ry
     estimated scf accuracy    <       0.00000142 Ry

     iteration # 13     ecut=    71.00 Ry     beta= 0.10
     Davidson diagonalization with overlap
     ethr =  2.46E-10,  avg # of iterations =  2.5

     End of self-consistent calculation

          k = 0.0556 0.0556 0.0556 ( 32996 PWs)   bands (ev):

   -64.8696 -64.8405 -64.8405 -64.8405 -64.8350 -64.8349 -64.8349 -64.8246
   -64.8246 -64.8246 -64.8220 -64.8216 -64.8216 -64.8216 -64.8216 -64.8216
   -64.8216 -64.8215 -64.8215 -64.8215 -64.8190 -64.8190 -64.8190 -64.8059
   -64.8058 -64.8058 -64.8058 -64.8058 -64.8058 -64.8057 -64.8057 -64.8057
   -30.7542 -30.7542 -30.7541 -30.7524 -30.7337 -30.7337 -30.7337 -30.6559
   -30.6559 -30.6559 -30.6516 -30.6516 -30.6516 -30.6515 -30.6515 -30.6515
   -30.6437 -30.6437 -30.6437 -30.6384 -30.6384 -30.6384 -30.6384 -30.6384
   -30.6384 -30.6198 -30.6198 -30.6198 -30.6197 -30.6197 -30.6197 -30.5787
   -30.5787 -30.5787 -30.5542 -30.5542 -30.5542 -30.5481 -30.5481 -30.5481
   -30.5387 -30.5387 -30.5387 -30.5387 -30.5387 -30.5387 -30.5237 -30.5237
   -30.5237 -30.5228 -30.5228 -30.5228 -30.5227 -30.5227 -30.5227 -30.5223
   -30.5223 -30.5223 -30.5207 -30.5207 -30.5207 -30.4572 -30.4572 -30.4572
   -30.4570 -30.4570 -30.4570 -30.4448 -30.4448 -30.4448 -30.4446 -30.4446
   -30.4446 -30.4412 -30.4412 -30.4412 -30.4367 -30.4366 -30.4366 -30.4361
   -30.4361 -30.4361 -30.4360 -30.4360 -30.4360 -30.4356 -30.4356 -30.4356
   -30.4346 -30.4346 -30.4289 -30.4289 -30.4289 -30.3833 -30.3808 -30.3808
    12.2944  14.0510  14.0510  14.0511  14.1198  14.1335  14.1335  14.1335
    14.3239  14.3239  14.3239  14.3263  14.3263  14.3263  14.5188  14.5188
    14.5188  15.0644  15.0644  15.0644  15.0644  15.0644  15.0644  15.2184
    15.2184  15.2184  15.3687  15.3687  15.3687  15.4050  15.4050  15.4050
    15.4513  15.4513  15.4513  15.4513  15.4513  15.4513  15.4532  15.4532
    15.4532  15.7951  15.7951  15.7951  15.7951  15.7951  15.7951  15.9024
    15.9024  15.9024  15.9244  15.9244  15.9244  15.9244  15.9244  15.9244
    15.9813  15.9813  15.9813  16.1510  16.1510  16.1510  16.1510  16.1510
    16.1510  16.2565  16.2565  16.2565  16.2609  16.2609  16.2609  16.2609
    16.2609  16.2609  16.3686  16.3686  16.3686  16.4332  16.4332  16.4332
    16.4541  16.4541  16.4648  16.4648  16.4648  16.4828  16.5024  16.5024
    17.2995  17.2995  17.2995  17.3602  17.3602  17.3602  17.4329  17.4329
    17.4329  17.4329  17.4329  17.4329  17.4389  17.4389  17.4389  17.4871
    17.4871  17.4871  17.5906  17.5906  17.5906  17.7092  17.7092  17.7092
    17.8346  17.8346  17.8346  17.8922  17.8922  17.8922  17.9654  17.9654
    17.9654  17.9654  17.9654  17.9654  17.9845  17.9845  17.9845  18.0325
    18.0325  18.0401  18.0401  18.0401  18.0402  18.0402  18.0402  18.1494
    18.1494  18.1494  18.5369  18.5369  18.5369  18.6387  18.6387  18.6387
    19.0217  19.0217  19.0217  19.1462  19.1462  19.1462  19.1731  19.1731
    19.1933  19.1933  19.1933  19.4236  19.4236  19.4236  19.4779  19.4779
    19.4779  19.4779  19.4779  19.4779  19.4809  19.4809  19.4809  20.1446
    20.4510  20.4510  20.4510  20.9770  20.9770  20.9770  21.4873  21.4873
    21.4873  21.4874  21.4874  21.4874  22.0167  22.0167  22.0167  22.5969
    22.5969  22.5969  26.3539  26.3539  26.3539  26.5106  27.5025  27.5025
    27.5025  27.5025  27.5025  27.5025  28.1950  28.1950  28.1950  28.1950
    28.1950  28.1950  29.6085  29.6085  29.6085  29.6085  29.6085  29.6085
    29.7738  29.7738  29.7738  30.7302  30.7667  30.7669  30.7670  30.7670
    30.7670  30.7670

[...]

          k = 0.3889-0.5000-0.5000 ( 33008 PWs)   bands (ev):

[...]

          k =-0.5000-0.5000-0.5000 ( 32968 PWs)   bands (ev):

   -64.8459 -64.8459 -64.8459 -64.8459 -64.8459 -64.8459 -64.8459 -64.8459
   -64.8137 -64.8137 -64.8137 -64.8137 -64.8137 -64.8137 -64.8137 -64.8137
   -64.8137 -64.8137 -64.8137 -64.8137 -64.8137 -64.8137 -64.8137 -64.8137
   -64.8136 -64.8136 -64.8136 -64.8136 -64.8136 -64.8136 -64.8136 -64.8136
   -30.6924 -30.6924 -30.6924 -30.6923 -30.6923 -30.6923 -30.6923 -30.6923
   -30.6923 -30.6923 -30.6923 -30.6923 -30.6923 -30.6923 -30.6923 -30.6923
   -30.6923 -30.6923 -30.6923 -30.6923 -30.6923 -30.6923 -30.6923 -30.6923
   -30.5698 -30.5698 -30.5698 -30.5698 -30.5698 -30.5697 -30.5697 -30.5697
   -30.5325 -30.5325 -30.5325 -30.5325 -30.5325 -30.5325 -30.5325 -30.5325
   -30.5325 -30.5325 -30.5325 -30.5325 -30.5325 -30.5324 -30.5324 -30.5324
   -30.5324 -30.5324 -30.5324 -30.5324 -30.5324 -30.5324 -30.5324 -30.5324
   -30.4782 -30.4782 -30.4782 -30.4782 -30.4782 -30.4782 -30.4782 -30.4782
   -30.4782 -30.4782 -30.4782 -30.4782 -30.4782 -30.4782 -30.4782 -30.4782
   -30.4782 -30.4782 -30.4782 -30.4781 -30.4781 -30.4781 -30.4781 -30.4781
   -30.4077 -30.4077 -30.4077 -30.4077 -30.4077 -30.4077 -30.4077 -30.4077
   -30.4077 -30.4077 -30.4077 -30.4077 -30.4077 -30.4077 -30.4077 -30.4077
    13.9293  13.9293  13.9293  13.9293  13.9293  13.9293  13.9293  13.9293
    14.7775  14.7775  14.7775  14.7775  14.7775  14.7775  14.7775  14.7775
    14.7775  14.7775  14.7775  14.7775  14.7775  14.7775  14.7775  14.7775
    14.7775  14.7775  14.7775  14.7775  14.7775  14.7775  14.7775  14.7775
    15.5340  15.5340  15.5340  15.5340  15.5340  15.5340  15.5340  15.5340
    15.5340  15.5340  15.5340  15.5340  15.5340  15.5340  15.5340  15.5340
    15.5340  15.5340  15.5340  15.5340  15.5340  15.5340  15.5340  15.5341
    16.4658  16.4658  16.4658  16.4658  16.4658  16.4658  16.4658  16.4658
    16.7745  16.7745  16.7745  16.7745  16.7745  16.7745  16.7745  16.7745
    16.7745  16.7745  16.7745  16.7745  16.7745  16.7745  16.7745  16.7745
    16.9599  16.9599  16.9599  16.9599  16.9599  16.9599  16.9599  16.9599
    16.9600  16.9600  16.9600  16.9600  16.9600  16.9600  16.9600  16.9600
    16.9600  16.9600  16.9600  16.9600  16.9600  16.9600  16.9600  16.9600
    17.6790  17.6790  17.6790  17.6790  17.6790  17.6790  17.6790  17.6790
    17.6790  17.6790  17.6790  17.6790  17.6790  17.6790  17.6790  17.6790
    17.6790  17.6790  17.6790  17.6790  17.6790  17.6790  17.6790  17.6790
    18.1850  18.1850  18.1850  18.1850  18.1850  18.1850  18.1850  18.1850
    18.1850  18.1850  18.1850  18.1850  18.1850  18.1850  18.1851  18.1851
    19.2778  19.2778  19.2778  19.2778  19.2778  19.2778  19.2778  19.2778
    19.2778  19.2778  19.2778  19.2778  19.2778  19.2778  19.2778  19.2778
    19.2778  19.2778  19.2778  19.2778  19.2778  19.2778  19.2778  19.2778
    22.8541  22.8541  22.8541  22.8541  22.8541  22.8541  22.8541  22.8541
    22.8541  22.8541  22.8541  22.8541  22.8541  22.8541  22.8541  22.8541
    22.8541  22.8541  22.8541  22.8541  22.8541  22.8542  22.8542  22.8542
    28.3002  28.3002  28.3002  28.3002  28.3002  28.3002  28.3002  28.3002
    28.3002  28.3002  28.3002  28.3003  28.3003  28.3003  28.3003  28.3003
    28.3003  28.3003  28.3003  28.3003  28.3003  28.3003  28.3003  28.3003
    33.5310  33.5311

     the Fermi energy is    19.2987 ev

!    total energy              =  -16384.95815721 Ry

     total all-electron energy =   -322945.811864 Ry
     estimated scf accuracy    <       0.00000033 Ry
     smearing contrib. (-TS)   =       0.03284317 Ry
     internal energy E=F+TS    =  -16384.99100038 Ry

     The total energy is F=E-TS. E is the sum of the following terms:
     one-electron contribution =   -2484.47953896 Ry
     hartree contribution      =    1660.13981637 Ry
     xc contribution           =    -986.52568530 Ry
     ewald contribution        =   -6406.69918156 Ry
     one-center paw contrib.   =   -8167.42641094 Ry

     convergence has been achieved in  13 iterations

     Forces acting on atoms (cartesian axes, Ry/au):

     atom    1 type  1   force =     0.00000000    0.00000000    0.00000000
     atom    2 type  1   force =     0.00000560    0.00000560   -0.00000000
     atom    3 type  1   force =     0.00000560    0.00000000    0.00000560
     atom    4 type  1   force =    -0.00000000    0.00000560    0.00000560
     atom    5 type  1   force =     0.00000000    0.00000000    0.00000000
     atom    6 type  1   force =     0.00001098    0.00001098    0.00000000
     atom    7 type  1   force =     0.00000560    0.00000000   -0.00000560
     atom    8 type  1   force =    -0.00000000    0.00000560   -0.00000560
     atom    9 type  1   force =     0.00000000    0.00000000    0.00000000
     atom   10 type  1   force =     0.00000560   -0.00000560    0.00000000
     atom   11 type  1   force =     0.00001098    0.00000000    0.00001098
     atom   12 type  1   force =     0.00000000   -0.00000560    0.00000560
     atom   13 type  1   force =     0.00000000    0.00000000    0.00000000
     atom   14 type  1   force =     0.00001098   -0.00001098    0.00000000
     atom   15 type  1   force =     0.00001098    0.00000000   -0.00001098
     atom   16 type  1   force =    -0.00000000   -0.00000560   -0.00000560
     atom   17 type  1   force =     0.00000000    0.00000000    0.00000000
     atom   18 type  1   force =    -0.00000560    0.00000560    0.00000000
     atom   19 type  1   force =    -0.00000560    0.00000000    0.00000560
     atom   20 type  1   force =     0.00000000    0.00001098    0.00001098
     atom   21 type  1   force =     0.00000000    0.00000000    0.00000000
     atom   22 type  1   force =    -0.00001098    0.00001098    0.00000000
     atom   23 type  1   force =    -0.00000560    0.00000000   -0.00000560
     atom   24 type  1   force =     0.00000000    0.00001098   -0.00001098
     atom   25 type  1   force =     0.00000000    0.00000000    0.00000000
     atom   26 type  1   force =    -0.00000560   -0.00000560   -0.00000000
     atom   27 type  1   force =    -0.00001098    0.00000000    0.00001098
     atom   28 type  1   force =     0.00000000   -0.00001098    0.00001098
     atom   29 type  1   force =     0.00000000    0.00000000    0.00000000
     atom   30 type  1   force =    -0.00001098   -0.00001098    0.00000000
     atom   31 type  1   force =    -0.00001098    0.00000000   -0.00001098
     atom   32 type  1   force =     0.00000000   -0.00001098   -0.00001098

     Total force =     0.000060     Total SCF correction =     0.000258
     SCF correction compared to forces is large: reduce conv_thr to get better values

     Computing stress (Cartesian axis) and pressure

          total   stress  (Ry/bohr**3)                   (kbar)     P=        1.05
   0.00000716   0.00000000   0.00000000            1.05        0.00        0.00
   0.00000000   0.00000716   0.00000000            0.00        1.05        0.00
   0.00000000   0.00000000   0.00000716            0.00        0.00        1.05

     Writing output data file /scratch/iNzCEhucAHrMjKZY.save/

     General routines

     Parallel routines

   This run was terminated on:  20:19:38   6Jan2022

   JOB DONE.