     Program PWSCF v.6.7MaX starts on  7Jan2022 at  5:29:48

     R & G space division:  proc/nbgrp/npool/nimage =      72
     Reading input from scf_19.in
Warning: card &CELL ignored
Warning: card CELL_DYNAMICS = 'BFGS', ignored
Warning: card CELL_FACTOR = 2.0, ignored
Warning: card PRESS = 0.0, ignored
Warning: card / ignored

     Current dimensions of program PWSCF are:
     Max number of different atomic species (ntypx) = 10
     Max number of k-points (npk) =  40000
     Max angular momentum in pseudopotentials (lmaxx) =  3
     file Pd.pbe-spn-kjpaw_psl.1.0.0.UPF: wavefunction(s)  4S 5S 4D renormalized

     Subspace diagonalization in iterative solution of the eigenvalue problem:
     one sub-group per band group will be used

     Found symmetry operation: I + (  0.2500  0.2500  0.0000)
     This is a supercell, fractional translations are disabled
     Message from routine setup:
     using ibrav=0 with symmetry is DISCOURAGED, use correct ibrav instead

     bravais-lattice index     =            0
     lattice parameter (alat)  =      14.8394  a.u.
     unit-cell volume          =    5105.8824 (a.u.)^3
     number of atoms/cell      =           32
     number of atomic types    =            1
     number of electrons       =       576.00
     number of Kohn-Sham states=          346
     kinetic-energy cutoff     =      71.0000  Ry
     charge density cutoff     =     430.0000  Ry
     scf convergence threshold =      1.0E-06
     mixing beta               =       0.1000
     number of iterations used =           10  TF        mixing
     Exchange-correlation= SLA  PW   PBX  PBC
                           (   1   4   3   4   0   0   0)

     celldm(1)=  14.839420  celldm(2)=   0.000000  celldm(3)=   0.000000
     celldm(4)=   0.000000  celldm(5)=   0.000000  celldm(6)=   0.000000

     crystal axes: (cart. coord. in units of alat)
               a(1) = (   1.000000   0.000000   0.000000 )
               a(2) = (   0.000000   1.000000   0.000000 )
               a(3) = (   0.000000   0.000000   1.562500 )

     reciprocal axes: (cart. coord. in units 2 pi/alat)
               b(1) = (  1.000000  0.000000  0.000000 )
               b(2) = (  0.000000  1.000000  0.000000 )
               b(3) = (  0.000000  0.000000  0.640000 )

     PseudoPot. # 1 for Pd read from file:
     /rds/homes/b/bxp912/pp/Pd.pbe-spn-kjpaw_psl.1.0.0.UPF
     MD5 check sum: 790f2ebce206edfd9790dcb9844eca51
     Pseudo is Projector augmented-wave + core cor, Zval = 18.0
     Generated using &quot;atomic&quot; code by A. Dal Corso  v.6.3
     Shape of augmentation charge: PSQ
     Using radial grid of 1235 points,  6 beta functions with:
                l(1) =   0
                l(2) =   0
                l(3) =   1
                l(4) =   1
                l(5) =   2
                l(6) =   2
     Q(r) pseudized with 0 coefficients

     atomic species   valence    mass     pseudopotential
        Pd            18.00   106.42000     Pd( 1.00)

      8 Sym. Ops. (no inversion) found

   Cartesian axes

     site n.     atom                  positions (alat units)
         1           Pd  tau(   1) = (   0.0000000   0.0000000   0.0000000  )
         2           Pd  tau(   2) = (   0.2500000   0.2500000   0.0000000  )
         3           Pd  tau(   3) = (   0.2500000   0.0000000   0.2500000  )
         4           Pd  tau(   4) = (   0.0000000   0.2500000   0.2500000  )
         5           Pd  tau(   5) = (   0.0000000   0.0000000   1.0625000  )
         6           Pd  tau(   6) = (   0.2500000   0.2500000   1.0625000  )
         7           Pd  tau(   7) = (   0.2500000   0.0000000   1.3125000  )
         8           Pd  tau(   8) = (   0.0000000   0.2500000   1.3125000  )
         9           Pd  tau(   9) = (   0.0000000   0.5000000   0.0000000  )
        10           Pd  tau(  10) = (   0.2500000   0.7500000   0.0000000  )
        11           Pd  tau(  11) = (   0.2500000   0.5000000   0.2500000  )
        12           Pd  tau(  12) = (   0.0000000   0.7500000   0.2500000  )
        13           Pd  tau(  13) = (   0.0000000   0.5000000   1.0625000  )
        14           Pd  tau(  14) = (   0.2500000   0.7500000   1.0625000  )
        15           Pd  tau(  15) = (   0.2500000   0.5000000   1.3125000  )
        16           Pd  tau(  16) = (   0.0000000   0.7500000   1.3125000  )
        17           Pd  tau(  17) = (   0.5000000   0.0000000   0.0000000  )
        18           Pd  tau(  18) = (   0.7500000   0.2500000   0.0000000  )
        19           Pd  tau(  19) = (   0.7500000   0.0000000   0.2500000  )
        20           Pd  tau(  20) = (   0.5000000   0.2500000   0.2500000  )
        21           Pd  tau(  21) = (   0.5000000   0.0000000   1.0625000  )
        22           Pd  tau(  22) = (   0.7500000   0.2500000   1.0625000  )
        23           Pd  tau(  23) = (   0.7500000   0.0000000   1.3125000  )
        24           Pd  tau(  24) = (   0.5000000   0.2500000   1.3125000  )
        25           Pd  tau(  25) = (   0.5000000   0.5000000   0.0000000  )
        26           Pd  tau(  26) = (   0.7500000   0.7500000   0.0000000  )
        27           Pd  tau(  27) = (   0.7500000   0.5000000   0.2500000  )
        28           Pd  tau(  28) = (   0.5000000   0.7500000   0.2500000  )
        29           Pd  tau(  29) = (   0.5000000   0.5000000   1.0625000  )
        30           Pd  tau(  30) = (   0.7500000   0.7500000   1.0625000  )
        31           Pd  tau(  31) = (   0.7500000   0.5000000   1.3125000  )
        32           Pd  tau(  32) = (   0.5000000   0.7500000   1.3125000  )

     number of k points=    75  Marzari-Vanderbilt smearing, width (Ry)=  0.0400
                       cart. coord. in units 2pi/alat
        k(    1) = (   0.0555556   0.0555556   0.0355556), wk =   0.0219479
        k(    2) = (   0.0555556   0.0555556   0.1066667), wk =   0.0219479
        k(    3) = (   0.0555556   0.0555556   0.1777778), wk =   0.0219479
        k(    4) = (   0.0555556   0.0555556   0.2488889), wk =   0.0219479
        k(    5) = (   0.0555556   0.0555556  -0.3200000), wk =   0.0109739
        k(    6) = (   0.0555556   0.1666667   0.0355556), wk =   0.0438957
        k(    7) = (   0.0555556   0.1666667   0.1066667), wk =   0.0438957
        k(    8) = (   0.0555556   0.1666667   0.1777778), wk =   0.0438957
        k(    9) = (   0.0555556   0.1666667   0.2488889), wk =   0.0438957
        k(   10) = (   0.0555556   0.1666667  -0.3200000), wk =   0.0219479
        k(   11) = (   0.0555556   0.2777778   0.0355556), wk =   0.0438957
        k(   12) = (   0.0555556   0.2777778   0.1066667), wk =   0.0438957
        k(   13) = (   0.0555556   0.2777778   0.1777778), wk =   0.0438957
        k(   14) = (   0.0555556   0.2777778   0.2488889), wk =   0.0438957
        k(   15) = (   0.0555556   0.2777778  -0.3200000), wk =   0.0219479
        k(   16) = (   0.0555556   0.3888889   0.0355556), wk =   0.0438957
        k(   17) = (   0.0555556   0.3888889   0.1066667), wk =   0.0438957
        k(   18) = (   0.0555556   0.3888889   0.1777778), wk =   0.0438957
        k(   19) = (   0.0555556   0.3888889   0.2488889), wk =   0.0438957
        k(   20) = (   0.0555556   0.3888889  -0.3200000), wk =   0.0219479
        k(   21) = (   0.0555556  -0.5000000   0.0355556), wk =   0.0219479
        k(   22) = (   0.0555556  -0.5000000   0.1066667), wk =   0.0219479
        k(   23) = (   0.0555556  -0.5000000   0.1777778), wk =   0.0219479
        k(   24) = (   0.0555556  -0.5000000   0.2488889), wk =   0.0219479
        k(   25) = (   0.0555556  -0.5000000  -0.3200000), wk =   0.0109739
        k(   26) = (   0.1666667   0.1666667   0.0355556), wk =   0.0219479
        k(   27) = (   0.1666667   0.1666667   0.1066667), wk =   0.0219479
        k(   28) = (   0.1666667   0.1666667   0.1777778), wk =   0.0219479
        k(   29) = (   0.1666667   0.1666667   0.2488889), wk =   0.0219479
        k(   30) = (   0.1666667   0.1666667  -0.3200000), wk =   0.0109739
        k(   31) = (   0.1666667   0.2777778   0.0355556), wk =   0.0438957
        k(   32) = (   0.1666667   0.2777778   0.1066667), wk =   0.0438957
        k(   33) = (   0.1666667   0.2777778   0.1777778), wk =   0.0438957
        k(   34) = (   0.1666667   0.2777778   0.2488889), wk =   0.0438957
        k(   35) = (   0.1666667   0.2777778  -0.3200000), wk =   0.0219479
        k(   36) = (   0.1666667   0.3888889   0.0355556), wk =   0.0438957
        k(   37) = (   0.1666667   0.3888889   0.1066667), wk =   0.0438957
        k(   38) = (   0.1666667   0.3888889   0.1777778), wk =   0.0438957
        k(   39) = (   0.1666667   0.3888889   0.2488889), wk =   0.0438957
        k(   40) = (   0.1666667   0.3888889  -0.3200000), wk =   0.0219479
        k(   41) = (   0.1666667  -0.5000000   0.0355556), wk =   0.0219479
        k(   42) = (   0.1666667  -0.5000000   0.1066667), wk =   0.0219479
        k(   43) = (   0.1666667  -0.5000000   0.1777778), wk =   0.0219479
        k(   44) = (   0.1666667  -0.5000000   0.2488889), wk =   0.0219479
        k(   45) = (   0.1666667  -0.5000000  -0.3200000), wk =   0.0109739
        k(   46) = (   0.2777778   0.2777778   0.0355556), wk =   0.0219479
        k(   47) = (   0.2777778   0.2777778   0.1066667), wk =   0.0219479
        k(   48) = (   0.2777778   0.2777778   0.1777778), wk =   0.0219479
        k(   49) = (   0.2777778   0.2777778   0.2488889), wk =   0.0219479
        k(   50) = (   0.2777778   0.2777778  -0.3200000), wk =   0.0109739
        k(   51) = (   0.2777778   0.3888889   0.0355556), wk =   0.0438957
        k(   52) = (   0.2777778   0.3888889   0.1066667), wk =   0.0438957
        k(   53) = (   0.2777778   0.3888889   0.1777778), wk =   0.0438957
        k(   54) = (   0.2777778   0.3888889   0.2488889), wk =   0.0438957
        k(   55) = (   0.2777778   0.3888889  -0.3200000), wk =   0.0219479
        k(   56) = (   0.2777778  -0.5000000   0.0355556), wk =   0.0219479
        k(   57) = (   0.2777778  -0.5000000   0.1066667), wk =   0.0219479
        k(   58) = (   0.2777778  -0.5000000   0.1777778), wk =   0.0219479
        k(   59) = (   0.2777778  -0.5000000   0.2488889), wk =   0.0219479
        k(   60) = (   0.2777778  -0.5000000  -0.3200000), wk =   0.0109739
        k(   61) = (   0.3888889   0.3888889   0.0355556), wk =   0.0219479
        k(   62) = (   0.3888889   0.3888889   0.1066667), wk =   0.0219479
        k(   63) = (   0.3888889   0.3888889   0.1777778), wk =   0.0219479
        k(   64) = (   0.3888889   0.3888889   0.2488889), wk =   0.0219479
        k(   65) = (   0.3888889   0.3888889  -0.3200000), wk =   0.0109739
        k(   66) = (   0.3888889  -0.5000000   0.0355556), wk =   0.0219479
        k(   67) = (   0.3888889  -0.5000000   0.1066667), wk =   0.0219479
        k(   68) = (   0.3888889  -0.5000000   0.1777778), wk =   0.0219479
        k(   69) = (   0.3888889  -0.5000000   0.2488889), wk =   0.0219479
        k(   70) = (   0.3888889  -0.5000000  -0.3200000), wk =   0.0109739
        k(   71) = (  -0.5000000  -0.5000000   0.0355556), wk =   0.0054870
        k(   72) = (  -0.5000000  -0.5000000   0.1066667), wk =   0.0054870
        k(   73) = (  -0.5000000  -0.5000000   0.1777778), wk =   0.0054870
        k(   74) = (  -0.5000000  -0.5000000   0.2488889), wk =   0.0054870
        k(   75) = (  -0.5000000  -0.5000000  -0.3200000), wk =   0.0027435

     Check: negative core charge=   -0.000001

     Initial potential from superposition of free atoms

     starting charge  575.98776, renormalised to  576.00000
     Starting wfcs are  320 randomized atomic wfcs +   26 random wfcs
     Checking if some PAW data can be deallocated...

     Self-consistent Calculation

     iteration #  1     ecut=    71.00 Ry     beta= 0.10
     Davidson diagonalization with overlap
     ethr =  1.00E-02,  avg # of iterations =  4.1

     Threshold (ethr) on eigenvalues was too large:
     Diagonalizing with lowered threshold

     Davidson diagonalization with overlap
     ethr =  7.48E-04,  avg # of iterations =  1.1

     total energy              =  -16384.82473447 Ry
     estimated scf accuracy    <       4.29850500 Ry

[...]

     iteration #  9     ecut=    71.00 Ry     beta= 0.10
     Davidson diagonalization with overlap
     c_bands:  1 eigenvalues not converged
     ethr =  2.48E-05,  avg # of iterations =  6.1

[...]

     total energy              =  -16384.05185463 Ry
     estimated scf accuracy    <       0.00000101 Ry

     iteration # 27     ecut=    71.00 Ry     beta= 0.10
     Davidson diagonalization with overlap
     ethr =  1.75E-10,  avg # of iterations =  2.0

     End of self-consistent calculation

          k = 0.0556 0.0556 0.0356 ( 51556 PWs)   bands (ev):

   -73.6689 -73.6468 -73.6468 -73.6426 -73.6425 -73.6380 -73.6369 -73.6364
   -73.6363 -73.6352 -73.6293 -73.6293 -73.6279 -73.6279 -73.6207 -73.6206
   -73.0772 -73.0772 -73.0628 -73.0628 -73.0627 -73.0627 -73.0615 -73.0615
   -73.0613 -73.0613 -73.0600 -73.0600 -73.0600 -73.0600 -73.0454 -73.0454
   -39.5035 -39.5035 -39.5031 -39.5022 -39.4896 -39.4896 -39.4829 -39.4488
   -39.4488 -39.4458 -39.4458 -39.4086 -39.4085 -39.3975 -39.3975 -39.3883
   -39.3883 -39.3851 -39.3851 -39.3762 -39.3762 -39.3474 -39.3474 -39.3407
   -39.3406 -39.3406 -39.3361 -39.3361 -39.3309 -39.3262 -39.3262 -39.3124
   -39.3093 -39.3093 -39.2949 -39.2949 -39.2920 -39.2910 -39.2809 -39.2809
   -39.2757 -39.2757 -39.2420 -39.2402 -39.2401 -39.2359 -39.2237 -39.2222
   -38.9513 -38.9513 -38.9505 -38.9496 -38.9395 -38.9395 -38.9376 -38.9376
   -38.8690 -38.8690 -38.8689 -38.8689 -38.8541 -38.8541 -38.8538 -38.8538
   -38.8518 -38.8518 -38.8514 -38.8514 -38.8365 -38.8365 -38.8364 -38.8364
   -38.7659 -38.7656 -38.7643 -38.7640 -38.7524 -38.7523 -38.7510 -38.7510
   -38.6803 -38.6771 -38.6658 -38.6658 -38.6654 -38.6654 -38.6644 -38.6641
   -38.6640 -38.6640 -38.6636 -38.6636 -38.6633 -38.6633 -38.6534 -38.6534
     4.1456   5.4352   5.6754   5.6754   5.7418   5.7479   5.7541   5.7542
     5.8132   5.8271   5.9499   5.9499   6.0387   6.0387   6.2221   6.2221
     6.2876   6.4899   6.6116   6.6116   6.6406   6.6406   6.6704   6.6704
     6.6910   6.6910   6.7602   6.7632   6.7632   6.7655   6.7780   6.7780
     6.9036   6.9036   6.9713   6.9713   7.0076   7.0076   7.0838   7.0838
     7.0957   7.0957   7.1584   7.1584   7.2205   7.2799   7.2799   7.2982
     7.2982   7.4417   7.4417   7.5079   7.5556   7.5556   7.6053   7.6053
     7.6174   7.6261   7.6261   7.6369   7.8131   7.8131   7.8159   7.8159
     7.8290   7.8393   7.9774   7.9774   7.9881   7.9901   7.9975   7.9975
     8.0302   8.0395   8.0996   8.0996   8.1344   8.1344   8.4844   8.4844
     8.5381   8.5456   8.5497   8.5497   8.5694   8.5694   8.5934   8.5934
     8.7173   8.7173   8.7498   8.7498   8.7627   8.7627   8.7694   8.7860
     8.8160   8.8160   8.8412   8.8412   8.8714   8.8939   8.9172   8.9400
     8.9400   9.0480   9.0480   9.0640   9.0640   9.1422   9.1712   9.1712
     9.1994   9.1994   9.2112   9.2112   9.3392   9.3392   9.3950   9.3950
     9.3965   9.3965   9.4282   9.5757   9.5778   9.5778   9.6456   9.6456
     9.7663   9.7663   9.7785   9.7785   9.7787   9.7982   9.7982   9.8076
     9.8965   9.9140   9.9140   9.9170   9.9220   9.9989  10.0323  10.0497
    10.0498  10.0750  10.0750  10.0783  10.0783  10.2435  10.2435  10.3169
    10.3199  10.3199  10.3212  10.3746  10.4534  10.4701  10.4701  10.4769
    10.4769  10.5266  10.5732  10.6800  10.6801  11.0206  11.0206  11.0844
    11.0844  11.4564  11.4564  11.9278  11.9343  12.1419  12.3530  12.3530
    12.6429  12.6873  12.6873  12.7745  12.7745  13.0241  13.2405  13.2405
    13.2759  14.8613  14.8613  15.2092  15.2092  15.6663  15.7302  15.7302
    15.7801  15.7801  15.8607  16.5274  16.5274  17.0970  17.0970  17.1769
    17.1769  17.2780  18.7135  18.9930  18.9930  19.1661  19.4137  19.4137
    19.4318  19.6506  19.6506  19.7142  19.7146  20.0971  20.0971  20.1882
    20.1882  20.2220

[...]

          k = 0.3889-0.5000-0.3200 ( 51588 PWs)   bands (ev):

[...]

          k =-0.5000-0.5000 0.0356 ( 51544 PWs)   bands (ev):

[...]

          k =-0.5000-0.5000-0.3200 ( 51624 PWs)   bands (ev):

   -73.6561 -73.6561 -73.6561 -73.6561 -73.6334 -73.6334 -73.6334 -73.6334
   -73.6285 -73.6285 -73.6285 -73.6285 -73.6285 -73.6285 -73.6285 -73.6285
   -73.0694 -73.0694 -73.0694 -73.0694 -73.0693 -73.0693 -73.0693 -73.0693
   -73.0534 -73.0534 -73.0534 -73.0533 -73.0533 -73.0533 -73.0533 -73.0533
   -39.4811 -39.4811 -39.4811 -39.4811 -39.4811 -39.4811 -39.4811 -39.4811
   -39.4677 -39.4677 -39.4677 -39.4677 -39.4170 -39.4170 -39.4170 -39.4170
   -39.3560 -39.3560 -39.3560 -39.3560 -39.3560 -39.3560 -39.3560 -39.3560
   -39.3159 -39.3159 -39.3159 -39.3159 -39.3147 -39.3147 -39.3147 -39.3147
   -39.3147 -39.3146 -39.3146 -39.3146 -39.2925 -39.2925 -39.2925 -39.2925
   -39.2728 -39.2728 -39.2728 -39.2728 -39.2231 -39.2231 -39.2231 -39.2231
   -38.9447 -38.9447 -38.9447 -38.9447 -38.9447 -38.9447 -38.9447 -38.9447
   -38.8610 -38.8610 -38.8610 -38.8610 -38.8586 -38.8586 -38.8586 -38.8586
   -38.8462 -38.8462 -38.8462 -38.8462 -38.8462 -38.8462 -38.8462 -38.8462
   -38.7577 -38.7577 -38.7576 -38.7576 -38.7575 -38.7575 -38.7575 -38.7575
   -38.6713 -38.6713 -38.6713 -38.6713 -38.6706 -38.6706 -38.6706 -38.6706
   -38.6588 -38.6588 -38.6588 -38.6587 -38.6587 -38.6587 -38.6587 -38.6587
     5.2680   5.2680   5.2680   5.2680   5.8877   5.8877   5.8877   5.8877
     6.2220   6.2220   6.2220   6.2220   6.2220   6.2220   6.2221   6.2221
     6.3351   6.3351   6.3351   6.3351   6.3907   6.3907   6.3907   6.3907
     6.3907   6.3907   6.3907   6.3907   6.4862   6.4862   6.4862   6.4862
     6.7748   6.7748   6.7748   6.7748   7.0968   7.0968   7.0968   7.0968
     7.0968   7.0968   7.0968   7.0968   7.3959   7.3959   7.3959   7.3959
     7.3959   7.3959   7.3959   7.3959   7.5643   7.5643   7.5643   7.5643
     7.7832   7.7832   7.7832   7.7832   8.0302   8.0302   8.0302   8.0302
     8.1325   8.1325   8.1325   8.1325   8.1718   8.1718   8.1718   8.1718
     8.2315   8.2315   8.2315   8.2315   8.3625   8.3625   8.3625   8.3625
     8.3625   8.3625   8.3625   8.3625   8.4068   8.4068   8.4068   8.4068
     8.6788   8.6788   8.6788   8.6788   8.8060   8.8060   8.8060   8.8060
     8.9425   8.9425   8.9425   8.9425   8.9425   8.9425   8.9425   8.9425
     8.9743   8.9743   8.9743   8.9743   8.9743   8.9743   8.9743   8.9743
     9.0260   9.0260   9.0260   9.0260   9.2468   9.2468   9.2468   9.2468
     9.5439   9.5439   9.5439   9.5439   9.5440   9.5440   9.5440   9.5440
     9.5572   9.5572   9.5572   9.5572   9.6561   9.6561   9.6561   9.6561
     9.8148   9.8148   9.8148   9.8148  10.0175  10.0175  10.0175  10.0175
    10.1534  10.1534  10.1534  10.1534  10.1534  10.1534  10.1534  10.1534
    10.4335  10.4335  10.4335  10.4335  10.4940  10.4940  10.4940  10.4940
    10.4940  10.4940  10.4940  10.4941  10.5033  10.5033  10.5033  10.5033
    11.3482  11.3482  11.3482  11.3482  13.4488  13.4488  13.4488  13.4488
    13.7572  13.7572  13.7572  13.7573  13.7573  13.7573  13.7573  13.7573
    14.8602  14.8602  14.8602  14.8602  14.8602  14.8602  14.8602  14.8602
    16.2371  16.2371  16.2371  16.2371  16.8990  16.8990  16.8990  16.8990
    16.8990  16.8990  16.8990  16.8990  17.8156  17.8156  17.8156  17.8156
    19.1161  19.1161  19.1161  19.1161  19.1262  19.1262  19.1262  19.1262
    19.1263  19.1263

     the Fermi energy is    10.5048 ev

!    total energy              =  -16384.05185869 Ry

     total all-electron energy =   -322944.905566 Ry
     estimated scf accuracy    <       0.00000065 Ry
     smearing contrib. (-TS)   =       0.12351742 Ry
     internal energy E=F+TS    =  -16384.17537611 Ry

     The total energy is F=E-TS. E is the sum of the following terms:
     one-electron contribution =  -12739.70533187 Ry
     hartree contribution      =    6606.95365761 Ry
     xc contribution           =    -985.38028124 Ry
     ewald contribution        =   -1098.71367988 Ry
     one-center paw contrib.   =   -8167.32974074 Ry

     convergence has been achieved in  27 iterations

     Forces acting on atoms (cartesian axes, Ry/au):

     atom    1 type  1   force =     0.00000000    0.00000000    0.00312903
     atom    2 type  1   force =     0.00000120    0.00000120    0.00313417
     atom    3 type  1   force =     0.00000800    0.00000000   -0.00445365
     atom    4 type  1   force =     0.00000000    0.00000800   -0.00445365
     atom    5 type  1   force =     0.00000000    0.00000000    0.00443054
     atom    6 type  1   force =     0.00000095    0.00000095    0.00442829
     atom    7 type  1   force =    -0.00000198    0.00000000   -0.00309755
     atom    8 type  1   force =     0.00000000   -0.00000198   -0.00309755
     atom    9 type  1   force =     0.00000000    0.00000000    0.00312625
     atom   10 type  1   force =     0.00000120   -0.00000120    0.00313417
     atom   11 type  1   force =    -0.00000678    0.00000000   -0.00445424
     atom   12 type  1   force =     0.00000000   -0.00000800   -0.00445365
     atom   13 type  1   force =     0.00000000    0.00000000    0.00442126
     atom   14 type  1   force =     0.00000095   -0.00000095    0.00442829
     atom   15 type  1   force =    -0.00001092    0.00000000   -0.00310666
     atom   16 type  1   force =     0.00000000    0.00000198   -0.00309755
     atom   17 type  1   force =     0.00000000    0.00000000    0.00312625
     atom   18 type  1   force =    -0.00000120    0.00000120    0.00313417
     atom   19 type  1   force =    -0.00000800    0.00000000   -0.00445365
     atom   20 type  1   force =     0.00000000   -0.00000678   -0.00445424
     atom   21 type  1   force =     0.00000000    0.00000000    0.00442126
     atom   22 type  1   force =    -0.00000095    0.00000095    0.00442829
     atom   23 type  1   force =     0.00000198    0.00000000   -0.00309755
     atom   24 type  1   force =     0.00000000   -0.00001092   -0.00310666
     atom   25 type  1   force =     0.00000000    0.00000000    0.00313305
     atom   26 type  1   force =    -0.00000120   -0.00000120    0.00313417
     atom   27 type  1   force =     0.00000678    0.00000000   -0.00445424
     atom   28 type  1   force =     0.00000000    0.00000678   -0.00445424
     atom   29 type  1   force =     0.00000000    0.00000000    0.00441084
     atom   30 type  1   force =    -0.00000095   -0.00000095    0.00442829
     atom   31 type  1   force =     0.00001092    0.00000000   -0.00310666
     atom   32 type  1   force =     0.00000000    0.00001092   -0.00310666

     Total force =     0.021697     Total SCF correction =     0.004694
     SCF correction compared to forces is large: reduce conv_thr to get better values

     Computing stress (Cartesian axis) and pressure

          total   stress  (Ry/bohr**3)                   (kbar)     P=      -35.41
  -0.00030131   0.00000000   0.00000000          -44.32        0.00        0.00
   0.00000000  -0.00030131   0.00000000            0.00      -44.32        0.00
   0.00000000   0.00000000  -0.00011949            0.00        0.00      -17.58

     Writing output data file /scratch/YpUETEwtnpJyXVWy.save/

     General routines

     Parallel routines

   This run was terminated on:   6:16: 2   7Jan2022

   JOB DONE.