     Program PWSCF v.6.7MaX starts on 25Nov2021 at 15:52:36

     R & G space division:  proc/nbgrp/npool/nimage =      72
     Reading input from scf_2.in
Warning: card &CELL ignored
Warning: card CELL_DYNAMICS = 'BFGS', ignored
Warning: card CELL_FACTOR = 2.0, ignored
Warning: card PRESS = 0.0, ignored
Warning: card / ignored

     Current dimensions of program PWSCF are:
     Max number of different atomic species (ntypx) = 10
     Max number of k-points (npk) =  40000
     Max angular momentum in pseudopotentials (lmaxx) =  3
     file Ru.pbe-spn-kjpaw_psl.1.0.0.UPF: wavefunction(s)  4D renormalized

     Subspace diagonalization in iterative solution of the eigenvalue problem:
     one sub-group per band group will be used

     Found symmetry operation: I + (  0.2500  0.2500  0.0000)
     This is a supercell, fractional translations are disabled
     Message from routine setup:
     using ibrav=0 with symmetry is DISCOURAGED, use correct ibrav instead

     bravais-lattice index     =            0
     lattice parameter (alat)  =      14.4007  a.u.
     unit-cell volume          =    3135.7676 (a.u.)^3
     number of atoms/cell      =           32
     number of atomic types    =            1
     number of electrons       =       512.00
     number of Kohn-Sham states=          307
     kinetic-energy cutoff     =      71.0000  Ry
     charge density cutoff     =     430.0000  Ry
     scf convergence threshold =      1.0E-06
     mixing beta               =       0.1000
     number of iterations used =           10  TF        mixing
     Exchange-correlation= SLA  PW   PBX  PBC
                           (   1   4   3   4   0   0   0)

     celldm(1)=  14.400742  celldm(2)=   0.000000  celldm(3)=   0.000000
     celldm(4)=   0.000000  celldm(5)=   0.000000  celldm(6)=   0.000000

     crystal axes: (cart. coord. in units of alat)
               a(1) = (   1.000000   0.000000   0.000000 )
               a(2) = (   0.000000   1.000000   0.000000 )
               a(3) = (   0.000000   0.000000   1.050000 )

     reciprocal axes: (cart. coord. in units 2 pi/alat)
               b(1) = (  1.000000  0.000000  0.000000 )
               b(2) = (  0.000000  1.000000  0.000000 )
               b(3) = (  0.000000  0.000000  0.952381 )

     PseudoPot. # 1 for Ru read from file:
     /rds/homes/b/bxp912/pp/Ru.pbe-spn-kjpaw_psl.1.0.0.UPF
     MD5 check sum: 0ae1f594dea09af7be8575c3a481d1ae
     Pseudo is Projector augmented-wave + core cor, Zval = 16.0
     Generated using "atomic" code by A. Dal Corso  v.5.1
     Shape of augmentation charge: PSQ
     Using radial grid of 1233 points,  6 beta functions with:
                l(1) =   0
                l(2) =   0
                l(3) =   1
                l(4) =   1
                l(5) =   2
                l(6) =   2
     Q(r) pseudized with 0 coefficients

     atomic species   valence    mass     pseudopotential
        Ru            16.00   101.07000     Ru( 1.00)

      8 Sym. Ops. (no inversion) found

   Cartesian axes

     site n.     atom                  positions (alat units)
         1           Ru  tau(   1) = (   0.0000000   0.0000000   0.0000000  )
         2           Ru  tau(   2) = (   0.2500000   0.2500000   0.0000000  )
         3           Ru  tau(   3) = (   0.2500000   0.0000000   0.2500000  )
         4           Ru  tau(   4) = (   0.0000000   0.2500000   0.2500000  )
         5           Ru  tau(   5) = (   0.0000000   0.0000000   0.5500000  )
         6           Ru  tau(   6) = (   0.2500000   0.2500000   0.5500000  )
         7           Ru  tau(   7) = (   0.2500000   0.0000000   0.8000000  )
         8           Ru  tau(   8) = (   0.0000000   0.2500000   0.8000000  )
         9           Ru  tau(   9) = (   0.0000000   0.5000000   0.0000000  )
        10           Ru  tau(  10) = (   0.2500000   0.7500000   0.0000000  )
        11           Ru  tau(  11) = (   0.2500000   0.5000000   0.2500000  )
        12           Ru  tau(  12) = (   0.0000000   0.7500000   0.2500000  )
        13           Ru  tau(  13) = (   0.0000000   0.5000000   0.5500000  )
        14           Ru  tau(  14) = (   0.2500000   0.7500000   0.5500000  )
        15           Ru  tau(  15) = (   0.2500000   0.5000000   0.8000000  )
        16           Ru  tau(  16) = (   0.0000000   0.7500000   0.8000000  )
        17           Ru  tau(  17) = (   0.5000000   0.0000000   0.0000000  )
        18           Ru  tau(  18) = (   0.7500000   0.2500000   0.0000000  )
        19           Ru  tau(  19) = (   0.7500000   0.0000000   0.2500000  )
        20           Ru  tau(  20) = (   0.5000000   0.2500000   0.2500000  )
        21           Ru  tau(  21) = (   0.5000000   0.0000000   0.5500000  )
        22           Ru  tau(  22) = (   0.7500000   0.2500000   0.5500000  )
        23           Ru  tau(  23) = (   0.7500000   0.0000000   0.8000000  )
        24           Ru  tau(  24) = (   0.5000000   0.2500000   0.8000000  )
        25           Ru  tau(  25) = (   0.5000000   0.5000000   0.0000000  )
        26           Ru  tau(  26) = (   0.7500000   0.7500000   0.0000000  )
        27           Ru  tau(  27) = (   0.7500000   0.5000000   0.2500000  )
        28           Ru  tau(  28) = (   0.5000000   0.7500000   0.2500000  )
        29           Ru  tau(  29) = (   0.5000000   0.5000000   0.5500000  )
        30           Ru  tau(  30) = (   0.7500000   0.7500000   0.5500000  )
        31           Ru  tau(  31) = (   0.7500000   0.5000000   0.8000000  )
        32           Ru  tau(  32) = (   0.5000000   0.7500000   0.8000000  )

     number of k points=    75  Marzari-Vanderbilt smearing, width (Ry)=  0.0400
                       cart. coord. in units 2pi/alat
        k(    1) = (   0.0555556   0.0555556   0.0529101), wk =   0.0219479
        k(    2) = (   0.0555556   0.0555556   0.1587302), wk =   0.0219479
        k(    3) = (   0.0555556   0.0555556   0.2645503), wk =   0.0219479
        k(    4) = (   0.0555556   0.0555556   0.3703704), wk =   0.0219479
        k(    5) = (   0.0555556   0.0555556  -0.4761905), wk =   0.0109739
        k(    6) = (   0.0555556   0.1666667   0.0529101), wk =   0.0438957
        k(    7) = (   0.0555556   0.1666667   0.1587302), wk =   0.0438957
        k(    8) = (   0.0555556   0.1666667   0.2645503), wk =   0.0438957
        k(    9) = (   0.0555556   0.1666667   0.3703704), wk =   0.0438957
        k(   10) = (   0.0555556   0.1666667  -0.4761905), wk =   0.0219479
        k(   11) = (   0.0555556   0.2777778   0.0529101), wk =   0.0438957
        k(   12) = (   0.0555556   0.2777778   0.1587302), wk =   0.0438957
        k(   13) = (   0.0555556   0.2777778   0.2645503), wk =   0.0438957
        k(   14) = (   0.0555556   0.2777778   0.3703704), wk =   0.0438957
        k(   15) = (   0.0555556   0.2777778  -0.4761905), wk =   0.0219479
        k(   16) = (   0.0555556   0.3888889   0.0529101), wk =   0.0438957
        k(   17) = (   0.0555556   0.3888889   0.1587302), wk =   0.0438957
        k(   18) = (   0.0555556   0.3888889   0.2645503), wk =   0.0438957
        k(   19) = (   0.0555556   0.3888889   0.3703704), wk =   0.0438957
        k(   20) = (   0.0555556   0.3888889  -0.4761905), wk =   0.0219479
        k(   21) = (   0.0555556  -0.5000000   0.0529101), wk =   0.0219479
        k(   22) = (   0.0555556  -0.5000000   0.1587302), wk =   0.0219479
        k(   23) = (   0.0555556  -0.5000000   0.2645503), wk =   0.0219479
        k(   24) = (   0.0555556  -0.5000000   0.3703704), wk =   0.0219479
        k(   25) = (   0.0555556  -0.5000000  -0.4761905), wk =   0.0109739
        k(   26) = (   0.1666667   0.1666667   0.0529101), wk =   0.0219479
        k(   27) = (   0.1666667   0.1666667   0.1587302), wk =   0.0219479
        k(   28) = (   0.1666667   0.1666667   0.2645503), wk =   0.0219479
        k(   29) = (   0.1666667   0.1666667   0.3703704), wk =   0.0219479
        k(   30) = (   0.1666667   0.1666667  -0.4761905), wk =   0.0109739
        k(   31) = (   0.1666667   0.2777778   0.0529101), wk =   0.0438957
        k(   32) = (   0.1666667   0.2777778   0.1587302), wk =   0.0438957
        k(   33) = (   0.1666667   0.2777778   0.2645503), wk =   0.0438957
        k(   34) = (   0.1666667   0.2777778   0.3703704), wk =   0.0438957
        k(   35) = (   0.1666667   0.2777778  -0.4761905), wk =   0.0219479
        k(   36) = (   0.1666667   0.3888889   0.0529101), wk =   0.0438957
        k(   37) = (   0.1666667   0.3888889   0.1587302), wk =   0.0438957
        k(   38) = (   0.1666667   0.3888889   0.2645503), wk =   0.0438957
        k(   39) = (   0.1666667   0.3888889   0.3703704), wk =   0.0438957
        k(   40) = (   0.1666667   0.3888889  -0.4761905), wk =   0.0219479
        k(   41) = (   0.1666667  -0.5000000   0.0529101), wk =   0.0219479
        k(   42) = (   0.1666667  -0.5000000   0.1587302), wk =   0.0219479
        k(   43) = (   0.1666667  -0.5000000   0.2645503), wk =   0.0219479
        k(   44) = (   0.1666667  -0.5000000   0.3703704), wk =   0.0219479
        k(   45) = (   0.1666667  -0.5000000  -0.4761905), wk =   0.0109739
        k(   46) = (   0.2777778   0.2777778   0.0529101), wk =   0.0219479
        k(   47) = (   0.2777778   0.2777778   0.1587302), wk =   0.0219479
        k(   48) = (   0.2777778   0.2777778   0.2645503), wk =   0.0219479
        k(   49) = (   0.2777778   0.2777778   0.3703704), wk =   0.0219479
        k(   50) = (   0.2777778   0.2777778  -0.4761905), wk =   0.0109739
        k(   51) = (   0.2777778   0.3888889   0.0529101), wk =   0.0438957
        k(   52) = (   0.2777778   0.3888889   0.1587302), wk =   0.0438957
        k(   53) = (   0.2777778   0.3888889   0.2645503), wk =   0.0438957
        k(   54) = (   0.2777778   0.3888889   0.3703704), wk =   0.0438957
        k(   55) = (   0.2777778   0.3888889  -0.4761905), wk =   0.0219479
        k(   56) = (   0.2777778  -0.5000000   0.0529101), wk =   0.0219479
        k(   57) = (   0.2777778  -0.5000000   0.1587302), wk =   0.0219479
        k(   58) = (   0.2777778  -0.5000000   0.2645503), wk =   0.0219479
        k(   59) = (   0.2777778  -0.5000000   0.3703704), wk =   0.0219479
        k(   60) = (   0.2777778  -0.5000000  -0.4761905), wk =   0.0109739
        k(   61) = (   0.3888889   0.3888889   0.0529101), wk =   0.0219479
        k(   62) = (   0.3888889   0.3888889   0.1587302), wk =   0.0219479
        k(   63) = (   0.3888889   0.3888889   0.2645503), wk =   0.0219479
        k(   64) = (   0.3888889   0.3888889   0.3703704), wk =   0.0219479
        k(   65) = (   0.3888889   0.3888889  -0.4761905), wk =   0.0109739
        k(   66) = (   0.3888889  -0.5000000   0.0529101), wk =   0.0219479
        k(   67) = (   0.3888889  -0.5000000   0.1587302), wk =   0.0219479
        k(   68) = (   0.3888889  -0.5000000   0.2645503), wk =   0.0219479
        k(   69) = (   0.3888889  -0.5000000   0.3703704), wk =   0.0219479
        k(   70) = (   0.3888889  -0.5000000  -0.4761905), wk =   0.0109739
        k(   71) = (  -0.5000000  -0.5000000   0.0529101), wk =   0.0054870
        k(   72) = (  -0.5000000  -0.5000000   0.1587302), wk =   0.0054870
        k(   73) = (  -0.5000000  -0.5000000   0.2645503), wk =   0.0054870
        k(   74) = (  -0.5000000  -0.5000000   0.3703704), wk =   0.0054870
        k(   75) = (  -0.5000000  -0.5000000  -0.4761905), wk =   0.0027435

     Check: negative core charge=   -0.000002

     Initial potential from superposition of free atoms

     starting charge  511.97959, renormalised to  512.00000
     Starting wfcs are  320 randomized atomic wfcs
     Checking if some PAW data can be deallocated...

     Self-consistent Calculation

     iteration #  1     ecut=    71.00 Ry     beta= 0.10
     Davidson diagonalization with overlap
     ethr =  1.00E-02,  avg # of iterations =  3.3

     Threshold (ethr) on eigenvalues was too large:
     Diagonalizing with lowered threshold

     Davidson diagonalization with overlap
     ethr =  3.19E-04,  avg # of iterations =  4.9

     total energy              =  -13813.26203366 Ry
     estimated scf accuracy    <       1.85348382 Ry

[...]

     iteration #  7     ecut=    71.00 Ry     beta= 0.10
     Davidson diagonalization with overlap
     c_bands:  1 eigenvalues not converged
     ethr =  4.36E-07,  avg # of iterations =  3.7

[...]

     total energy              =  -13813.08147300 Ry
     estimated scf accuracy    <       0.00002813 Ry

     iteration # 14     ecut=    71.00 Ry     beta= 0.10
     Davidson diagonalization with overlap
     ethr =  2.75E-09,  avg # of iterations =  1.2

     End of self-consistent calculation

          k = 0.0556 0.0556 0.0529 ( 31655 PWs)   bands (ev):

   -51.2331 -51.1479 -51.1479 -51.1320 -51.1320 -51.1315 -51.1125 -51.1067
   -51.1066 -51.1028 -51.0891 -51.0891 -51.0821 -51.0821 -51.0525 -51.0525
   -51.0180 -50.9798 -50.9713 -50.9713 -50.9649 -50.9629 -50.9629 -50.9622
   -50.9619 -50.9619 -50.9533 -50.9533 -50.9472 -50.9472 -50.9094 -50.9093
   -21.5828 -21.5828 -21.5822 -21.5791 -21.5362 -21.5362 -21.5044 -21.3588
   -21.3588 -21.3525 -21.3525 -21.3303 -21.3303 -21.3124 -21.3124 -21.3110
   -21.3086 -21.3086 -21.3083 -21.3083 -21.2995 -21.2800 -21.2800 -21.2353
   -21.2353 -21.2053 -21.2053 -21.1891 -21.1891 -21.1514 -21.1514 -21.1431
   -21.0885 -21.0885 -21.0457 -21.0457 -21.0343 -21.0343 -21.0117 -21.0117
   -21.0098 -21.0098 -21.0021 -20.9863 -20.9863 -20.9860 -20.9860 -20.9836
   -20.9810 -20.9717 -20.9717 -20.9648 -20.9648 -20.9586 -20.9405 -20.9403
   -20.9403 -20.9030 -20.9030 -20.8675 -20.8675 -20.8353 -20.8353 -20.8255
   -20.8237 -20.8201 -20.8148 -20.8148 -20.8042 -20.8039 -20.8039 -20.8015
   -20.8015 -20.7873 -20.7873 -20.7854 -20.7854 -20.7829 -20.7786 -20.7786
   -20.7735 -20.7607 -20.7607 -20.7514 -20.7514 -20.7382 -20.7382 -20.7011
   -20.6972 -20.6638 -20.6638 -20.6622 -20.6579 -20.6518 -20.6281 -20.6238
    14.2574  15.8250  15.8525  15.8525  16.0957  16.1160  16.1160  16.1172
    16.2603  16.3195  16.3195  16.3883  16.5055  16.5055  16.5807  16.6889
    16.6889  17.1287  17.1287  17.2558  17.2558  17.2658  17.2658  17.3061
    17.5008  17.5008  17.6723  17.6723  17.7024  17.7704  17.7802  17.7802
    17.7834  17.7834  17.8184  17.8184  17.8514  17.8514  17.8612  17.8612
    17.8912  18.2412  18.2412  18.2430  18.2430  18.2581  18.2581  18.3714
    18.3714  18.4458  18.4458  18.4629  18.4689  18.4689  18.4898  18.6042
    18.6042  18.6720  18.6720  18.7357  18.7357  18.7597  18.7597  18.8342
    18.8342  18.8580  18.8615  18.8615  18.9926  19.0270  19.0270  19.0375
    19.0375  19.1179  19.1179  19.1201  19.1275  19.1510  19.1510  19.1777
    19.3154  19.3154  19.4175  19.4175  19.4234  19.4327  19.5029  19.5229
    19.6697  20.3138  20.3138  20.4210  20.4210  20.5338  20.5338  20.5746
    20.5849  20.6291  20.6322  20.6322  20.6434  20.6434  20.6692  20.6692
    20.7873  20.7873  20.8524  20.8524  20.9440  20.9736  20.9736  20.9969
    21.0731  21.0731  21.2042  21.2042  21.2122  21.2122  21.3620  21.3620
    21.4244  21.4460  21.4460  21.5121  21.5121  21.5876  21.6056  21.6056
    21.6611  21.6836  21.6933  21.6933  21.7939  21.8260  21.8260  21.8492
    21.8492  21.9706  22.2267  22.2267  22.3853  22.3853  22.4213  22.4228
    22.4228  22.4310  22.6624  22.7975  23.2177  23.2177  23.2346  23.2676
    23.3255  23.3356  23.3357  23.3798  23.4294  23.4294  23.5214  23.6697
    23.6697  23.6722  23.6722  23.6802  23.6802  23.7019  23.7482  23.8733
    23.8733  24.0556  24.0556  24.9803  25.0124  25.0124  25.3277  25.4986
    25.4986  25.5028  25.5028

[...]

          k = 0.3889-0.5000-0.4762 ( 31668 PWs)   bands (ev):

[...]

          k =-0.5000-0.5000 0.0529 ( 31684 PWs)   bands (ev):

[...]

          k =-0.5000-0.5000-0.4762 ( 31704 PWs)   bands (ev):

   -51.1823 -51.1823 -51.1823 -51.1823 -51.1100 -51.1100 -51.1100 -51.1100
   -51.0796 -51.0796 -51.0796 -51.0796 -51.0796 -51.0796 -51.0796 -51.0796
   -50.9876 -50.9876 -50.9876 -50.9876 -50.9728 -50.9728 -50.9728 -50.9728
   -50.9362 -50.9362 -50.9362 -50.9362 -50.9362 -50.9362 -50.9362 -50.9362
   -21.4926 -21.4926 -21.4926 -21.4926 -21.4926 -21.4926 -21.4926 -21.4926
   -21.4373 -21.4373 -21.4373 -21.4373 -21.3821 -21.3821 -21.3821 -21.3821
   -21.3294 -21.3294 -21.3294 -21.3294 -21.3294 -21.3294 -21.3294 -21.3294
   -21.1386 -21.1386 -21.1386 -21.1386 -21.0861 -21.0861 -21.0861 -21.0861
   -21.0300 -21.0300 -21.0300 -21.0300 -21.0300 -21.0300 -21.0300 -21.0300
   -20.9581 -20.9581 -20.9581 -20.9581 -20.9581 -20.9581 -20.9581 -20.9581
   -20.9488 -20.9488 -20.9488 -20.9488 -20.9331 -20.9331 -20.9331 -20.9331
   -20.9162 -20.9162 -20.9162 -20.9162 -20.8867 -20.8867 -20.8867 -20.8867
   -20.8867 -20.8866 -20.8866 -20.8866 -20.8243 -20.8243 -20.8243 -20.8243
   -20.8243 -20.8243 -20.8243 -20.8243 -20.8087 -20.8087 -20.8087 -20.8087
   -20.7115 -20.7115 -20.7115 -20.7115 -20.7098 -20.7098 -20.7098 -20.7098
   -20.6620 -20.6620 -20.6620 -20.6620 -20.6490 -20.6490 -20.6490 -20.6490
    15.8837  15.8837  15.8837  15.8837  16.1400  16.1400  16.1400  16.1400
    16.7022  16.7022  16.7022  16.7022  16.8606  16.8606  16.8606  16.8606
    16.8606  16.8606  16.8606  16.8606  16.9059  16.9059  16.9059  16.9059
    16.9059  16.9059  16.9059  16.9059  17.1095  17.1095  17.1095  17.1095
    17.6388  17.6388  17.6388  17.6388  17.8256  17.8256  17.8256  17.8256
    17.8256  17.8256  17.8256  17.8256  18.0375  18.0375  18.0375  18.0375
    18.0375  18.0375  18.0375  18.0375  18.2448  18.2449  18.2449  18.2449
    19.0391  19.0391  19.0391  19.0391  19.2139  19.2139  19.2139  19.2139
    19.3439  19.3439  19.3439  19.3439  19.6751  19.6751  19.6751  19.6751
    19.7639  19.7639  19.7639  19.7639  19.8133  19.8133  19.8133  19.8133
    19.8265  19.8265  19.8265  19.8265  19.8265  19.8265  19.8265  19.8265
    19.8957  19.8957  19.8957  19.8957  19.9832  19.9832  19.9832  19.9832
    20.1324  20.1324  20.1324  20.1324  20.1324  20.1324  20.1324  20.1324
    20.8403  20.8403  20.8403  20.8403  20.8403  20.8403  20.8403  20.8403
    21.0583  21.0583  21.0583  21.0583  21.0634  21.0634  21.0634  21.0635
    21.0635  21.0635  21.0635  21.0635  21.2220  21.2220  21.2220  21.2220
    21.4594  21.4594  21.4594  21.4594  21.9373  21.9373  21.9373  21.9373
    21.9440  21.9440  21.9440  21.9440  21.9960  21.9960  21.9960  21.9960
    23.3839  23.3839  23.3839  23.3839  23.3839  23.3839  23.3839  23.3839
    23.3982  23.3982  23.3982  23.3982  23.4986  23.4986  23.4986  23.4986
    23.5333  23.5333  23.5333  23.5333  23.5333  23.5333  23.5333  23.5333
    26.2461  26.2461  26.2462  26.2462  26.6274  26.6274  26.6274  26.6274
    26.6560  26.6562  26.6563

     the Fermi energy is    21.7938 ev

!    total energy              =  -13813.08147406 Ry

     total all-electron energy =   -289989.471813 Ry
     estimated scf accuracy    <       0.00000093 Ry
     smearing contrib. (-TS)   =       0.01591129 Ry
     internal energy E=F+TS    =  -13813.09738535 Ry

     The total energy is F=E-TS. E is the sum of the following terms:
     one-electron contribution =   -1191.10692108 Ry
     hartree contribution      =     989.54541867 Ry
     xc contribution           =    -926.63407091 Ry
     ewald contribution        =   -5095.51419847 Ry
     one-center paw contrib.   =   -7589.38761356 Ry

     convergence has been achieved in  14 iterations

     Forces acting on atoms (cartesian axes, Ry/au):

     atom    1 type  1   force =     0.00000000    0.00000000    0.04207600
     atom    2 type  1   force =     0.00000250    0.00000250    0.04207010
     atom    3 type  1   force =     0.00001185    0.00000000    0.03475064
     atom    4 type  1   force =     0.00000000    0.00001185    0.03475064
     atom    5 type  1   force =     0.00000000    0.00000000   -0.03475088
     atom    6 type  1   force =     0.00002195    0.00002195   -0.03473434
     atom    7 type  1   force =    -0.00000472    0.00000000   -0.04205327
     atom    8 type  1   force =     0.00000000   -0.00000472   -0.04205327
     atom    9 type  1   force =     0.00000000    0.00000000    0.04205161
     atom   10 type  1   force =     0.00000250   -0.00000250    0.04207010
     atom   11 type  1   force =    -0.00000920    0.00000000    0.03477252
     atom   12 type  1   force =     0.00000000   -0.00001185    0.03475064
     atom   13 type  1   force =     0.00000000    0.00000000   -0.03477320
     atom   14 type  1   force =     0.00002195   -0.00002195   -0.03473434
     atom   15 type  1   force =    -0.00000128    0.00000000   -0.04209672
     atom   16 type  1   force =     0.00000000    0.00000472   -0.04205327
     atom   17 type  1   force =     0.00000000    0.00000000    0.04205161
     atom   18 type  1   force =    -0.00000250    0.00000250    0.04207010
     atom   19 type  1   force =    -0.00001185    0.00000000    0.03475064
     atom   20 type  1   force =     0.00000000   -0.00000920    0.03477252
     atom   21 type  1   force =     0.00000000    0.00000000   -0.03477320
     atom   22 type  1   force =    -0.00002195    0.00002195   -0.03473434
     atom   23 type  1   force =     0.00000472    0.00000000   -0.04205327
     atom   24 type  1   force =     0.00000000   -0.00000128   -0.04209672
     atom   25 type  1   force =     0.00000000    0.00000000    0.04205971
     atom   26 type  1   force =    -0.00000250   -0.00000250    0.04207010
     atom   27 type  1   force =     0.00000920    0.00000000    0.03477252
     atom   28 type  1   force =     0.00000000    0.00000920    0.03477252
     atom   29 type  1   force =     0.00000000    0.00000000   -0.03477737
     atom   30 type  1   force =    -0.00002195   -0.00002195   -0.03473434
     atom   31 type  1   force =     0.00000128    0.00000000   -0.04209672
     atom   32 type  1   force =     0.00000000    0.00000128   -0.04209672

     Total force =     0.218281     Total SCF correction =     0.001093

     Computing stress (Cartesian axis) and pressure

          total   stress  (Ry/bohr**3)                   (kbar)     P=     -102.94
  -0.00048872   0.00000000   0.00000000          -71.89        0.00        0.00
   0.00000000  -0.00048872   0.00000000            0.00      -71.89        0.00
   0.00000000   0.00000000  -0.00112183            0.00        0.00     -165.03

     Writing output data file /scratch/NqjBkOxznvHUqOYp.save/

     General routines

     Parallel routines

   This run was terminated on:  16:14:28  25Nov2021

   JOB DONE.