     Program PWSCF v.6.7MaX starts on 25Nov2021 at 18:29:55

     R & G space division:  proc/nbgrp/npool/nimage =      72
     Reading input from scf_8.in
Warning: card &CELL ignored
Warning: card CELL_DYNAMICS = 'BFGS', ignored
Warning: card CELL_FACTOR = 2.0, ignored
Warning: card PRESS = 0.0, ignored
Warning: card / ignored

     Current dimensions of program PWSCF are:
     Max number of different atomic species (ntypx) = 10
     Max number of k-points (npk) =  40000
     Max angular momentum in pseudopotentials (lmaxx) =  3
     file Ru.pbe-spn-kjpaw_psl.1.0.0.UPF: wavefunction(s)  4D renormalized

     Subspace diagonalization in iterative solution of the eigenvalue problem:
     one sub-group per band group will be used

     Found symmetry operation: I + (  0.2500  0.2500  0.0000)
     This is a supercell, fractional translations are disabled
     Message from routine setup:
     using ibrav=0 with symmetry is DISCOURAGED, use correct ibrav instead

     bravais-lattice index     =            0
     lattice parameter (alat)  =      14.4007  a.u.
     unit-cell volume          =    4031.7012 (a.u.)^3
     number of atoms/cell      =           32
     number of atomic types    =            1
     number of electrons       =       512.00
     number of Kohn-Sham states=          307
     kinetic-energy cutoff     =      71.0000  Ry
     charge density cutoff     =     430.0000  Ry
     scf convergence threshold =      1.0E-06
     mixing beta               =       0.1000
     number of iterations used =           10  TF        mixing
     Exchange-correlation= SLA  PW   PBX  PBC
                           (   1   4   3   4   0   0   0)

     celldm(1)=  14.400742  celldm(2)=   0.000000  celldm(3)=   0.000000
     celldm(4)=   0.000000  celldm(5)=   0.000000  celldm(6)=   0.000000

     crystal axes: (cart. coord. in units of alat)
               a(1) = (   1.000000   0.000000   0.000000 )
               a(2) = (   0.000000   1.000000   0.000000 )
               a(3) = (   0.000000   0.000000   1.350000 )

     reciprocal axes: (cart. coord. in units 2 pi/alat)
               b(1) = (  1.000000  0.000000  0.000000 )
               b(2) = (  0.000000  1.000000  0.000000 )
               b(3) = (  0.000000  0.000000  0.740741 )

     PseudoPot. # 1 for Ru read from file:
     /rds/homes/b/bxp912/pp/Ru.pbe-spn-kjpaw_psl.1.0.0.UPF
     MD5 check sum: 0ae1f594dea09af7be8575c3a481d1ae
     Pseudo is Projector augmented-wave + core cor, Zval = 16.0
     Generated using "atomic" code by A. Dal Corso  v.5.1
     Shape of augmentation charge: PSQ
     Using radial grid of 1233 points,  6 beta functions with:
                l(1) =   0
                l(2) =   0
                l(3) =   1
                l(4) =   1
                l(5) =   2
                l(6) =   2
     Q(r) pseudized with 0 coefficients

     atomic species   valence    mass     pseudopotential
        Ru            16.00   101.07000     Ru( 1.00)

      8 Sym. Ops. (no inversion) found

   Cartesian axes

     site n.     atom                  positions (alat units)
         1           Ru  tau(   1) = (   0.0000000   0.0000000   0.0000000  )
         2           Ru  tau(   2) = (   0.2500000   0.2500000   0.0000000  )
         3           Ru  tau(   3) = (   0.2500000   0.0000000   0.2500000  )
         4           Ru  tau(   4) = (   0.0000000   0.2500000   0.2500000  )
         5           Ru  tau(   5) = (   0.0000000   0.0000000   0.8500000  )
         6           Ru  tau(   6) = (   0.2500000   0.2500000   0.8500000  )
         7           Ru  tau(   7) = (   0.2500000   0.0000000   1.1000000  )
         8           Ru  tau(   8) = (   0.0000000   0.2500000   1.1000000  )
         9           Ru  tau(   9) = (   0.0000000   0.5000000   0.0000000  )
        10           Ru  tau(  10) = (   0.2500000   0.7500000   0.0000000  )
        11           Ru  tau(  11) = (   0.2500000   0.5000000   0.2500000  )
        12           Ru  tau(  12) = (   0.0000000   0.7500000   0.2500000  )
        13           Ru  tau(  13) = (   0.0000000   0.5000000   0.8500000  )
        14           Ru  tau(  14) = (   0.2500000   0.7500000   0.8500000  )
        15           Ru  tau(  15) = (   0.2500000   0.5000000   1.1000000  )
        16           Ru  tau(  16) = (   0.0000000   0.7500000   1.1000000  )
        17           Ru  tau(  17) = (   0.5000000   0.0000000   0.0000000  )
        18           Ru  tau(  18) = (   0.7500000   0.2500000   0.0000000  )
        19           Ru  tau(  19) = (   0.7500000   0.0000000   0.2500000  )
        20           Ru  tau(  20) = (   0.5000000   0.2500000   0.2500000  )
        21           Ru  tau(  21) = (   0.5000000   0.0000000   0.8500000  )
        22           Ru  tau(  22) = (   0.7500000   0.2500000   0.8500000  )
        23           Ru  tau(  23) = (   0.7500000   0.0000000   1.1000000  )
        24           Ru  tau(  24) = (   0.5000000   0.2500000   1.1000000  )
        25           Ru  tau(  25) = (   0.5000000   0.5000000   0.0000000  )
        26           Ru  tau(  26) = (   0.7500000   0.7500000   0.0000000  )
        27           Ru  tau(  27) = (   0.7500000   0.5000000   0.2500000  )
        28           Ru  tau(  28) = (   0.5000000   0.7500000   0.2500000  )
        29           Ru  tau(  29) = (   0.5000000   0.5000000   0.8500000  )
        30           Ru  tau(  30) = (   0.7500000   0.7500000   0.8500000  )
        31           Ru  tau(  31) = (   0.7500000   0.5000000   1.1000000  )
        32           Ru  tau(  32) = (   0.5000000   0.7500000   1.1000000  )

     number of k points=    75  Marzari-Vanderbilt smearing, width (Ry)=  0.0400
                       cart. coord. in units 2pi/alat
        k(    1) = (   0.0555556   0.0555556   0.0411523), wk =   0.0219479
        k(    2) = (   0.0555556   0.0555556   0.1234568), wk =   0.0219479
        k(    3) = (   0.0555556   0.0555556   0.2057613), wk =   0.0219479
        k(    4) = (   0.0555556   0.0555556   0.2880658), wk =   0.0219479
        k(    5) = (   0.0555556   0.0555556  -0.3703704), wk =   0.0109739
        k(    6) = (   0.0555556   0.1666667   0.0411523), wk =   0.0438957
        k(    7) = (   0.0555556   0.1666667   0.1234568), wk =   0.0438957
        k(    8) = (   0.0555556   0.1666667   0.2057613), wk =   0.0438957
        k(    9) = (   0.0555556   0.1666667   0.2880658), wk =   0.0438957
        k(   10) = (   0.0555556   0.1666667  -0.3703704), wk =   0.0219479
        k(   11) = (   0.0555556   0.2777778   0.0411523), wk =   0.0438957
        k(   12) = (   0.0555556   0.2777778   0.1234568), wk =   0.0438957
        k(   13) = (   0.0555556   0.2777778   0.2057613), wk =   0.0438957
        k(   14) = (   0.0555556   0.2777778   0.2880658), wk =   0.0438957
        k(   15) = (   0.0555556   0.2777778  -0.3703704), wk =   0.0219479
        k(   16) = (   0.0555556   0.3888889   0.0411523), wk =   0.0438957
        k(   17) = (   0.0555556   0.3888889   0.1234568), wk =   0.0438957
        k(   18) = (   0.0555556   0.3888889   0.2057613), wk =   0.0438957
        k(   19) = (   0.0555556   0.3888889   0.2880658), wk =   0.0438957
        k(   20) = (   0.0555556   0.3888889  -0.3703704), wk =   0.0219479
        k(   21) = (   0.0555556  -0.5000000   0.0411523), wk =   0.0219479
        k(   22) = (   0.0555556  -0.5000000   0.1234568), wk =   0.0219479
        k(   23) = (   0.0555556  -0.5000000   0.2057613), wk =   0.0219479
        k(   24) = (   0.0555556  -0.5000000   0.2880658), wk =   0.0219479
        k(   25) = (   0.0555556  -0.5000000  -0.3703704), wk =   0.0109739
        k(   26) = (   0.1666667   0.1666667   0.0411523), wk =   0.0219479
        k(   27) = (   0.1666667   0.1666667   0.1234568), wk =   0.0219479
        k(   28) = (   0.1666667   0.1666667   0.2057613), wk =   0.0219479
        k(   29) = (   0.1666667   0.1666667   0.2880658), wk =   0.0219479
        k(   30) = (   0.1666667   0.1666667  -0.3703704), wk =   0.0109739
        k(   31) = (   0.1666667   0.2777778   0.0411523), wk =   0.0438957
        k(   32) = (   0.1666667   0.2777778   0.1234568), wk =   0.0438957
        k(   33) = (   0.1666667   0.2777778   0.2057613), wk =   0.0438957
        k(   34) = (   0.1666667   0.2777778   0.2880658), wk =   0.0438957
        k(   35) = (   0.1666667   0.2777778  -0.3703704), wk =   0.0219479
        k(   36) = (   0.1666667   0.3888889   0.0411523), wk =   0.0438957
        k(   37) = (   0.1666667   0.3888889   0.1234568), wk =   0.0438957
        k(   38) = (   0.1666667   0.3888889   0.2057613), wk =   0.0438957
        k(   39) = (   0.1666667   0.3888889   0.2880658), wk =   0.0438957
        k(   40) = (   0.1666667   0.3888889  -0.3703704), wk =   0.0219479
        k(   41) = (   0.1666667  -0.5000000   0.0411523), wk =   0.0219479
        k(   42) = (   0.1666667  -0.5000000   0.1234568), wk =   0.0219479
        k(   43) = (   0.1666667  -0.5000000   0.2057613), wk =   0.0219479
        k(   44) = (   0.1666667  -0.5000000   0.2880658), wk =   0.0219479
        k(   45) = (   0.1666667  -0.5000000  -0.3703704), wk =   0.0109739
        k(   46) = (   0.2777778   0.2777778   0.0411523), wk =   0.0219479
        k(   47) = (   0.2777778   0.2777778   0.1234568), wk =   0.0219479
        k(   48) = (   0.2777778   0.2777778   0.2057613), wk =   0.0219479
        k(   49) = (   0.2777778   0.2777778   0.2880658), wk =   0.0219479
        k(   50) = (   0.2777778   0.2777778  -0.3703704), wk =   0.0109739
        k(   51) = (   0.2777778   0.3888889   0.0411523), wk =   0.0438957
        k(   52) = (   0.2777778   0.3888889   0.1234568), wk =   0.0438957
        k(   53) = (   0.2777778   0.3888889   0.2057613), wk =   0.0438957
        k(   54) = (   0.2777778   0.3888889   0.2880658), wk =   0.0438957
        k(   55) = (   0.2777778   0.3888889  -0.3703704), wk =   0.0219479
        k(   56) = (   0.2777778  -0.5000000   0.0411523), wk =   0.0219479
        k(   57) = (   0.2777778  -0.5000000   0.1234568), wk =   0.0219479
        k(   58) = (   0.2777778  -0.5000000   0.2057613), wk =   0.0219479
        k(   59) = (   0.2777778  -0.5000000   0.2880658), wk =   0.0219479
        k(   60) = (   0.2777778  -0.5000000  -0.3703704), wk =   0.0109739
        k(   61) = (   0.3888889   0.3888889   0.0411523), wk =   0.0219479
        k(   62) = (   0.3888889   0.3888889   0.1234568), wk =   0.0219479
        k(   63) = (   0.3888889   0.3888889   0.2057613), wk =   0.0219479
        k(   64) = (   0.3888889   0.3888889   0.2880658), wk =   0.0219479
        k(   65) = (   0.3888889   0.3888889  -0.3703704), wk =   0.0109739
        k(   66) = (   0.3888889  -0.5000000   0.0411523), wk =   0.0219479
        k(   67) = (   0.3888889  -0.5000000   0.1234568), wk =   0.0219479
        k(   68) = (   0.3888889  -0.5000000   0.2057613), wk =   0.0219479
        k(   69) = (   0.3888889  -0.5000000   0.2880658), wk =   0.0219479
        k(   70) = (   0.3888889  -0.5000000  -0.3703704), wk =   0.0109739
        k(   71) = (  -0.5000000  -0.5000000   0.0411523), wk =   0.0054870
        k(   72) = (  -0.5000000  -0.5000000   0.1234568), wk =   0.0054870
        k(   73) = (  -0.5000000  -0.5000000   0.2057613), wk =   0.0054870
        k(   74) = (  -0.5000000  -0.5000000   0.2880658), wk =   0.0054870
        k(   75) = (  -0.5000000  -0.5000000  -0.3703704), wk =   0.0027435

     Check: negative core charge=   -0.000002

     Initial potential from superposition of free atoms

     starting charge  511.97959, renormalised to  512.00000
     Starting wfcs are  320 randomized atomic wfcs
     Checking if some PAW data can be deallocated...

     Self-consistent Calculation

     iteration #  1     ecut=    71.00 Ry     beta= 0.10
     Davidson diagonalization with overlap
     ethr =  1.00E-02,  avg # of iterations =  3.5

     total energy              =  -13812.50208672 Ry
     estimated scf accuracy    <      11.39876036 Ry

[...]

     iteration #  9     ecut=    71.00 Ry     beta= 0.10
     Davidson diagonalization with overlap
     c_bands:  1 eigenvalues not converged
     ethr =  1.80E-05,  avg # of iterations =  2.1

[...]

     iteration # 10     ecut=    71.00 Ry     beta= 0.10
     Davidson diagonalization with overlap
     c_bands:  1 eigenvalues not converged
     ethr =  1.02E-05,  avg # of iterations =  4.0

[...]

     total energy              =  -13811.71842334 Ry
     estimated scf accuracy    <       0.00000174 Ry

     iteration # 22     ecut=    71.00 Ry     beta= 0.10
     Davidson diagonalization with overlap
     ethr =  2.38E-10,  avg # of iterations =  3.1

     End of self-consistent calculation

          k = 0.0556 0.0556 0.0412 ( 40789 PWs)   bands (ev):

   -57.0972 -57.0178 -57.0178 -57.0028 -57.0027 -56.9884 -56.9857 -56.9799
   -56.9799 -56.9759 -56.9575 -56.9574 -56.9520 -56.9520 -56.9258 -56.9258
   -56.5894 -56.5877 -56.5433 -56.5433 -56.5430 -56.5430 -56.5404 -56.5403
   -56.5396 -56.5396 -56.5342 -56.5342 -56.5341 -56.5341 -56.4857 -56.4857
   -27.4190 -27.4183 -27.4183 -27.4131 -27.3820 -27.3820 -27.3139 -27.2113
   -27.2112 -27.2092 -27.2092 -27.1644 -27.1644 -27.1381 -27.1381 -27.1226
   -27.1226 -27.1120 -27.1120 -27.0767 -27.0767 -27.0414 -27.0369 -27.0369
   -27.0288 -27.0052 -27.0051 -26.9769 -26.9769 -26.9331 -26.9117 -26.9117
   -26.9011 -26.9011 -26.8713 -26.8713 -26.8393 -26.8386 -26.7866 -26.7866
   -26.7766 -26.7766 -26.7449 -26.7449 -26.7183 -26.7183 -26.6953 -26.6924
   -26.6924 -26.6805 -26.6793 -26.6727 -26.6658 -26.6654 -26.6654 -26.6512
   -26.5578 -26.5578 -26.5531 -26.5531 -26.5273 -26.5273 -26.5173 -26.5173
   -26.5168 -26.5168 -26.5165 -26.5165 -26.4843 -26.4843 -26.4805 -26.4805
   -26.4755 -26.4402 -26.4393 -26.4393 -26.4352 -26.4352 -26.4299 -26.4253
   -26.4253 -26.4163 -26.4163 -26.4092 -26.4092 -26.4028 -26.4028 -26.3960
   -26.2999 -26.2967 -26.2931 -26.2888 -26.2702 -26.2702 -26.2666 -26.2665
     8.8257  10.0687  10.2123  10.2123  10.4856  10.4982  10.5038  10.5038
    10.5059  10.5664  10.7116  10.7116  10.9506  10.9506  11.0133  11.1300
    11.1300  11.3982  11.3982  11.4171  11.5726  11.5726  11.6070  11.6070
    11.7664  11.7664  11.8122  11.8265  11.8384  11.8384  11.8811  11.8811
    12.0978  12.0978  12.1361  12.1361  12.1595  12.1596  12.2126  12.2126
    12.3442  12.3442  12.4322  12.4322  12.4600  12.5664  12.5664  12.5761
    12.5761  12.8310  12.8310  12.8551  12.8681  12.8681  12.8736  12.8736
    12.9630  12.9630  13.1052  13.1541  13.1541  13.1806  13.2855  13.3016
    13.3016  13.3315  13.3997  13.3997  13.4821  13.4821  13.5791  13.5791
    13.6750  13.6750  13.6962  13.7045  13.8204  13.8390  13.9352  13.9611
    13.9611  14.0120  14.2690  14.2690  14.2899  14.3532  14.3532  14.3849
    14.3849  14.5652  14.5652  14.6333  14.6333  14.6425  14.6425  14.7180
    14.7180  14.7535  14.7730  14.8016  14.8016  14.8251  14.8988  14.8988
    14.9959  15.0259  15.0259  15.0318  15.0318  15.0325  15.2216  15.2216
    15.2658  15.2658  15.4081  15.4081  15.4208  15.4208  15.4587  15.6123
    15.6123  15.6540  15.6540  15.7094  15.7094  15.9775  15.9775  15.9929
    16.0954  16.0954  16.1439  16.2234  16.2234  16.2649  16.2649  16.3007
    16.3065  16.3266  16.3266  16.3777  16.3866  16.3866  16.4020  16.5075
    16.5515  16.5515  16.6723  16.7468  16.7468  17.0768  17.0768  17.1985
    17.1985  17.1986  17.2681  17.3332  17.3861  17.5000  17.5287  17.5287
    17.5393  17.5393  17.6820  17.7428  17.7428  17.7757  18.0203  18.0203
    18.0389  18.0952  18.1570  18.1570  18.1955  18.1955  18.4213  18.4213
    18.5522  18.9578  18.9578

[...]

          k = 0.3889-0.5000-0.3704 ( 40776 PWs)   bands (ev):

[...]

          k =-0.5000-0.5000 0.0412 ( 40652 PWs)   bands (ev):

[...]

          k =-0.5000-0.5000-0.3704 ( 40728 PWs)   bands (ev):

   -57.0510 -57.0510 -57.0510 -57.0510 -56.9728 -56.9728 -56.9728 -56.9728
   -56.9530 -56.9530 -56.9529 -56.9529 -56.9529 -56.9529 -56.9529 -56.9529
   -56.5648 -56.5648 -56.5648 -56.5648 -56.5642 -56.5642 -56.5642 -56.5642
   -56.5127 -56.5127 -56.5127 -56.5127 -56.5127 -56.5127 -56.5127 -56.5127
   -27.3511 -27.3511 -27.3510 -27.3510 -27.3510 -27.3510 -27.3510 -27.3510
   -27.2703 -27.2703 -27.2703 -27.2702 -27.1975 -27.1975 -27.1975 -27.1975
   -27.0597 -27.0597 -27.0597 -27.0597 -27.0597 -27.0597 -27.0596 -27.0596
   -26.9587 -26.9587 -26.9587 -26.9587 -26.8766 -26.8766 -26.8766 -26.8766
   -26.8766 -26.8766 -26.8766 -26.8766 -26.8598 -26.8598 -26.8598 -26.8598
   -26.7832 -26.7832 -26.7832 -26.7832 -26.6833 -26.6833 -26.6833 -26.6833
   -26.6833 -26.6833 -26.6833 -26.6833 -26.6569 -26.6569 -26.6568 -26.6568
   -26.5485 -26.5485 -26.5485 -26.5485 -26.5161 -26.5161 -26.5161 -26.5161
   -26.5161 -26.5161 -26.5161 -26.5161 -26.5139 -26.5139 -26.5139 -26.5138
   -26.4336 -26.4335 -26.4335 -26.4335 -26.4335 -26.4335 -26.4335 -26.4335
   -26.4151 -26.4150 -26.4150 -26.4150 -26.4147 -26.4147 -26.4147 -26.4147
   -26.2810 -26.2810 -26.2810 -26.2810 -26.2781 -26.2781 -26.2781 -26.2781
    10.0834  10.0834  10.0834  10.0834  10.6818  10.6818  10.6818  10.6818
    11.1075  11.1075  11.1075  11.1075  11.1075  11.1075  11.1075  11.1075
    11.1748  11.1748  11.1748  11.1748  11.2550  11.2550  11.2550  11.2550
    11.2550  11.2550  11.2550  11.2550  11.4217  11.4217  11.4217  11.4217
    11.8231  11.8231  11.8231  11.8231  12.2020  12.2020  12.2020  12.2020
    12.2020  12.2020  12.2020  12.2020  12.5405  12.5405  12.5405  12.5405
    12.5405  12.5405  12.5405  12.5405  12.8260  12.8260  12.8260  12.8261
    13.2369  13.2369  13.2369  13.2369  13.6750  13.6750  13.6750  13.6750
    13.7526  13.7526  13.7526  13.7526  13.8619  13.8619  13.8619  13.8619
    14.0357  14.0357  14.0357  14.0357  14.0655  14.0655  14.0655  14.0655
    14.0655  14.0655  14.0655  14.0655  14.1793  14.1793  14.1793  14.1793
    14.3075  14.3075  14.3076  14.3076  14.5503  14.5503  14.5503  14.5503
    14.8824  14.8824  14.8824  14.8824  14.8824  14.8824  14.8824  14.8824
    15.0390  15.0390  15.0390  15.0390  15.0390  15.0390  15.0390  15.0390
    15.1566  15.1566  15.1566  15.1566  15.3460  15.3460  15.3460  15.3460
    15.5273  15.5273  15.5273  15.5273  15.6654  15.6654  15.6654  15.6654
    15.6654  15.6654  15.6654  15.6654  16.0452  16.0452  16.0452  16.0452
    16.3330  16.3330  16.3330  16.3330  16.6413  16.6413  16.6413  16.6413
    16.8688  16.8688  16.8688  16.8688  16.8688  16.8688  16.8688  16.8688
    17.4161  17.4161  17.4161  17.4161  17.5658  17.5658  17.5658  17.5658
    17.5658  17.5658  17.5658  17.5658  17.6246  17.6246  17.6247  17.6247
    17.8028  17.8028  17.8029  17.8029  19.1052  19.1052  19.1052  19.1052
    20.5536  20.5536  20.5536

     the Fermi energy is    15.9834 ev

!    total energy              =  -13811.71842422 Ry

     total all-electron energy =   -289988.108763 Ry
     estimated scf accuracy    <       0.00000025 Ry
     smearing contrib. (-TS)   =       0.00034230 Ry
     internal energy E=F+TS    =  -13811.71876652 Ry

     The total energy is F=E-TS. E is the sum of the following terms:
     one-electron contribution =   -4875.91685652 Ry
     hartree contribution      =    2724.21326831 Ry
     xc contribution           =    -925.59259803 Ry
     ewald contribution        =   -3145.08935960 Ry
     one-center paw contrib.   =   -7589.33322068 Ry

     convergence has been achieved in  22 iterations

     Forces acting on atoms (cartesian axes, Ry/au):

     atom    1 type  1   force =     0.00000000    0.00000000    0.04154687
     atom    2 type  1   force =     0.00000307    0.00000307    0.04154039
     atom    3 type  1   force =     0.00000864    0.00000000   -0.02654162
     atom    4 type  1   force =     0.00000000    0.00000864   -0.02654162
     atom    5 type  1   force =     0.00000000    0.00000000    0.02654196
     atom    6 type  1   force =     0.00001595    0.00001595    0.02654161
     atom    7 type  1   force =     0.00001924    0.00000000   -0.04153485
     atom    8 type  1   force =    -0.00000000    0.00001924   -0.04153485
     atom    9 type  1   force =     0.00000000    0.00000000    0.04154058
     atom   10 type  1   force =     0.00000307   -0.00000307    0.04154039
     atom   11 type  1   force =    -0.00001126    0.00000000   -0.02654453
     atom   12 type  1   force =     0.00000000   -0.00000864   -0.02654162
     atom   13 type  1   force =     0.00000000    0.00000000    0.02654408
     atom   14 type  1   force =     0.00001595   -0.00001595    0.02654161
     atom   15 type  1   force =     0.00000389    0.00000000   -0.04154345
     atom   16 type  1   force =     0.00000000   -0.00001924   -0.04153485
     atom   17 type  1   force =     0.00000000    0.00000000    0.04154058
     atom   18 type  1   force =    -0.00000307    0.00000307    0.04154039
     atom   19 type  1   force =    -0.00000864    0.00000000   -0.02654162
     atom   20 type  1   force =     0.00000000   -0.00001126   -0.02654453
     atom   21 type  1   force =     0.00000000    0.00000000    0.02654408
     atom   22 type  1   force =    -0.00001595    0.00001595    0.02654161
     atom   23 type  1   force =    -0.00001924   -0.00000000   -0.04153485
     atom   24 type  1   force =     0.00000000    0.00000389   -0.04154345
     atom   25 type  1   force =     0.00000000    0.00000000    0.04153331
     atom   26 type  1   force =    -0.00000307   -0.00000307    0.04154039
     atom   27 type  1   force =     0.00001126    0.00000000   -0.02654453
     atom   28 type  1   force =     0.00000000    0.00001126   -0.02654453
     atom   29 type  1   force =     0.00000000    0.00000000    0.02653838
     atom   30 type  1   force =    -0.00001595   -0.00001595    0.02654161
     atom   31 type  1   force =    -0.00000389    0.00000000   -0.04154345
     atom   32 type  1   force =     0.00000000   -0.00000389   -0.04154345

     Total force =     0.197182     Total SCF correction =     0.002476

     Computing stress (Cartesian axis) and pressure

          total   stress  (Ry/bohr**3)                   (kbar)     P=      -97.31
  -0.00068620   0.00000000   0.00000000         -100.94        0.00        0.00
   0.00000000  -0.00068620   0.00000000            0.00     -100.94        0.00
   0.00000000   0.00000000  -0.00061217            0.00        0.00      -90.05

     Writing output data file /scratch/jYMrYHDMQwoWnEiw.save/

     General routines

     Parallel routines

   This run was terminated on:  19: 4:43  25Nov2021

   JOB DONE.