     Program PWSCF v.6.7MaX starts on 25Nov2021 at 21:41:51

     R & G space division:  proc/nbgrp/npool/nimage =      72
     Reading input from scf_13.in
Warning: card &CELL ignored
Warning: card CELL_DYNAMICS = 'BFGS', ignored
Warning: card CELL_FACTOR = 2.0, ignored
Warning: card PRESS = 0.0, ignored
Warning: card / ignored

     Current dimensions of program PWSCF are:
     Max number of different atomic species (ntypx) = 10
     Max number of k-points (npk) =  40000
     Max angular momentum in pseudopotentials (lmaxx) =  3
     file Ru.pbe-spn-kjpaw_psl.1.0.0.UPF: wavefunction(s)  4D renormalized

     Subspace diagonalization in iterative solution of the eigenvalue problem:
     one sub-group per band group will be used

     Found symmetry operation: I + (  0.2500  0.2500  0.0000)
     This is a supercell, fractional translations are disabled
     Message from routine setup:
     using ibrav=0 with symmetry is DISCOURAGED, use correct ibrav instead

     bravais-lattice index     =            0
     lattice parameter (alat)  =      14.4007  a.u.
     unit-cell volume          =    4778.3126 (a.u.)^3
     number of atoms/cell      =           32
     number of atomic types    =            1
     number of electrons       =       512.00
     number of Kohn-Sham states=          307
     kinetic-energy cutoff     =      71.0000  Ry
     charge density cutoff     =     430.0000  Ry
     scf convergence threshold =      1.0E-06
     mixing beta               =       0.1000
     number of iterations used =           10  TF        mixing
     Exchange-correlation= SLA  PW   PBX  PBC
                           (   1   4   3   4   0   0   0)

     celldm(1)=  14.400742  celldm(2)=   0.000000  celldm(3)=   0.000000
     celldm(4)=   0.000000  celldm(5)=   0.000000  celldm(6)=   0.000000

     crystal axes: (cart. coord. in units of alat)
               a(1) = (   1.000000   0.000000   0.000000 )
               a(2) = (   0.000000   1.000000   0.000000 )
               a(3) = (   0.000000   0.000000   1.600000 )

     reciprocal axes: (cart. coord. in units 2 pi/alat)
               b(1) = (  1.000000  0.000000  0.000000 )
               b(2) = (  0.000000  1.000000  0.000000 )
               b(3) = (  0.000000  0.000000  0.625000 )

     PseudoPot. # 1 for Ru read from file:
     /rds/homes/b/bxp912/pp/Ru.pbe-spn-kjpaw_psl.1.0.0.UPF
     MD5 check sum: 0ae1f594dea09af7be8575c3a481d1ae
     Pseudo is Projector augmented-wave + core cor, Zval = 16.0
     Generated using "atomic" code by A. Dal Corso  v.5.1
     Shape of augmentation charge: PSQ
     Using radial grid of 1233 points,  6 beta functions with:
                l(1) =   0
                l(2) =   0
                l(3) =   1
                l(4) =   1
                l(5) =   2
                l(6) =   2
     Q(r) pseudized with 0 coefficients

     atomic species   valence    mass     pseudopotential
        Ru            16.00   101.07000     Ru( 1.00)

      8 Sym. Ops. (no inversion) found

   Cartesian axes

     site n.     atom                  positions (alat units)
         1           Ru  tau(   1) = (   0.0000000   0.0000000   0.0000000  )
         2           Ru  tau(   2) = (   0.2500000   0.2500000   0.0000000  )
         3           Ru  tau(   3) = (   0.2500000   0.0000000   0.2500000  )
         4           Ru  tau(   4) = (   0.0000000   0.2500000   0.2500000  )
         5           Ru  tau(   5) = (   0.0000000   0.0000000   1.1000000  )
         6           Ru  tau(   6) = (   0.2500000   0.2500000   1.1000000  )
         7           Ru  tau(   7) = (   0.2500000   0.0000000   1.3500000  )
         8           Ru  tau(   8) = (   0.0000000   0.2500000   1.3500000  )
         9           Ru  tau(   9) = (   0.0000000   0.5000000   0.0000000  )
        10           Ru  tau(  10) = (   0.2500000   0.7500000   0.0000000  )
        11           Ru  tau(  11) = (   0.2500000   0.5000000   0.2500000  )
        12           Ru  tau(  12) = (   0.0000000   0.7500000   0.2500000  )
        13           Ru  tau(  13) = (   0.0000000   0.5000000   1.1000000  )
        14           Ru  tau(  14) = (   0.2500000   0.7500000   1.1000000  )
        15           Ru  tau(  15) = (   0.2500000   0.5000000   1.3500000  )
        16           Ru  tau(  16) = (   0.0000000   0.7500000   1.3500000  )
        17           Ru  tau(  17) = (   0.5000000   0.0000000   0.0000000  )
        18           Ru  tau(  18) = (   0.7500000   0.2500000   0.0000000  )
        19           Ru  tau(  19) = (   0.7500000   0.0000000   0.2500000  )
        20           Ru  tau(  20) = (   0.5000000   0.2500000   0.2500000  )
        21           Ru  tau(  21) = (   0.5000000   0.0000000   1.1000000  )
        22           Ru  tau(  22) = (   0.7500000   0.2500000   1.1000000  )
        23           Ru  tau(  23) = (   0.7500000   0.0000000   1.3500000  )
        24           Ru  tau(  24) = (   0.5000000   0.2500000   1.3500000  )
        25           Ru  tau(  25) = (   0.5000000   0.5000000   0.0000000  )
        26           Ru  tau(  26) = (   0.7500000   0.7500000   0.0000000  )
        27           Ru  tau(  27) = (   0.7500000   0.5000000   0.2500000  )
        28           Ru  tau(  28) = (   0.5000000   0.7500000   0.2500000  )
        29           Ru  tau(  29) = (   0.5000000   0.5000000   1.1000000  )
        30           Ru  tau(  30) = (   0.7500000   0.7500000   1.1000000  )
        31           Ru  tau(  31) = (   0.7500000   0.5000000   1.3500000  )
        32           Ru  tau(  32) = (   0.5000000   0.7500000   1.3500000  )

     number of k points=    75  Marzari-Vanderbilt smearing, width (Ry)=  0.0400
                       cart. coord. in units 2pi/alat
        k(    1) = (   0.0555556   0.0555556   0.0347222), wk =   0.0219479
        k(    2) = (   0.0555556   0.0555556   0.1041667), wk =   0.0219479
        k(    3) = (   0.0555556   0.0555556   0.1736111), wk =   0.0219479
        k(    4) = (   0.0555556   0.0555556   0.2430556), wk =   0.0219479
        k(    5) = (   0.0555556   0.0555556  -0.3125000), wk =   0.0109739
        k(    6) = (   0.0555556   0.1666667   0.0347222), wk =   0.0438957
        k(    7) = (   0.0555556   0.1666667   0.1041667), wk =   0.0438957
        k(    8) = (   0.0555556   0.1666667   0.1736111), wk =   0.0438957
        k(    9) = (   0.0555556   0.1666667   0.2430556), wk =   0.0438957
        k(   10) = (   0.0555556   0.1666667  -0.3125000), wk =   0.0219479
        k(   11) = (   0.0555556   0.2777778   0.0347222), wk =   0.0438957
        k(   12) = (   0.0555556   0.2777778   0.1041667), wk =   0.0438957
        k(   13) = (   0.0555556   0.2777778   0.1736111), wk =   0.0438957
        k(   14) = (   0.0555556   0.2777778   0.2430556), wk =   0.0438957
        k(   15) = (   0.0555556   0.2777778  -0.3125000), wk =   0.0219479
        k(   16) = (   0.0555556   0.3888889   0.0347222), wk =   0.0438957
        k(   17) = (   0.0555556   0.3888889   0.1041667), wk =   0.0438957
        k(   18) = (   0.0555556   0.3888889   0.1736111), wk =   0.0438957
        k(   19) = (   0.0555556   0.3888889   0.2430556), wk =   0.0438957
        k(   20) = (   0.0555556   0.3888889  -0.3125000), wk =   0.0219479
        k(   21) = (   0.0555556  -0.5000000   0.0347222), wk =   0.0219479
        k(   22) = (   0.0555556  -0.5000000   0.1041667), wk =   0.0219479
        k(   23) = (   0.0555556  -0.5000000   0.1736111), wk =   0.0219479
        k(   24) = (   0.0555556  -0.5000000   0.2430556), wk =   0.0219479
        k(   25) = (   0.0555556  -0.5000000  -0.3125000), wk =   0.0109739
        k(   26) = (   0.1666667   0.1666667   0.0347222), wk =   0.0219479
        k(   27) = (   0.1666667   0.1666667   0.1041667), wk =   0.0219479
        k(   28) = (   0.1666667   0.1666667   0.1736111), wk =   0.0219479
        k(   29) = (   0.1666667   0.1666667   0.2430556), wk =   0.0219479
        k(   30) = (   0.1666667   0.1666667  -0.3125000), wk =   0.0109739
        k(   31) = (   0.1666667   0.2777778   0.0347222), wk =   0.0438957
        k(   32) = (   0.1666667   0.2777778   0.1041667), wk =   0.0438957
        k(   33) = (   0.1666667   0.2777778   0.1736111), wk =   0.0438957
        k(   34) = (   0.1666667   0.2777778   0.2430556), wk =   0.0438957
        k(   35) = (   0.1666667   0.2777778  -0.3125000), wk =   0.0219479
        k(   36) = (   0.1666667   0.3888889   0.0347222), wk =   0.0438957
        k(   37) = (   0.1666667   0.3888889   0.1041667), wk =   0.0438957
        k(   38) = (   0.1666667   0.3888889   0.1736111), wk =   0.0438957
        k(   39) = (   0.1666667   0.3888889   0.2430556), wk =   0.0438957
        k(   40) = (   0.1666667   0.3888889  -0.3125000), wk =   0.0219479
        k(   41) = (   0.1666667  -0.5000000   0.0347222), wk =   0.0219479
        k(   42) = (   0.1666667  -0.5000000   0.1041667), wk =   0.0219479
        k(   43) = (   0.1666667  -0.5000000   0.1736111), wk =   0.0219479
        k(   44) = (   0.1666667  -0.5000000   0.2430556), wk =   0.0219479
        k(   45) = (   0.1666667  -0.5000000  -0.3125000), wk =   0.0109739
        k(   46) = (   0.2777778   0.2777778   0.0347222), wk =   0.0219479
        k(   47) = (   0.2777778   0.2777778   0.1041667), wk =   0.0219479
        k(   48) = (   0.2777778   0.2777778   0.1736111), wk =   0.0219479
        k(   49) = (   0.2777778   0.2777778   0.2430556), wk =   0.0219479
        k(   50) = (   0.2777778   0.2777778  -0.3125000), wk =   0.0109739
        k(   51) = (   0.2777778   0.3888889   0.0347222), wk =   0.0438957
        k(   52) = (   0.2777778   0.3888889   0.1041667), wk =   0.0438957
        k(   53) = (   0.2777778   0.3888889   0.1736111), wk =   0.0438957
        k(   54) = (   0.2777778   0.3888889   0.2430556), wk =   0.0438957
        k(   55) = (   0.2777778   0.3888889  -0.3125000), wk =   0.0219479
        k(   56) = (   0.2777778  -0.5000000   0.0347222), wk =   0.0219479
        k(   57) = (   0.2777778  -0.5000000   0.1041667), wk =   0.0219479
        k(   58) = (   0.2777778  -0.5000000   0.1736111), wk =   0.0219479
        k(   59) = (   0.2777778  -0.5000000   0.2430556), wk =   0.0219479
        k(   60) = (   0.2777778  -0.5000000  -0.3125000), wk =   0.0109739
        k(   61) = (   0.3888889   0.3888889   0.0347222), wk =   0.0219479
        k(   62) = (   0.3888889   0.3888889   0.1041667), wk =   0.0219479
        k(   63) = (   0.3888889   0.3888889   0.1736111), wk =   0.0219479
        k(   64) = (   0.3888889   0.3888889   0.2430556), wk =   0.0219479
        k(   65) = (   0.3888889   0.3888889  -0.3125000), wk =   0.0109739
        k(   66) = (   0.3888889  -0.5000000   0.0347222), wk =   0.0219479
        k(   67) = (   0.3888889  -0.5000000   0.1041667), wk =   0.0219479
        k(   68) = (   0.3888889  -0.5000000   0.1736111), wk =   0.0219479
        k(   69) = (   0.3888889  -0.5000000   0.2430556), wk =   0.0219479
        k(   70) = (   0.3888889  -0.5000000  -0.3125000), wk =   0.0109739
        k(   71) = (  -0.5000000  -0.5000000   0.0347222), wk =   0.0054870
        k(   72) = (  -0.5000000  -0.5000000   0.1041667), wk =   0.0054870
        k(   73) = (  -0.5000000  -0.5000000   0.1736111), wk =   0.0054870
        k(   74) = (  -0.5000000  -0.5000000   0.2430556), wk =   0.0054870
        k(   75) = (  -0.5000000  -0.5000000  -0.3125000), wk =   0.0027435

     Check: negative core charge=   -0.000002

     Initial potential from superposition of free atoms

     starting charge  511.97959, renormalised to  512.00000
     Starting wfcs are  320 randomized atomic wfcs
     Checking if some PAW data can be deallocated...

     Self-consistent Calculation

     iteration #  1     ecut=    71.00 Ry     beta= 0.10
     Davidson diagonalization with overlap
     ethr =  1.00E-02,  avg # of iterations =  3.7

     total energy              =  -13812.51291044 Ry
     estimated scf accuracy    <      11.76416466 Ry

[...]

     total energy              =  -13811.65603542 Ry
     estimated scf accuracy    <       0.00000100 Ry

     iteration # 24     ecut=    71.00 Ry     beta= 0.10
     Davidson diagonalization with overlap
     ethr =  1.96E-10,  avg # of iterations =  2.9

     End of self-consistent calculation

          k = 0.0556 0.0556 0.0347 ( 48317 PWs)   bands (ev):

   -60.3171 -60.2379 -60.2379 -60.2228 -60.2228 -60.2082 -60.2058 -60.2001
   -60.2001 -60.1961 -60.1775 -60.1775 -60.1721 -60.1721 -60.1460 -60.1460
   -59.7898 -59.7882 -59.7434 -59.7434 -59.7432 -59.7431 -59.7404 -59.7403
   -59.7396 -59.7396 -59.7343 -59.7343 -59.7342 -59.7342 -59.6857 -59.6856
   -30.6380 -30.6374 -30.6374 -30.6321 -30.6017 -30.6017 -30.5314 -30.4303
   -30.4303 -30.4286 -30.4286 -30.3834 -30.3834 -30.3564 -30.3564 -30.3409
   -30.3409 -30.3307 -30.3307 -30.2959 -30.2959 -30.2547 -30.2498 -30.2498
   -30.2413 -30.2218 -30.2218 -30.1937 -30.1937 -30.1467 -30.1306 -30.1306
   -30.1202 -30.1202 -30.0903 -30.0903 -30.0594 -30.0583 -30.0043 -30.0043
   -29.9944 -29.9944 -29.9504 -29.9504 -29.9251 -29.9251 -29.9158 -29.9125
   -29.9124 -29.8999 -29.8921 -29.8901 -29.8854 -29.8764 -29.8764 -29.8622
   -29.7626 -29.7626 -29.7588 -29.7588 -29.7315 -29.7315 -29.7225 -29.7225
   -29.7218 -29.7218 -29.7216 -29.7216 -29.6881 -29.6881 -29.6855 -29.6855
   -29.6737 -29.6378 -29.6352 -29.6351 -29.6332 -29.6332 -29.6283 -29.6244
   -29.6244 -29.6171 -29.6171 -29.6094 -29.6094 -29.6038 -29.6038 -29.5985
   -29.5045 -29.5014 -29.4983 -29.4939 -29.4743 -29.4743 -29.4707 -29.4706
     5.6178   6.8463   6.9954   6.9954   7.2703   7.2824   7.2876   7.2883
     7.2883   7.3144   7.4954   7.4954   7.7375   7.7375   7.8122   7.9163
     7.9163   8.1796   8.1797   8.2009   8.3553   8.3553   8.3899   8.3900
     8.5487   8.5487   8.5855   8.6019   8.6122   8.6122   8.6593   8.6593
     8.8807   8.8807   8.9171   8.9171   8.9406   8.9406   8.9899   8.9899
     9.1327   9.1327   9.2128   9.2128   9.2480   9.3497   9.3497   9.3591
     9.3591   9.6118   9.6118   9.6323   9.6527   9.6527   9.6570   9.6570
     9.7420   9.7420   9.8859   9.9159   9.9159   9.9633  10.0690  10.0864
    10.0864  10.1166  10.1536  10.1536  10.3047  10.3047  10.4101  10.4101
    10.4616  10.4616  10.4785  10.4867  10.6026  10.6222  10.7755  10.7862
    10.7862  10.8364  11.0725  11.0725  11.1459  11.1459  11.1617  11.1617
    11.2771  11.2771  11.4117  11.4117  11.4234  11.4234  11.4376  11.4376
    11.4389  11.4829  11.5395  11.5593  11.5895  11.5895  11.7630  11.7630
    11.7808  11.8240  11.8240  11.8917  11.8917  11.8988  12.0157  12.0157
    12.0881  12.0881  12.1981  12.1981  12.2042  12.2042  12.2411  12.3611
    12.3611  12.3943  12.3943  12.5159  12.5159  12.7739  12.7739  12.7743
    12.8049  12.8049  12.8524  12.9584  13.0584  13.0584  13.0904  13.1002
    13.1089  13.1089  13.1188  13.1188  13.1686  13.2699  13.2699  13.2974
    13.3198  13.3198  13.4605  13.4972  13.4972  13.8482  13.8482  13.9337
    13.9884  13.9946  13.9946  14.0517  14.1181  14.2276  14.2728  14.2728
    14.2856  14.3056  14.3056  14.3166  14.3166  14.4642  14.6569  14.7397
    14.7397  14.8005  14.8005  15.0659  15.0659  15.0696  15.2144  15.2144
    15.2508  15.9363  15.9363

[...]

          k = 0.3889-0.5000-0.3125 ( 48268 PWs)   bands (ev):

[...]

          k =-0.5000-0.5000 0.0347 ( 48272 PWs)   bands (ev):

[...]

          k =-0.5000-0.5000-0.3125 ( 48304 PWs)   bands (ev):

   -60.2710 -60.2710 -60.2710 -60.2710 -60.1928 -60.1928 -60.1928 -60.1928
   -60.1731 -60.1731 -60.1731 -60.1731 -60.1731 -60.1731 -60.1731 -60.1731
   -59.7650 -59.7650 -59.7650 -59.7650 -59.7644 -59.7644 -59.7644 -59.7644
   -59.7127 -59.7127 -59.7127 -59.7127 -59.7127 -59.7127 -59.7127 -59.7127
   -30.5707 -30.5707 -30.5707 -30.5707 -30.5707 -30.5707 -30.5707 -30.5707
   -30.4886 -30.4886 -30.4886 -30.4886 -30.4158 -30.4158 -30.4158 -30.4158
   -30.2748 -30.2748 -30.2748 -30.2748 -30.2748 -30.2748 -30.2748 -30.2748
   -30.1753 -30.1753 -30.1753 -30.1753 -30.0958 -30.0958 -30.0958 -30.0958
   -30.0958 -30.0958 -30.0958 -30.0958 -30.0754 -30.0754 -30.0754 -30.0754
   -30.0035 -30.0035 -30.0035 -30.0035 -29.8929 -29.8929 -29.8929 -29.8929
   -29.8929 -29.8929 -29.8929 -29.8929 -29.8770 -29.8770 -29.8770 -29.8770
   -29.7534 -29.7534 -29.7534 -29.7534 -29.7202 -29.7201 -29.7201 -29.7201
   -29.7201 -29.7201 -29.7201 -29.7201 -29.7183 -29.7183 -29.7183 -29.7183
   -29.6310 -29.6310 -29.6310 -29.6310 -29.6310 -29.6310 -29.6310 -29.6310
   -29.6167 -29.6167 -29.6167 -29.6167 -29.6154 -29.6154 -29.6154 -29.6154
   -29.4854 -29.4854 -29.4854 -29.4854 -29.4827 -29.4827 -29.4827 -29.4827
     6.8634   6.8634   6.8634   6.8634   7.4671   7.4671   7.4671   7.4671
     7.8902   7.8902   7.8902   7.8902   7.8902   7.8902   7.8902   7.8902
     7.9710   7.9710   7.9710   7.9710   8.0385   8.0385   8.0385   8.0385
     8.0385   8.0385   8.0385   8.0385   8.1895   8.1895   8.1895   8.1895
     8.6114   8.6114   8.6114   8.6114   8.9794   8.9794   8.9794   8.9794
     8.9794   8.9794   8.9794   8.9794   9.3287   9.3287   9.3287   9.3287
     9.3287   9.3287   9.3287   9.3287   9.6068   9.6068   9.6068   9.6068
    10.0237  10.0237  10.0237  10.0237  10.4962  10.4962  10.4962  10.4962
    10.5224  10.5224  10.5224  10.5224  10.5978  10.5978  10.5978  10.5978
    10.8180  10.8180  10.8180  10.8180  10.8495  10.8495  10.8495  10.8495
    10.8495  10.8495  10.8495  10.8495  11.0271  11.0271  11.0271  11.0271
    11.0912  11.0912  11.0912  11.0912  11.3118  11.3118  11.3118  11.3118
    11.6712  11.6712  11.6712  11.6712  11.6713  11.6713  11.6713  11.6713
    11.7985  11.7985  11.7985  11.7985  11.7985  11.7985  11.7985  11.7985
    11.9409  11.9409  11.9409  11.9409  12.3139  12.3139  12.3139  12.3139
    12.3861  12.3861  12.3861  12.3861  12.5164  12.5164  12.5164  12.5164
    12.5164  12.5164  12.5164  12.5164  12.7343  12.7343  12.7343  12.7343
    13.1221  13.1221  13.1221  13.1221  13.4325  13.4325  13.4325  13.4325
    13.5990  13.5990  13.5990  13.5990  13.5990  13.5990  13.5990  13.5990
    14.0570  14.0570  14.0570  14.0570  14.2000  14.2000  14.2000  14.2000
    14.3466  14.3466  14.3466  14.3466  14.3467  14.3467  14.3467  14.3467
    14.4090  14.4090  14.4090  14.4090  16.0527  16.0527  16.0527  16.0527
    17.3314  17.3314  17.3314

     the Fermi energy is    12.7643 ev

!    total energy              =  -13811.65603992 Ry

     total all-electron energy =   -289988.046379 Ry
     estimated scf accuracy    <       0.00000079 Ry
     smearing contrib. (-TS)   =      -0.00316659 Ry
     internal energy E=F+TS    =  -13811.65287333 Ry

     The total energy is F=E-TS. E is the sum of the following terms:
     one-electron contribution =  -10149.50181527 Ry
     hartree contribution      =    5300.62167357 Ry
     xc contribution           =    -925.65622459 Ry
     ewald contribution        =    -447.78219003 Ry
     one-center paw contrib.   =   -7589.33431701 Ry

     convergence has been achieved in  24 iterations

     Forces acting on atoms (cartesian axes, Ry/au):

     atom    1 type  1   force =     0.00000000    0.00000000    0.03811633
     atom    2 type  1   force =     0.00000170    0.00000170    0.03809313
     atom    3 type  1   force =     0.00000181    0.00000000   -0.03330576
     atom    4 type  1   force =     0.00000000    0.00000181   -0.03330576
     atom    5 type  1   force =     0.00000000    0.00000000    0.03333526
     atom    6 type  1   force =     0.00002709    0.00002709    0.03334171
     atom    7 type  1   force =    -0.00000952    0.00000000   -0.03809072
     atom    8 type  1   force =    -0.00000000   -0.00000952   -0.03809072
     atom    9 type  1   force =     0.00000000    0.00000000    0.03807513
     atom   10 type  1   force =     0.00000170   -0.00000170    0.03809313
     atom   11 type  1   force =    -0.00001147    0.00000000   -0.03328789
     atom   12 type  1   force =     0.00000000   -0.00000181   -0.03330576
     atom   13 type  1   force =     0.00000000    0.00000000    0.03330477
     atom   14 type  1   force =     0.00002709   -0.00002709    0.03334171
     atom   15 type  1   force =    -0.00000140    0.00000000   -0.03814929
     atom   16 type  1   force =     0.00000000    0.00000952   -0.03809072
     atom   17 type  1   force =     0.00000000    0.00000000    0.03807513
     atom   18 type  1   force =    -0.00000170    0.00000170    0.03809313
     atom   19 type  1   force =    -0.00000181    0.00000000   -0.03330576
     atom   20 type  1   force =     0.00000000   -0.00001147   -0.03328789
     atom   21 type  1   force =     0.00000000    0.00000000    0.03330477
     atom   22 type  1   force =    -0.00002709    0.00002709    0.03334171
     atom   23 type  1   force =     0.00000952   -0.00000000   -0.03809072
     atom   24 type  1   force =     0.00000000   -0.00000140   -0.03814929
     atom   25 type  1   force =     0.00000000    0.00000000    0.03808810
     atom   26 type  1   force =    -0.00000170   -0.00000170    0.03809313
     atom   27 type  1   force =     0.00001147    0.00000000   -0.03328789
     atom   28 type  1   force =     0.00000000    0.00001147   -0.03328789
     atom   29 type  1   force =     0.00000000    0.00000000    0.03329577
     atom   30 type  1   force =    -0.00002709   -0.00002709    0.03334171
     atom   31 type  1   force =     0.00000140    0.00000000   -0.03814929
     atom   32 type  1   force =     0.00000000    0.00000140   -0.03814929

     Total force =     0.202452     Total SCF correction =     0.001191

     Computing stress (Cartesian axis) and pressure

          total   stress  (Ry/bohr**3)                   (kbar)     P=      -78.10
  -0.00059406   0.00000000   0.00000000          -87.39        0.00        0.00
   0.00000000  -0.00059406   0.00000000            0.00      -87.39        0.00
   0.00000000   0.00000000  -0.00040468            0.00        0.00      -59.53

     Writing output data file /scratch/zwCMkHNLhGdKaGFy.save/

     General routines

     Parallel routines

   This run was terminated on:  22:21:28  25Nov2021

   JOB DONE.