     Program PWSCF v.6.7MaX starts on 26Nov2021 at  0:52:21

     R & G space division:  proc/nbgrp/npool/nimage =      72
     Reading input from scf_17.in
Warning: card &CELL ignored
Warning: card CELL_DYNAMICS = 'BFGS', ignored
Warning: card CELL_FACTOR = 2.0, ignored
Warning: card PRESS = 0.0, ignored
Warning: card / ignored

     Current dimensions of program PWSCF are:
     Max number of different atomic species (ntypx) = 10
     Max number of k-points (npk) =  40000
     Max angular momentum in pseudopotentials (lmaxx) =  3
     file Ru.pbe-spn-kjpaw_psl.1.0.0.UPF: wavefunction(s)  4D renormalized

     Subspace diagonalization in iterative solution of the eigenvalue problem:
     one sub-group per band group will be used

     Found symmetry operation: I + (  0.2500  0.2500  0.0000)
     This is a supercell, fractional translations are disabled
     Message from routine setup:
     using ibrav=0 with symmetry is DISCOURAGED, use correct ibrav instead

     bravais-lattice index     =            0
     lattice parameter (alat)  =      14.4007  a.u.
     unit-cell volume          =    5375.6016 (a.u.)^3
     number of atoms/cell      =           32
     number of atomic types    =            1
     number of electrons       =       512.00
     number of Kohn-Sham states=          307
     kinetic-energy cutoff     =      71.0000  Ry
     charge density cutoff     =     430.0000  Ry
     scf convergence threshold =      1.0E-06
     mixing beta               =       0.1000
     number of iterations used =           10  TF        mixing
     Exchange-correlation= SLA  PW   PBX  PBC
                           (   1   4   3   4   0   0   0)

     celldm(1)=  14.400742  celldm(2)=   0.000000  celldm(3)=   0.000000
     celldm(4)=   0.000000  celldm(5)=   0.000000  celldm(6)=   0.000000

     crystal axes: (cart. coord. in units of alat)
               a(1) = (   1.000000   0.000000   0.000000 )
               a(2) = (   0.000000   1.000000   0.000000 )
               a(3) = (   0.000000   0.000000   1.800000 )

     reciprocal axes: (cart. coord. in units 2 pi/alat)
               b(1) = (  1.000000  0.000000  0.000000 )
               b(2) = (  0.000000  1.000000  0.000000 )
               b(3) = (  0.000000  0.000000  0.555556 )

     PseudoPot. # 1 for Ru read from file:
     /rds/homes/b/bxp912/pp/Ru.pbe-spn-kjpaw_psl.1.0.0.UPF
     MD5 check sum: 0ae1f594dea09af7be8575c3a481d1ae
     Pseudo is Projector augmented-wave + core cor, Zval = 16.0
     Generated using "atomic" code by A. Dal Corso  v.5.1
     Shape of augmentation charge: PSQ
     Using radial grid of 1233 points,  6 beta functions with:
                l(1) =   0
                l(2) =   0
                l(3) =   1
                l(4) =   1
                l(5) =   2
                l(6) =   2
     Q(r) pseudized with 0 coefficients

     atomic species   valence    mass     pseudopotential
        Ru            16.00   101.07000     Ru( 1.00)

      8 Sym. Ops. (no inversion) found

   Cartesian axes

     site n.     atom                  positions (alat units)
         1           Ru  tau(   1) = (   0.0000000   0.0000000   0.0000000  )
         2           Ru  tau(   2) = (   0.2500000   0.2500000   0.0000000  )
         3           Ru  tau(   3) = (   0.2500000   0.0000000   0.2500000  )
         4           Ru  tau(   4) = (   0.0000000   0.2500000   0.2500000  )
         5           Ru  tau(   5) = (   0.0000000   0.0000000   1.3000000  )
         6           Ru  tau(   6) = (   0.2500000   0.2500000   1.3000000  )
         7           Ru  tau(   7) = (   0.2500000   0.0000000   1.5500000  )
         8           Ru  tau(   8) = (   0.0000000   0.2500000   1.5500000  )
         9           Ru  tau(   9) = (   0.0000000   0.5000000   0.0000000  )
        10           Ru  tau(  10) = (   0.2500000   0.7500000   0.0000000  )
        11           Ru  tau(  11) = (   0.2500000   0.5000000   0.2500000  )
        12           Ru  tau(  12) = (   0.0000000   0.7500000   0.2500000  )
        13           Ru  tau(  13) = (   0.0000000   0.5000000   1.3000000  )
        14           Ru  tau(  14) = (   0.2500000   0.7500000   1.3000000  )
        15           Ru  tau(  15) = (   0.2500000   0.5000000   1.5500000  )
        16           Ru  tau(  16) = (   0.0000000   0.7500000   1.5500000  )
        17           Ru  tau(  17) = (   0.5000000   0.0000000   0.0000000  )
        18           Ru  tau(  18) = (   0.7500000   0.2500000   0.0000000  )
        19           Ru  tau(  19) = (   0.7500000   0.0000000   0.2500000  )
        20           Ru  tau(  20) = (   0.5000000   0.2500000   0.2500000  )
        21           Ru  tau(  21) = (   0.5000000   0.0000000   1.3000000  )
        22           Ru  tau(  22) = (   0.7500000   0.2500000   1.3000000  )
        23           Ru  tau(  23) = (   0.7500000   0.0000000   1.5500000  )
        24           Ru  tau(  24) = (   0.5000000   0.2500000   1.5500000  )
        25           Ru  tau(  25) = (   0.5000000   0.5000000   0.0000000  )
        26           Ru  tau(  26) = (   0.7500000   0.7500000   0.0000000  )
        27           Ru  tau(  27) = (   0.7500000   0.5000000   0.2500000  )
        28           Ru  tau(  28) = (   0.5000000   0.7500000   0.2500000  )
        29           Ru  tau(  29) = (   0.5000000   0.5000000   1.3000000  )
        30           Ru  tau(  30) = (   0.7500000   0.7500000   1.3000000  )
        31           Ru  tau(  31) = (   0.7500000   0.5000000   1.5500000  )
        32           Ru  tau(  32) = (   0.5000000   0.7500000   1.5500000  )

     number of k points=    75  Marzari-Vanderbilt smearing, width (Ry)=  0.0400
                       cart. coord. in units 2pi/alat
        k(    1) = (   0.0555556   0.0555556   0.0308642), wk =   0.0219479
        k(    2) = (   0.0555556   0.0555556   0.0925926), wk =   0.0219479
        k(    3) = (   0.0555556   0.0555556   0.1543210), wk =   0.0219479
        k(    4) = (   0.0555556   0.0555556   0.2160494), wk =   0.0219479
        k(    5) = (   0.0555556   0.0555556  -0.2777778), wk =   0.0109739
        k(    6) = (   0.0555556   0.1666667   0.0308642), wk =   0.0438957
        k(    7) = (   0.0555556   0.1666667   0.0925926), wk =   0.0438957
        k(    8) = (   0.0555556   0.1666667   0.1543210), wk =   0.0438957
        k(    9) = (   0.0555556   0.1666667   0.2160494), wk =   0.0438957
        k(   10) = (   0.0555556   0.1666667  -0.2777778), wk =   0.0219479
        k(   11) = (   0.0555556   0.2777778   0.0308642), wk =   0.0438957
        k(   12) = (   0.0555556   0.2777778   0.0925926), wk =   0.0438957
        k(   13) = (   0.0555556   0.2777778   0.1543210), wk =   0.0438957
        k(   14) = (   0.0555556   0.2777778   0.2160494), wk =   0.0438957
        k(   15) = (   0.0555556   0.2777778  -0.2777778), wk =   0.0219479
        k(   16) = (   0.0555556   0.3888889   0.0308642), wk =   0.0438957
        k(   17) = (   0.0555556   0.3888889   0.0925926), wk =   0.0438957
        k(   18) = (   0.0555556   0.3888889   0.1543210), wk =   0.0438957
        k(   19) = (   0.0555556   0.3888889   0.2160494), wk =   0.0438957
        k(   20) = (   0.0555556   0.3888889  -0.2777778), wk =   0.0219479
        k(   21) = (   0.0555556  -0.5000000   0.0308642), wk =   0.0219479
        k(   22) = (   0.0555556  -0.5000000   0.0925926), wk =   0.0219479
        k(   23) = (   0.0555556  -0.5000000   0.1543210), wk =   0.0219479
        k(   24) = (   0.0555556  -0.5000000   0.2160494), wk =   0.0219479
        k(   25) = (   0.0555556  -0.5000000  -0.2777778), wk =   0.0109739
        k(   26) = (   0.1666667   0.1666667   0.0308642), wk =   0.0219479
        k(   27) = (   0.1666667   0.1666667   0.0925926), wk =   0.0219479
        k(   28) = (   0.1666667   0.1666667   0.1543210), wk =   0.0219479
        k(   29) = (   0.1666667   0.1666667   0.2160494), wk =   0.0219479
        k(   30) = (   0.1666667   0.1666667  -0.2777778), wk =   0.0109739
        k(   31) = (   0.1666667   0.2777778   0.0308642), wk =   0.0438957
        k(   32) = (   0.1666667   0.2777778   0.0925926), wk =   0.0438957
        k(   33) = (   0.1666667   0.2777778   0.1543210), wk =   0.0438957
        k(   34) = (   0.1666667   0.2777778   0.2160494), wk =   0.0438957
        k(   35) = (   0.1666667   0.2777778  -0.2777778), wk =   0.0219479
        k(   36) = (   0.1666667   0.3888889   0.0308642), wk =   0.0438957
        k(   37) = (   0.1666667   0.3888889   0.0925926), wk =   0.0438957
        k(   38) = (   0.1666667   0.3888889   0.1543210), wk =   0.0438957
        k(   39) = (   0.1666667   0.3888889   0.2160494), wk =   0.0438957
        k(   40) = (   0.1666667   0.3888889  -0.2777778), wk =   0.0219479
        k(   41) = (   0.1666667  -0.5000000   0.0308642), wk =   0.0219479
        k(   42) = (   0.1666667  -0.5000000   0.0925926), wk =   0.0219479
        k(   43) = (   0.1666667  -0.5000000   0.1543210), wk =   0.0219479
        k(   44) = (   0.1666667  -0.5000000   0.2160494), wk =   0.0219479
        k(   45) = (   0.1666667  -0.5000000  -0.2777778), wk =   0.0109739
        k(   46) = (   0.2777778   0.2777778   0.0308642), wk =   0.0219479
        k(   47) = (   0.2777778   0.2777778   0.0925926), wk =   0.0219479
        k(   48) = (   0.2777778   0.2777778   0.1543210), wk =   0.0219479
        k(   49) = (   0.2777778   0.2777778   0.2160494), wk =   0.0219479
        k(   50) = (   0.2777778   0.2777778  -0.2777778), wk =   0.0109739
        k(   51) = (   0.2777778   0.3888889   0.0308642), wk =   0.0438957
        k(   52) = (   0.2777778   0.3888889   0.0925926), wk =   0.0438957
        k(   53) = (   0.2777778   0.3888889   0.1543210), wk =   0.0438957
        k(   54) = (   0.2777778   0.3888889   0.2160494), wk =   0.0438957
        k(   55) = (   0.2777778   0.3888889  -0.2777778), wk =   0.0219479
        k(   56) = (   0.2777778  -0.5000000   0.0308642), wk =   0.0219479
        k(   57) = (   0.2777778  -0.5000000   0.0925926), wk =   0.0219479
        k(   58) = (   0.2777778  -0.5000000   0.1543210), wk =   0.0219479
        k(   59) = (   0.2777778  -0.5000000   0.2160494), wk =   0.0219479
        k(   60) = (   0.2777778  -0.5000000  -0.2777778), wk =   0.0109739
        k(   61) = (   0.3888889   0.3888889   0.0308642), wk =   0.0219479
        k(   62) = (   0.3888889   0.3888889   0.0925926), wk =   0.0219479
        k(   63) = (   0.3888889   0.3888889   0.1543210), wk =   0.0219479
        k(   64) = (   0.3888889   0.3888889   0.2160494), wk =   0.0219479
        k(   65) = (   0.3888889   0.3888889  -0.2777778), wk =   0.0109739
        k(   66) = (   0.3888889  -0.5000000   0.0308642), wk =   0.0219479
        k(   67) = (   0.3888889  -0.5000000   0.0925926), wk =   0.0219479
        k(   68) = (   0.3888889  -0.5000000   0.1543210), wk =   0.0219479
        k(   69) = (   0.3888889  -0.5000000   0.2160494), wk =   0.0219479
        k(   70) = (   0.3888889  -0.5000000  -0.2777778), wk =   0.0109739
        k(   71) = (  -0.5000000  -0.5000000   0.0308642), wk =   0.0054870
        k(   72) = (  -0.5000000  -0.5000000   0.0925926), wk =   0.0054870
        k(   73) = (  -0.5000000  -0.5000000   0.1543210), wk =   0.0054870
        k(   74) = (  -0.5000000  -0.5000000   0.2160494), wk =   0.0054870
        k(   75) = (  -0.5000000  -0.5000000  -0.2777778), wk =   0.0027435

     Check: negative core charge=   -0.000002

     Initial potential from superposition of free atoms

     starting charge  511.97959, renormalised to  512.00000

     negative rho (up, down):  2.946E-06 0.000E+00
     Starting wfcs are  320 randomized atomic wfcs
     Checking if some PAW data can be deallocated...

     Self-consistent Calculation

     iteration #  1     ecut=    71.00 Ry     beta= 0.10
     Davidson diagonalization with overlap
     ethr =  1.00E-02,  avg # of iterations =  4.1

     negative rho (up, down):  1.119E-06 0.000E+00

     total energy              =  -13812.49592757 Ry
     estimated scf accuracy    <      11.70482074 Ry

[...]

     total energy              =  -13811.65343125 Ry
     estimated scf accuracy    <       0.00000260 Ry

     iteration # 29     ecut=    71.00 Ry     beta= 0.10
     Davidson diagonalization with overlap
     ethr =  5.08E-10,  avg # of iterations =  4.6

[...]

     End of self-consistent calculation

          k = 0.0556 0.0556 0.0309 ( 54341 PWs)   bands (ev):

   -62.2732 -62.1939 -62.1939 -62.1789 -62.1789 -62.1643 -62.1619 -62.1562
   -62.1561 -62.1522 -62.1336 -62.1336 -62.1282 -62.1282 -62.1020 -62.1020
   -61.7455 -61.7440 -61.6992 -61.6992 -61.6989 -61.6989 -61.6962 -61.6962
   -61.6954 -61.6954 -61.6901 -61.6901 -61.6899 -61.6899 -61.6414 -61.6414
   -32.5942 -32.5935 -32.5935 -32.5882 -32.5578 -32.5578 -32.4876 -32.3865
   -32.3864 -32.3848 -32.3848 -32.3396 -32.3396 -32.3125 -32.3125 -32.2969
   -32.2969 -32.2868 -32.2868 -32.2521 -32.2520 -32.2108 -32.2058 -32.2058
   -32.1973 -32.1779 -32.1779 -32.1498 -32.1498 -32.1027 -32.0867 -32.0867
   -32.0763 -32.0763 -32.0464 -32.0464 -32.0156 -32.0144 -31.9604 -31.9604
   -31.9506 -31.9506 -31.9062 -31.9062 -31.8809 -31.8809 -31.8720 -31.8686
   -31.8686 -31.8560 -31.8482 -31.8461 -31.8416 -31.8324 -31.8324 -31.8183
   -31.7185 -31.7185 -31.7146 -31.7146 -31.6873 -31.6873 -31.6783 -31.6783
   -31.6777 -31.6777 -31.6774 -31.6774 -31.6439 -31.6439 -31.6413 -31.6413
   -31.6294 -31.5937 -31.5908 -31.5908 -31.5890 -31.5890 -31.5841 -31.5802
   -31.5802 -31.5729 -31.5729 -31.5651 -31.5651 -31.5596 -31.5596 -31.5543
   -31.4604 -31.4572 -31.4541 -31.4497 -31.4301 -31.4301 -31.4265 -31.4265
     3.6615   4.8895   5.0389   5.0389   5.3139   5.3260   5.3312   5.3319
     5.3319   5.3559   5.5390   5.5390   5.7810   5.7811   5.8568   5.9599
     5.9599   6.2234   6.2234   6.2447   6.3988   6.3988   6.4335   6.4335
     6.5923   6.5923   6.6288   6.6453   6.6555   6.6555   6.7026   6.7026
     6.9243   6.9243   6.9606   6.9606   6.9841   6.9841   7.0335   7.0335
     7.1766   7.1767   7.2563   7.2563   7.2920   7.3934   7.3934   7.4028
     7.4028   7.6553   7.6553   7.6756   7.6964   7.6964   7.7007   7.7007
     7.7854   7.7854   7.9294   7.9582   7.9582   8.0071   8.1127   8.1301
     8.1301   8.1603   8.1950   8.1950   8.3506   8.3506   8.4567   8.4567
     8.5055   8.5055   8.5222   8.5304   8.6461   8.6658   8.8217   8.8316
     8.8316   8.8816   9.1166   9.1166   9.1896   9.1896   9.2055   9.2055
     9.3144   9.3144   9.4554   9.4554   9.4605   9.4605   9.4632   9.4818
     9.4818   9.5618   9.5834   9.6032   9.6335   9.6335   9.8126   9.8126
     9.8246   9.8678   9.8678   9.9415   9.9415   9.9704  10.0596  10.0596
    10.1361  10.1361  10.2424  10.2424  10.2480  10.2480  10.2847  10.4017
    10.4017  10.4337  10.4337  10.5617  10.5617  10.8179  10.8179  10.8181
    10.8435  10.8435  10.8916  10.9924  11.1024  11.1024  11.1142  11.1343
    11.1628  11.1628  11.1664  11.1664  11.2126  11.3259  11.3259  11.3414
    11.3625  11.3625  11.5044  11.5399  11.5399  11.8510  11.8915  11.8915
    12.0325  12.0393  12.0393  12.0955  12.1620  12.2815  12.2815  12.2853
    12.3295  12.3492  12.3492  12.3603  12.3603  12.5080  12.7080  12.7503
    12.7503  12.8443  12.8443  13.1215  13.1215  13.1343  13.2586  13.2586
    13.3450  14.0342  14.0466

[...]

          k = 0.3889-0.5000-0.2778 ( 54308 PWs)   bands (ev):

[...]

          k =-0.5000-0.5000 0.0309 ( 54236 PWs)   bands (ev):

[...]

          k =-0.5000-0.5000-0.2778 ( 54408 PWs)   bands (ev):

   -62.2271 -62.2271 -62.2271 -62.2271 -62.1489 -62.1489 -62.1489 -62.1489
   -62.1292 -62.1292 -62.1292 -62.1291 -62.1291 -62.1291 -62.1291 -62.1291
   -61.7208 -61.7208 -61.7208 -61.7208 -61.7202 -61.7202 -61.7202 -61.7202
   -61.6685 -61.6685 -61.6685 -61.6685 -61.6685 -61.6685 -61.6685 -61.6685
   -32.5269 -32.5269 -32.5269 -32.5269 -32.5269 -32.5269 -32.5269 -32.5269
   -32.4448 -32.4448 -32.4448 -32.4448 -32.3719 -32.3719 -32.3719 -32.3719
   -32.2309 -32.2309 -32.2309 -32.2309 -32.2308 -32.2308 -32.2308 -32.2308
   -32.1314 -32.1314 -32.1314 -32.1314 -32.0520 -32.0520 -32.0520 -32.0520
   -32.0520 -32.0520 -32.0520 -32.0520 -32.0314 -32.0314 -32.0314 -32.0314
   -31.9597 -31.9597 -31.9597 -31.9597 -31.8489 -31.8489 -31.8489 -31.8489
   -31.8489 -31.8489 -31.8489 -31.8489 -31.8331 -31.8331 -31.8331 -31.8331
   -31.7092 -31.7092 -31.7092 -31.7092 -31.6760 -31.6760 -31.6760 -31.6760
   -31.6760 -31.6760 -31.6760 -31.6760 -31.6741 -31.6741 -31.6741 -31.6741
   -31.5868 -31.5868 -31.5868 -31.5868 -31.5867 -31.5867 -31.5867 -31.5867
   -31.5725 -31.5725 -31.5725 -31.5725 -31.5712 -31.5712 -31.5712 -31.5712
   -31.4413 -31.4413 -31.4413 -31.4413 -31.4385 -31.4385 -31.4385 -31.4385
     4.9067   4.9067   4.9067   4.9067   5.5108   5.5108   5.5108   5.5108
     5.9337   5.9337   5.9337   5.9337   5.9337   5.9337   5.9337   5.9337
     6.0153   6.0153   6.0153   6.0153   6.0821   6.0821   6.0821   6.0821
     6.0821   6.0821   6.0821   6.0821   6.2323   6.2323   6.2323   6.2323
     6.6553   6.6553   6.6553   6.6553   7.0228   7.0228   7.0228   7.0228
     7.0228   7.0228   7.0228   7.0228   7.3726   7.3726   7.3726   7.3726
     7.3726   7.3726   7.3726   7.3726   7.6500   7.6500   7.6500   7.6500
     8.0675   8.0675   8.0675   8.0675   8.5423   8.5423   8.5423   8.5423
     8.5641   8.5641   8.5641   8.5641   8.6374   8.6374   8.6374   8.6374
     8.8616   8.8616   8.8616   8.8616   8.8931   8.8931   8.8931   8.8931
     8.8931   8.8931   8.8931   8.8931   9.0764   9.0764   9.0764   9.0764
     9.1349   9.1349   9.1349   9.1349   9.3521   9.3521   9.3521   9.3521
     9.7152   9.7152   9.7152   9.7152   9.7153   9.7153   9.7153   9.7153
     9.8410   9.8410   9.8411   9.8411   9.8411   9.8411   9.8411   9.8411
     9.9847   9.9847   9.9847   9.9847  10.3578  10.3578  10.3578  10.3578
    10.4658  10.4658  10.4658  10.4658  10.5633  10.5633  10.5633  10.5633
    10.5633  10.5633  10.5633  10.5633  10.7622  10.7622  10.7622  10.7622
    11.1661  11.1661  11.1661  11.1661  11.4765  11.4765  11.4765  11.4765
    11.6395  11.6395  11.6395  11.6395  11.6395  11.6395  11.6395  11.6395
    12.0267  12.0267  12.0267  12.0267  12.2439  12.2439  12.2439  12.2439
    12.3903  12.3903  12.3903  12.3903  12.3904  12.3904  12.3904  12.3904
    12.4529  12.4529  12.4529  12.4529  14.2063  14.2063  14.2063  14.2063
    15.3732  15.3732  15.3732

     the Fermi energy is    10.8080 ev

!    total energy              =  -13811.65343464 Ry

     total all-electron energy =   -289988.043774 Ry
     estimated scf accuracy    <       0.00000051 Ry
     smearing contrib. (-TS)   =      -0.00323646 Ry
     internal energy E=F+TS    =  -13811.65019818 Ry

     The total energy is F=E-TS. E is the sum of the following terms:
     one-electron contribution =  -15218.85330341 Ry
     hartree contribution      =    7798.50009679 Ry
     xc contribution           =    -925.65609397 Ry
     ewald contribution        =    2123.69312316 Ry
     one-center paw contrib.   =   -7589.33402076 Ry

     convergence has been achieved in  29 iterations

     negative rho (up, down):  1.314E-05 0.000E+00

     Forces acting on atoms (cartesian axes, Ry/au):

     atom    1 type  1   force =     0.00000000    0.00000000    0.03837539
     atom    2 type  1   force =     0.00000113    0.00000113    0.03837949
     atom    3 type  1   force =     0.00000332    0.00000000   -0.03307014
     atom    4 type  1   force =     0.00000000    0.00000332   -0.03307014
     atom    5 type  1   force =     0.00000000    0.00000000    0.03303587
     atom    6 type  1   force =    -0.00001675   -0.00001675    0.03302707
     atom    7 type  1   force =     0.00001196    0.00000000   -0.03836185
     atom    8 type  1   force =    -0.00000000    0.00001196   -0.03836185
     atom    9 type  1   force =     0.00000000    0.00000000    0.03839853
     atom   10 type  1   force =     0.00000113   -0.00000113    0.03837949
     atom   11 type  1   force =     0.00000073    0.00000000   -0.03308918
     atom   12 type  1   force =     0.00000000   -0.00000332   -0.03307014
     atom   13 type  1   force =     0.00000000    0.00000000    0.03304325
     atom   14 type  1   force =    -0.00001675    0.00001675    0.03302707
     atom   15 type  1   force =    -0.00000470    0.00000000   -0.03831922
     atom   16 type  1   force =     0.00000000   -0.00001196   -0.03836185
     atom   17 type  1   force =     0.00000000    0.00000000    0.03839853
     atom   18 type  1   force =    -0.00000113    0.00000113    0.03837949
     atom   19 type  1   force =    -0.00000332    0.00000000   -0.03307014
     atom   20 type  1   force =     0.00000000    0.00000073   -0.03308918
     atom   21 type  1   force =     0.00000000    0.00000000    0.03304325
     atom   22 type  1   force =     0.00001675   -0.00001675    0.03302707
     atom   23 type  1   force =    -0.00001196   -0.00000000   -0.03836185
     atom   24 type  1   force =     0.00000000   -0.00000470   -0.03831922
     atom   25 type  1   force =     0.00000000    0.00000000    0.03838134
     atom   26 type  1   force =    -0.00000113   -0.00000113    0.03837949
     atom   27 type  1   force =    -0.00000073    0.00000000   -0.03308918
     atom   28 type  1   force =     0.00000000   -0.00000073   -0.03308918
     atom   29 type  1   force =     0.00000000    0.00000000    0.03305917
     atom   30 type  1   force =     0.00001675    0.00001675    0.03302707
     atom   31 type  1   force =     0.00000470    0.00000000   -0.03831922
     atom   32 type  1   force =     0.00000000    0.00000470   -0.03831922

     Total force =     0.202563     Total SCF correction =     0.001055

     Computing stress (Cartesian axis) and pressure

     negative rho (up, down):  1.314E-05 0.000E+00
          total   stress  (Ry/bohr**3)                   (kbar)     P=      -69.50
  -0.00052940   0.00000000   0.00000000          -77.88        0.00        0.00
   0.00000000  -0.00052940   0.00000000            0.00      -77.88        0.00
   0.00000000   0.00000000  -0.00035863            0.00        0.00      -52.76

     Writing output data file /scratch/XWZWoQDyfWuQCmyX.save/

     General routines

     Parallel routines

   This run was terminated on:   1:42:12  26Nov2021

   JOB DONE.