     Program PWSCF v.6.7MaX starts on 25Nov2021 at 19: 5:28

     R & G space division:  proc/nbgrp/npool/nimage =      72
     Reading input from scf_9.in
Warning: card &CELL ignored
Warning: card CELL_DYNAMICS = 'BFGS', ignored
Warning: card CELL_FACTOR = 2.0, ignored
Warning: card PRESS = 0.0, ignored
Warning: card / ignored

     Current dimensions of program PWSCF are:
     Max number of different atomic species (ntypx) = 10
     Max number of k-points (npk) =  40000
     Max angular momentum in pseudopotentials (lmaxx) =  3
     file Ru.pbe-spn-kjpaw_psl.1.0.0.UPF: wavefunction(s)  4D renormalized

     Subspace diagonalization in iterative solution of the eigenvalue problem:
     one sub-group per band group will be used

     Found symmetry operation: I + (  0.2500  0.2500  0.0000)
     This is a supercell, fractional translations are disabled
     Message from routine setup:
     using ibrav=0 with symmetry is DISCOURAGED, use correct ibrav instead

     bravais-lattice index     =            0
     lattice parameter (alat)  =      14.4007  a.u.
     unit-cell volume          =    4181.0235 (a.u.)^3
     number of atoms/cell      =           32
     number of atomic types    =            1
     number of electrons       =       512.00
     number of Kohn-Sham states=          307
     kinetic-energy cutoff     =      71.0000  Ry
     charge density cutoff     =     430.0000  Ry
     scf convergence threshold =      1.0E-06
     mixing beta               =       0.1000
     number of iterations used =           10  TF        mixing
     Exchange-correlation= SLA  PW   PBX  PBC
                           (   1   4   3   4   0   0   0)

     celldm(1)=  14.400742  celldm(2)=   0.000000  celldm(3)=   0.000000
     celldm(4)=   0.000000  celldm(5)=   0.000000  celldm(6)=   0.000000

     crystal axes: (cart. coord. in units of alat)
               a(1) = (   1.000000   0.000000   0.000000 )
               a(2) = (   0.000000   1.000000   0.000000 )
               a(3) = (   0.000000   0.000000   1.400000 )

     reciprocal axes: (cart. coord. in units 2 pi/alat)
               b(1) = (  1.000000  0.000000  0.000000 )
               b(2) = (  0.000000  1.000000  0.000000 )
               b(3) = (  0.000000  0.000000  0.714286 )

     PseudoPot. # 1 for Ru read from file:
     /rds/homes/b/bxp912/pp/Ru.pbe-spn-kjpaw_psl.1.0.0.UPF
     MD5 check sum: 0ae1f594dea09af7be8575c3a481d1ae
     Pseudo is Projector augmented-wave + core cor, Zval = 16.0
     Generated using "atomic" code by A. Dal Corso  v.5.1
     Shape of augmentation charge: PSQ
     Using radial grid of 1233 points,  6 beta functions with:
                l(1) =   0
                l(2) =   0
                l(3) =   1
                l(4) =   1
                l(5) =   2
                l(6) =   2
     Q(r) pseudized with 0 coefficients

     atomic species   valence    mass     pseudopotential
        Ru            16.00   101.07000     Ru( 1.00)

      8 Sym. Ops. (no inversion) found

   Cartesian axes

     site n.     atom                  positions (alat units)
         1           Ru  tau(   1) = (   0.0000000   0.0000000   0.0000000  )
         2           Ru  tau(   2) = (   0.2500000   0.2500000   0.0000000  )
         3           Ru  tau(   3) = (   0.2500000   0.0000000   0.2500000  )
         4           Ru  tau(   4) = (   0.0000000   0.2500000   0.2500000  )
         5           Ru  tau(   5) = (   0.0000000   0.0000000   0.9000000  )
         6           Ru  tau(   6) = (   0.2500000   0.2500000   0.9000000  )
         7           Ru  tau(   7) = (   0.2500000   0.0000000   1.1500000  )
         8           Ru  tau(   8) = (   0.0000000   0.2500000   1.1500000  )
         9           Ru  tau(   9) = (   0.0000000   0.5000000   0.0000000  )
        10           Ru  tau(  10) = (   0.2500000   0.7500000   0.0000000  )
        11           Ru  tau(  11) = (   0.2500000   0.5000000   0.2500000  )
        12           Ru  tau(  12) = (   0.0000000   0.7500000   0.2500000  )
        13           Ru  tau(  13) = (   0.0000000   0.5000000   0.9000000  )
        14           Ru  tau(  14) = (   0.2500000   0.7500000   0.9000000  )
        15           Ru  tau(  15) = (   0.2500000   0.5000000   1.1500000  )
        16           Ru  tau(  16) = (   0.0000000   0.7500000   1.1500000  )
        17           Ru  tau(  17) = (   0.5000000   0.0000000   0.0000000  )
        18           Ru  tau(  18) = (   0.7500000   0.2500000   0.0000000  )
        19           Ru  tau(  19) = (   0.7500000   0.0000000   0.2500000  )
        20           Ru  tau(  20) = (   0.5000000   0.2500000   0.2500000  )
        21           Ru  tau(  21) = (   0.5000000   0.0000000   0.9000000  )
        22           Ru  tau(  22) = (   0.7500000   0.2500000   0.9000000  )
        23           Ru  tau(  23) = (   0.7500000   0.0000000   1.1500000  )
        24           Ru  tau(  24) = (   0.5000000   0.2500000   1.1500000  )
        25           Ru  tau(  25) = (   0.5000000   0.5000000   0.0000000  )
        26           Ru  tau(  26) = (   0.7500000   0.7500000   0.0000000  )
        27           Ru  tau(  27) = (   0.7500000   0.5000000   0.2500000  )
        28           Ru  tau(  28) = (   0.5000000   0.7500000   0.2500000  )
        29           Ru  tau(  29) = (   0.5000000   0.5000000   0.9000000  )
        30           Ru  tau(  30) = (   0.7500000   0.7500000   0.9000000  )
        31           Ru  tau(  31) = (   0.7500000   0.5000000   1.1500000  )
        32           Ru  tau(  32) = (   0.5000000   0.7500000   1.1500000  )

     number of k points=    75  Marzari-Vanderbilt smearing, width (Ry)=  0.0400
                       cart. coord. in units 2pi/alat
        k(    1) = (   0.0555556   0.0555556   0.0396825), wk =   0.0219479
        k(    2) = (   0.0555556   0.0555556   0.1190476), wk =   0.0219479
        k(    3) = (   0.0555556   0.0555556   0.1984127), wk =   0.0219479
        k(    4) = (   0.0555556   0.0555556   0.2777778), wk =   0.0219479
        k(    5) = (   0.0555556   0.0555556  -0.3571429), wk =   0.0109739
        k(    6) = (   0.0555556   0.1666667   0.0396825), wk =   0.0438957
        k(    7) = (   0.0555556   0.1666667   0.1190476), wk =   0.0438957
        k(    8) = (   0.0555556   0.1666667   0.1984127), wk =   0.0438957
        k(    9) = (   0.0555556   0.1666667   0.2777778), wk =   0.0438957
        k(   10) = (   0.0555556   0.1666667  -0.3571429), wk =   0.0219479
        k(   11) = (   0.0555556   0.2777778   0.0396825), wk =   0.0438957
        k(   12) = (   0.0555556   0.2777778   0.1190476), wk =   0.0438957
        k(   13) = (   0.0555556   0.2777778   0.1984127), wk =   0.0438957
        k(   14) = (   0.0555556   0.2777778   0.2777778), wk =   0.0438957
        k(   15) = (   0.0555556   0.2777778  -0.3571429), wk =   0.0219479
        k(   16) = (   0.0555556   0.3888889   0.0396825), wk =   0.0438957
        k(   17) = (   0.0555556   0.3888889   0.1190476), wk =   0.0438957
        k(   18) = (   0.0555556   0.3888889   0.1984127), wk =   0.0438957
        k(   19) = (   0.0555556   0.3888889   0.2777778), wk =   0.0438957
        k(   20) = (   0.0555556   0.3888889  -0.3571429), wk =   0.0219479
        k(   21) = (   0.0555556  -0.5000000   0.0396825), wk =   0.0219479
        k(   22) = (   0.0555556  -0.5000000   0.1190476), wk =   0.0219479
        k(   23) = (   0.0555556  -0.5000000   0.1984127), wk =   0.0219479
        k(   24) = (   0.0555556  -0.5000000   0.2777778), wk =   0.0219479
        k(   25) = (   0.0555556  -0.5000000  -0.3571429), wk =   0.0109739
        k(   26) = (   0.1666667   0.1666667   0.0396825), wk =   0.0219479
        k(   27) = (   0.1666667   0.1666667   0.1190476), wk =   0.0219479
        k(   28) = (   0.1666667   0.1666667   0.1984127), wk =   0.0219479
        k(   29) = (   0.1666667   0.1666667   0.2777778), wk =   0.0219479
        k(   30) = (   0.1666667   0.1666667  -0.3571429), wk =   0.0109739
        k(   31) = (   0.1666667   0.2777778   0.0396825), wk =   0.0438957
        k(   32) = (   0.1666667   0.2777778   0.1190476), wk =   0.0438957
        k(   33) = (   0.1666667   0.2777778   0.1984127), wk =   0.0438957
        k(   34) = (   0.1666667   0.2777778   0.2777778), wk =   0.0438957
        k(   35) = (   0.1666667   0.2777778  -0.3571429), wk =   0.0219479
        k(   36) = (   0.1666667   0.3888889   0.0396825), wk =   0.0438957
        k(   37) = (   0.1666667   0.3888889   0.1190476), wk =   0.0438957
        k(   38) = (   0.1666667   0.3888889   0.1984127), wk =   0.0438957
        k(   39) = (   0.1666667   0.3888889   0.2777778), wk =   0.0438957
        k(   40) = (   0.1666667   0.3888889  -0.3571429), wk =   0.0219479
        k(   41) = (   0.1666667  -0.5000000   0.0396825), wk =   0.0219479
        k(   42) = (   0.1666667  -0.5000000   0.1190476), wk =   0.0219479
        k(   43) = (   0.1666667  -0.5000000   0.1984127), wk =   0.0219479
        k(   44) = (   0.1666667  -0.5000000   0.2777778), wk =   0.0219479
        k(   45) = (   0.1666667  -0.5000000  -0.3571429), wk =   0.0109739
        k(   46) = (   0.2777778   0.2777778   0.0396825), wk =   0.0219479
        k(   47) = (   0.2777778   0.2777778   0.1190476), wk =   0.0219479
        k(   48) = (   0.2777778   0.2777778   0.1984127), wk =   0.0219479
        k(   49) = (   0.2777778   0.2777778   0.2777778), wk =   0.0219479
        k(   50) = (   0.2777778   0.2777778  -0.3571429), wk =   0.0109739
        k(   51) = (   0.2777778   0.3888889   0.0396825), wk =   0.0438957
        k(   52) = (   0.2777778   0.3888889   0.1190476), wk =   0.0438957
        k(   53) = (   0.2777778   0.3888889   0.1984127), wk =   0.0438957
        k(   54) = (   0.2777778   0.3888889   0.2777778), wk =   0.0438957
        k(   55) = (   0.2777778   0.3888889  -0.3571429), wk =   0.0219479
        k(   56) = (   0.2777778  -0.5000000   0.0396825), wk =   0.0219479
        k(   57) = (   0.2777778  -0.5000000   0.1190476), wk =   0.0219479
        k(   58) = (   0.2777778  -0.5000000   0.1984127), wk =   0.0219479
        k(   59) = (   0.2777778  -0.5000000   0.2777778), wk =   0.0219479
        k(   60) = (   0.2777778  -0.5000000  -0.3571429), wk =   0.0109739
        k(   61) = (   0.3888889   0.3888889   0.0396825), wk =   0.0219479
        k(   62) = (   0.3888889   0.3888889   0.1190476), wk =   0.0219479
        k(   63) = (   0.3888889   0.3888889   0.1984127), wk =   0.0219479
        k(   64) = (   0.3888889   0.3888889   0.2777778), wk =   0.0219479
        k(   65) = (   0.3888889   0.3888889  -0.3571429), wk =   0.0109739
        k(   66) = (   0.3888889  -0.5000000   0.0396825), wk =   0.0219479
        k(   67) = (   0.3888889  -0.5000000   0.1190476), wk =   0.0219479
        k(   68) = (   0.3888889  -0.5000000   0.1984127), wk =   0.0219479
        k(   69) = (   0.3888889  -0.5000000   0.2777778), wk =   0.0219479
        k(   70) = (   0.3888889  -0.5000000  -0.3571429), wk =   0.0109739
        k(   71) = (  -0.5000000  -0.5000000   0.0396825), wk =   0.0054870
        k(   72) = (  -0.5000000  -0.5000000   0.1190476), wk =   0.0054870
        k(   73) = (  -0.5000000  -0.5000000   0.1984127), wk =   0.0054870
        k(   74) = (  -0.5000000  -0.5000000   0.2777778), wk =   0.0054870
        k(   75) = (  -0.5000000  -0.5000000  -0.3571429), wk =   0.0027435

     Check: negative core charge=   -0.000002

     Initial potential from superposition of free atoms

     starting charge  511.97959, renormalised to  512.00000
     Starting wfcs are  320 randomized atomic wfcs
     Checking if some PAW data can be deallocated...

     Self-consistent Calculation

     iteration #  1     ecut=    71.00 Ry     beta= 0.10
     Davidson diagonalization with overlap
     ethr =  1.00E-02,  avg # of iterations =  3.5

     total energy              =  -13812.51056314 Ry
     estimated scf accuracy    <      11.65771899 Ry

[...]

     total energy              =  -13811.68550261 Ry
     estimated scf accuracy    <       0.00000409 Ry

     iteration # 28     ecut=    71.00 Ry     beta= 0.10
     Davidson diagonalization with overlap
     ethr =  7.98E-10,  avg # of iterations =  2.0

     End of self-consistent calculation

          k = 0.0556 0.0556 0.0397 ( 42253 PWs)   bands (ev):

   -57.8278 -57.7484 -57.7484 -57.7334 -57.7334 -57.7189 -57.7164 -57.7106
   -57.7106 -57.7066 -57.6881 -57.6881 -57.6827 -57.6827 -57.6565 -57.6565
   -57.3106 -57.3089 -57.2643 -57.2643 -57.2640 -57.2640 -57.2613 -57.2613
   -57.2605 -57.2605 -57.2552 -57.2552 -57.2551 -57.2551 -57.2066 -57.2066
   -28.1492 -28.1485 -28.1485 -28.1432 -28.1126 -28.1126 -28.0431 -27.9413
   -27.9413 -27.9395 -27.9395 -27.8946 -27.8946 -27.8679 -27.8679 -27.8524
   -27.8524 -27.8420 -27.8420 -27.8071 -27.8071 -27.7687 -27.7640 -27.7640
   -27.7556 -27.7342 -27.7342 -27.7060 -27.7060 -27.6606 -27.6418 -27.6418
   -27.6311 -27.6311 -27.6015 -27.6015 -27.5701 -27.5691 -27.5160 -27.5160
   -27.5062 -27.5061 -27.4684 -27.4684 -27.4425 -27.4425 -27.4263 -27.4231
   -27.4231 -27.4103 -27.4060 -27.4031 -27.3964 -27.3917 -27.3917 -27.3774
   -27.2811 -27.2811 -27.2768 -27.2768 -27.2503 -27.2503 -27.2407 -27.2407
   -27.2402 -27.2402 -27.2399 -27.2399 -27.2071 -27.2071 -27.2039 -27.2039
   -27.1959 -27.1604 -27.1586 -27.1586 -27.1556 -27.1556 -27.1504 -27.1462
   -27.1462 -27.1380 -27.1380 -27.1306 -27.1306 -27.1246 -27.1246 -27.1185
   -27.0230 -27.0199 -27.0165 -27.0122 -26.9931 -26.9930 -26.9894 -26.9894
     8.1008   9.3371   9.4831   9.4831   9.7572   9.7695   9.7753   9.7753
     9.7759   9.8222   9.9828   9.9828  10.2232  10.2232  10.2910  10.4023
    10.4023  10.6680  10.6680  10.6880  10.8432  10.8432  10.8777  10.8777
    11.0368  11.0368  11.0783  11.0935  11.1046  11.1046  11.1498  11.1498
    11.3684  11.3684  11.4061  11.4061  11.4296  11.4296  11.4802  11.4802
    11.6176  11.6176  11.7017  11.7018  11.7331  11.8372  11.8372  11.8467
    11.8467  12.1006  12.1007  12.1232  12.1394  12.1394  12.1442  12.1442
    12.2319  12.2319  12.3748  12.4163  12.4163  12.4508  12.5564  12.5731
    12.5731  12.6032  12.6594  12.6594  12.7712  12.7712  12.8717  12.8717
    12.9476  12.9476  12.9665  12.9748  13.0910  13.1099  13.2330  13.2520
    13.2520  13.3028  13.5505  13.5505  13.6298  13.6298  13.6517  13.6517
    13.7093  13.8085  13.8085  13.9020  13.9020  13.9185  13.9186  13.9586
    13.9586  14.0255  14.0452  14.0481  14.0745  14.0745  14.2047  14.2047
    14.2672  14.3072  14.3072  14.3185  14.3316  14.3316  14.4980  14.4981
    14.5501  14.5501  14.6816  14.6816  14.6914  14.6914  14.7289  14.8696
    14.8696  14.9082  14.9082  14.9891  14.9891  15.2553  15.2553  15.2627
    15.3360  15.3360  15.3826  15.5230  15.5282  15.5282  15.5410  15.5410
    15.5746  15.6020  15.6020  15.6524  15.6555  15.6919  15.6919  15.7814
    15.8158  15.8158  15.9455  16.0015  16.0015  16.3419  16.3419  16.4726
    16.4746  16.4746  16.5388  16.6046  16.6577  16.7718  16.7962  16.7962
    16.8069  16.8069  16.9219  16.9219  16.9519  17.0105  17.0876  17.2895
    17.2895  17.3800  17.3801  17.4375  17.4769  17.4769  17.6969  17.6969
    17.7388  18.2697  18.5011

[...]

          k = 0.3889-0.5000-0.3571 ( 42228 PWs)   bands (ev):

[...]

          k =-0.5000-0.5000 0.0397 ( 42252 PWs)   bands (ev):

[...]

          k =-0.5000-0.5000-0.3571 ( 42256 PWs)   bands (ev):

   -57.7816 -57.7816 -57.7816 -57.7816 -57.7034 -57.7034 -57.7034 -57.7034
   -57.6836 -57.6836 -57.6836 -57.6836 -57.6836 -57.6836 -57.6836 -57.6836
   -57.2858 -57.2858 -57.2858 -57.2858 -57.2853 -57.2853 -57.2853 -57.2853
   -57.2336 -57.2336 -57.2336 -57.2336 -57.2336 -57.2336 -57.2336 -57.2336
   -28.0817 -28.0817 -28.0816 -28.0816 -28.0816 -28.0816 -28.0816 -28.0816
   -28.0000 -28.0000 -28.0000 -28.0000 -27.9273 -27.9273 -27.9273 -27.9273
   -27.7879 -27.7879 -27.7879 -27.7879 -27.7879 -27.7879 -27.7879 -27.7879
   -27.6878 -27.6878 -27.6878 -27.6877 -27.6069 -27.6069 -27.6069 -27.6069
   -27.6069 -27.6069 -27.6069 -27.6069 -27.5882 -27.5882 -27.5882 -27.5882
   -27.5141 -27.5141 -27.5141 -27.5141 -27.4089 -27.4089 -27.4089 -27.4089
   -27.4089 -27.4089 -27.4089 -27.4089 -27.3877 -27.3877 -27.3876 -27.3876
   -27.2717 -27.2717 -27.2717 -27.2717 -27.2390 -27.2390 -27.2390 -27.2390
   -27.2390 -27.2390 -27.2390 -27.2390 -27.2369 -27.2369 -27.2369 -27.2369
   -27.1537 -27.1536 -27.1536 -27.1536 -27.1536 -27.1536 -27.1536 -27.1536
   -27.1369 -27.1369 -27.1369 -27.1369 -27.1366 -27.1366 -27.1366 -27.1366
   -27.0041 -27.0041 -27.0041 -27.0041 -27.0012 -27.0012 -27.0012 -27.0012
     9.3528   9.3528   9.3528   9.3528   9.9536   9.9536   9.9536   9.9536
    10.3780  10.3780  10.3780  10.3780  10.3780  10.3780  10.3780  10.3780
    10.4517  10.4517  10.4517  10.4517  10.5260  10.5260  10.5260  10.5260
    10.5260  10.5260  10.5260  10.5260  10.6859  10.6859  10.6859  10.6859
    11.0962  11.0962  11.0962  11.0962  11.4701  11.4701  11.4701  11.4701
    11.4701  11.4701  11.4701  11.4701  11.8139  11.8139  11.8139  11.8139
    11.8139  11.8139  11.8139  11.8139  12.0964  12.0964  12.0964  12.0964
    12.5092  12.5092  12.5092  12.5092  12.9634  12.9634  12.9634  12.9634
    13.0194  13.0194  13.0194  13.0194  13.1143  13.1143  13.1143  13.1143
    13.3061  13.3061  13.3061  13.3061  13.3366  13.3366  13.3366  13.3366
    13.3366  13.3366  13.3366  13.3366  13.4766  13.4766  13.4766  13.4766
    13.5785  13.5785  13.5785  13.5785  13.8151  13.8151  13.8151  13.8151
    14.1557  14.1557  14.1557  14.1557  14.1557  14.1557  14.1557  14.1557
    14.2989  14.2989  14.2989  14.2989  14.2989  14.2989  14.2989  14.2989
    14.4276  14.4276  14.4276  14.4276  14.7024  14.7024  14.7024  14.7024
    14.7998  14.7998  14.7998  14.7998  14.9682  14.9682  14.9682  14.9682
    14.9682  14.9682  14.9682  14.9682  15.2866  15.2866  15.2866  15.2866
    15.6066  15.6066  15.6066  15.6066  15.9161  15.9161  15.9161  15.9161
    16.1166  16.1166  16.1166  16.1166  16.1166  16.1166  16.1166  16.1166
    16.6868  16.6868  16.6868  16.6868  16.8354  16.8354  16.8354  16.8354
    16.8354  16.8354  16.8354  16.8354  16.8770  16.8770  16.8770  16.8770
    16.8960  16.8960  16.8960  16.8960  18.3912  18.3912  18.3913  18.3913
    19.8242  19.8242  19.8242

     the Fermi energy is    15.2532 ev

!    total energy              =  -13811.68550395 Ry

     total all-electron energy =   -289988.075843 Ry
     estimated scf accuracy    <       0.00000035 Ry
     smearing contrib. (-TS)   =      -0.00149517 Ry
     internal energy E=F+TS    =  -13811.68400878 Ry

     The total energy is F=E-TS. E is the sum of the following terms:
     one-electron contribution =   -5809.27698119 Ry
     hartree contribution      =    3177.23867945 Ry
     xc contribution           =    -925.61507927 Ry
     ewald contribution        =   -2664.69754588 Ry
     one-center paw contrib.   =   -7589.33308189 Ry

     convergence has been achieved in  28 iterations

     Forces acting on atoms (cartesian axes, Ry/au):

     atom    1 type  1   force =     0.00000000    0.00000000    0.03989414
     atom    2 type  1   force =    -0.00000062   -0.00000062    0.03989757
     atom    3 type  1   force =    -0.00000561    0.00000000   -0.02995807
     atom    4 type  1   force =     0.00000000   -0.00000561   -0.02995807
     atom    5 type  1   force =     0.00000000    0.00000000    0.02995018
     atom    6 type  1   force =     0.00001100    0.00001100    0.02994704
     atom    7 type  1   force =    -0.00000610    0.00000000   -0.03987678
     atom    8 type  1   force =    -0.00000000   -0.00000610   -0.03987678
     atom    9 type  1   force =     0.00000000    0.00000000    0.03989460
     atom   10 type  1   force =    -0.00000062    0.00000062    0.03989757
     atom   11 type  1   force =     0.00000578    0.00000000   -0.02995364
     atom   12 type  1   force =     0.00000000    0.00000561   -0.02995807
     atom   13 type  1   force =     0.00000000    0.00000000    0.02994105
     atom   14 type  1   force =     0.00001100   -0.00001100    0.02994704
     atom   15 type  1   force =     0.00000595    0.00000000   -0.03988801
     atom   16 type  1   force =     0.00000000    0.00000610   -0.03987678
     atom   17 type  1   force =     0.00000000    0.00000000    0.03989460
     atom   18 type  1   force =     0.00000062   -0.00000062    0.03989757
     atom   19 type  1   force =     0.00000561    0.00000000   -0.02995807
     atom   20 type  1   force =     0.00000000    0.00000578   -0.02995364
     atom   21 type  1   force =     0.00000000    0.00000000    0.02994105
     atom   22 type  1   force =    -0.00001100    0.00001100    0.02994704
     atom   23 type  1   force =     0.00000610   -0.00000000   -0.03987678
     atom   24 type  1   force =     0.00000000    0.00000595   -0.03988801
     atom   25 type  1   force =     0.00000000    0.00000000    0.03989207
     atom   26 type  1   force =     0.00000062    0.00000062    0.03989757
     atom   27 type  1   force =    -0.00000578    0.00000000   -0.02995364
     atom   28 type  1   force =     0.00000000   -0.00000578   -0.02995364
     atom   29 type  1   force =     0.00000000    0.00000000    0.02991985
     atom   30 type  1   force =    -0.00001100   -0.00001100    0.02994704
     atom   31 type  1   force =    -0.00000595    0.00000000   -0.03988801
     atom   32 type  1   force =     0.00000000   -0.00000595   -0.03988801

     Total force =     0.199523     Total SCF correction =     0.001392

     Computing stress (Cartesian axis) and pressure

          total   stress  (Ry/bohr**3)                   (kbar)     P=      -92.00
  -0.00067222   0.00000000   0.00000000          -98.89        0.00        0.00
   0.00000000  -0.00067222   0.00000000            0.00      -98.89        0.00
   0.00000000   0.00000000  -0.00053174            0.00        0.00      -78.22

     Writing output data file /scratch/thNveGybmbomBCZl.save/

     General routines

     Parallel routines

   This run was terminated on:  19:49: 8  25Nov2021

   JOB DONE.