     Program PWSCF v.6.7MaX starts on 25Nov2021 at 23: 6:53

     R & G space division:  proc/nbgrp/npool/nimage =      72
     Reading input from scf_15.in
Warning: card &CELL ignored
Warning: card CELL_DYNAMICS = 'BFGS', ignored
Warning: card CELL_FACTOR = 2.0, ignored
Warning: card PRESS = 0.0, ignored
Warning: card / ignored

     Current dimensions of program PWSCF are:
     Max number of different atomic species (ntypx) = 10
     Max number of k-points (npk) =  40000
     Max angular momentum in pseudopotentials (lmaxx) =  3
     file Ru.pbe-spn-kjpaw_psl.1.0.0.UPF: wavefunction(s)  4D renormalized

     Subspace diagonalization in iterative solution of the eigenvalue problem:
     one sub-group per band group will be used

     Found symmetry operation: I + (  0.2500  0.2500  0.0000)
     This is a supercell, fractional translations are disabled
     Message from routine setup:
     using ibrav=0 with symmetry is DISCOURAGED, use correct ibrav instead

     bravais-lattice index     =            0
     lattice parameter (alat)  =      14.4007  a.u.
     unit-cell volume          =    5076.9571 (a.u.)^3
     number of atoms/cell      =           32
     number of atomic types    =            1
     number of electrons       =       512.00
     number of Kohn-Sham states=          307
     kinetic-energy cutoff     =      71.0000  Ry
     charge density cutoff     =     430.0000  Ry
     scf convergence threshold =      1.0E-06
     mixing beta               =       0.1000
     number of iterations used =           10  TF        mixing
     Exchange-correlation= SLA  PW   PBX  PBC
                           (   1   4   3   4   0   0   0)

     celldm(1)=  14.400742  celldm(2)=   0.000000  celldm(3)=   0.000000
     celldm(4)=   0.000000  celldm(5)=   0.000000  celldm(6)=   0.000000

     crystal axes: (cart. coord. in units of alat)
               a(1) = (   1.000000   0.000000   0.000000 )
               a(2) = (   0.000000   1.000000   0.000000 )
               a(3) = (   0.000000   0.000000   1.700000 )

     reciprocal axes: (cart. coord. in units 2 pi/alat)
               b(1) = (  1.000000  0.000000  0.000000 )
               b(2) = (  0.000000  1.000000  0.000000 )
               b(3) = (  0.000000  0.000000  0.588235 )

     PseudoPot. # 1 for Ru read from file:
     /rds/homes/b/bxp912/pp/Ru.pbe-spn-kjpaw_psl.1.0.0.UPF
     MD5 check sum: 0ae1f594dea09af7be8575c3a481d1ae
     Pseudo is Projector augmented-wave + core cor, Zval = 16.0
     Generated using "atomic" code by A. Dal Corso  v.5.1
     Shape of augmentation charge: PSQ
     Using radial grid of 1233 points,  6 beta functions with:
                l(1) =   0
                l(2) =   0
                l(3) =   1
                l(4) =   1
                l(5) =   2
                l(6) =   2
     Q(r) pseudized with 0 coefficients

     atomic species   valence    mass     pseudopotential
        Ru            16.00   101.07000     Ru( 1.00)

      8 Sym. Ops. (no inversion) found

   Cartesian axes

     site n.     atom                  positions (alat units)
         1           Ru  tau(   1) = (   0.0000000   0.0000000   0.0000000  )
         2           Ru  tau(   2) = (   0.2500000   0.2500000   0.0000000  )
         3           Ru  tau(   3) = (   0.2500000   0.0000000   0.2500000  )
         4           Ru  tau(   4) = (   0.0000000   0.2500000   0.2500000  )
         5           Ru  tau(   5) = (   0.0000000   0.0000000   1.2000000  )
         6           Ru  tau(   6) = (   0.2500000   0.2500000   1.2000000  )
         7           Ru  tau(   7) = (   0.2500000   0.0000000   1.4500000  )
         8           Ru  tau(   8) = (   0.0000000   0.2500000   1.4500000  )
         9           Ru  tau(   9) = (   0.0000000   0.5000000   0.0000000  )
        10           Ru  tau(  10) = (   0.2500000   0.7500000   0.0000000  )
        11           Ru  tau(  11) = (   0.2500000   0.5000000   0.2500000  )
        12           Ru  tau(  12) = (   0.0000000   0.7500000   0.2500000  )
        13           Ru  tau(  13) = (   0.0000000   0.5000000   1.2000000  )
        14           Ru  tau(  14) = (   0.2500000   0.7500000   1.2000000  )
        15           Ru  tau(  15) = (   0.2500000   0.5000000   1.4500000  )
        16           Ru  tau(  16) = (   0.0000000   0.7500000   1.4500000  )
        17           Ru  tau(  17) = (   0.5000000   0.0000000   0.0000000  )
        18           Ru  tau(  18) = (   0.7500000   0.2500000   0.0000000  )
        19           Ru  tau(  19) = (   0.7500000   0.0000000   0.2500000  )
        20           Ru  tau(  20) = (   0.5000000   0.2500000   0.2500000  )
        21           Ru  tau(  21) = (   0.5000000   0.0000000   1.2000000  )
        22           Ru  tau(  22) = (   0.7500000   0.2500000   1.2000000  )
        23           Ru  tau(  23) = (   0.7500000   0.0000000   1.4500000  )
        24           Ru  tau(  24) = (   0.5000000   0.2500000   1.4500000  )
        25           Ru  tau(  25) = (   0.5000000   0.5000000   0.0000000  )
        26           Ru  tau(  26) = (   0.7500000   0.7500000   0.0000000  )
        27           Ru  tau(  27) = (   0.7500000   0.5000000   0.2500000  )
        28           Ru  tau(  28) = (   0.5000000   0.7500000   0.2500000  )
        29           Ru  tau(  29) = (   0.5000000   0.5000000   1.2000000  )
        30           Ru  tau(  30) = (   0.7500000   0.7500000   1.2000000  )
        31           Ru  tau(  31) = (   0.7500000   0.5000000   1.4500000  )
        32           Ru  tau(  32) = (   0.5000000   0.7500000   1.4500000  )

     number of k points=    75  Marzari-Vanderbilt smearing, width (Ry)=  0.0400
                       cart. coord. in units 2pi/alat
        k(    1) = (   0.0555556   0.0555556   0.0326797), wk =   0.0219479
        k(    2) = (   0.0555556   0.0555556   0.0980392), wk =   0.0219479
        k(    3) = (   0.0555556   0.0555556   0.1633987), wk =   0.0219479
        k(    4) = (   0.0555556   0.0555556   0.2287582), wk =   0.0219479
        k(    5) = (   0.0555556   0.0555556  -0.2941176), wk =   0.0109739
        k(    6) = (   0.0555556   0.1666667   0.0326797), wk =   0.0438957
        k(    7) = (   0.0555556   0.1666667   0.0980392), wk =   0.0438957
        k(    8) = (   0.0555556   0.1666667   0.1633987), wk =   0.0438957
        k(    9) = (   0.0555556   0.1666667   0.2287582), wk =   0.0438957
        k(   10) = (   0.0555556   0.1666667  -0.2941176), wk =   0.0219479
        k(   11) = (   0.0555556   0.2777778   0.0326797), wk =   0.0438957
        k(   12) = (   0.0555556   0.2777778   0.0980392), wk =   0.0438957
        k(   13) = (   0.0555556   0.2777778   0.1633987), wk =   0.0438957
        k(   14) = (   0.0555556   0.2777778   0.2287582), wk =   0.0438957
        k(   15) = (   0.0555556   0.2777778  -0.2941176), wk =   0.0219479
        k(   16) = (   0.0555556   0.3888889   0.0326797), wk =   0.0438957
        k(   17) = (   0.0555556   0.3888889   0.0980392), wk =   0.0438957
        k(   18) = (   0.0555556   0.3888889   0.1633987), wk =   0.0438957
        k(   19) = (   0.0555556   0.3888889   0.2287582), wk =   0.0438957
        k(   20) = (   0.0555556   0.3888889  -0.2941176), wk =   0.0219479
        k(   21) = (   0.0555556  -0.5000000   0.0326797), wk =   0.0219479
        k(   22) = (   0.0555556  -0.5000000   0.0980392), wk =   0.0219479
        k(   23) = (   0.0555556  -0.5000000   0.1633987), wk =   0.0219479
        k(   24) = (   0.0555556  -0.5000000   0.2287582), wk =   0.0219479
        k(   25) = (   0.0555556  -0.5000000  -0.2941176), wk =   0.0109739
        k(   26) = (   0.1666667   0.1666667   0.0326797), wk =   0.0219479
        k(   27) = (   0.1666667   0.1666667   0.0980392), wk =   0.0219479
        k(   28) = (   0.1666667   0.1666667   0.1633987), wk =   0.0219479
        k(   29) = (   0.1666667   0.1666667   0.2287582), wk =   0.0219479
        k(   30) = (   0.1666667   0.1666667  -0.2941176), wk =   0.0109739
        k(   31) = (   0.1666667   0.2777778   0.0326797), wk =   0.0438957
        k(   32) = (   0.1666667   0.2777778   0.0980392), wk =   0.0438957
        k(   33) = (   0.1666667   0.2777778   0.1633987), wk =   0.0438957
        k(   34) = (   0.1666667   0.2777778   0.2287582), wk =   0.0438957
        k(   35) = (   0.1666667   0.2777778  -0.2941176), wk =   0.0219479
        k(   36) = (   0.1666667   0.3888889   0.0326797), wk =   0.0438957
        k(   37) = (   0.1666667   0.3888889   0.0980392), wk =   0.0438957
        k(   38) = (   0.1666667   0.3888889   0.1633987), wk =   0.0438957
        k(   39) = (   0.1666667   0.3888889   0.2287582), wk =   0.0438957
        k(   40) = (   0.1666667   0.3888889  -0.2941176), wk =   0.0219479
        k(   41) = (   0.1666667  -0.5000000   0.0326797), wk =   0.0219479
        k(   42) = (   0.1666667  -0.5000000   0.0980392), wk =   0.0219479
        k(   43) = (   0.1666667  -0.5000000   0.1633987), wk =   0.0219479
        k(   44) = (   0.1666667  -0.5000000   0.2287582), wk =   0.0219479
        k(   45) = (   0.1666667  -0.5000000  -0.2941176), wk =   0.0109739
        k(   46) = (   0.2777778   0.2777778   0.0326797), wk =   0.0219479
        k(   47) = (   0.2777778   0.2777778   0.0980392), wk =   0.0219479
        k(   48) = (   0.2777778   0.2777778   0.1633987), wk =   0.0219479
        k(   49) = (   0.2777778   0.2777778   0.2287582), wk =   0.0219479
        k(   50) = (   0.2777778   0.2777778  -0.2941176), wk =   0.0109739
        k(   51) = (   0.2777778   0.3888889   0.0326797), wk =   0.0438957
        k(   52) = (   0.2777778   0.3888889   0.0980392), wk =   0.0438957
        k(   53) = (   0.2777778   0.3888889   0.1633987), wk =   0.0438957
        k(   54) = (   0.2777778   0.3888889   0.2287582), wk =   0.0438957
        k(   55) = (   0.2777778   0.3888889  -0.2941176), wk =   0.0219479
        k(   56) = (   0.2777778  -0.5000000   0.0326797), wk =   0.0219479
        k(   57) = (   0.2777778  -0.5000000   0.0980392), wk =   0.0219479
        k(   58) = (   0.2777778  -0.5000000   0.1633987), wk =   0.0219479
        k(   59) = (   0.2777778  -0.5000000   0.2287582), wk =   0.0219479
        k(   60) = (   0.2777778  -0.5000000  -0.2941176), wk =   0.0109739
        k(   61) = (   0.3888889   0.3888889   0.0326797), wk =   0.0219479
        k(   62) = (   0.3888889   0.3888889   0.0980392), wk =   0.0219479
        k(   63) = (   0.3888889   0.3888889   0.1633987), wk =   0.0219479
        k(   64) = (   0.3888889   0.3888889   0.2287582), wk =   0.0219479
        k(   65) = (   0.3888889   0.3888889  -0.2941176), wk =   0.0109739
        k(   66) = (   0.3888889  -0.5000000   0.0326797), wk =   0.0219479
        k(   67) = (   0.3888889  -0.5000000   0.0980392), wk =   0.0219479
        k(   68) = (   0.3888889  -0.5000000   0.1633987), wk =   0.0219479
        k(   69) = (   0.3888889  -0.5000000   0.2287582), wk =   0.0219479
        k(   70) = (   0.3888889  -0.5000000  -0.2941176), wk =   0.0109739
        k(   71) = (  -0.5000000  -0.5000000   0.0326797), wk =   0.0054870
        k(   72) = (  -0.5000000  -0.5000000   0.0980392), wk =   0.0054870
        k(   73) = (  -0.5000000  -0.5000000   0.1633987), wk =   0.0054870
        k(   74) = (  -0.5000000  -0.5000000   0.2287582), wk =   0.0054870
        k(   75) = (  -0.5000000  -0.5000000  -0.2941176), wk =   0.0027435

     Check: negative core charge=   -0.000002

     Initial potential from superposition of free atoms

     starting charge  511.97959, renormalised to  512.00000
     Starting wfcs are  320 randomized atomic wfcs
     Checking if some PAW data can be deallocated...

     Self-consistent Calculation

     iteration #  1     ecut=    71.00 Ry     beta= 0.10
     Davidson diagonalization with overlap
     ethr =  1.00E-02,  avg # of iterations =  4.0

     total energy              =  -13812.50420848 Ry
     estimated scf accuracy    <      11.73050853 Ry

[...]

     negative rho (up, down):  7.152E-06 0.000E+00

[...]

     iteration # 17     ecut=    71.00 Ry     beta= 0.10
     Davidson diagonalization with overlap
     c_bands:  1 eigenvalues not converged
     ethr =  1.60E-06,  avg # of iterations =  4.3

[...]

     total energy              =  -13811.65415401 Ry
     estimated scf accuracy    <       0.00000180 Ry

     iteration # 26     ecut=    71.00 Ry     beta= 0.10
     Davidson diagonalization with overlap
     ethr =  3.51E-10,  avg # of iterations =  3.8

     End of self-consistent calculation

          k = 0.0556 0.0556 0.0327 ( 51316 PWs)   bands (ev):

   -61.3529 -61.2736 -61.2736 -61.2586 -61.2586 -61.2440 -61.2416 -61.2359
   -61.2358 -61.2319 -61.2133 -61.2133 -61.2079 -61.2079 -61.1818 -61.1817
   -60.8254 -60.8238 -60.7790 -60.7790 -60.7788 -60.7788 -60.7760 -60.7760
   -60.7752 -60.7752 -60.7699 -60.7699 -60.7698 -60.7698 -60.7213 -60.7213
   -31.6739 -31.6732 -31.6731 -31.6679 -31.6374 -31.6374 -31.5673 -31.4662
   -31.4662 -31.4645 -31.4645 -31.4192 -31.4192 -31.3922 -31.3922 -31.3766
   -31.3766 -31.3665 -31.3665 -31.3317 -31.3317 -31.2905 -31.2856 -31.2856
   -31.2771 -31.2576 -31.2576 -31.2295 -31.2295 -31.1825 -31.1663 -31.1663
   -31.1561 -31.1561 -31.1260 -31.1260 -31.0952 -31.0940 -31.0401 -31.0401
   -31.0303 -31.0303 -30.9860 -30.9860 -30.9608 -30.9608 -30.9516 -30.9483
   -30.9482 -30.9356 -30.9279 -30.9259 -30.9212 -30.9122 -30.9121 -30.8981
   -30.7983 -30.7983 -30.7944 -30.7944 -30.7672 -30.7672 -30.7582 -30.7581
   -30.7575 -30.7575 -30.7573 -30.7573 -30.7237 -30.7237 -30.7212 -30.7211
   -30.7092 -30.6733 -30.6706 -30.6706 -30.6687 -30.6687 -30.6638 -30.6599
   -30.6599 -30.6527 -30.6527 -30.6449 -30.6449 -30.6393 -30.6393 -30.6340
   -30.5402 -30.5370 -30.5339 -30.5296 -30.5100 -30.5099 -30.5063 -30.5063
     4.5820   5.8100   5.9594   5.9594   6.2344   6.2464   6.2517   6.2524
     6.2524   6.2769   6.4594   6.4594   6.7015   6.7015   6.7770   6.8804
     6.8804   7.1438   7.1438   7.1651   7.3193   7.3193   7.3539   7.3539
     7.5127   7.5127   7.5493   7.5658   7.5760   7.5760   7.6231   7.6231
     7.8448   7.8448   7.8811   7.8811   7.9045   7.9045   7.9539   7.9539
     8.0970   8.0970   8.1768   8.1768   8.2123   8.3138   8.3138   8.3232
     8.3232   8.5757   8.5757   8.5961   8.6168   8.6168   8.6211   8.6211
     8.7059   8.7059   8.8498   8.8790   8.8790   8.9275   9.0331   9.0505
     9.0505   9.0807   9.1160   9.1160   9.2705   9.2705   9.3764   9.3764
     9.4258   9.4259   9.4426   9.4508   9.5665   9.5862   9.7416   9.7517
     9.7517   9.8018  10.0370  10.0370  10.1100  10.1100  10.1259  10.1259
    10.2366  10.2366  10.3758  10.3758  10.3827  10.3827  10.3911  10.4021
    10.4021  10.4701  10.5037  10.5235  10.5538  10.5538  10.7315  10.7315
    10.7450  10.7882  10.7882  10.8603  10.8603  10.8808  10.9800  10.9800
    11.0553  11.0553  11.1627  11.1627  11.1684  11.1684  11.2051  11.3230
    11.3230  11.3554  11.3554  11.4815  11.4816  11.7383  11.7383  11.7385
    11.7653  11.7653  11.8132  11.9155  12.0228  12.0228  12.0456  12.0546
    12.0826  12.0826  12.0831  12.0831  12.1329  12.2426  12.2426  12.2617
    12.2832  12.2832  12.4247  12.4606  12.4606  12.8120  12.8120  12.8147
    12.9527  12.9595  12.9595  13.0159  13.0824  13.1987  13.2132  13.2132
    13.2498  13.2696  13.2696  13.2807  13.2807  13.4284  13.6265  13.6813
    13.6813  13.7647  13.7648  14.0386  14.0386  14.0485  14.1788  14.1788
    14.2313  14.9392  14.9555

[...]

          k = 0.3889-0.5000-0.2941 ( 51252 PWs)   bands (ev):

[...]

          k =-0.5000-0.5000 0.0327 ( 51376 PWs)   bands (ev):

[...]

          k =-0.5000-0.5000-0.2941 ( 51200 PWs)   bands (ev):

   -61.3068 -61.3068 -61.3068 -61.3068 -61.2286 -61.2286 -61.2286 -61.2286
   -61.2089 -61.2089 -61.2089 -61.2089 -61.2088 -61.2088 -61.2088 -61.2088
   -60.8006 -60.8006 -60.8006 -60.8006 -60.8001 -60.8000 -60.8000 -60.8000
   -60.7484 -60.7483 -60.7483 -60.7483 -60.7483 -60.7483 -60.7483 -60.7483
   -31.6065 -31.6065 -31.6065 -31.6065 -31.6065 -31.6065 -31.6065 -31.6065
   -31.5245 -31.5245 -31.5245 -31.5245 -31.4515 -31.4515 -31.4515 -31.4515
   -31.3106 -31.3106 -31.3106 -31.3106 -31.3105 -31.3105 -31.3105 -31.3105
   -31.2110 -31.2110 -31.2110 -31.2110 -31.1317 -31.1317 -31.1317 -31.1317
   -31.1317 -31.1317 -31.1316 -31.1316 -31.1111 -31.1111 -31.1111 -31.1111
   -31.0393 -31.0393 -31.0393 -31.0393 -30.9287 -30.9287 -30.9287 -30.9287
   -30.9287 -30.9287 -30.9287 -30.9287 -30.9128 -30.9128 -30.9127 -30.9127
   -30.7890 -30.7890 -30.7890 -30.7890 -30.7558 -30.7558 -30.7558 -30.7558
   -30.7558 -30.7558 -30.7558 -30.7558 -30.7539 -30.7539 -30.7539 -30.7539
   -30.6665 -30.6665 -30.6665 -30.6665 -30.6665 -30.6665 -30.6665 -30.6665
   -30.6523 -30.6523 -30.6523 -30.6523 -30.6509 -30.6509 -30.6509 -30.6509
   -30.5211 -30.5211 -30.5211 -30.5211 -30.5183 -30.5183 -30.5183 -30.5183
     5.8272   5.8272   5.8272   5.8272   6.4312   6.4312   6.4313   6.4313
     6.8542   6.8542   6.8542   6.8542   6.8542   6.8542   6.8542   6.8542
     6.9356   6.9356   6.9356   6.9356   7.0026   7.0026   7.0026   7.0026
     7.0026   7.0026   7.0026   7.0026   7.1529   7.1529   7.1529   7.1529
     7.5757   7.5757   7.5757   7.5757   7.9433   7.9433   7.9433   7.9433
     7.9433   7.9433   7.9433   7.9433   8.2929   8.2929   8.2929   8.2929
     8.2929   8.2929   8.2929   8.2929   8.5705   8.5705   8.5705   8.5705
     8.9879   8.9879   8.9879   8.9879   9.4621   9.4621   9.4621   9.4621
     9.4851   9.4851   9.4851   9.4851   9.5589   9.5590   9.5590   9.5590
     9.7820   9.7820   9.7820   9.7820   9.8136   9.8136   9.8136   9.8136
     9.8136   9.8136   9.8136   9.8136   9.9953   9.9953   9.9953   9.9953
    10.0553  10.0553  10.0553  10.0553  10.2736  10.2736  10.2736  10.2736
    10.6356  10.6356  10.6356  10.6356  10.6356  10.6356  10.6356  10.6356
    10.7617  10.7617  10.7617  10.7617  10.7617  10.7617  10.7617  10.7617
    10.9051  10.9051  10.9051  10.9051  11.2781  11.2781  11.2781  11.2781
    11.3749  11.3749  11.3749  11.3749  11.4831  11.4831  11.4831  11.4831
    11.4831  11.4831  11.4831  11.4831  11.6877  11.6877  11.6877  11.6877
    12.0864  12.0864  12.0864  12.0864  12.3968  12.3968  12.3968  12.3968
    12.5608  12.5608  12.5608  12.5608  12.5608  12.5608  12.5608  12.5608
    12.9716  12.9716  12.9716  12.9716  13.1642  13.1642  13.1642  13.1642
    13.3107  13.3107  13.3107  13.3107  13.3107  13.3107  13.3107  13.3107
    13.3732  13.3732  13.3732  13.3732  15.0686  15.0686  15.0686  15.0686
    16.2942  16.2942  16.2942

     the Fermi energy is    11.7284 ev

!    total energy              =  -13811.65415530 Ry

     total all-electron energy =   -289988.044495 Ry
     estimated scf accuracy    <       0.00000027 Ry
     smearing contrib. (-TS)   =      -0.00323066 Ry
     internal energy E=F+TS    =  -13811.65092464 Ry

     The total energy is F=E-TS. E is the sum of the following terms:
     one-electron contribution =  -12608.98998501 Ry
     hartree contribution      =    6510.87517883 Ry
     xc contribution           =    -925.65594932 Ry
     ewald contribution        =     801.45402616 Ry
     one-center paw contrib.   =   -7589.33419530 Ry

     convergence has been achieved in  26 iterations

     Forces acting on atoms (cartesian axes, Ry/au):

     atom    1 type  1   force =     0.00000000    0.00000000    0.03839073
     atom    2 type  1   force =    -0.00001063   -0.00001063    0.03838361
     atom    3 type  1   force =    -0.00003238    0.00000000   -0.03304526
     atom    4 type  1   force =     0.00000000   -0.00003238   -0.03304526
     atom    5 type  1   force =     0.00000000    0.00000000    0.03301878
     atom    6 type  1   force =     0.00000794    0.00000794    0.03300701
     atom    7 type  1   force =    -0.00001205    0.00000000   -0.03834843
     atom    8 type  1   force =     0.00000000   -0.00001205   -0.03834843
     atom    9 type  1   force =     0.00000000    0.00000000    0.03839194
     atom   10 type  1   force =    -0.00001063    0.00001063    0.03838361
     atom   11 type  1   force =     0.00000689    0.00000000   -0.03305896
     atom   12 type  1   force =     0.00000000    0.00003238   -0.03304526
     atom   13 type  1   force =     0.00000000    0.00000000    0.03302792
     atom   14 type  1   force =     0.00000794   -0.00000794    0.03300701
     atom   15 type  1   force =     0.00002583    0.00000000   -0.03835232
     atom   16 type  1   force =     0.00000000    0.00001205   -0.03834843
     atom   17 type  1   force =     0.00000000    0.00000000    0.03839194
     atom   18 type  1   force =     0.00001063   -0.00001063    0.03838361
     atom   19 type  1   force =     0.00003238    0.00000000   -0.03304526
     atom   20 type  1   force =     0.00000000    0.00000689   -0.03305896
     atom   21 type  1   force =     0.00000000    0.00000000    0.03302792
     atom   22 type  1   force =    -0.00000794    0.00000794    0.03300701
     atom   23 type  1   force =     0.00001205    0.00000000   -0.03834843
     atom   24 type  1   force =     0.00000000    0.00002583   -0.03835232
     atom   25 type  1   force =     0.00000000    0.00000000    0.03837909
     atom   26 type  1   force =     0.00001063    0.00001063    0.03838361
     atom   27 type  1   force =    -0.00000689    0.00000000   -0.03305896
     atom   28 type  1   force =     0.00000000   -0.00000689   -0.03305896
     atom   29 type  1   force =     0.00000000    0.00000000    0.03302907
     atom   30 type  1   force =    -0.00000794   -0.00000794    0.03300701
     atom   31 type  1   force =    -0.00002583    0.00000000   -0.03835232
     atom   32 type  1   force =     0.00000000   -0.00002583   -0.03835232

     Total force =     0.202519     Total SCF correction =     0.001303

     Computing stress (Cartesian axis) and pressure

          total   stress  (Ry/bohr**3)                   (kbar)     P=      -73.49
  -0.00055952   0.00000000   0.00000000          -82.31        0.00        0.00
   0.00000000  -0.00055952   0.00000000            0.00      -82.31        0.00
   0.00000000   0.00000000  -0.00037964            0.00        0.00      -55.85

     Writing output data file /scratch/luICyYaOWZiMIiuX.save/

     General routines

     Parallel routines

   This run was terminated on:  23:52:47  25Nov2021

   JOB DONE.