     Program PWSCF v.6.7MaX starts on 25Nov2021 at 16:38:13

     R & G space division:  proc/nbgrp/npool/nimage =      72
     Reading input from scf_4.in
Warning: card &CELL ignored
Warning: card CELL_DYNAMICS = 'BFGS', ignored
Warning: card CELL_FACTOR = 2.0, ignored
Warning: card PRESS = 0.0, ignored
Warning: card / ignored

     Current dimensions of program PWSCF are:
     Max number of different atomic species (ntypx) = 10
     Max number of k-points (npk) =  40000
     Max angular momentum in pseudopotentials (lmaxx) =  3
     file Ru.pbe-spn-kjpaw_psl.1.0.0.UPF: wavefunction(s)  4D renormalized

     Subspace diagonalization in iterative solution of the eigenvalue problem:
     one sub-group per band group will be used

     Found symmetry operation: I + (  0.2500  0.2500  0.0000)
     This is a supercell, fractional translations are disabled
     Message from routine setup:
     using ibrav=0 with symmetry is DISCOURAGED, use correct ibrav instead

     bravais-lattice index     =            0
     lattice parameter (alat)  =      14.4007  a.u.
     unit-cell volume          =    3434.4122 (a.u.)^3
     number of atoms/cell      =           32
     number of atomic types    =            1
     number of electrons       =       512.00
     number of Kohn-Sham states=          307
     kinetic-energy cutoff     =      71.0000  Ry
     charge density cutoff     =     430.0000  Ry
     scf convergence threshold =      1.0E-06
     mixing beta               =       0.1000
     number of iterations used =           10  TF        mixing
     Exchange-correlation= SLA  PW   PBX  PBC
                           (   1   4   3   4   0   0   0)

     celldm(1)=  14.400742  celldm(2)=   0.000000  celldm(3)=   0.000000
     celldm(4)=   0.000000  celldm(5)=   0.000000  celldm(6)=   0.000000

     crystal axes: (cart. coord. in units of alat)
               a(1) = (   1.000000   0.000000   0.000000 )
               a(2) = (   0.000000   1.000000   0.000000 )
               a(3) = (   0.000000   0.000000   1.150000 )

     reciprocal axes: (cart. coord. in units 2 pi/alat)
               b(1) = (  1.000000  0.000000  0.000000 )
               b(2) = (  0.000000  1.000000  0.000000 )
               b(3) = (  0.000000  0.000000  0.869565 )

     PseudoPot. # 1 for Ru read from file:
     /rds/homes/b/bxp912/pp/Ru.pbe-spn-kjpaw_psl.1.0.0.UPF
     MD5 check sum: 0ae1f594dea09af7be8575c3a481d1ae
     Pseudo is Projector augmented-wave + core cor, Zval = 16.0
     Generated using "atomic" code by A. Dal Corso  v.5.1
     Shape of augmentation charge: PSQ
     Using radial grid of 1233 points,  6 beta functions with:
                l(1) =   0
                l(2) =   0
                l(3) =   1
                l(4) =   1
                l(5) =   2
                l(6) =   2
     Q(r) pseudized with 0 coefficients

     atomic species   valence    mass     pseudopotential
        Ru            16.00   101.07000     Ru( 1.00)

      8 Sym. Ops. (no inversion) found

   Cartesian axes

     site n.     atom                  positions (alat units)
         1           Ru  tau(   1) = (   0.0000000   0.0000000   0.0000000  )
         2           Ru  tau(   2) = (   0.2500000   0.2500000   0.0000000  )
         3           Ru  tau(   3) = (   0.2500000   0.0000000   0.2500000  )
         4           Ru  tau(   4) = (   0.0000000   0.2500000   0.2500000  )
         5           Ru  tau(   5) = (   0.0000000   0.0000000   0.6500000  )
         6           Ru  tau(   6) = (   0.2500000   0.2500000   0.6500000  )
         7           Ru  tau(   7) = (   0.2500000   0.0000000   0.9000000  )
         8           Ru  tau(   8) = (   0.0000000   0.2500000   0.9000000  )
         9           Ru  tau(   9) = (   0.0000000   0.5000000   0.0000000  )
        10           Ru  tau(  10) = (   0.2500000   0.7500000   0.0000000  )
        11           Ru  tau(  11) = (   0.2500000   0.5000000   0.2500000  )
        12           Ru  tau(  12) = (   0.0000000   0.7500000   0.2500000  )
        13           Ru  tau(  13) = (   0.0000000   0.5000000   0.6500000  )
        14           Ru  tau(  14) = (   0.2500000   0.7500000   0.6500000  )
        15           Ru  tau(  15) = (   0.2500000   0.5000000   0.9000000  )
        16           Ru  tau(  16) = (   0.0000000   0.7500000   0.9000000  )
        17           Ru  tau(  17) = (   0.5000000   0.0000000   0.0000000  )
        18           Ru  tau(  18) = (   0.7500000   0.2500000   0.0000000  )
        19           Ru  tau(  19) = (   0.7500000   0.0000000   0.2500000  )
        20           Ru  tau(  20) = (   0.5000000   0.2500000   0.2500000  )
        21           Ru  tau(  21) = (   0.5000000   0.0000000   0.6500000  )
        22           Ru  tau(  22) = (   0.7500000   0.2500000   0.6500000  )
        23           Ru  tau(  23) = (   0.7500000   0.0000000   0.9000000  )
        24           Ru  tau(  24) = (   0.5000000   0.2500000   0.9000000  )
        25           Ru  tau(  25) = (   0.5000000   0.5000000   0.0000000  )
        26           Ru  tau(  26) = (   0.7500000   0.7500000   0.0000000  )
        27           Ru  tau(  27) = (   0.7500000   0.5000000   0.2500000  )
        28           Ru  tau(  28) = (   0.5000000   0.7500000   0.2500000  )
        29           Ru  tau(  29) = (   0.5000000   0.5000000   0.6500000  )
        30           Ru  tau(  30) = (   0.7500000   0.7500000   0.6500000  )
        31           Ru  tau(  31) = (   0.7500000   0.5000000   0.9000000  )
        32           Ru  tau(  32) = (   0.5000000   0.7500000   0.9000000  )

     number of k points=    75  Marzari-Vanderbilt smearing, width (Ry)=  0.0400
                       cart. coord. in units 2pi/alat
        k(    1) = (   0.0555556   0.0555556   0.0483092), wk =   0.0219479
        k(    2) = (   0.0555556   0.0555556   0.1449275), wk =   0.0219479
        k(    3) = (   0.0555556   0.0555556   0.2415459), wk =   0.0219479
        k(    4) = (   0.0555556   0.0555556   0.3381643), wk =   0.0219479
        k(    5) = (   0.0555556   0.0555556  -0.4347826), wk =   0.0109739
        k(    6) = (   0.0555556   0.1666667   0.0483092), wk =   0.0438957
        k(    7) = (   0.0555556   0.1666667   0.1449275), wk =   0.0438957
        k(    8) = (   0.0555556   0.1666667   0.2415459), wk =   0.0438957
        k(    9) = (   0.0555556   0.1666667   0.3381643), wk =   0.0438957
        k(   10) = (   0.0555556   0.1666667  -0.4347826), wk =   0.0219479
        k(   11) = (   0.0555556   0.2777778   0.0483092), wk =   0.0438957
        k(   12) = (   0.0555556   0.2777778   0.1449275), wk =   0.0438957
        k(   13) = (   0.0555556   0.2777778   0.2415459), wk =   0.0438957
        k(   14) = (   0.0555556   0.2777778   0.3381643), wk =   0.0438957
        k(   15) = (   0.0555556   0.2777778  -0.4347826), wk =   0.0219479
        k(   16) = (   0.0555556   0.3888889   0.0483092), wk =   0.0438957
        k(   17) = (   0.0555556   0.3888889   0.1449275), wk =   0.0438957
        k(   18) = (   0.0555556   0.3888889   0.2415459), wk =   0.0438957
        k(   19) = (   0.0555556   0.3888889   0.3381643), wk =   0.0438957
        k(   20) = (   0.0555556   0.3888889  -0.4347826), wk =   0.0219479
        k(   21) = (   0.0555556  -0.5000000   0.0483092), wk =   0.0219479
        k(   22) = (   0.0555556  -0.5000000   0.1449275), wk =   0.0219479
        k(   23) = (   0.0555556  -0.5000000   0.2415459), wk =   0.0219479
        k(   24) = (   0.0555556  -0.5000000   0.3381643), wk =   0.0219479
        k(   25) = (   0.0555556  -0.5000000  -0.4347826), wk =   0.0109739
        k(   26) = (   0.1666667   0.1666667   0.0483092), wk =   0.0219479
        k(   27) = (   0.1666667   0.1666667   0.1449275), wk =   0.0219479
        k(   28) = (   0.1666667   0.1666667   0.2415459), wk =   0.0219479
        k(   29) = (   0.1666667   0.1666667   0.3381643), wk =   0.0219479
        k(   30) = (   0.1666667   0.1666667  -0.4347826), wk =   0.0109739
        k(   31) = (   0.1666667   0.2777778   0.0483092), wk =   0.0438957
        k(   32) = (   0.1666667   0.2777778   0.1449275), wk =   0.0438957
        k(   33) = (   0.1666667   0.2777778   0.2415459), wk =   0.0438957
        k(   34) = (   0.1666667   0.2777778   0.3381643), wk =   0.0438957
        k(   35) = (   0.1666667   0.2777778  -0.4347826), wk =   0.0219479
        k(   36) = (   0.1666667   0.3888889   0.0483092), wk =   0.0438957
        k(   37) = (   0.1666667   0.3888889   0.1449275), wk =   0.0438957
        k(   38) = (   0.1666667   0.3888889   0.2415459), wk =   0.0438957
        k(   39) = (   0.1666667   0.3888889   0.3381643), wk =   0.0438957
        k(   40) = (   0.1666667   0.3888889  -0.4347826), wk =   0.0219479
        k(   41) = (   0.1666667  -0.5000000   0.0483092), wk =   0.0219479
        k(   42) = (   0.1666667  -0.5000000   0.1449275), wk =   0.0219479
        k(   43) = (   0.1666667  -0.5000000   0.2415459), wk =   0.0219479
        k(   44) = (   0.1666667  -0.5000000   0.3381643), wk =   0.0219479
        k(   45) = (   0.1666667  -0.5000000  -0.4347826), wk =   0.0109739
        k(   46) = (   0.2777778   0.2777778   0.0483092), wk =   0.0219479
        k(   47) = (   0.2777778   0.2777778   0.1449275), wk =   0.0219479
        k(   48) = (   0.2777778   0.2777778   0.2415459), wk =   0.0219479
        k(   49) = (   0.2777778   0.2777778   0.3381643), wk =   0.0219479
        k(   50) = (   0.2777778   0.2777778  -0.4347826), wk =   0.0109739
        k(   51) = (   0.2777778   0.3888889   0.0483092), wk =   0.0438957
        k(   52) = (   0.2777778   0.3888889   0.1449275), wk =   0.0438957
        k(   53) = (   0.2777778   0.3888889   0.2415459), wk =   0.0438957
        k(   54) = (   0.2777778   0.3888889   0.3381643), wk =   0.0438957
        k(   55) = (   0.2777778   0.3888889  -0.4347826), wk =   0.0219479
        k(   56) = (   0.2777778  -0.5000000   0.0483092), wk =   0.0219479
        k(   57) = (   0.2777778  -0.5000000   0.1449275), wk =   0.0219479
        k(   58) = (   0.2777778  -0.5000000   0.2415459), wk =   0.0219479
        k(   59) = (   0.2777778  -0.5000000   0.3381643), wk =   0.0219479
        k(   60) = (   0.2777778  -0.5000000  -0.4347826), wk =   0.0109739
        k(   61) = (   0.3888889   0.3888889   0.0483092), wk =   0.0219479
        k(   62) = (   0.3888889   0.3888889   0.1449275), wk =   0.0219479
        k(   63) = (   0.3888889   0.3888889   0.2415459), wk =   0.0219479
        k(   64) = (   0.3888889   0.3888889   0.3381643), wk =   0.0219479
        k(   65) = (   0.3888889   0.3888889  -0.4347826), wk =   0.0109739
        k(   66) = (   0.3888889  -0.5000000   0.0483092), wk =   0.0219479
        k(   67) = (   0.3888889  -0.5000000   0.1449275), wk =   0.0219479
        k(   68) = (   0.3888889  -0.5000000   0.2415459), wk =   0.0219479
        k(   69) = (   0.3888889  -0.5000000   0.3381643), wk =   0.0219479
        k(   70) = (   0.3888889  -0.5000000  -0.4347826), wk =   0.0109739
        k(   71) = (  -0.5000000  -0.5000000   0.0483092), wk =   0.0054870
        k(   72) = (  -0.5000000  -0.5000000   0.1449275), wk =   0.0054870
        k(   73) = (  -0.5000000  -0.5000000   0.2415459), wk =   0.0054870
        k(   74) = (  -0.5000000  -0.5000000   0.3381643), wk =   0.0054870
        k(   75) = (  -0.5000000  -0.5000000  -0.4347826), wk =   0.0027435

     Check: negative core charge=   -0.000002

     Initial potential from superposition of free atoms

     starting charge  511.97959, renormalised to  512.00000
     Starting wfcs are  320 randomized atomic wfcs
     Checking if some PAW data can be deallocated...

     Self-consistent Calculation

     iteration #  1     ecut=    71.00 Ry     beta= 0.10
     Davidson diagonalization with overlap
     ethr =  1.00E-02,  avg # of iterations =  3.7

     total energy              =  -13812.65150668 Ry
     estimated scf accuracy    <       6.43491647 Ry

[...]

     iteration #  7     ecut=    71.00 Ry     beta= 0.10
     Davidson diagonalization with overlap
     c_bands:  1 eigenvalues not converged
     ethr =  2.05E-05,  avg # of iterations =  3.1

[...]

     iteration #  8     ecut=    71.00 Ry     beta= 0.10
     Davidson diagonalization with overlap
     c_bands:  2 eigenvalues not converged
     ethr =  3.84E-06,  avg # of iterations =  3.2

[...]

     total energy              =  -13812.32824040 Ry
     estimated scf accuracy    <       0.00000173 Ry

     iteration # 15     ecut=    71.00 Ry     beta= 0.10
     Davidson diagonalization with overlap
     ethr =  3.38E-10,  avg # of iterations =  2.0

     End of self-consistent calculation

          k = 0.0556 0.0556 0.0483 ( 34731 PWs)   bands (ev):

   -53.5421 -53.4613 -53.4612 -53.4460 -53.4460 -53.4346 -53.4284 -53.4226
   -53.4226 -53.4186 -53.4011 -53.4011 -53.3954 -53.3953 -53.3685 -53.3685
   -53.1607 -53.1558 -53.1158 -53.1158 -53.1144 -53.1144 -53.1132 -53.1131
   -53.1124 -53.1124 -53.1070 -53.1069 -53.1059 -53.1059 -53.0589 -53.0589
   -23.8699 -23.8695 -23.8695 -23.8647 -23.8298 -23.8298 -23.7754 -23.6625
   -23.6625 -23.6574 -23.6574 -23.6166 -23.6166 -23.5943 -23.5943 -23.5841
   -23.5841 -23.5659 -23.5659 -23.5366 -23.5361 -23.5361 -23.5307 -23.5270
   -23.5269 -23.4724 -23.4724 -23.4428 -23.4428 -23.4151 -23.3682 -23.3682
   -23.3527 -23.3527 -23.3268 -23.3268 -23.2896 -23.2896 -23.2845 -23.2836
   -23.2534 -23.2534 -23.2461 -23.2461 -23.2422 -23.2422 -23.1926 -23.1746
   -23.1746 -23.1523 -23.1354 -23.1294 -23.1294 -23.1268 -23.1193 -23.1154
   -23.1091 -23.1091 -23.0956 -23.0956 -23.0820 -23.0819 -23.0596 -23.0595
   -23.0568 -23.0568 -23.0523 -23.0523 -23.0400 -23.0269 -23.0269 -23.0211
   -23.0211 -23.0084 -23.0084 -22.9946 -22.9883 -22.9883 -22.9815 -22.9741
   -22.9741 -22.9584 -22.9584 -22.9548 -22.9547 -22.9452 -22.9452 -22.9173
   -22.8510 -22.8487 -22.8366 -22.8323 -22.8250 -22.8250 -22.8215 -22.8213
    12.2482  13.6146  13.7237  13.7237  13.9801  13.9963  13.9993  13.9993
    14.0423  14.2114  14.2114  14.2221  14.4293  14.4294  14.4458  14.6127
    14.6127  14.9456  14.9456  14.9642  15.0964  15.0964  15.1249  15.1249
    15.2932  15.2932  15.4074  15.4264  15.4280  15.4280  15.4411  15.4411
    15.6266  15.6266  15.6588  15.6588  15.6777  15.6777  15.7955  15.7955
    15.8320  15.8320  15.9256  15.9750  15.9750  16.0987  16.0987  16.1123
    16.1123  16.3665  16.3665  16.3886  16.3886  16.3981  16.4380  16.4380
    16.4997  16.4997  16.6175  16.6175  16.6221  16.6857  16.6857  16.7412
    16.7516  16.7517  16.7693  16.7784  16.7784  16.8124  16.9846  16.9846
    17.0511  17.0511  17.0523  17.0664  17.1844  17.2280  17.2352  17.2730
    17.2730  17.3405  17.3574  17.4849  17.4849  17.6520  17.6520  17.8941
    17.8941  18.0573  18.0573  18.0693  18.0693  18.1638  18.1638  18.2895
    18.3038  18.3286  18.3286  18.3461  18.3461  18.3592  18.3592  18.5000
    18.5000  18.5093  18.5636  18.5722  18.5722  18.5824  18.6170  18.6170
    18.7883  18.7883  18.8923  18.8923  18.9528  18.9528  19.0275  19.1463
    19.1463  19.3186  19.3186  19.3335  19.3335  19.3346  19.3346  19.5368
    19.6631  19.6631  19.7166  19.7166  19.7460  19.7543  19.7543  19.7808
    19.7890  19.7890  19.8540  19.8704  19.8704  19.9681  19.9839  20.1533
    20.1533  20.1664  20.3111  20.5880  20.5880  20.6855  20.7205  20.7205
    20.7773  20.7773  20.8300  20.8819  20.9918  21.0089  21.0257  21.1508
    21.1508  21.1620  21.1620  21.2745  21.2920  21.3940  21.3940  21.5718
    21.5718  21.8866  21.8866  22.0775  22.0775  22.1977  22.4990  22.4990
    22.6676  22.6676  22.9082

[...]

          k = 0.3889-0.5000-0.4348 ( 34728 PWs)   bands (ev):

[...]

          k =-0.5000-0.5000 0.0483 ( 34588 PWs)   bands (ev):

[...]

          k =-0.5000-0.5000-0.4348 ( 34784 PWs)   bands (ev):

   -53.4949 -53.4949 -53.4949 -53.4949 -53.4172 -53.4172 -53.4172 -53.4172
   -53.3956 -53.3956 -53.3956 -53.3956 -53.3956 -53.3956 -53.3956 -53.3956
   -53.1358 -53.1357 -53.1357 -53.1357 -53.1357 -53.1357 -53.1357 -53.1357
   -53.0857 -53.0857 -53.0857 -53.0857 -53.0857 -53.0857 -53.0857 -53.0856
   -23.7976 -23.7976 -23.7976 -23.7976 -23.7976 -23.7976 -23.7976 -23.7976
   -23.7264 -23.7264 -23.7264 -23.7264 -23.6539 -23.6539 -23.6539 -23.6539
   -23.5470 -23.5470 -23.5470 -23.5470 -23.5470 -23.5470 -23.5470 -23.5470
   -23.4228 -23.4228 -23.4228 -23.4228 -23.3396 -23.3396 -23.3396 -23.3396
   -23.3262 -23.3262 -23.3262 -23.3262 -23.3262 -23.3262 -23.3262 -23.3262
   -23.2259 -23.2259 -23.2258 -23.2258 -23.1910 -23.1910 -23.1910 -23.1910
   -23.1910 -23.1910 -23.1910 -23.1910 -23.1018 -23.1018 -23.1017 -23.1017
   -23.0955 -23.0955 -23.0955 -23.0955 -23.0691 -23.0691 -23.0691 -23.0691
   -23.0691 -23.0691 -23.0691 -23.0691 -23.0639 -23.0639 -23.0639 -23.0639
   -22.9930 -22.9930 -22.9930 -22.9930 -22.9930 -22.9930 -22.9929 -22.9929
   -22.9498 -22.9498 -22.9498 -22.9498 -22.9481 -22.9481 -22.9481 -22.9481
   -22.8323 -22.8323 -22.8323 -22.8323 -22.8291 -22.8291 -22.8291 -22.8291
    13.6264  13.6264  13.6264  13.6264  14.1655  14.1655  14.1655  14.1655
    14.5804  14.5804  14.5804  14.5804  14.6388  14.6388  14.6388  14.6388
    14.6388  14.6388  14.6388  14.6388  14.7661  14.7661  14.7661  14.7661
    14.7661  14.7661  14.7661  14.7661  14.9980  14.9980  14.9980  14.9980
    15.3295  15.3295  15.3295  15.3295  15.7360  15.7360  15.7360  15.7360
    15.7360  15.7360  15.7360  15.7360  15.9991  15.9992  15.9992  15.9992
    15.9992  15.9992  15.9992  15.9992  16.3097  16.3097  16.3097  16.3097
    16.7598  16.7598  16.7598  16.7598  16.9055  16.9055  16.9055  16.9055
    17.2984  17.2984  17.2984  17.2984  17.4772  17.4772  17.4772  17.4772
    17.5251  17.5251  17.5251  17.5251  17.5718  17.5718  17.5718  17.5718
    17.5869  17.5869  17.5869  17.5869  17.5869  17.5869  17.5869  17.5869
    17.8253  17.8253  17.8253  17.8253  17.9374  17.9374  17.9374  17.9374
    18.3528  18.3528  18.3528  18.3528  18.3529  18.3529  18.3529  18.3529
    18.6448  18.6448  18.6448  18.6448  18.6448  18.6448  18.6448  18.6448
    18.7170  18.7170  18.7170  18.7170  18.7385  18.7385  18.7385  18.7385
    18.7781  18.7781  18.7781  18.7781  18.7781  18.7781  18.7781  18.7781
    19.0372  19.0372  19.0372  19.0372  19.7078  19.7078  19.7078  19.7078
    19.8339  19.8339  19.8339  19.8339  20.0464  20.0464  20.0464  20.0464
    20.7053  20.7053  20.7053  20.7053  20.7053  20.7053  20.7053  20.7053
    20.9859  20.9859  20.9859  20.9859  21.1391  21.1391  21.1391  21.1391
    21.1391  21.1391  21.1391  21.1391  21.1623  21.1623  21.1623  21.1623
    23.0936  23.0936  23.0936  23.0936  23.1480  23.1480  23.1480  23.1480
    24.1215  24.1215  24.1215

     the Fermi energy is    19.5207 ev

!    total energy              =  -13812.32824145 Ry

     total all-electron energy =   -289988.718581 Ry
     estimated scf accuracy    <       0.00000066 Ry
     smearing contrib. (-TS)   =       0.01805155 Ry
     internal energy E=F+TS    =  -13812.34629300 Ry

     The total energy is F=E-TS. E is the sum of the following terms:
     one-electron contribution =   -1983.22221717 Ry
     hartree contribution      =    1343.65321774 Ry
     xc contribution           =    -925.66494175 Ry
     ewald contribution        =   -4657.76794455 Ry
     one-center paw contrib.   =   -7589.34440726 Ry

     convergence has been achieved in  15 iterations

     Forces acting on atoms (cartesian axes, Ry/au):

     atom    1 type  1   force =     0.00000000    0.00000000    0.05584308
     atom    2 type  1   force =     0.00000408    0.00000408    0.05583634
     atom    3 type  1   force =     0.00002305    0.00000000    0.01472625
     atom    4 type  1   force =    -0.00000000    0.00002305    0.01472625
     atom    5 type  1   force =     0.00000000    0.00000000   -0.01470384
     atom    6 type  1   force =     0.00000726    0.00000726   -0.01468803
     atom    7 type  1   force =    -0.00000767    0.00000000   -0.05584056
     atom    8 type  1   force =     0.00000000   -0.00000767   -0.05584056
     atom    9 type  1   force =     0.00000000    0.00000000    0.05581037
     atom   10 type  1   force =     0.00000408   -0.00000408    0.05583634
     atom   11 type  1   force =    -0.00001848    0.00000000    0.01474702
     atom   12 type  1   force =     0.00000000   -0.00002305    0.01472625
     atom   13 type  1   force =     0.00000000    0.00000000   -0.01473242
     atom   14 type  1   force =     0.00000726   -0.00000726   -0.01468803
     atom   15 type  1   force =    -0.00002781    0.00000000   -0.05588092
     atom   16 type  1   force =     0.00000000    0.00000767   -0.05584056
     atom   17 type  1   force =     0.00000000    0.00000000    0.05581037
     atom   18 type  1   force =    -0.00000408    0.00000408    0.05583634
     atom   19 type  1   force =    -0.00002305   -0.00000000    0.01472625
     atom   20 type  1   force =     0.00000000   -0.00001848    0.01474702
     atom   21 type  1   force =     0.00000000    0.00000000   -0.01473242
     atom   22 type  1   force =    -0.00000726    0.00000726   -0.01468803
     atom   23 type  1   force =     0.00000767    0.00000000   -0.05584056
     atom   24 type  1   force =     0.00000000   -0.00002781   -0.05588092
     atom   25 type  1   force =     0.00000000    0.00000000    0.05583949
     atom   26 type  1   force =    -0.00000408   -0.00000408    0.05583634
     atom   27 type  1   force =     0.00001848    0.00000000    0.01474702
     atom   28 type  1   force =     0.00000000    0.00001848    0.01474702
     atom   29 type  1   force =     0.00000000    0.00000000   -0.01473504
     atom   30 type  1   force =    -0.00000726   -0.00000726   -0.01468803
     atom   31 type  1   force =     0.00002781    0.00000000   -0.05588092
     atom   32 type  1   force =     0.00000000    0.00002781   -0.05588092

     Total force =     0.231015     Total SCF correction =     0.002702

     Computing stress (Cartesian axis) and pressure

          total   stress  (Ry/bohr**3)                   (kbar)     P=     -132.15
  -0.00068657   0.00000000   0.00000000         -101.00        0.00        0.00
   0.00000000  -0.00068657   0.00000000            0.00     -101.00        0.00
   0.00000000   0.00000000  -0.00132189            0.00        0.00     -194.46

     Writing output data file /scratch/qcXtiWBcMgkXibBx.save/

     General routines

     Parallel routines

   This run was terminated on:  17: 0:23  25Nov2021

   JOB DONE.