     Program PWSCF v.6.7MaX starts on 25Nov2021 at 20:27:30

     R & G space division:  proc/nbgrp/npool/nimage =      72
     Reading input from scf_11.in
Warning: card &CELL ignored
Warning: card CELL_DYNAMICS = 'BFGS', ignored
Warning: card CELL_FACTOR = 2.0, ignored
Warning: card PRESS = 0.0, ignored
Warning: card / ignored

     Current dimensions of program PWSCF are:
     Max number of different atomic species (ntypx) = 10
     Max number of k-points (npk) =  40000
     Max angular momentum in pseudopotentials (lmaxx) =  3
     file Ru.pbe-spn-kjpaw_psl.1.0.0.UPF: wavefunction(s)  4D renormalized

     Subspace diagonalization in iterative solution of the eigenvalue problem:
     one sub-group per band group will be used

     Found symmetry operation: I + (  0.2500  0.2500  0.0000)
     This is a supercell, fractional translations are disabled
     Message from routine setup:
     using ibrav=0 with symmetry is DISCOURAGED, use correct ibrav instead

     bravais-lattice index     =            0
     lattice parameter (alat)  =      14.4007  a.u.
     unit-cell volume          =    4479.6680 (a.u.)^3
     number of atoms/cell      =           32
     number of atomic types    =            1
     number of electrons       =       512.00
     number of Kohn-Sham states=          307
     kinetic-energy cutoff     =      71.0000  Ry
     charge density cutoff     =     430.0000  Ry
     scf convergence threshold =      1.0E-06
     mixing beta               =       0.1000
     number of iterations used =           10  TF        mixing
     Exchange-correlation= SLA  PW   PBX  PBC
                           (   1   4   3   4   0   0   0)

     celldm(1)=  14.400742  celldm(2)=   0.000000  celldm(3)=   0.000000
     celldm(4)=   0.000000  celldm(5)=   0.000000  celldm(6)=   0.000000

     crystal axes: (cart. coord. in units of alat)
               a(1) = (   1.000000   0.000000   0.000000 )
               a(2) = (   0.000000   1.000000   0.000000 )
               a(3) = (   0.000000   0.000000   1.500000 )

     reciprocal axes: (cart. coord. in units 2 pi/alat)
               b(1) = (  1.000000  0.000000  0.000000 )
               b(2) = (  0.000000  1.000000  0.000000 )
               b(3) = (  0.000000  0.000000  0.666667 )

     PseudoPot. # 1 for Ru read from file:
     /rds/homes/b/bxp912/pp/Ru.pbe-spn-kjpaw_psl.1.0.0.UPF
     MD5 check sum: 0ae1f594dea09af7be8575c3a481d1ae
     Pseudo is Projector augmented-wave + core cor, Zval = 16.0
     Generated using "atomic" code by A. Dal Corso  v.5.1
     Shape of augmentation charge: PSQ
     Using radial grid of 1233 points,  6 beta functions with:
                l(1) =   0
                l(2) =   0
                l(3) =   1
                l(4) =   1
                l(5) =   2
                l(6) =   2
     Q(r) pseudized with 0 coefficients

     atomic species   valence    mass     pseudopotential
        Ru            16.00   101.07000     Ru( 1.00)

      8 Sym. Ops. (no inversion) found

   Cartesian axes

     site n.     atom                  positions (alat units)
         1           Ru  tau(   1) = (   0.0000000   0.0000000   0.0000000  )
         2           Ru  tau(   2) = (   0.2500000   0.2500000   0.0000000  )
         3           Ru  tau(   3) = (   0.2500000   0.0000000   0.2500000  )
         4           Ru  tau(   4) = (   0.0000000   0.2500000   0.2500000  )
         5           Ru  tau(   5) = (   0.0000000   0.0000000   1.0000000  )
         6           Ru  tau(   6) = (   0.2500000   0.2500000   1.0000000  )
         7           Ru  tau(   7) = (   0.2500000   0.0000000   1.2500000  )
         8           Ru  tau(   8) = (   0.0000000   0.2500000   1.2500000  )
         9           Ru  tau(   9) = (   0.0000000   0.5000000   0.0000000  )
        10           Ru  tau(  10) = (   0.2500000   0.7500000   0.0000000  )
        11           Ru  tau(  11) = (   0.2500000   0.5000000   0.2500000  )
        12           Ru  tau(  12) = (   0.0000000   0.7500000   0.2500000  )
        13           Ru  tau(  13) = (   0.0000000   0.5000000   1.0000000  )
        14           Ru  tau(  14) = (   0.2500000   0.7500000   1.0000000  )
        15           Ru  tau(  15) = (   0.2500000   0.5000000   1.2500000  )
        16           Ru  tau(  16) = (   0.0000000   0.7500000   1.2500000  )
        17           Ru  tau(  17) = (   0.5000000   0.0000000   0.0000000  )
        18           Ru  tau(  18) = (   0.7500000   0.2500000   0.0000000  )
        19           Ru  tau(  19) = (   0.7500000   0.0000000   0.2500000  )
        20           Ru  tau(  20) = (   0.5000000   0.2500000   0.2500000  )
        21           Ru  tau(  21) = (   0.5000000   0.0000000   1.0000000  )
        22           Ru  tau(  22) = (   0.7500000   0.2500000   1.0000000  )
        23           Ru  tau(  23) = (   0.7500000   0.0000000   1.2500000  )
        24           Ru  tau(  24) = (   0.5000000   0.2500000   1.2500000  )
        25           Ru  tau(  25) = (   0.5000000   0.5000000   0.0000000  )
        26           Ru  tau(  26) = (   0.7500000   0.7500000   0.0000000  )
        27           Ru  tau(  27) = (   0.7500000   0.5000000   0.2500000  )
        28           Ru  tau(  28) = (   0.5000000   0.7500000   0.2500000  )
        29           Ru  tau(  29) = (   0.5000000   0.5000000   1.0000000  )
        30           Ru  tau(  30) = (   0.7500000   0.7500000   1.0000000  )
        31           Ru  tau(  31) = (   0.7500000   0.5000000   1.2500000  )
        32           Ru  tau(  32) = (   0.5000000   0.7500000   1.2500000  )

     number of k points=    75  Marzari-Vanderbilt smearing, width (Ry)=  0.0400
                       cart. coord. in units 2pi/alat
        k(    1) = (   0.0555556   0.0555556   0.0370370), wk =   0.0219479
        k(    2) = (   0.0555556   0.0555556   0.1111111), wk =   0.0219479
        k(    3) = (   0.0555556   0.0555556   0.1851852), wk =   0.0219479
        k(    4) = (   0.0555556   0.0555556   0.2592593), wk =   0.0219479
        k(    5) = (   0.0555556   0.0555556  -0.3333333), wk =   0.0109739
        k(    6) = (   0.0555556   0.1666667   0.0370370), wk =   0.0438957
        k(    7) = (   0.0555556   0.1666667   0.1111111), wk =   0.0438957
        k(    8) = (   0.0555556   0.1666667   0.1851852), wk =   0.0438957
        k(    9) = (   0.0555556   0.1666667   0.2592593), wk =   0.0438957
        k(   10) = (   0.0555556   0.1666667  -0.3333333), wk =   0.0219479
        k(   11) = (   0.0555556   0.2777778   0.0370370), wk =   0.0438957
        k(   12) = (   0.0555556   0.2777778   0.1111111), wk =   0.0438957
        k(   13) = (   0.0555556   0.2777778   0.1851852), wk =   0.0438957
        k(   14) = (   0.0555556   0.2777778   0.2592593), wk =   0.0438957
        k(   15) = (   0.0555556   0.2777778  -0.3333333), wk =   0.0219479
        k(   16) = (   0.0555556   0.3888889   0.0370370), wk =   0.0438957
        k(   17) = (   0.0555556   0.3888889   0.1111111), wk =   0.0438957
        k(   18) = (   0.0555556   0.3888889   0.1851852), wk =   0.0438957
        k(   19) = (   0.0555556   0.3888889   0.2592593), wk =   0.0438957
        k(   20) = (   0.0555556   0.3888889  -0.3333333), wk =   0.0219479
        k(   21) = (   0.0555556  -0.5000000   0.0370370), wk =   0.0219479
        k(   22) = (   0.0555556  -0.5000000   0.1111111), wk =   0.0219479
        k(   23) = (   0.0555556  -0.5000000   0.1851852), wk =   0.0219479
        k(   24) = (   0.0555556  -0.5000000   0.2592593), wk =   0.0219479
        k(   25) = (   0.0555556  -0.5000000  -0.3333333), wk =   0.0109739
        k(   26) = (   0.1666667   0.1666667   0.0370370), wk =   0.0219479
        k(   27) = (   0.1666667   0.1666667   0.1111111), wk =   0.0219479
        k(   28) = (   0.1666667   0.1666667   0.1851852), wk =   0.0219479
        k(   29) = (   0.1666667   0.1666667   0.2592593), wk =   0.0219479
        k(   30) = (   0.1666667   0.1666667  -0.3333333), wk =   0.0109739
        k(   31) = (   0.1666667   0.2777778   0.0370370), wk =   0.0438957
        k(   32) = (   0.1666667   0.2777778   0.1111111), wk =   0.0438957
        k(   33) = (   0.1666667   0.2777778   0.1851852), wk =   0.0438957
        k(   34) = (   0.1666667   0.2777778   0.2592593), wk =   0.0438957
        k(   35) = (   0.1666667   0.2777778  -0.3333333), wk =   0.0219479
        k(   36) = (   0.1666667   0.3888889   0.0370370), wk =   0.0438957
        k(   37) = (   0.1666667   0.3888889   0.1111111), wk =   0.0438957
        k(   38) = (   0.1666667   0.3888889   0.1851852), wk =   0.0438957
        k(   39) = (   0.1666667   0.3888889   0.2592593), wk =   0.0438957
        k(   40) = (   0.1666667   0.3888889  -0.3333333), wk =   0.0219479
        k(   41) = (   0.1666667  -0.5000000   0.0370370), wk =   0.0219479
        k(   42) = (   0.1666667  -0.5000000   0.1111111), wk =   0.0219479
        k(   43) = (   0.1666667  -0.5000000   0.1851852), wk =   0.0219479
        k(   44) = (   0.1666667  -0.5000000   0.2592593), wk =   0.0219479
        k(   45) = (   0.1666667  -0.5000000  -0.3333333), wk =   0.0109739
        k(   46) = (   0.2777778   0.2777778   0.0370370), wk =   0.0219479
        k(   47) = (   0.2777778   0.2777778   0.1111111), wk =   0.0219479
        k(   48) = (   0.2777778   0.2777778   0.1851852), wk =   0.0219479
        k(   49) = (   0.2777778   0.2777778   0.2592593), wk =   0.0219479
        k(   50) = (   0.2777778   0.2777778  -0.3333333), wk =   0.0109739
        k(   51) = (   0.2777778   0.3888889   0.0370370), wk =   0.0438957
        k(   52) = (   0.2777778   0.3888889   0.1111111), wk =   0.0438957
        k(   53) = (   0.2777778   0.3888889   0.1851852), wk =   0.0438957
        k(   54) = (   0.2777778   0.3888889   0.2592593), wk =   0.0438957
        k(   55) = (   0.2777778   0.3888889  -0.3333333), wk =   0.0219479
        k(   56) = (   0.2777778  -0.5000000   0.0370370), wk =   0.0219479
        k(   57) = (   0.2777778  -0.5000000   0.1111111), wk =   0.0219479
        k(   58) = (   0.2777778  -0.5000000   0.1851852), wk =   0.0219479
        k(   59) = (   0.2777778  -0.5000000   0.2592593), wk =   0.0219479
        k(   60) = (   0.2777778  -0.5000000  -0.3333333), wk =   0.0109739
        k(   61) = (   0.3888889   0.3888889   0.0370370), wk =   0.0219479
        k(   62) = (   0.3888889   0.3888889   0.1111111), wk =   0.0219479
        k(   63) = (   0.3888889   0.3888889   0.1851852), wk =   0.0219479
        k(   64) = (   0.3888889   0.3888889   0.2592593), wk =   0.0219479
        k(   65) = (   0.3888889   0.3888889  -0.3333333), wk =   0.0109739
        k(   66) = (   0.3888889  -0.5000000   0.0370370), wk =   0.0219479
        k(   67) = (   0.3888889  -0.5000000   0.1111111), wk =   0.0219479
        k(   68) = (   0.3888889  -0.5000000   0.1851852), wk =   0.0219479
        k(   69) = (   0.3888889  -0.5000000   0.2592593), wk =   0.0219479
        k(   70) = (   0.3888889  -0.5000000  -0.3333333), wk =   0.0109739
        k(   71) = (  -0.5000000  -0.5000000   0.0370370), wk =   0.0054870
        k(   72) = (  -0.5000000  -0.5000000   0.1111111), wk =   0.0054870
        k(   73) = (  -0.5000000  -0.5000000   0.1851852), wk =   0.0054870
        k(   74) = (  -0.5000000  -0.5000000   0.2592593), wk =   0.0054870
        k(   75) = (  -0.5000000  -0.5000000  -0.3333333), wk =   0.0027435

     Check: negative core charge=   -0.000002

     Initial potential from superposition of free atoms

     starting charge  511.97959, renormalised to  512.00000
     Starting wfcs are  320 randomized atomic wfcs
     Checking if some PAW data can be deallocated...

     Self-consistent Calculation

     iteration #  1     ecut=    71.00 Ry     beta= 0.10
     Davidson diagonalization with overlap
     ethr =  1.00E-02,  avg # of iterations =  3.6

     total energy              =  -13812.51702654 Ry
     estimated scf accuracy    <      11.77536892 Ry

[...]

     total energy              =  -13811.66135394 Ry
     estimated scf accuracy    <       0.00000111 Ry

     iteration # 23     ecut=    71.00 Ry     beta= 0.10
     Davidson diagonalization with overlap
     ethr =  2.17E-10,  avg # of iterations =  2.7

     End of self-consistent calculation

          k = 0.0556 0.0556 0.0370 ( 45240 PWs)   bands (ev):

   -59.1481 -59.0689 -59.0688 -59.0538 -59.0538 -59.0392 -59.0368 -59.0310
   -59.0310 -59.0271 -59.0085 -59.0085 -59.0031 -59.0030 -58.9769 -58.9769
   -58.6226 -58.6210 -58.5763 -58.5763 -58.5760 -58.5760 -58.5733 -58.5732
   -58.5725 -58.5724 -58.5672 -58.5672 -58.5670 -58.5670 -58.5185 -58.5185
   -29.4692 -29.4685 -29.4685 -29.4632 -29.4327 -29.4327 -29.3625 -29.2613
   -29.2613 -29.2597 -29.2596 -29.2146 -29.2145 -29.1876 -29.1875 -29.1720
   -29.1720 -29.1619 -29.1618 -29.1271 -29.1270 -29.0863 -29.0814 -29.0814
   -29.0729 -29.0532 -29.0532 -29.0250 -29.0250 -28.9782 -28.9617 -28.9617
   -28.9511 -28.9511 -28.9214 -28.9214 -28.8904 -28.8893 -28.8355 -28.8354
   -28.8256 -28.8256 -28.7826 -28.7826 -28.7572 -28.7572 -28.7468 -28.7435
   -28.7435 -28.7309 -28.7232 -28.7220 -28.7165 -28.7082 -28.7082 -28.6940
   -28.5950 -28.5950 -28.5911 -28.5911 -28.5640 -28.5640 -28.5548 -28.5548
   -28.5542 -28.5542 -28.5540 -28.5540 -28.5206 -28.5206 -28.5179 -28.5179
   -28.5069 -28.4712 -28.4686 -28.4686 -28.4665 -28.4665 -28.4615 -28.4576
   -28.4576 -28.4501 -28.4501 -28.4424 -28.4424 -28.4367 -28.4367 -28.4313
   -28.3369 -28.3337 -28.3306 -28.3263 -28.3067 -28.3067 -28.3031 -28.3031
     6.7853   8.0157   8.1640   8.1640   8.4388   8.4510   8.4564   8.4569
     8.4569   8.4881   8.6640   8.6640   8.9057   8.9057   8.9786   9.0846
     9.0846   9.3484   9.3484   9.3695   9.5240   9.5240   9.5586   9.5586
     9.7175   9.7175   9.7553   9.7714   9.7818   9.7818   9.8286   9.8286
    10.0494  10.0494  10.0862  10.0862  10.1096  10.1096  10.1590  10.1590
    10.3007  10.3007  10.3818  10.3818  10.4162  10.5183  10.5183  10.5277
    10.5277  10.7807  10.7807  10.8017  10.8211  10.8211  10.8255  10.8255
    10.9111  10.9111  11.0548  11.0878  11.0878  11.1319  11.2376  11.2549
    11.2549  11.2851  11.3272  11.3272  11.4683  11.4683  11.5723  11.5723
    11.6299  11.6299  11.6473  11.6555  11.7716  11.7909  11.9372  11.9499
    11.9499  12.0003  12.2394  12.2394  12.3142  12.3142  12.3307  12.3307
    12.4580  12.4580  12.5648  12.5807  12.5808  12.6043  12.6043  12.6058
    12.6058  12.6608  12.7079  12.7277  12.7576  12.7576  12.9197  12.9197
    12.9492  12.9919  12.9919  13.0377  13.0478  13.0478  13.1833  13.1833
    13.2492  13.2492  13.3657  13.3657  13.3728  13.3728  13.4097  13.5357
    13.5357  13.5707  13.5707  13.6804  13.6805  13.9413  13.9413  13.9431
    13.9848  13.9848  14.0315  14.1471  14.2262  14.2262  14.2559  14.2559
    14.2584  14.2866  14.2867  14.2985  14.3366  14.4183  14.4183  14.4654
    14.4907  14.4907  14.6287  14.6692  14.6692  15.0181  15.0181  15.1565
    15.1613  15.1613  15.2202  15.2606  15.2866  15.4013  15.4540  15.4748
    15.4748  15.4857  15.4857  15.4925  15.4925  15.6328  15.8103  15.9566
    15.9566  15.9694  15.9694  16.2028  16.2128  16.2128  16.3822  16.3822
    16.4076  17.0436  17.0436

[...]

          k = 0.3889-0.5000-0.3333 ( 45280 PWs)   bands (ev):

[...]

          k =-0.5000-0.5000 0.0370 ( 45256 PWs)   bands (ev):

[...]

          k =-0.5000-0.5000-0.3333 ( 45152 PWs)   bands (ev):

   -59.1020 -59.1020 -59.1020 -59.1019 -59.0238 -59.0238 -59.0238 -59.0237
   -59.0041 -59.0041 -59.0040 -59.0040 -59.0040 -59.0040 -59.0040 -59.0040
   -58.5978 -58.5978 -58.5978 -58.5978 -58.5973 -58.5973 -58.5973 -58.5973
   -58.5456 -58.5456 -58.5456 -58.5456 -58.5456 -58.5455 -58.5455 -58.5455
   -29.4018 -29.4018 -29.4018 -29.4018 -29.4018 -29.4018 -29.4018 -29.4018
   -29.3197 -29.3197 -29.3197 -29.3197 -29.2469 -29.2469 -29.2469 -29.2469
   -29.1062 -29.1062 -29.1062 -29.1062 -29.1062 -29.1062 -29.1062 -29.1062
   -29.0067 -29.0067 -29.0066 -29.0066 -28.9269 -28.9269 -28.9269 -28.9269
   -28.9269 -28.9269 -28.9269 -28.9269 -28.9067 -28.9067 -28.9067 -28.9067
   -28.8345 -28.8345 -28.8345 -28.8345 -28.7249 -28.7249 -28.7249 -28.7249
   -28.7249 -28.7248 -28.7248 -28.7248 -28.7080 -28.7080 -28.7080 -28.7080
   -28.5857 -28.5857 -28.5857 -28.5857 -28.5526 -28.5526 -28.5526 -28.5526
   -28.5526 -28.5526 -28.5526 -28.5526 -28.5507 -28.5507 -28.5507 -28.5507
   -28.4644 -28.4644 -28.4643 -28.4643 -28.4643 -28.4643 -28.4643 -28.4643
   -28.4496 -28.4496 -28.4496 -28.4496 -28.4485 -28.4485 -28.4485 -28.4485
   -28.3178 -28.3178 -28.3178 -28.3178 -28.3151 -28.3151 -28.3151 -28.3151
     8.0324   8.0324   8.0324   8.0324   8.6354   8.6354   8.6354   8.6355
     9.0589   9.0589   9.0589   9.0589   9.0589   9.0589   9.0589   9.0589
     9.1380   9.1380   9.1380   9.1380   9.2071   9.2071   9.2071   9.2072
     9.2072   9.2072   9.2072   9.2072   9.3604   9.3604   9.3604   9.3604
     9.7793   9.7793   9.7793   9.7793  10.1486  10.1486  10.1486  10.1486
    10.1487  10.1487  10.1487  10.1487  10.4969  10.4969  10.4969  10.4969
    10.4969  10.4969  10.4969  10.4969  10.7762  10.7762  10.7762  10.7762
    11.1919  11.1919  11.1919  11.1919  11.6599  11.6599  11.6599  11.6599
    11.6942  11.6942  11.6943  11.6943  11.7744  11.7744  11.7744  11.7744
    11.9868  11.9868  11.9868  11.9868  12.0181  12.0181  12.0181  12.0181
    12.0181  12.0181  12.0181  12.0181  12.1852  12.1852  12.1852  12.1852
    12.2598  12.2598  12.2598  12.2598  12.4857  12.4857  12.4857  12.4857
    12.8392  12.8393  12.8393  12.8393  12.8393  12.8393  12.8393  12.8393
    12.9700  12.9700  12.9700  12.9700  12.9700  12.9700  12.9700  12.9700
    13.1093  13.1093  13.1093  13.1093  13.4823  13.4823  13.4823  13.4823
    13.5001  13.5001  13.5001  13.5001  13.6768  13.6768  13.6768  13.6768
    13.6768  13.6768  13.6768  13.6768  13.9252  13.9252  13.9252  13.9252
    14.2902  14.2902  14.2902  14.2902  14.6004  14.6004  14.6004  14.6004
    14.7750  14.7750  14.7750  14.7750  14.7750  14.7750  14.7750  14.7750
    15.3295  15.3295  15.3295  15.3295  15.3684  15.3684  15.3684  15.3684
    15.5156  15.5156  15.5156  15.5156  15.5156  15.5156  15.5156  15.5156
    15.5776  15.5776  15.5776  15.5776  17.1559  17.1559  17.1559  17.1559
    18.5025  18.5025  18.5025

     the Fermi energy is    13.9333 ev

!    total energy              =  -13811.66135739 Ry

     total all-electron energy =   -289988.051697 Ry
     estimated scf accuracy    <       0.00000057 Ry
     smearing contrib. (-TS)   =      -0.00286722 Ry
     internal energy E=F+TS    =  -13811.65849017 Ry

     The total energy is F=E-TS. E is the sum of the following terms:
     one-electron contribution =   -7870.21578142 Ry
     hartree contribution      =    4182.95790440 Ry
     xc contribution           =    -925.64859805 Ry
     ewald contribution        =   -1609.41775262 Ry
     one-center paw contrib.   =   -7589.33426248 Ry

     convergence has been achieved in  23 iterations

     Forces acting on atoms (cartesian axes, Ry/au):

     atom    1 type  1   force =     0.00000000    0.00000000    0.03852225
     atom    2 type  1   force =     0.00000482    0.00000482    0.03848459
     atom    3 type  1   force =     0.00001454    0.00000000   -0.03283073
     atom    4 type  1   force =     0.00000000    0.00001454   -0.03283073
     atom    5 type  1   force =     0.00000000    0.00000000    0.03283355
     atom    6 type  1   force =     0.00004463    0.00004463    0.03284167
     atom    7 type  1   force =     0.00002557    0.00000000   -0.03845910
     atom    8 type  1   force =     0.00000000    0.00002557   -0.03845910
     atom    9 type  1   force =     0.00000000    0.00000000    0.03846634
     atom   10 type  1   force =     0.00000482   -0.00000482    0.03848459
     atom   11 type  1   force =    -0.00003049    0.00000000   -0.03281701
     atom   12 type  1   force =     0.00000000   -0.00001454   -0.03283073
     atom   13 type  1   force =     0.00000000    0.00000000    0.03281283
     atom   14 type  1   force =     0.00004463   -0.00004463    0.03284167
     atom   15 type  1   force =     0.00000267    0.00000000   -0.03851543
     atom   16 type  1   force =     0.00000000   -0.00002557   -0.03845910
     atom   17 type  1   force =     0.00000000    0.00000000    0.03846634
     atom   18 type  1   force =    -0.00000482    0.00000482    0.03848459
     atom   19 type  1   force =    -0.00001454    0.00000000   -0.03283073
     atom   20 type  1   force =     0.00000000   -0.00003049   -0.03281701
     atom   21 type  1   force =     0.00000000    0.00000000    0.03281283
     atom   22 type  1   force =    -0.00004463    0.00004463    0.03284167
     atom   23 type  1   force =    -0.00002557    0.00000000   -0.03845910
     atom   24 type  1   force =     0.00000000    0.00000267   -0.03851543
     atom   25 type  1   force =     0.00000000    0.00000000    0.03847150
     atom   26 type  1   force =    -0.00000482   -0.00000482    0.03848459
     atom   27 type  1   force =     0.00003049    0.00000000   -0.03281701
     atom   28 type  1   force =     0.00000000    0.00003049   -0.03281701
     atom   29 type  1   force =     0.00000000    0.00000000    0.03279838
     atom   30 type  1   force =    -0.00004463   -0.00004463    0.03284167
     atom   31 type  1   force =    -0.00000267    0.00000000   -0.03851543
     atom   32 type  1   force =     0.00000000   -0.00000267   -0.03851543

     Total force =     0.202333     Total SCF correction =     0.001130

     Computing stress (Cartesian axis) and pressure

          total   stress  (Ry/bohr**3)                   (kbar)     P=      -83.71
  -0.00063187   0.00000000   0.00000000          -92.95        0.00        0.00
   0.00000000  -0.00063187   0.00000000            0.00      -92.95        0.00
   0.00000000   0.00000000  -0.00044341            0.00        0.00      -65.23

     Writing output data file /scratch/iOUgqQUFzkfwBIWA.save/

     General routines

     Parallel routines

   This run was terminated on:  21: 3:34  25Nov2021

   JOB DONE.