     Program PWSCF v.6.7MaX starts on 25Nov2021 at 21: 4:18

     R & G space division:  proc/nbgrp/npool/nimage =      72
     Reading input from scf_12.in
Warning: card &CELL ignored
Warning: card CELL_DYNAMICS = 'BFGS', ignored
Warning: card CELL_FACTOR = 2.0, ignored
Warning: card PRESS = 0.0, ignored
Warning: card / ignored

     Current dimensions of program PWSCF are:
     Max number of different atomic species (ntypx) = 10
     Max number of k-points (npk) =  40000
     Max angular momentum in pseudopotentials (lmaxx) =  3
     file Ru.pbe-spn-kjpaw_psl.1.0.0.UPF: wavefunction(s)  4D renormalized

     Subspace diagonalization in iterative solution of the eigenvalue problem:
     one sub-group per band group will be used

     Found symmetry operation: I + (  0.2500  0.2500  0.0000)
     This is a supercell, fractional translations are disabled
     Message from routine setup:
     using ibrav=0 with symmetry is DISCOURAGED, use correct ibrav instead

     bravais-lattice index     =            0
     lattice parameter (alat)  =      14.4007  a.u.
     unit-cell volume          =    4628.9903 (a.u.)^3
     number of atoms/cell      =           32
     number of atomic types    =            1
     number of electrons       =       512.00
     number of Kohn-Sham states=          307
     kinetic-energy cutoff     =      71.0000  Ry
     charge density cutoff     =     430.0000  Ry
     scf convergence threshold =      1.0E-06
     mixing beta               =       0.1000
     number of iterations used =           10  TF        mixing
     Exchange-correlation= SLA  PW   PBX  PBC
                           (   1   4   3   4   0   0   0)

     celldm(1)=  14.400742  celldm(2)=   0.000000  celldm(3)=   0.000000
     celldm(4)=   0.000000  celldm(5)=   0.000000  celldm(6)=   0.000000

     crystal axes: (cart. coord. in units of alat)
               a(1) = (   1.000000   0.000000   0.000000 )
               a(2) = (   0.000000   1.000000   0.000000 )
               a(3) = (   0.000000   0.000000   1.550000 )

     reciprocal axes: (cart. coord. in units 2 pi/alat)
               b(1) = (  1.000000  0.000000  0.000000 )
               b(2) = (  0.000000  1.000000  0.000000 )
               b(3) = (  0.000000  0.000000  0.645161 )

     PseudoPot. # 1 for Ru read from file:
     /rds/homes/b/bxp912/pp/Ru.pbe-spn-kjpaw_psl.1.0.0.UPF
     MD5 check sum: 0ae1f594dea09af7be8575c3a481d1ae
     Pseudo is Projector augmented-wave + core cor, Zval = 16.0
     Generated using "atomic" code by A. Dal Corso  v.5.1
     Shape of augmentation charge: PSQ
     Using radial grid of 1233 points,  6 beta functions with:
                l(1) =   0
                l(2) =   0
                l(3) =   1
                l(4) =   1
                l(5) =   2
                l(6) =   2
     Q(r) pseudized with 0 coefficients

     atomic species   valence    mass     pseudopotential
        Ru            16.00   101.07000     Ru( 1.00)

      8 Sym. Ops. (no inversion) found

   Cartesian axes

     site n.     atom                  positions (alat units)
         1           Ru  tau(   1) = (   0.0000000   0.0000000   0.0000000  )
         2           Ru  tau(   2) = (   0.2500000   0.2500000   0.0000000  )
         3           Ru  tau(   3) = (   0.2500000   0.0000000   0.2500000  )
         4           Ru  tau(   4) = (   0.0000000   0.2500000   0.2500000  )
         5           Ru  tau(   5) = (   0.0000000   0.0000000   1.0500000  )
         6           Ru  tau(   6) = (   0.2500000   0.2500000   1.0500000  )
         7           Ru  tau(   7) = (   0.2500000   0.0000000   1.3000000  )
         8           Ru  tau(   8) = (   0.0000000   0.2500000   1.3000000  )
         9           Ru  tau(   9) = (   0.0000000   0.5000000   0.0000000  )
        10           Ru  tau(  10) = (   0.2500000   0.7500000   0.0000000  )
        11           Ru  tau(  11) = (   0.2500000   0.5000000   0.2500000  )
        12           Ru  tau(  12) = (   0.0000000   0.7500000   0.2500000  )
        13           Ru  tau(  13) = (   0.0000000   0.5000000   1.0500000  )
        14           Ru  tau(  14) = (   0.2500000   0.7500000   1.0500000  )
        15           Ru  tau(  15) = (   0.2500000   0.5000000   1.3000000  )
        16           Ru  tau(  16) = (   0.0000000   0.7500000   1.3000000  )
        17           Ru  tau(  17) = (   0.5000000   0.0000000   0.0000000  )
        18           Ru  tau(  18) = (   0.7500000   0.2500000   0.0000000  )
        19           Ru  tau(  19) = (   0.7500000   0.0000000   0.2500000  )
        20           Ru  tau(  20) = (   0.5000000   0.2500000   0.2500000  )
        21           Ru  tau(  21) = (   0.5000000   0.0000000   1.0500000  )
        22           Ru  tau(  22) = (   0.7500000   0.2500000   1.0500000  )
        23           Ru  tau(  23) = (   0.7500000   0.0000000   1.3000000  )
        24           Ru  tau(  24) = (   0.5000000   0.2500000   1.3000000  )
        25           Ru  tau(  25) = (   0.5000000   0.5000000   0.0000000  )
        26           Ru  tau(  26) = (   0.7500000   0.7500000   0.0000000  )
        27           Ru  tau(  27) = (   0.7500000   0.5000000   0.2500000  )
        28           Ru  tau(  28) = (   0.5000000   0.7500000   0.2500000  )
        29           Ru  tau(  29) = (   0.5000000   0.5000000   1.0500000  )
        30           Ru  tau(  30) = (   0.7500000   0.7500000   1.0500000  )
        31           Ru  tau(  31) = (   0.7500000   0.5000000   1.3000000  )
        32           Ru  tau(  32) = (   0.5000000   0.7500000   1.3000000  )

     number of k points=    75  Marzari-Vanderbilt smearing, width (Ry)=  0.0400
                       cart. coord. in units 2pi/alat
        k(    1) = (   0.0555556   0.0555556   0.0358423), wk =   0.0219479
        k(    2) = (   0.0555556   0.0555556   0.1075269), wk =   0.0219479
        k(    3) = (   0.0555556   0.0555556   0.1792115), wk =   0.0219479
        k(    4) = (   0.0555556   0.0555556   0.2508961), wk =   0.0219479
        k(    5) = (   0.0555556   0.0555556  -0.3225806), wk =   0.0109739
        k(    6) = (   0.0555556   0.1666667   0.0358423), wk =   0.0438957
        k(    7) = (   0.0555556   0.1666667   0.1075269), wk =   0.0438957
        k(    8) = (   0.0555556   0.1666667   0.1792115), wk =   0.0438957
        k(    9) = (   0.0555556   0.1666667   0.2508961), wk =   0.0438957
        k(   10) = (   0.0555556   0.1666667  -0.3225806), wk =   0.0219479
        k(   11) = (   0.0555556   0.2777778   0.0358423), wk =   0.0438957
        k(   12) = (   0.0555556   0.2777778   0.1075269), wk =   0.0438957
        k(   13) = (   0.0555556   0.2777778   0.1792115), wk =   0.0438957
        k(   14) = (   0.0555556   0.2777778   0.2508961), wk =   0.0438957
        k(   15) = (   0.0555556   0.2777778  -0.3225806), wk =   0.0219479
        k(   16) = (   0.0555556   0.3888889   0.0358423), wk =   0.0438957
        k(   17) = (   0.0555556   0.3888889   0.1075269), wk =   0.0438957
        k(   18) = (   0.0555556   0.3888889   0.1792115), wk =   0.0438957
        k(   19) = (   0.0555556   0.3888889   0.2508961), wk =   0.0438957
        k(   20) = (   0.0555556   0.3888889  -0.3225806), wk =   0.0219479
        k(   21) = (   0.0555556  -0.5000000   0.0358423), wk =   0.0219479
        k(   22) = (   0.0555556  -0.5000000   0.1075269), wk =   0.0219479
        k(   23) = (   0.0555556  -0.5000000   0.1792115), wk =   0.0219479
        k(   24) = (   0.0555556  -0.5000000   0.2508961), wk =   0.0219479
        k(   25) = (   0.0555556  -0.5000000  -0.3225806), wk =   0.0109739
        k(   26) = (   0.1666667   0.1666667   0.0358423), wk =   0.0219479
        k(   27) = (   0.1666667   0.1666667   0.1075269), wk =   0.0219479
        k(   28) = (   0.1666667   0.1666667   0.1792115), wk =   0.0219479
        k(   29) = (   0.1666667   0.1666667   0.2508961), wk =   0.0219479
        k(   30) = (   0.1666667   0.1666667  -0.3225806), wk =   0.0109739
        k(   31) = (   0.1666667   0.2777778   0.0358423), wk =   0.0438957
        k(   32) = (   0.1666667   0.2777778   0.1075269), wk =   0.0438957
        k(   33) = (   0.1666667   0.2777778   0.1792115), wk =   0.0438957
        k(   34) = (   0.1666667   0.2777778   0.2508961), wk =   0.0438957
        k(   35) = (   0.1666667   0.2777778  -0.3225806), wk =   0.0219479
        k(   36) = (   0.1666667   0.3888889   0.0358423), wk =   0.0438957
        k(   37) = (   0.1666667   0.3888889   0.1075269), wk =   0.0438957
        k(   38) = (   0.1666667   0.3888889   0.1792115), wk =   0.0438957
        k(   39) = (   0.1666667   0.3888889   0.2508961), wk =   0.0438957
        k(   40) = (   0.1666667   0.3888889  -0.3225806), wk =   0.0219479
        k(   41) = (   0.1666667  -0.5000000   0.0358423), wk =   0.0219479
        k(   42) = (   0.1666667  -0.5000000   0.1075269), wk =   0.0219479
        k(   43) = (   0.1666667  -0.5000000   0.1792115), wk =   0.0219479
        k(   44) = (   0.1666667  -0.5000000   0.2508961), wk =   0.0219479
        k(   45) = (   0.1666667  -0.5000000  -0.3225806), wk =   0.0109739
        k(   46) = (   0.2777778   0.2777778   0.0358423), wk =   0.0219479
        k(   47) = (   0.2777778   0.2777778   0.1075269), wk =   0.0219479
        k(   48) = (   0.2777778   0.2777778   0.1792115), wk =   0.0219479
        k(   49) = (   0.2777778   0.2777778   0.2508961), wk =   0.0219479
        k(   50) = (   0.2777778   0.2777778  -0.3225806), wk =   0.0109739
        k(   51) = (   0.2777778   0.3888889   0.0358423), wk =   0.0438957
        k(   52) = (   0.2777778   0.3888889   0.1075269), wk =   0.0438957
        k(   53) = (   0.2777778   0.3888889   0.1792115), wk =   0.0438957
        k(   54) = (   0.2777778   0.3888889   0.2508961), wk =   0.0438957
        k(   55) = (   0.2777778   0.3888889  -0.3225806), wk =   0.0219479
        k(   56) = (   0.2777778  -0.5000000   0.0358423), wk =   0.0219479
        k(   57) = (   0.2777778  -0.5000000   0.1075269), wk =   0.0219479
        k(   58) = (   0.2777778  -0.5000000   0.1792115), wk =   0.0219479
        k(   59) = (   0.2777778  -0.5000000   0.2508961), wk =   0.0219479
        k(   60) = (   0.2777778  -0.5000000  -0.3225806), wk =   0.0109739
        k(   61) = (   0.3888889   0.3888889   0.0358423), wk =   0.0219479
        k(   62) = (   0.3888889   0.3888889   0.1075269), wk =   0.0219479
        k(   63) = (   0.3888889   0.3888889   0.1792115), wk =   0.0219479
        k(   64) = (   0.3888889   0.3888889   0.2508961), wk =   0.0219479
        k(   65) = (   0.3888889   0.3888889  -0.3225806), wk =   0.0109739
        k(   66) = (   0.3888889  -0.5000000   0.0358423), wk =   0.0219479
        k(   67) = (   0.3888889  -0.5000000   0.1075269), wk =   0.0219479
        k(   68) = (   0.3888889  -0.5000000   0.1792115), wk =   0.0219479
        k(   69) = (   0.3888889  -0.5000000   0.2508961), wk =   0.0219479
        k(   70) = (   0.3888889  -0.5000000  -0.3225806), wk =   0.0109739
        k(   71) = (  -0.5000000  -0.5000000   0.0358423), wk =   0.0054870
        k(   72) = (  -0.5000000  -0.5000000   0.1075269), wk =   0.0054870
        k(   73) = (  -0.5000000  -0.5000000   0.1792115), wk =   0.0054870
        k(   74) = (  -0.5000000  -0.5000000   0.2508961), wk =   0.0054870
        k(   75) = (  -0.5000000  -0.5000000  -0.3225806), wk =   0.0027435

     Check: negative core charge=   -0.000002

     Initial potential from superposition of free atoms

     starting charge  511.97959, renormalised to  512.00000
     Starting wfcs are  320 randomized atomic wfcs
     Checking if some PAW data can be deallocated...

     Self-consistent Calculation

     iteration #  1     ecut=    71.00 Ry     beta= 0.10
     Davidson diagonalization with overlap
     ethr =  1.00E-02,  avg # of iterations =  3.7

     total energy              =  -13812.51620230 Ry
     estimated scf accuracy    <      11.78045936 Ry

[...]

     total energy              =  -13811.65776118 Ry
     estimated scf accuracy    <       0.00000421 Ry

     iteration # 23     ecut=    71.00 Ry     beta= 0.10
     Davidson diagonalization with overlap
     ethr =  8.22E-10,  avg # of iterations =  2.0

     End of self-consistent calculation

          k = 0.0556 0.0556 0.0358 ( 46798 PWs)   bands (ev):

   -59.7499 -59.6706 -59.6706 -59.6556 -59.6556 -59.6410 -59.6386 -59.6329
   -59.6329 -59.6289 -59.6103 -59.6103 -59.6049 -59.6049 -59.5787 -59.5787
   -59.2232 -59.2216 -59.1768 -59.1768 -59.1766 -59.1766 -59.1738 -59.1738
   -59.1730 -59.1730 -59.1677 -59.1677 -59.1676 -59.1676 -59.1191 -59.1191
   -30.0710 -30.0703 -30.0703 -30.0650 -30.0345 -30.0345 -29.9643 -29.8631
   -29.8631 -29.8615 -29.8615 -29.8163 -29.8163 -29.7893 -29.7893 -29.7737
   -29.7737 -29.7636 -29.7636 -29.7288 -29.7288 -29.6878 -29.6828 -29.6828
   -29.6743 -29.6548 -29.6548 -29.6266 -29.6266 -29.5797 -29.5635 -29.5635
   -29.5530 -29.5530 -29.5231 -29.5231 -29.4922 -29.4911 -29.4372 -29.4372
   -29.4273 -29.4273 -29.3835 -29.3835 -29.3583 -29.3583 -29.3487 -29.3453
   -29.3453 -29.3327 -29.3249 -29.3232 -29.3183 -29.3095 -29.3095 -29.2953
   -29.1959 -29.1959 -29.1920 -29.1920 -29.1648 -29.1648 -29.1558 -29.1558
   -29.1551 -29.1551 -29.1549 -29.1549 -29.1214 -29.1214 -29.1188 -29.1188
   -29.1072 -29.0714 -29.0688 -29.0688 -29.0668 -29.0668 -29.0619 -29.0579
   -29.0579 -29.0506 -29.0506 -29.0429 -29.0429 -29.0372 -29.0372 -29.0319
   -28.9378 -28.9346 -28.9315 -28.9272 -28.9076 -28.9076 -28.9040 -28.9040
     6.1842   7.4135   7.5623   7.5623   7.8372   7.8493   7.8546   7.8552
     7.8552   7.8831   8.0623   8.0623   8.3042   8.3042   8.3783   8.4831
     8.4831   8.7466   8.7466   8.7678   8.9222   8.9222   8.9569   8.9569
     9.1157   9.1157   9.1528   9.1691   9.1794   9.1794   9.2265   9.2265
     9.4476   9.4476   9.4842   9.4842   9.5076   9.5076   9.5570   9.5570
     9.6994   9.6994   9.7798   9.7799   9.8148   9.9166   9.9166   9.9260
     9.9260  10.1788  10.1788  10.1995  10.2195  10.2195  10.2239  10.2239
    10.3091  10.3091  10.4529  10.4840  10.4840  10.5302  10.6360  10.6533
    10.6533  10.6836  10.7224  10.7224  10.8698  10.8698  10.9747  10.9747
    11.0285  11.0285  11.0455  11.0537  11.1697  11.1892  11.3400  11.3514
    11.3514  11.4017  11.6389  11.6389  11.7128  11.7128  11.7288  11.7288
    11.8486  11.8486  11.9788  11.9788  11.9952  11.9952  12.0000  12.0043
    12.0043  12.0442  12.1063  12.1262  12.1563  12.1563  12.3255  12.3255
    12.3477  12.3907  12.3907  12.4527  12.4539  12.4539  12.5823  12.5823
    12.6522  12.6522  12.7647  12.7647  12.7712  12.7712  12.8080  12.9304
    12.9304  12.9643  12.9643  13.0813  13.0813  13.3405  13.3405  13.3413
    13.3759  13.3759  13.4231  13.5327  13.6251  13.6251  13.6572  13.6673
    13.6673  13.6805  13.6855  13.6855  13.7354  13.8290  13.8290  13.8642
    13.8877  13.8877  14.0273  14.0653  14.0653  14.4156  14.4156  14.5552
    14.5609  14.5609  14.5683  14.6186  14.6851  14.7926  14.8525  14.8603
    14.8603  14.8728  14.8728  14.8838  14.8838  15.0312  15.2181  15.3261
    15.3261  15.3676  15.3676  15.6229  15.6245  15.6245  15.7812  15.7812
    15.8131  16.4773  16.4773

[...]

          k = 0.3889-0.5000-0.3226 ( 46816 PWs)   bands (ev):

[...]

          k =-0.5000-0.5000 0.0358 ( 46728 PWs)   bands (ev):

[...]

          k =-0.5000-0.5000-0.3226 ( 46776 PWs)   bands (ev):

   -59.7038 -59.7038 -59.7038 -59.7038 -59.6256 -59.6256 -59.6256 -59.6256
   -59.6059 -59.6059 -59.6059 -59.6059 -59.6059 -59.6059 -59.6059 -59.6058
   -59.1984 -59.1984 -59.1984 -59.1984 -59.1979 -59.1979 -59.1979 -59.1979
   -59.1461 -59.1461 -59.1461 -59.1461 -59.1461 -59.1461 -59.1461 -59.1461
   -30.0036 -30.0036 -30.0036 -30.0036 -30.0036 -30.0036 -30.0036 -30.0036
   -29.9216 -29.9216 -29.9215 -29.9215 -29.8487 -29.8487 -29.8487 -29.8487
   -29.7077 -29.7077 -29.7077 -29.7077 -29.7077 -29.7077 -29.7077 -29.7077
   -29.6083 -29.6083 -29.6083 -29.6083 -29.5287 -29.5287 -29.5287 -29.5287
   -29.5287 -29.5287 -29.5287 -29.5287 -29.5083 -29.5083 -29.5083 -29.5083
   -29.4364 -29.4364 -29.4364 -29.4364 -29.3261 -29.3261 -29.3261 -29.3261
   -29.3261 -29.3261 -29.3261 -29.3261 -29.3098 -29.3098 -29.3098 -29.3098
   -29.1866 -29.1866 -29.1866 -29.1866 -29.1535 -29.1535 -29.1535 -29.1535
   -29.1534 -29.1534 -29.1534 -29.1534 -29.1516 -29.1516 -29.1516 -29.1516
   -29.0646 -29.0646 -29.0646 -29.0646 -29.0646 -29.0646 -29.0646 -29.0645
   -29.0502 -29.0502 -29.0502 -29.0502 -29.0489 -29.0489 -29.0489 -29.0489
   -28.9187 -28.9187 -28.9187 -28.9187 -28.9160 -28.9160 -28.9160 -28.9160
     7.4304   7.4304   7.4304   7.4304   8.0339   8.0339   8.0339   8.0339
     8.4571   8.4571   8.4571   8.4571   8.4571   8.4571   8.4571   8.4571
     8.5373   8.5373   8.5373   8.5373   8.6054   8.6054   8.6054   8.6054
     8.6054   8.6054   8.6054   8.6054   8.7572   8.7572   8.7572   8.7572
     9.1781   9.1781   9.1781   9.1781   9.5465   9.5465   9.5465   9.5465
     9.5465   9.5465   9.5465   9.5465   9.8955   9.8955   9.8955   9.8955
     9.8955   9.8955   9.8955   9.8955  10.1740  10.1740  10.1740  10.1740
    10.5905  10.5905  10.5905  10.5905  11.0613  11.0613  11.0613  11.0613
    11.0906  11.0906  11.0906  11.0906  11.1677  11.1677  11.1677  11.1677
    11.3850  11.3850  11.3850  11.3850  11.4164  11.4164  11.4164  11.4164
    11.4164  11.4164  11.4164  11.4164  11.5900  11.5900  11.5900  11.5900
    11.6581  11.6581  11.6581  11.6581  11.8809  11.8809  11.8809  11.8809
    12.2380  12.2380  12.2380  12.2380  12.2380  12.2380  12.2380  12.2380
    12.3664  12.3664  12.3664  12.3664  12.3664  12.3664  12.3664  12.3664
    12.5078  12.5078  12.5078  12.5078  12.8808  12.8808  12.8808  12.8808
    12.9315  12.9315  12.9315  12.9315  13.0805  13.0805  13.0805  13.0805
    13.0805  13.0805  13.0805  13.0805  13.3104  13.3104  13.3105  13.3105
    13.6889  13.6889  13.6889  13.6889  13.9993  13.9993  13.9993  13.9993
    14.1686  14.1686  14.1686  14.1686  14.1686  14.1686  14.1686  14.1686
    14.6659  14.6659  14.6659  14.6659  14.7669  14.7669  14.7669  14.7669
    14.9137  14.9137  14.9137  14.9137  14.9137  14.9137  14.9137  14.9137
    14.9760  14.9760  14.9760  14.9760  16.5921  16.5921  16.5921  16.5921
    17.8994  17.8994  17.8994

     the Fermi energy is    13.3314 ev

!    total energy              =  -13811.65776537 Ry

     total all-electron energy =   -289988.048105 Ry
     estimated scf accuracy    <       0.00000083 Ry
     smearing contrib. (-TS)   =      -0.00307580 Ry
     internal energy E=F+TS    =  -13811.65468957 Ry

     The total energy is F=E-TS. E is the sum of the following terms:
     one-electron contribution =   -8985.22690520 Ry
     hartree contribution      =    4729.16918153 Ry
     xc contribution           =    -925.65361044 Ry
     ewald contribution        =   -1040.60933801 Ry
     one-center paw contrib.   =   -7589.33401744 Ry

     convergence has been achieved in  23 iterations

     Forces acting on atoms (cartesian axes, Ry/au):

     atom    1 type  1   force =     0.00000000    0.00000000    0.03833766
     atom    2 type  1   force =    -0.00000180   -0.00000180    0.03832106
     atom    3 type  1   force =    -0.00000467   -0.00000000   -0.03342939
     atom    4 type  1   force =     0.00000000   -0.00000467   -0.03342939
     atom    5 type  1   force =     0.00000000    0.00000000    0.03342637
     atom    6 type  1   force =     0.00002377    0.00002377    0.03343313
     atom    7 type  1   force =    -0.00001012    0.00000000   -0.03829510
     atom    8 type  1   force =     0.00000000   -0.00001012   -0.03829510
     atom    9 type  1   force =     0.00000000    0.00000000    0.03830323
     atom   10 type  1   force =    -0.00000180    0.00000180    0.03832106
     atom   11 type  1   force =    -0.00000683    0.00000000   -0.03340807
     atom   12 type  1   force =    -0.00000000    0.00000467   -0.03342939
     atom   13 type  1   force =     0.00000000    0.00000000    0.03340165
     atom   14 type  1   force =     0.00002377   -0.00002377    0.03343313
     atom   15 type  1   force =     0.00000504    0.00000000   -0.03834400
     atom   16 type  1   force =     0.00000000    0.00001012   -0.03829510
     atom   17 type  1   force =     0.00000000    0.00000000    0.03830323
     atom   18 type  1   force =     0.00000180   -0.00000180    0.03832106
     atom   19 type  1   force =     0.00000467   -0.00000000   -0.03342939
     atom   20 type  1   force =     0.00000000   -0.00000683   -0.03340807
     atom   21 type  1   force =     0.00000000    0.00000000    0.03340165
     atom   22 type  1   force =    -0.00002377    0.00002377    0.03343313
     atom   23 type  1   force =     0.00001012    0.00000000   -0.03829510
     atom   24 type  1   force =     0.00000000    0.00000504   -0.03834400
     atom   25 type  1   force =     0.00000000    0.00000000    0.03831207
     atom   26 type  1   force =     0.00000180    0.00000180    0.03832106
     atom   27 type  1   force =     0.00000683    0.00000000   -0.03340807
     atom   28 type  1   force =     0.00000000    0.00000683   -0.03340807
     atom   29 type  1   force =     0.00000000    0.00000000    0.03340363
     atom   30 type  1   force =    -0.00002377   -0.00002377    0.03343313
     atom   31 type  1   force =    -0.00000504    0.00000000   -0.03834400
     atom   32 type  1   force =     0.00000000   -0.00000504   -0.03834400

     Total force =     0.203379     Total SCF correction =     0.006457

     Computing stress (Cartesian axis) and pressure

          total   stress  (Ry/bohr**3)                   (kbar)     P=      -80.98
  -0.00061452   0.00000000   0.00000000          -90.40        0.00        0.00
   0.00000000  -0.00061452   0.00000000            0.00      -90.40        0.00
   0.00000000   0.00000000  -0.00042237            0.00        0.00      -62.13

     Writing output data file /scratch/tuZhbYymmiOkTuzD.save/

     General routines

     Parallel routines

   This run was terminated on:  21:41: 6  25Nov2021

   JOB DONE.