     Program PWSCF v.6.7MaX starts on 25Nov2021 at 17:28: 8

     R & G space division:  proc/nbgrp/npool/nimage =      72
     Reading input from scf_6.in
Warning: card &CELL ignored
Warning: card CELL_DYNAMICS = 'BFGS', ignored
Warning: card CELL_FACTOR = 2.0, ignored
Warning: card PRESS = 0.0, ignored
Warning: card / ignored

     Current dimensions of program PWSCF are:
     Max number of different atomic species (ntypx) = 10
     Max number of k-points (npk) =  40000
     Max angular momentum in pseudopotentials (lmaxx) =  3
     file Ru.pbe-spn-kjpaw_psl.1.0.0.UPF: wavefunction(s)  4D renormalized

     Subspace diagonalization in iterative solution of the eigenvalue problem:
     one sub-group per band group will be used

     Found symmetry operation: I + (  0.2500  0.2500  0.0000)
     This is a supercell, fractional translations are disabled
     Message from routine setup:
     using ibrav=0 with symmetry is DISCOURAGED, use correct ibrav instead

     bravais-lattice index     =            0
     lattice parameter (alat)  =      14.4007  a.u.
     unit-cell volume          =    3733.0567 (a.u.)^3
     number of atoms/cell      =           32
     number of atomic types    =            1
     number of electrons       =       512.00
     number of Kohn-Sham states=          307
     kinetic-energy cutoff     =      71.0000  Ry
     charge density cutoff     =     430.0000  Ry
     scf convergence threshold =      1.0E-06
     mixing beta               =       0.1000
     number of iterations used =           10  TF        mixing
     Exchange-correlation= SLA  PW   PBX  PBC
                           (   1   4   3   4   0   0   0)

     celldm(1)=  14.400742  celldm(2)=   0.000000  celldm(3)=   0.000000
     celldm(4)=   0.000000  celldm(5)=   0.000000  celldm(6)=   0.000000

     crystal axes: (cart. coord. in units of alat)
               a(1) = (   1.000000   0.000000   0.000000 )
               a(2) = (   0.000000   1.000000   0.000000 )
               a(3) = (   0.000000   0.000000   1.250000 )

     reciprocal axes: (cart. coord. in units 2 pi/alat)
               b(1) = (  1.000000  0.000000  0.000000 )
               b(2) = (  0.000000  1.000000  0.000000 )
               b(3) = (  0.000000  0.000000  0.800000 )

     PseudoPot. # 1 for Ru read from file:
     /rds/homes/b/bxp912/pp/Ru.pbe-spn-kjpaw_psl.1.0.0.UPF
     MD5 check sum: 0ae1f594dea09af7be8575c3a481d1ae
     Pseudo is Projector augmented-wave + core cor, Zval = 16.0
     Generated using "atomic" code by A. Dal Corso  v.5.1
     Shape of augmentation charge: PSQ
     Using radial grid of 1233 points,  6 beta functions with:
                l(1) =   0
                l(2) =   0
                l(3) =   1
                l(4) =   1
                l(5) =   2
                l(6) =   2
     Q(r) pseudized with 0 coefficients

     atomic species   valence    mass     pseudopotential
        Ru            16.00   101.07000     Ru( 1.00)

      8 Sym. Ops. (no inversion) found

   Cartesian axes

     site n.     atom                  positions (alat units)
         1           Ru  tau(   1) = (   0.0000000   0.0000000   0.0000000  )
         2           Ru  tau(   2) = (   0.2500000   0.2500000   0.0000000  )
         3           Ru  tau(   3) = (   0.2500000   0.0000000   0.2500000  )
         4           Ru  tau(   4) = (   0.0000000   0.2500000   0.2500000  )
         5           Ru  tau(   5) = (   0.0000000   0.0000000   0.7500000  )
         6           Ru  tau(   6) = (   0.2500000   0.2500000   0.7500000  )
         7           Ru  tau(   7) = (   0.2500000   0.0000000   1.0000000  )
         8           Ru  tau(   8) = (   0.0000000   0.2500000   1.0000000  )
         9           Ru  tau(   9) = (   0.0000000   0.5000000   0.0000000  )
        10           Ru  tau(  10) = (   0.2500000   0.7500000   0.0000000  )
        11           Ru  tau(  11) = (   0.2500000   0.5000000   0.2500000  )
        12           Ru  tau(  12) = (   0.0000000   0.7500000   0.2500000  )
        13           Ru  tau(  13) = (   0.0000000   0.5000000   0.7500000  )
        14           Ru  tau(  14) = (   0.2500000   0.7500000   0.7500000  )
        15           Ru  tau(  15) = (   0.2500000   0.5000000   1.0000000  )
        16           Ru  tau(  16) = (   0.0000000   0.7500000   1.0000000  )
        17           Ru  tau(  17) = (   0.5000000   0.0000000   0.0000000  )
        18           Ru  tau(  18) = (   0.7500000   0.2500000   0.0000000  )
        19           Ru  tau(  19) = (   0.7500000   0.0000000   0.2500000  )
        20           Ru  tau(  20) = (   0.5000000   0.2500000   0.2500000  )
        21           Ru  tau(  21) = (   0.5000000   0.0000000   0.7500000  )
        22           Ru  tau(  22) = (   0.7500000   0.2500000   0.7500000  )
        23           Ru  tau(  23) = (   0.7500000   0.0000000   1.0000000  )
        24           Ru  tau(  24) = (   0.5000000   0.2500000   1.0000000  )
        25           Ru  tau(  25) = (   0.5000000   0.5000000   0.0000000  )
        26           Ru  tau(  26) = (   0.7500000   0.7500000   0.0000000  )
        27           Ru  tau(  27) = (   0.7500000   0.5000000   0.2500000  )
        28           Ru  tau(  28) = (   0.5000000   0.7500000   0.2500000  )
        29           Ru  tau(  29) = (   0.5000000   0.5000000   0.7500000  )
        30           Ru  tau(  30) = (   0.7500000   0.7500000   0.7500000  )
        31           Ru  tau(  31) = (   0.7500000   0.5000000   1.0000000  )
        32           Ru  tau(  32) = (   0.5000000   0.7500000   1.0000000  )

     number of k points=    75  Marzari-Vanderbilt smearing, width (Ry)=  0.0400
                       cart. coord. in units 2pi/alat
        k(    1) = (   0.0555556   0.0555556   0.0444444), wk =   0.0219479
        k(    2) = (   0.0555556   0.0555556   0.1333333), wk =   0.0219479
        k(    3) = (   0.0555556   0.0555556   0.2222222), wk =   0.0219479
        k(    4) = (   0.0555556   0.0555556   0.3111111), wk =   0.0219479
        k(    5) = (   0.0555556   0.0555556  -0.4000000), wk =   0.0109739
        k(    6) = (   0.0555556   0.1666667   0.0444444), wk =   0.0438957
        k(    7) = (   0.0555556   0.1666667   0.1333333), wk =   0.0438957
        k(    8) = (   0.0555556   0.1666667   0.2222222), wk =   0.0438957
        k(    9) = (   0.0555556   0.1666667   0.3111111), wk =   0.0438957
        k(   10) = (   0.0555556   0.1666667  -0.4000000), wk =   0.0219479
        k(   11) = (   0.0555556   0.2777778   0.0444444), wk =   0.0438957
        k(   12) = (   0.0555556   0.2777778   0.1333333), wk =   0.0438957
        k(   13) = (   0.0555556   0.2777778   0.2222222), wk =   0.0438957
        k(   14) = (   0.0555556   0.2777778   0.3111111), wk =   0.0438957
        k(   15) = (   0.0555556   0.2777778  -0.4000000), wk =   0.0219479
        k(   16) = (   0.0555556   0.3888889   0.0444444), wk =   0.0438957
        k(   17) = (   0.0555556   0.3888889   0.1333333), wk =   0.0438957
        k(   18) = (   0.0555556   0.3888889   0.2222222), wk =   0.0438957
        k(   19) = (   0.0555556   0.3888889   0.3111111), wk =   0.0438957
        k(   20) = (   0.0555556   0.3888889  -0.4000000), wk =   0.0219479
        k(   21) = (   0.0555556  -0.5000000   0.0444444), wk =   0.0219479
        k(   22) = (   0.0555556  -0.5000000   0.1333333), wk =   0.0219479
        k(   23) = (   0.0555556  -0.5000000   0.2222222), wk =   0.0219479
        k(   24) = (   0.0555556  -0.5000000   0.3111111), wk =   0.0219479
        k(   25) = (   0.0555556  -0.5000000  -0.4000000), wk =   0.0109739
        k(   26) = (   0.1666667   0.1666667   0.0444444), wk =   0.0219479
        k(   27) = (   0.1666667   0.1666667   0.1333333), wk =   0.0219479
        k(   28) = (   0.1666667   0.1666667   0.2222222), wk =   0.0219479
        k(   29) = (   0.1666667   0.1666667   0.3111111), wk =   0.0219479
        k(   30) = (   0.1666667   0.1666667  -0.4000000), wk =   0.0109739
        k(   31) = (   0.1666667   0.2777778   0.0444444), wk =   0.0438957
        k(   32) = (   0.1666667   0.2777778   0.1333333), wk =   0.0438957
        k(   33) = (   0.1666667   0.2777778   0.2222222), wk =   0.0438957
        k(   34) = (   0.1666667   0.2777778   0.3111111), wk =   0.0438957
        k(   35) = (   0.1666667   0.2777778  -0.4000000), wk =   0.0219479
        k(   36) = (   0.1666667   0.3888889   0.0444444), wk =   0.0438957
        k(   37) = (   0.1666667   0.3888889   0.1333333), wk =   0.0438957
        k(   38) = (   0.1666667   0.3888889   0.2222222), wk =   0.0438957
        k(   39) = (   0.1666667   0.3888889   0.3111111), wk =   0.0438957
        k(   40) = (   0.1666667   0.3888889  -0.4000000), wk =   0.0219479
        k(   41) = (   0.1666667  -0.5000000   0.0444444), wk =   0.0219479
        k(   42) = (   0.1666667  -0.5000000   0.1333333), wk =   0.0219479
        k(   43) = (   0.1666667  -0.5000000   0.2222222), wk =   0.0219479
        k(   44) = (   0.1666667  -0.5000000   0.3111111), wk =   0.0219479
        k(   45) = (   0.1666667  -0.5000000  -0.4000000), wk =   0.0109739
        k(   46) = (   0.2777778   0.2777778   0.0444444), wk =   0.0219479
        k(   47) = (   0.2777778   0.2777778   0.1333333), wk =   0.0219479
        k(   48) = (   0.2777778   0.2777778   0.2222222), wk =   0.0219479
        k(   49) = (   0.2777778   0.2777778   0.3111111), wk =   0.0219479
        k(   50) = (   0.2777778   0.2777778  -0.4000000), wk =   0.0109739
        k(   51) = (   0.2777778   0.3888889   0.0444444), wk =   0.0438957
        k(   52) = (   0.2777778   0.3888889   0.1333333), wk =   0.0438957
        k(   53) = (   0.2777778   0.3888889   0.2222222), wk =   0.0438957
        k(   54) = (   0.2777778   0.3888889   0.3111111), wk =   0.0438957
        k(   55) = (   0.2777778   0.3888889  -0.4000000), wk =   0.0219479
        k(   56) = (   0.2777778  -0.5000000   0.0444444), wk =   0.0219479
        k(   57) = (   0.2777778  -0.5000000   0.1333333), wk =   0.0219479
        k(   58) = (   0.2777778  -0.5000000   0.2222222), wk =   0.0219479
        k(   59) = (   0.2777778  -0.5000000   0.3111111), wk =   0.0219479
        k(   60) = (   0.2777778  -0.5000000  -0.4000000), wk =   0.0109739
        k(   61) = (   0.3888889   0.3888889   0.0444444), wk =   0.0219479
        k(   62) = (   0.3888889   0.3888889   0.1333333), wk =   0.0219479
        k(   63) = (   0.3888889   0.3888889   0.2222222), wk =   0.0219479
        k(   64) = (   0.3888889   0.3888889   0.3111111), wk =   0.0219479
        k(   65) = (   0.3888889   0.3888889  -0.4000000), wk =   0.0109739
        k(   66) = (   0.3888889  -0.5000000   0.0444444), wk =   0.0219479
        k(   67) = (   0.3888889  -0.5000000   0.1333333), wk =   0.0219479
        k(   68) = (   0.3888889  -0.5000000   0.2222222), wk =   0.0219479
        k(   69) = (   0.3888889  -0.5000000   0.3111111), wk =   0.0219479
        k(   70) = (   0.3888889  -0.5000000  -0.4000000), wk =   0.0109739
        k(   71) = (  -0.5000000  -0.5000000   0.0444444), wk =   0.0054870
        k(   72) = (  -0.5000000  -0.5000000   0.1333333), wk =   0.0054870
        k(   73) = (  -0.5000000  -0.5000000   0.2222222), wk =   0.0054870
        k(   74) = (  -0.5000000  -0.5000000   0.3111111), wk =   0.0054870
        k(   75) = (  -0.5000000  -0.5000000  -0.4000000), wk =   0.0027435

     Check: negative core charge=   -0.000002

     Initial potential from superposition of free atoms

     starting charge  511.97959, renormalised to  512.00000
     Starting wfcs are  320 randomized atomic wfcs
     Checking if some PAW data can be deallocated...

     Self-consistent Calculation

     iteration #  1     ecut=    71.00 Ry     beta= 0.10
     Davidson diagonalization with overlap
     ethr =  1.00E-02,  avg # of iterations =  3.5

     total energy              =  -13812.49650581 Ry
     estimated scf accuracy    <       9.81517565 Ry

[...]

     iteration #  7     ecut=    71.00 Ry     beta= 0.10
     Davidson diagonalization with overlap
     c_bands:  1 eigenvalues not converged
     c_bands:  3 eigenvalues not converged
     ethr =  1.01E-05,  avg # of iterations =  5.4

[...]

     total energy              =  -13811.88678403 Ry
     estimated scf accuracy    <       0.00000275 Ry

     iteration # 18     ecut=    71.00 Ry     beta= 0.10
     Davidson diagonalization with overlap
     ethr =  5.37E-10,  avg # of iterations =  2.5

     End of self-consistent calculation

          k = 0.0556 0.0556 0.0444 ( 37740 PWs)   bands (ev):

   -55.4623 -55.3825 -55.3825 -55.3675 -55.3674 -55.3538 -55.3502 -55.3445
   -55.3445 -55.3405 -55.3222 -55.3222 -55.3167 -55.3167 -55.2903 -55.2903
   -54.9938 -54.9916 -54.9480 -54.9480 -54.9477 -54.9477 -54.9452 -54.9452
   -54.9445 -54.9445 -54.9390 -54.9390 -54.9388 -54.9388 -54.8907 -54.8907
   -25.7856 -25.7850 -25.7850 -25.7798 -25.7475 -25.7475 -25.6842 -25.5784
   -25.5784 -25.5754 -25.5754 -25.5313 -25.5312 -25.5063 -25.5063 -25.4915
   -25.4915 -25.4795 -25.4795 -25.4431 -25.4431 -25.4210 -25.4176 -25.4176
   -25.4102 -25.3766 -25.3766 -25.3477 -25.3477 -25.3104 -25.2792 -25.2792
   -25.2683 -25.2683 -25.2385 -25.2385 -25.2038 -25.2037 -25.1571 -25.1571
   -25.1469 -25.1469 -25.1403 -25.1403 -25.1101 -25.1101 -25.0665 -25.0598
   -25.0598 -25.0587 -25.0457 -25.0457 -25.0427 -25.0392 -25.0342 -25.0315
   -24.9543 -24.9543 -24.9478 -24.9478 -24.9248 -24.9248 -24.9125 -24.9125
   -24.9120 -24.9120 -24.9119 -24.9119 -24.8814 -24.8814 -24.8781 -24.8760
   -24.8760 -24.8451 -24.8451 -24.8424 -24.8369 -24.8369 -24.8310 -24.8254
   -24.8254 -24.8140 -24.8140 -24.8080 -24.8080 -24.8004 -24.8004 -24.7893
   -24.6972 -24.6942 -24.6891 -24.6848 -24.6687 -24.6687 -24.6651 -24.6650
    10.4294  11.7042  11.8387  11.8387  12.1075  12.1210  12.1260  12.1260
    12.1371  12.2491  12.3352  12.3352  12.5681  12.5681  12.6133  12.7488
    12.7488  13.0329  13.0329  13.0468  13.2010  13.2010  13.2344  13.2344
    13.3949  13.3949  13.4609  13.4734  13.4874  13.4874  13.5162  13.5162
    13.7262  13.7262  13.7654  13.7654  13.7878  13.7878  13.8608  13.8608
    13.9573  13.9573  14.0649  14.0649  14.0768  14.1953  14.1953  14.2055
    14.2055  14.4626  14.4626  14.4933  14.4963  14.4963  14.5073  14.5074
    14.5985  14.5985  14.7371  14.8052  14.8052  14.8138  14.9127  14.9262
    14.9262  14.9548  15.0206  15.0206  15.0386  15.0386  15.1187  15.1187
    15.2868  15.2868  15.3262  15.3342  15.4373  15.4462  15.4661  15.4983
    15.4983  15.5160  15.5402  15.8323  15.8323  15.9412  15.9412  16.0441
    16.0441  16.2156  16.2157  16.2541  16.2541  16.2991  16.2991  16.3789
    16.3976  16.4083  16.4083  16.4219  16.4219  16.4236  16.4237  16.5568
    16.5624  16.5624  16.6279  16.6376  16.6376  16.6507  16.8189  16.8189
    16.8712  16.8712  17.0270  17.0270  17.0524  17.0524  17.0935  17.2734
    17.2734  17.3301  17.3301  17.3382  17.3382  17.5656  17.5656  17.6253
    17.7887  17.7887  17.8182  17.8182  17.8636  17.8636  17.8908  17.9134
    17.9304  17.9305  17.9463  17.9463  17.9840  18.0428  18.1220  18.1262
    18.2089  18.2089  18.2897  18.4556  18.4556  18.7333  18.7333  18.8144
    18.8147  18.8147  18.9005  18.9626  19.0302  19.1248  19.1767  19.1767
    19.1873  19.1873  19.2599  19.3204  19.5283  19.6381  19.6381  19.6549
    19.6549  19.6699  19.6699  20.0293  20.0293  20.0486  20.1043  20.1043
    20.5772  20.5772  20.9164

[...]

          k = 0.3889-0.5000-0.4000 ( 37668 PWs)   bands (ev):

[...]

          k =-0.5000-0.5000 0.0444 ( 37720 PWs)   bands (ev):

[...]

          k =-0.5000-0.5000-0.4000 ( 37736 PWs)   bands (ev):

   -55.4159 -55.4159 -55.4158 -55.4158 -55.3378 -55.3378 -55.3377 -55.3377
   -55.3175 -55.3175 -55.3175 -55.3175 -55.3175 -55.3175 -55.3174 -55.3174
   -54.9694 -54.9694 -54.9694 -54.9694 -54.9687 -54.9687 -54.9687 -54.9687
   -54.9177 -54.9176 -54.9176 -54.9176 -54.9176 -54.9176 -54.9176 -54.9176
   -25.7165 -25.7165 -25.7164 -25.7164 -25.7164 -25.7164 -25.7164 -25.7164
   -25.6389 -25.6389 -25.6389 -25.6389 -25.5657 -25.5657 -25.5657 -25.5657
   -25.4359 -25.4359 -25.4359 -25.4359 -25.4359 -25.4359 -25.4359 -25.4359
   -25.3296 -25.3296 -25.3296 -25.3296 -25.2429 -25.2429 -25.2429 -25.2429
   -25.2429 -25.2429 -25.2429 -25.2429 -25.2347 -25.2347 -25.2347 -25.2347
   -25.1473 -25.1473 -25.1473 -25.1473 -25.0692 -25.0692 -25.0692 -25.0692
   -25.0692 -25.0692 -25.0692 -25.0692 -25.0213 -25.0213 -25.0213 -25.0213
   -24.9449 -24.9449 -24.9449 -24.9449 -24.9142 -24.9142 -24.9142 -24.9142
   -24.9142 -24.9142 -24.9142 -24.9142 -24.9100 -24.9100 -24.9100 -24.9100
   -24.8365 -24.8365 -24.8365 -24.8365 -24.8365 -24.8365 -24.8365 -24.8365
   -24.8121 -24.8121 -24.8121 -24.8121 -24.8103 -24.8103 -24.8103 -24.8103
   -24.6788 -24.6788 -24.6788 -24.6788 -24.6755 -24.6755 -24.6755 -24.6755
    11.7164  11.7164  11.7164  11.7164  12.3030  12.3030  12.3030  12.3030
    12.7364  12.7364  12.7364  12.7364  12.7364  12.7364  12.7364  12.7364
    12.7730  12.7730  12.7730  12.7730  12.8804  12.8804  12.8804  12.8804
    12.8804  12.8804  12.8804  12.8804  13.0727  13.0727  13.0727  13.0727
    13.4415  13.4415  13.4415  13.4415  13.8398  13.8398  13.8398  13.8398
    13.8398  13.8398  13.8398  13.8398  14.1543  14.1543  14.1543  14.1544
    14.1544  14.1544  14.1544  14.1544  14.4512  14.4512  14.4512  14.4512
    14.8605  14.8605  14.8605  14.8605  15.2154  15.2154  15.2154  15.2154
    15.3897  15.3897  15.3897  15.3897  15.5417  15.5417  15.5417  15.5417
    15.6657  15.6657  15.6657  15.6657  15.6920  15.6920  15.6920  15.6920
    15.6920  15.6920  15.6920  15.6920  15.7177  15.7177  15.7177  15.7177
    15.9344  15.9344  15.9344  15.9344  16.1722  16.1722  16.1722  16.1722
    16.5022  16.5022  16.5022  16.5022  16.5022  16.5022  16.5022  16.5022
    16.7115  16.7115  16.7115  16.7115  16.7115  16.7115  16.7115  16.7115
    16.7885  16.7885  16.7885  16.7885  16.8060  16.8060  16.8060  16.8060
    17.1471  17.1471  17.1471  17.1471  17.1471  17.1471  17.1471  17.1471
    17.1488  17.1488  17.1488  17.1488  17.7438  17.7438  17.7438  17.7438
    17.9515  17.9515  17.9515  17.9515  18.2472  18.2472  18.2472  18.2472
    18.5903  18.5903  18.5903  18.5903  18.5903  18.5903  18.5903  18.5903
    19.0504  19.0504  19.0504  19.0504  19.2022  19.2022  19.2022  19.2022
    19.2022  19.2022  19.2022  19.2022  19.2523  19.2523  19.2523  19.2523
    20.1016  20.1016  20.1016  20.1016  20.8287  20.8287  20.8287  20.8287
    22.1800  22.1800  22.1800

     the Fermi energy is    17.6141 ev

!    total energy              =  -13811.88678528 Ry

     total all-electron energy =   -289988.277124 Ry
     estimated scf accuracy    <       0.00000098 Ry
     smearing contrib. (-TS)   =       0.00822896 Ry
     internal energy E=F+TS    =  -13811.89501424 Ry

     The total energy is F=E-TS. E is the sum of the following terms:
     one-electron contribution =   -3242.06108255 Ry
     hartree contribution      =    1937.73480132 Ry
     xc contribution           =    -925.56100470 Ry
     ewald contribution        =   -3992.67304757 Ry
     one-center paw contrib.   =   -7589.33468074 Ry

     convergence has been achieved in  18 iterations

     Forces acting on atoms (cartesian axes, Ry/au):

     atom    1 type  1   force =     0.00000000    0.00000000    0.04726453
     atom    2 type  1   force =    -0.00000172   -0.00000172    0.04726340
     atom    3 type  1   force =    -0.00001333    0.00000000   -0.01332088
     atom    4 type  1   force =     0.00000000   -0.00001333   -0.01332088
     atom    5 type  1   force =     0.00000000    0.00000000    0.01331870
     atom    6 type  1   force =    -0.00000040   -0.00000040    0.01331358
     atom    7 type  1   force =    -0.00000660    0.00000000   -0.04726001
     atom    8 type  1   force =    -0.00000000   -0.00000660   -0.04726001
     atom    9 type  1   force =     0.00000000    0.00000000    0.04726963
     atom   10 type  1   force =    -0.00000172    0.00000172    0.04726340
     atom   11 type  1   force =     0.00000908    0.00000000   -0.01332548
     atom   12 type  1   force =     0.00000000    0.00001333   -0.01332088
     atom   13 type  1   force =     0.00000000    0.00000000    0.01332075
     atom   14 type  1   force =    -0.00000040    0.00000040    0.01331358
     atom   15 type  1   force =     0.00001157    0.00000000   -0.04725689
     atom   16 type  1   force =     0.00000000    0.00000660   -0.04726001
     atom   17 type  1   force =     0.00000000    0.00000000    0.04726963
     atom   18 type  1   force =     0.00000172   -0.00000172    0.04726340
     atom   19 type  1   force =     0.00001333    0.00000000   -0.01332088
     atom   20 type  1   force =     0.00000000    0.00000908   -0.01332548
     atom   21 type  1   force =     0.00000000    0.00000000    0.01332075
     atom   22 type  1   force =     0.00000040   -0.00000040    0.01331358
     atom   23 type  1   force =     0.00000660   -0.00000000   -0.04726001
     atom   24 type  1   force =     0.00000000    0.00001157   -0.04725689
     atom   25 type  1   force =     0.00000000    0.00000000    0.04726211
     atom   26 type  1   force =     0.00000172    0.00000172    0.04726340
     atom   27 type  1   force =    -0.00000908    0.00000000   -0.01332548
     atom   28 type  1   force =     0.00000000   -0.00000908   -0.01332548
     atom   29 type  1   force =     0.00000000    0.00000000    0.01331910
     atom   30 type  1   force =     0.00000040    0.00000040    0.01331358
     atom   31 type  1   force =    -0.00001157    0.00000000   -0.04725689
     atom   32 type  1   force =     0.00000000   -0.00001157   -0.04725689

     Total force =     0.196411     Total SCF correction =     0.002712

     Computing stress (Cartesian axis) and pressure

          total   stress  (Ry/bohr**3)                   (kbar)     P=     -112.73
  -0.00070318   0.00000000   0.00000000         -103.44        0.00        0.00
   0.00000000  -0.00070318   0.00000000            0.00     -103.44        0.00
   0.00000000   0.00000000  -0.00089266            0.00        0.00     -131.32

     Writing output data file /scratch/FtFurVxfYVEbjvAe.save/

     General routines

     Parallel routines

   This run was terminated on:  17:56:50  25Nov2021

   JOB DONE.