     Program PWSCF v.6.7MaX starts on 25Nov2021 at 15:42:28

     R & G space division:  proc/nbgrp/npool/nimage =      72
     Reading input from scf_1.in
Warning: card &CELL ignored
Warning: card CELL_DYNAMICS = 'BFGS', ignored
Warning: card CELL_FACTOR = 2.0, ignored
Warning: card PRESS = 0.0, ignored
Warning: card / ignored

     Current dimensions of program PWSCF are:
     Max number of different atomic species (ntypx) = 10
     Max number of k-points (npk) =  40000
     Max angular momentum in pseudopotentials (lmaxx) =  3
     file Ru.pbe-spn-kjpaw_psl.1.0.0.UPF: wavefunction(s)  4D renormalized

     Subspace diagonalization in iterative solution of the eigenvalue problem:
     one sub-group per band group will be used

     Found symmetry operation: I + (  0.2500  0.2500  0.0000)
     This is a supercell, fractional translations are disabled
     Message from routine setup:
     using ibrav=0 with symmetry is DISCOURAGED, use correct ibrav instead

     bravais-lattice index     =            0
     lattice parameter (alat)  =      14.4007  a.u.
     unit-cell volume          =    2986.4454 (a.u.)^3
     number of atoms/cell      =           32
     number of atomic types    =            1
     number of electrons       =       512.00
     number of Kohn-Sham states=          307
     kinetic-energy cutoff     =      71.0000  Ry
     charge density cutoff     =     430.0000  Ry
     scf convergence threshold =      1.0E-06
     mixing beta               =       0.1000
     number of iterations used =           10  TF        mixing
     Exchange-correlation= SLA  PW   PBX  PBC
                           (   1   4   3   4   0   0   0)

     celldm(1)=  14.400742  celldm(2)=   0.000000  celldm(3)=   0.000000
     celldm(4)=   0.000000  celldm(5)=   0.000000  celldm(6)=   0.000000

     crystal axes: (cart. coord. in units of alat)
               a(1) = (   1.000000   0.000000   0.000000 )
               a(2) = (   0.000000   1.000000   0.000000 )
               a(3) = (   0.000000   0.000000   1.000000 )

     reciprocal axes: (cart. coord. in units 2 pi/alat)
               b(1) = (  1.000000  0.000000  0.000000 )
               b(2) = (  0.000000  1.000000  0.000000 )
               b(3) = (  0.000000  0.000000  1.000000 )

     PseudoPot. # 1 for Ru read from file:
     /rds/homes/b/bxp912/pp/Ru.pbe-spn-kjpaw_psl.1.0.0.UPF
     MD5 check sum: 0ae1f594dea09af7be8575c3a481d1ae
     Pseudo is Projector augmented-wave + core cor, Zval = 16.0
     Generated using "atomic" code by A. Dal Corso  v.5.1
     Shape of augmentation charge: PSQ
     Using radial grid of 1233 points,  6 beta functions with:
                l(1) =   0
                l(2) =   0
                l(3) =   1
                l(4) =   1
                l(5) =   2
                l(6) =   2
     Q(r) pseudized with 0 coefficients

     atomic species   valence    mass     pseudopotential
        Ru            16.00   101.07000     Ru( 1.00)

     48 Sym. Ops., with inversion, found

   Cartesian axes

     site n.     atom                  positions (alat units)
         1           Ru  tau(   1) = (   0.0000000   0.0000000   0.0000000  )
         2           Ru  tau(   2) = (   0.2500000   0.2500000   0.0000000  )
         3           Ru  tau(   3) = (   0.2500000   0.0000000   0.2500000  )
         4           Ru  tau(   4) = (   0.0000000   0.2500000   0.2500000  )
         5           Ru  tau(   5) = (   0.0000000   0.0000000   0.5000000  )
         6           Ru  tau(   6) = (   0.2500000   0.2500000   0.5000000  )
         7           Ru  tau(   7) = (   0.2500000   0.0000000   0.7500000  )
         8           Ru  tau(   8) = (   0.0000000   0.2500000   0.7500000  )
         9           Ru  tau(   9) = (   0.0000000   0.5000000   0.0000000  )
        10           Ru  tau(  10) = (   0.2500000   0.7500000   0.0000000  )
        11           Ru  tau(  11) = (   0.2500000   0.5000000   0.2500000  )
        12           Ru  tau(  12) = (   0.0000000   0.7500000   0.2500000  )
        13           Ru  tau(  13) = (   0.0000000   0.5000000   0.5000000  )
        14           Ru  tau(  14) = (   0.2500000   0.7500000   0.5000000  )
        15           Ru  tau(  15) = (   0.2500000   0.5000000   0.7500000  )
        16           Ru  tau(  16) = (   0.0000000   0.7500000   0.7500000  )
        17           Ru  tau(  17) = (   0.5000000   0.0000000   0.0000000  )
        18           Ru  tau(  18) = (   0.7500000   0.2500000   0.0000000  )
        19           Ru  tau(  19) = (   0.7500000   0.0000000   0.2500000  )
        20           Ru  tau(  20) = (   0.5000000   0.2500000   0.2500000  )
        21           Ru  tau(  21) = (   0.5000000   0.0000000   0.5000000  )
        22           Ru  tau(  22) = (   0.7500000   0.2500000   0.5000000  )
        23           Ru  tau(  23) = (   0.7500000   0.0000000   0.7500000  )
        24           Ru  tau(  24) = (   0.5000000   0.2500000   0.7500000  )
        25           Ru  tau(  25) = (   0.5000000   0.5000000   0.0000000  )
        26           Ru  tau(  26) = (   0.7500000   0.7500000   0.0000000  )
        27           Ru  tau(  27) = (   0.7500000   0.5000000   0.2500000  )
        28           Ru  tau(  28) = (   0.5000000   0.7500000   0.2500000  )
        29           Ru  tau(  29) = (   0.5000000   0.5000000   0.5000000  )
        30           Ru  tau(  30) = (   0.7500000   0.7500000   0.5000000  )
        31           Ru  tau(  31) = (   0.7500000   0.5000000   0.7500000  )
        32           Ru  tau(  32) = (   0.5000000   0.7500000   0.7500000  )

     number of k points=    35  Marzari-Vanderbilt smearing, width (Ry)=  0.0400
                       cart. coord. in units 2pi/alat
        k(    1) = (   0.0555556   0.0555556   0.0555556), wk =   0.0219479
        k(    2) = (   0.0555556   0.0555556   0.1666667), wk =   0.0658436
        k(    3) = (   0.0555556   0.0555556   0.2777778), wk =   0.0658436
        k(    4) = (   0.0555556   0.0555556   0.3888889), wk =   0.0658436
        k(    5) = (   0.0555556   0.0555556  -0.5000000), wk =   0.0329218
        k(    6) = (   0.0555556   0.1666667   0.1666667), wk =   0.0658436
        k(    7) = (   0.0555556   0.1666667   0.2777778), wk =   0.1316872
        k(    8) = (   0.0555556   0.1666667   0.3888889), wk =   0.1316872
        k(    9) = (   0.0555556   0.1666667  -0.5000000), wk =   0.0658436
        k(   10) = (   0.0555556   0.2777778   0.2777778), wk =   0.0658436
        k(   11) = (   0.0555556   0.2777778   0.3888889), wk =   0.1316872
        k(   12) = (   0.0555556   0.2777778  -0.5000000), wk =   0.0658436
        k(   13) = (   0.0555556   0.3888889   0.3888889), wk =   0.0658436
        k(   14) = (   0.0555556   0.3888889  -0.5000000), wk =   0.0658436
        k(   15) = (   0.0555556  -0.5000000  -0.5000000), wk =   0.0164609
        k(   16) = (   0.1666667   0.1666667   0.1666667), wk =   0.0219479
        k(   17) = (   0.1666667   0.1666667   0.2777778), wk =   0.0658436
        k(   18) = (   0.1666667   0.1666667   0.3888889), wk =   0.0658436
        k(   19) = (   0.1666667   0.1666667  -0.5000000), wk =   0.0329218
        k(   20) = (   0.1666667   0.2777778   0.2777778), wk =   0.0658436
        k(   21) = (   0.1666667   0.2777778   0.3888889), wk =   0.1316872
        k(   22) = (   0.1666667   0.2777778  -0.5000000), wk =   0.0658436
        k(   23) = (   0.1666667   0.3888889   0.3888889), wk =   0.0658436
        k(   24) = (   0.1666667   0.3888889  -0.5000000), wk =   0.0658436
        k(   25) = (   0.1666667  -0.5000000  -0.5000000), wk =   0.0164609
        k(   26) = (   0.2777778   0.2777778   0.2777778), wk =   0.0219479
        k(   27) = (   0.2777778   0.2777778   0.3888889), wk =   0.0658436
        k(   28) = (   0.2777778   0.2777778  -0.5000000), wk =   0.0329218
        k(   29) = (   0.2777778   0.3888889   0.3888889), wk =   0.0658436
        k(   30) = (   0.2777778   0.3888889  -0.5000000), wk =   0.0658436
        k(   31) = (   0.2777778  -0.5000000  -0.5000000), wk =   0.0164609
        k(   32) = (   0.3888889   0.3888889   0.3888889), wk =   0.0219479
        k(   33) = (   0.3888889   0.3888889  -0.5000000), wk =   0.0329218
        k(   34) = (   0.3888889  -0.5000000  -0.5000000), wk =   0.0164609
        k(   35) = (  -0.5000000  -0.5000000  -0.5000000), wk =   0.0027435

     Check: negative core charge=   -0.000002

     Initial potential from superposition of free atoms

     starting charge  511.97959, renormalised to  512.00000
     Starting wfcs are  320 randomized atomic wfcs
     Checking if some PAW data can be deallocated...

     Self-consistent Calculation

     iteration #  1     ecut=    71.00 Ry     beta= 0.10
     Davidson diagonalization with overlap
     ethr =  1.00E-02,  avg # of iterations =  3.5

     Threshold (ethr) on eigenvalues was too large:
     Diagonalizing with lowered threshold

     Davidson diagonalization with overlap
     ethr =  8.38E-05,  avg # of iterations =  5.4

     total energy              =  -13813.45347367 Ry
     estimated scf accuracy    <       0.63776030 Ry

[...]

     iteration #  4     ecut=    71.00 Ry     beta= 0.10
     Davidson diagonalization with overlap
     c_bands:  1 eigenvalues not converged
     ethr =  2.79E-06,  avg # of iterations =  3.3

[...]

     total energy              =  -13813.30087395 Ry
     estimated scf accuracy    <       0.00001448 Ry

     iteration # 11     ecut=    71.00 Ry     beta= 0.10
     Davidson diagonalization with overlap
     ethr =  2.83E-09,  avg # of iterations =  3.1

     End of self-consistent calculation

          k = 0.0556 0.0556 0.0556 ( 30224 PWs)   bands (ev):

   -49.9069 -49.8070 -49.8070 -49.8070 -49.7877 -49.7877 -49.7877 -49.7518
   -49.7518 -49.7517 -49.7423 -49.7412 -49.7412 -49.7412 -49.7412 -49.7412
   -49.7412 -49.7407 -49.7407 -49.7407 -49.7324 -49.7324 -49.7323 -49.6869
   -49.6868 -49.6868 -49.6865 -49.6865 -49.6865 -49.6864 -49.6864 -49.6864
   -20.3118 -20.3118 -20.3118 -20.3076 -20.2490 -20.2490 -20.2490 -20.0487
   -20.0487 -20.0487 -20.0373 -20.0373 -20.0373 -20.0372 -20.0372 -20.0372
   -20.0170 -20.0170 -20.0170 -19.9943 -19.9943 -19.9943 -19.9943 -19.9943
   -19.9943 -19.9437 -19.9437 -19.9437 -19.9437 -19.9437 -19.9437 -19.8444
   -19.8444 -19.8444 -19.7712 -19.7712 -19.7712 -19.7634 -19.7634 -19.7634
   -19.7296 -19.7296 -19.7296 -19.7296 -19.7296 -19.7296 -19.6894 -19.6894
   -19.6894 -19.6826 -19.6826 -19.6826 -19.6825 -19.6825 -19.6825 -19.6768
   -19.6767 -19.6767 -19.6722 -19.6722 -19.6721 -19.5096 -19.5096 -19.5096
   -19.5090 -19.5090 -19.5090 -19.4774 -19.4774 -19.4774 -19.4772 -19.4772
   -19.4772 -19.4624 -19.4624 -19.4624 -19.4501 -19.4500 -19.4500 -19.4490
   -19.4490 -19.4490 -19.4490 -19.4490 -19.4490 -19.4471 -19.4471 -19.4470
   -19.4442 -19.4442 -19.4305 -19.4305 -19.4305 -19.3176 -19.3107 -19.3107
    15.3440  16.9012  16.9012  16.9013  17.1812  17.1989  17.1989  17.1989
    17.3696  17.3696  17.3696  17.5980  17.5980  17.5980  17.7693  17.7693
    17.7693  18.3104  18.3104  18.3104  18.3104  18.3104  18.3104  18.6260
    18.6260  18.6260  18.8928  18.8928  18.8928  18.8991  18.8991  18.8991
    18.9983  18.9983  18.9983  19.0021  19.0021  19.0021  19.0021  19.0021
    19.0021  19.4925  19.4925  19.4925  19.4925  19.4925  19.4925  19.6369
    19.6369  19.6369  19.6687  19.6687  19.6687  19.6687  19.6687  19.6687
    19.7331  19.7331  19.7331  19.9963  19.9963  19.9963  19.9974  19.9974
    19.9974  19.9974  19.9975  19.9975  19.9979  19.9979  19.9979  19.9979
    19.9979  19.9979  20.1673  20.1673  20.1673  20.4516  20.4516  20.4516
    20.4878  20.4878  20.5029  20.5029  20.5029  20.5817  20.6131  20.6131
    21.5893  21.5893  21.5893  21.7597  21.7597  21.7597  21.8074  21.8074
    21.8074  21.9076  21.9076  21.9076  21.9077  21.9077  21.9077  21.9215
    21.9215  21.9215  22.2185  22.2185  22.2185  22.3384  22.3384  22.3384
    22.5873  22.5873  22.5873  22.6647  22.6647  22.6647  22.6648  22.6648
    22.6648  22.6834  22.6834  22.6834  22.7235  22.7235  22.7235  22.9132
    22.9132  22.9133  22.9133  22.9133  22.9133  22.9726  22.9726  23.0865
    23.0865  23.0865  23.7480  23.7480  23.7480  23.7942  23.7942  23.7942
    23.9081  23.9081  23.9081  23.9946  24.7276  24.7276  24.7276  24.7698
    24.7698  24.8048  24.8048  24.8048  25.0885  25.0885  25.0885  25.1128
    25.1129  25.1129  25.2750  25.2750  25.2750  25.2750  25.2750  25.2750
    25.2800  25.2800  25.2800  26.7232  26.7232  26.7232  26.8873  26.8873
    26.8873  27.2569  27.2569

[...]

          k = 0.3889-0.5000-0.5000 ( 30188 PWs)   bands (ev):

[...]

          k =-0.5000-0.5000-0.5000 ( 30280 PWs)   bands (ev):

   -49.8252 -49.8252 -49.8252 -49.8252 -49.8252 -49.8252 -49.8252 -49.8251
   -49.7140 -49.7140 -49.7140 -49.7140 -49.7139 -49.7139 -49.7139 -49.7139
   -49.7139 -49.7139 -49.7139 -49.7139 -49.7139 -49.7139 -49.7139 -49.7139
   -49.7139 -49.7139 -49.7139 -49.7139 -49.7139 -49.7139 -49.7139 -49.7138
   -20.1431 -20.1431 -20.1431 -20.1431 -20.1431 -20.1431 -20.1431 -20.1431
   -20.1431 -20.1431 -20.1431 -20.1431 -20.1431 -20.1430 -20.1430 -20.1430
   -20.1430 -20.1430 -20.1430 -20.1430 -20.1430 -20.1430 -20.1430 -20.1430
   -19.8230 -19.8230 -19.8230 -19.8230 -19.8230 -19.8230 -19.8230 -19.8230
   -19.7109 -19.7109 -19.7109 -19.7109 -19.7108 -19.7108 -19.7108 -19.7108
   -19.7107 -19.7107 -19.7107 -19.7107 -19.7107 -19.7107 -19.7107 -19.7107
   -19.7107 -19.7107 -19.7107 -19.7107 -19.7107 -19.7107 -19.7107 -19.7107
   -19.5607 -19.5607 -19.5607 -19.5607 -19.5607 -19.5607 -19.5607 -19.5607
   -19.5607 -19.5607 -19.5607 -19.5607 -19.5607 -19.5606 -19.5606 -19.5606
   -19.5606 -19.5606 -19.5606 -19.5606 -19.5606 -19.5606 -19.5606 -19.5606
   -19.3778 -19.3778 -19.3778 -19.3778 -19.3778 -19.3778 -19.3778 -19.3778
   -19.3778 -19.3778 -19.3778 -19.3778 -19.3778 -19.3777 -19.3777 -19.3777
    17.1432  17.1432  17.1432  17.1432  17.1432  17.1432  17.1432  17.1432
    17.9981  17.9981  17.9981  17.9981  17.9981  17.9981  17.9981  17.9981
    17.9981  17.9981  17.9981  17.9981  17.9981  17.9981  17.9981  17.9981
    17.9981  17.9981  17.9981  17.9981  17.9981  17.9981  17.9981  17.9981
    19.0276  19.0276  19.0276  19.0276  19.0276  19.0276  19.0276  19.0276
    19.0276  19.0276  19.0276  19.0276  19.0276  19.0276  19.0276  19.0276
    19.0276  19.0276  19.0276  19.0276  19.0276  19.0276  19.0276  19.0276
    20.3508  20.3508  20.3508  20.3508  20.3508  20.3508  20.3508  20.3508
    20.9909  20.9909  20.9909  20.9909  20.9909  20.9909  20.9909  20.9909
    20.9910  20.9910  20.9910  20.9910  20.9910  20.9910  20.9910  20.9910
    21.1004  21.1004  21.1004  21.1004  21.1004  21.1004  21.1004  21.1004
    21.1004  21.1004  21.1004  21.1004  21.1004  21.1004  21.1004  21.1004
    21.1004  21.1004  21.1004  21.1004  21.1004  21.1004  21.1004  21.1004
    22.3154  22.3154  22.3154  22.3154  22.3154  22.3154  22.3154  22.3154
    22.3154  22.3154  22.3154  22.3154  22.3154  22.3154  22.3154  22.3154
    22.3154  22.3154  22.3154  22.3154  22.3154  22.3154  22.3154  22.3154
    23.1474  23.1474  23.1474  23.1474  23.1474  23.1474  23.1474  23.1474
    23.1474  23.1474  23.1474  23.1474  23.1474  23.1474  23.1474  23.1474
    24.9450  24.9450  24.9450  24.9450  24.9450  24.9450  24.9450  24.9450
    24.9451  24.9451  24.9451  24.9451  24.9451  24.9451  24.9451  24.9451
    24.9451  24.9451  24.9451  24.9451  24.9451  24.9451  24.9451  24.9451
    28.3253  28.3253  28.3253  28.3253  28.3253  28.3253  28.3253  28.3253
    28.3253  28.3253  28.3253

     the Fermi energy is    23.1147 ev

!    total energy              =  -13813.30088100 Ry

     total all-electron energy =   -289989.691220 Ry
     estimated scf accuracy    <       0.00000042 Ry
     smearing contrib. (-TS)   =       0.02043125 Ry
     internal energy E=F+TS    =  -13813.32131225 Ry

     The total energy is F=E-TS. E is the sum of the following terms:
     one-electron contribution =    -995.53296598 Ry
     hartree contribution      =     916.00241919 Ry
     xc contribution           =    -928.06330176 Ry
     ewald contribution        =   -5216.28554340 Ry
     one-center paw contrib.   =   -7589.44192030 Ry

     convergence has been achieved in  11 iterations

     Forces acting on atoms (cartesian axes, Ry/au):

     atom    1 type  1   force =     0.00000000    0.00000000    0.00000000
     atom    2 type  1   force =     0.00000980    0.00000980    0.00000000
     atom    3 type  1   force =     0.00000980    0.00000000    0.00000980
     atom    4 type  1   force =    -0.00000000    0.00000980    0.00000980
     atom    5 type  1   force =     0.00000000    0.00000000    0.00000000
     atom    6 type  1   force =    -0.00000713   -0.00000713    0.00000000
     atom    7 type  1   force =     0.00000980    0.00000000   -0.00000980
     atom    8 type  1   force =     0.00000000    0.00000980   -0.00000980
     atom    9 type  1   force =     0.00000000    0.00000000    0.00000000
     atom   10 type  1   force =     0.00000980   -0.00000980    0.00000000
     atom   11 type  1   force =    -0.00000713    0.00000000   -0.00000713
     atom   12 type  1   force =     0.00000000   -0.00000980    0.00000980
     atom   13 type  1   force =     0.00000000    0.00000000    0.00000000
     atom   14 type  1   force =    -0.00000713    0.00000713    0.00000000
     atom   15 type  1   force =    -0.00000713    0.00000000    0.00000713
     atom   16 type  1   force =     0.00000000   -0.00000980   -0.00000980
     atom   17 type  1   force =     0.00000000    0.00000000    0.00000000
     atom   18 type  1   force =    -0.00000980    0.00000980    0.00000000
     atom   19 type  1   force =    -0.00000980    0.00000000    0.00000980
     atom   20 type  1   force =     0.00000000   -0.00000713   -0.00000713
     atom   21 type  1   force =     0.00000000    0.00000000    0.00000000
     atom   22 type  1   force =     0.00000713   -0.00000713    0.00000000
     atom   23 type  1   force =    -0.00000980    0.00000000   -0.00000980
     atom   24 type  1   force =     0.00000000   -0.00000713    0.00000713
     atom   25 type  1   force =     0.00000000    0.00000000    0.00000000
     atom   26 type  1   force =    -0.00000980   -0.00000980    0.00000000
     atom   27 type  1   force =     0.00000713    0.00000000   -0.00000713
     atom   28 type  1   force =     0.00000000    0.00000713   -0.00000713
     atom   29 type  1   force =     0.00000000    0.00000000    0.00000000
     atom   30 type  1   force =     0.00000713    0.00000713    0.00000000
     atom   31 type  1   force =     0.00000713    0.00000000    0.00000713
     atom   32 type  1   force =     0.00000000    0.00000713    0.00000713

     Total force =     0.000059     Total SCF correction =     0.000310
     SCF correction compared to forces is large: reduce conv_thr to get better values

     Computing stress (Cartesian axis) and pressure

          total   stress  (Ry/bohr**3)                   (kbar)     P=       -4.75
  -0.00003231   0.00000000   0.00000000           -4.75        0.00        0.00
   0.00000000  -0.00003231   0.00000000            0.00       -4.75        0.00
   0.00000000   0.00000000  -0.00003231            0.00        0.00       -4.75

     Writing output data file /scratch/VKUSSKZHlShmXJLD.save/

     General routines

     Parallel routines

   This run was terminated on:  15:51:52  25Nov2021

   JOB DONE.