     Program PWSCF v.6.7MaX starts on 25Nov2021 at 23:53:31

     R & G space division:  proc/nbgrp/npool/nimage =      72
     Reading input from scf_16.in
Warning: card &CELL ignored
Warning: card CELL_DYNAMICS = 'BFGS', ignored
Warning: card CELL_FACTOR = 2.0, ignored
Warning: card PRESS = 0.0, ignored
Warning: card / ignored

     Current dimensions of program PWSCF are:
     Max number of different atomic species (ntypx) = 10
     Max number of k-points (npk) =  40000
     Max angular momentum in pseudopotentials (lmaxx) =  3
     file Ru.pbe-spn-kjpaw_psl.1.0.0.UPF: wavefunction(s)  4D renormalized

     Subspace diagonalization in iterative solution of the eigenvalue problem:
     one sub-group per band group will be used

     Found symmetry operation: I + (  0.2500  0.2500  0.0000)
     This is a supercell, fractional translations are disabled
     Message from routine setup:
     using ibrav=0 with symmetry is DISCOURAGED, use correct ibrav instead

     bravais-lattice index     =            0
     lattice parameter (alat)  =      14.4007  a.u.
     unit-cell volume          =    5226.2794 (a.u.)^3
     number of atoms/cell      =           32
     number of atomic types    =            1
     number of electrons       =       512.00
     number of Kohn-Sham states=          307
     kinetic-energy cutoff     =      71.0000  Ry
     charge density cutoff     =     430.0000  Ry
     scf convergence threshold =      1.0E-06
     mixing beta               =       0.1000
     number of iterations used =           10  TF        mixing
     Exchange-correlation= SLA  PW   PBX  PBC
                           (   1   4   3   4   0   0   0)

     celldm(1)=  14.400742  celldm(2)=   0.000000  celldm(3)=   0.000000
     celldm(4)=   0.000000  celldm(5)=   0.000000  celldm(6)=   0.000000

     crystal axes: (cart. coord. in units of alat)
               a(1) = (   1.000000   0.000000   0.000000 )
               a(2) = (   0.000000   1.000000   0.000000 )
               a(3) = (   0.000000   0.000000   1.750000 )

     reciprocal axes: (cart. coord. in units 2 pi/alat)
               b(1) = (  1.000000  0.000000  0.000000 )
               b(2) = (  0.000000  1.000000  0.000000 )
               b(3) = (  0.000000  0.000000  0.571429 )

     PseudoPot. # 1 for Ru read from file:
     /rds/homes/b/bxp912/pp/Ru.pbe-spn-kjpaw_psl.1.0.0.UPF
     MD5 check sum: 0ae1f594dea09af7be8575c3a481d1ae
     Pseudo is Projector augmented-wave + core cor, Zval = 16.0
     Generated using "atomic" code by A. Dal Corso  v.5.1
     Shape of augmentation charge: PSQ
     Using radial grid of 1233 points,  6 beta functions with:
                l(1) =   0
                l(2) =   0
                l(3) =   1
                l(4) =   1
                l(5) =   2
                l(6) =   2
     Q(r) pseudized with 0 coefficients

     atomic species   valence    mass     pseudopotential
        Ru            16.00   101.07000     Ru( 1.00)

      8 Sym. Ops. (no inversion) found

   Cartesian axes

     site n.     atom                  positions (alat units)
         1           Ru  tau(   1) = (   0.0000000   0.0000000   0.0000000  )
         2           Ru  tau(   2) = (   0.2500000   0.2500000   0.0000000  )
         3           Ru  tau(   3) = (   0.2500000   0.0000000   0.2500000  )
         4           Ru  tau(   4) = (   0.0000000   0.2500000   0.2500000  )
         5           Ru  tau(   5) = (   0.0000000   0.0000000   1.2500000  )
         6           Ru  tau(   6) = (   0.2500000   0.2500000   1.2500000  )
         7           Ru  tau(   7) = (   0.2500000   0.0000000   1.5000000  )
         8           Ru  tau(   8) = (   0.0000000   0.2500000   1.5000000  )
         9           Ru  tau(   9) = (   0.0000000   0.5000000   0.0000000  )
        10           Ru  tau(  10) = (   0.2500000   0.7500000   0.0000000  )
        11           Ru  tau(  11) = (   0.2500000   0.5000000   0.2500000  )
        12           Ru  tau(  12) = (   0.0000000   0.7500000   0.2500000  )
        13           Ru  tau(  13) = (   0.0000000   0.5000000   1.2500000  )
        14           Ru  tau(  14) = (   0.2500000   0.7500000   1.2500000  )
        15           Ru  tau(  15) = (   0.2500000   0.5000000   1.5000000  )
        16           Ru  tau(  16) = (   0.0000000   0.7500000   1.5000000  )
        17           Ru  tau(  17) = (   0.5000000   0.0000000   0.0000000  )
        18           Ru  tau(  18) = (   0.7500000   0.2500000   0.0000000  )
        19           Ru  tau(  19) = (   0.7500000   0.0000000   0.2500000  )
        20           Ru  tau(  20) = (   0.5000000   0.2500000   0.2500000  )
        21           Ru  tau(  21) = (   0.5000000   0.0000000   1.2500000  )
        22           Ru  tau(  22) = (   0.7500000   0.2500000   1.2500000  )
        23           Ru  tau(  23) = (   0.7500000   0.0000000   1.5000000  )
        24           Ru  tau(  24) = (   0.5000000   0.2500000   1.5000000  )
        25           Ru  tau(  25) = (   0.5000000   0.5000000   0.0000000  )
        26           Ru  tau(  26) = (   0.7500000   0.7500000   0.0000000  )
        27           Ru  tau(  27) = (   0.7500000   0.5000000   0.2500000  )
        28           Ru  tau(  28) = (   0.5000000   0.7500000   0.2500000  )
        29           Ru  tau(  29) = (   0.5000000   0.5000000   1.2500000  )
        30           Ru  tau(  30) = (   0.7500000   0.7500000   1.2500000  )
        31           Ru  tau(  31) = (   0.7500000   0.5000000   1.5000000  )
        32           Ru  tau(  32) = (   0.5000000   0.7500000   1.5000000  )

     number of k points=    75  Marzari-Vanderbilt smearing, width (Ry)=  0.0400
                       cart. coord. in units 2pi/alat
        k(    1) = (   0.0555556   0.0555556   0.0317460), wk =   0.0219479
        k(    2) = (   0.0555556   0.0555556   0.0952381), wk =   0.0219479
        k(    3) = (   0.0555556   0.0555556   0.1587302), wk =   0.0219479
        k(    4) = (   0.0555556   0.0555556   0.2222222), wk =   0.0219479
        k(    5) = (   0.0555556   0.0555556  -0.2857143), wk =   0.0109739
        k(    6) = (   0.0555556   0.1666667   0.0317460), wk =   0.0438957
        k(    7) = (   0.0555556   0.1666667   0.0952381), wk =   0.0438957
        k(    8) = (   0.0555556   0.1666667   0.1587302), wk =   0.0438957
        k(    9) = (   0.0555556   0.1666667   0.2222222), wk =   0.0438957
        k(   10) = (   0.0555556   0.1666667  -0.2857143), wk =   0.0219479
        k(   11) = (   0.0555556   0.2777778   0.0317460), wk =   0.0438957
        k(   12) = (   0.0555556   0.2777778   0.0952381), wk =   0.0438957
        k(   13) = (   0.0555556   0.2777778   0.1587302), wk =   0.0438957
        k(   14) = (   0.0555556   0.2777778   0.2222222), wk =   0.0438957
        k(   15) = (   0.0555556   0.2777778  -0.2857143), wk =   0.0219479
        k(   16) = (   0.0555556   0.3888889   0.0317460), wk =   0.0438957
        k(   17) = (   0.0555556   0.3888889   0.0952381), wk =   0.0438957
        k(   18) = (   0.0555556   0.3888889   0.1587302), wk =   0.0438957
        k(   19) = (   0.0555556   0.3888889   0.2222222), wk =   0.0438957
        k(   20) = (   0.0555556   0.3888889  -0.2857143), wk =   0.0219479
        k(   21) = (   0.0555556  -0.5000000   0.0317460), wk =   0.0219479
        k(   22) = (   0.0555556  -0.5000000   0.0952381), wk =   0.0219479
        k(   23) = (   0.0555556  -0.5000000   0.1587302), wk =   0.0219479
        k(   24) = (   0.0555556  -0.5000000   0.2222222), wk =   0.0219479
        k(   25) = (   0.0555556  -0.5000000  -0.2857143), wk =   0.0109739
        k(   26) = (   0.1666667   0.1666667   0.0317460), wk =   0.0219479
        k(   27) = (   0.1666667   0.1666667   0.0952381), wk =   0.0219479
        k(   28) = (   0.1666667   0.1666667   0.1587302), wk =   0.0219479
        k(   29) = (   0.1666667   0.1666667   0.2222222), wk =   0.0219479
        k(   30) = (   0.1666667   0.1666667  -0.2857143), wk =   0.0109739
        k(   31) = (   0.1666667   0.2777778   0.0317460), wk =   0.0438957
        k(   32) = (   0.1666667   0.2777778   0.0952381), wk =   0.0438957
        k(   33) = (   0.1666667   0.2777778   0.1587302), wk =   0.0438957
        k(   34) = (   0.1666667   0.2777778   0.2222222), wk =   0.0438957
        k(   35) = (   0.1666667   0.2777778  -0.2857143), wk =   0.0219479
        k(   36) = (   0.1666667   0.3888889   0.0317460), wk =   0.0438957
        k(   37) = (   0.1666667   0.3888889   0.0952381), wk =   0.0438957
        k(   38) = (   0.1666667   0.3888889   0.1587302), wk =   0.0438957
        k(   39) = (   0.1666667   0.3888889   0.2222222), wk =   0.0438957
        k(   40) = (   0.1666667   0.3888889  -0.2857143), wk =   0.0219479
        k(   41) = (   0.1666667  -0.5000000   0.0317460), wk =   0.0219479
        k(   42) = (   0.1666667  -0.5000000   0.0952381), wk =   0.0219479
        k(   43) = (   0.1666667  -0.5000000   0.1587302), wk =   0.0219479
        k(   44) = (   0.1666667  -0.5000000   0.2222222), wk =   0.0219479
        k(   45) = (   0.1666667  -0.5000000  -0.2857143), wk =   0.0109739
        k(   46) = (   0.2777778   0.2777778   0.0317460), wk =   0.0219479
        k(   47) = (   0.2777778   0.2777778   0.0952381), wk =   0.0219479
        k(   48) = (   0.2777778   0.2777778   0.1587302), wk =   0.0219479
        k(   49) = (   0.2777778   0.2777778   0.2222222), wk =   0.0219479
        k(   50) = (   0.2777778   0.2777778  -0.2857143), wk =   0.0109739
        k(   51) = (   0.2777778   0.3888889   0.0317460), wk =   0.0438957
        k(   52) = (   0.2777778   0.3888889   0.0952381), wk =   0.0438957
        k(   53) = (   0.2777778   0.3888889   0.1587302), wk =   0.0438957
        k(   54) = (   0.2777778   0.3888889   0.2222222), wk =   0.0438957
        k(   55) = (   0.2777778   0.3888889  -0.2857143), wk =   0.0219479
        k(   56) = (   0.2777778  -0.5000000   0.0317460), wk =   0.0219479
        k(   57) = (   0.2777778  -0.5000000   0.0952381), wk =   0.0219479
        k(   58) = (   0.2777778  -0.5000000   0.1587302), wk =   0.0219479
        k(   59) = (   0.2777778  -0.5000000   0.2222222), wk =   0.0219479
        k(   60) = (   0.2777778  -0.5000000  -0.2857143), wk =   0.0109739
        k(   61) = (   0.3888889   0.3888889   0.0317460), wk =   0.0219479
        k(   62) = (   0.3888889   0.3888889   0.0952381), wk =   0.0219479
        k(   63) = (   0.3888889   0.3888889   0.1587302), wk =   0.0219479
        k(   64) = (   0.3888889   0.3888889   0.2222222), wk =   0.0219479
        k(   65) = (   0.3888889   0.3888889  -0.2857143), wk =   0.0109739
        k(   66) = (   0.3888889  -0.5000000   0.0317460), wk =   0.0219479
        k(   67) = (   0.3888889  -0.5000000   0.0952381), wk =   0.0219479
        k(   68) = (   0.3888889  -0.5000000   0.1587302), wk =   0.0219479
        k(   69) = (   0.3888889  -0.5000000   0.2222222), wk =   0.0219479
        k(   70) = (   0.3888889  -0.5000000  -0.2857143), wk =   0.0109739
        k(   71) = (  -0.5000000  -0.5000000   0.0317460), wk =   0.0054870
        k(   72) = (  -0.5000000  -0.5000000   0.0952381), wk =   0.0054870
        k(   73) = (  -0.5000000  -0.5000000   0.1587302), wk =   0.0054870
        k(   74) = (  -0.5000000  -0.5000000   0.2222222), wk =   0.0054870
        k(   75) = (  -0.5000000  -0.5000000  -0.2857143), wk =   0.0027435

     Check: negative core charge=   -0.000002

     Initial potential from superposition of free atoms

     starting charge  511.97959, renormalised to  512.00000
     Starting wfcs are  320 randomized atomic wfcs
     Checking if some PAW data can be deallocated...

     Self-consistent Calculation

     iteration #  1     ecut=    71.00 Ry     beta= 0.10
     Davidson diagonalization with overlap
     ethr =  1.00E-02,  avg # of iterations =  4.2

     total energy              =  -13812.50012211 Ry
     estimated scf accuracy    <      11.73070552 Ry

[...]

     negative rho (up, down):  5.023E-02 0.000E+00

[...]

     total energy              =  -13811.65367752 Ry
     estimated scf accuracy    <       0.00000293 Ry

     iteration # 35     ecut=    71.00 Ry     beta= 0.10
     Davidson diagonalization with overlap
     ethr =  5.73E-10,  avg # of iterations =  3.7

[...]

     End of self-consistent calculation

          k = 0.0556 0.0556 0.0317 ( 52796 PWs)   bands (ev):

   -61.8259 -61.7467 -61.7467 -61.7317 -61.7317 -61.7170 -61.7147 -61.7090
   -61.7088 -61.7049 -61.6864 -61.6863 -61.6809 -61.6809 -61.6548 -61.6547
   -61.2982 -61.2966 -61.2519 -61.2518 -61.2516 -61.2516 -61.2489 -61.2488
   -61.2481 -61.2480 -61.2428 -61.2428 -61.2426 -61.2426 -61.1941 -61.1941
   -32.1469 -32.1462 -32.1462 -32.1409 -32.1105 -32.1105 -32.0402 -31.9391
   -31.9391 -31.9374 -31.9374 -31.8922 -31.8922 -31.8652 -31.8652 -31.8496
   -31.8496 -31.8395 -31.8395 -31.8047 -31.8047 -31.7635 -31.7585 -31.7585
   -31.7500 -31.7306 -31.7306 -31.7024 -31.7024 -31.6553 -31.6394 -31.6394
   -31.6291 -31.6290 -31.5991 -31.5990 -31.5682 -31.5670 -31.5131 -31.5131
   -31.5033 -31.5033 -31.4589 -31.4589 -31.4337 -31.4337 -31.4247 -31.4213
   -31.4213 -31.4087 -31.4009 -31.3988 -31.3943 -31.3851 -31.3851 -31.3710
   -31.2712 -31.2712 -31.2673 -31.2673 -31.2400 -31.2400 -31.2310 -31.2310
   -31.2304 -31.2304 -31.2302 -31.2302 -31.1965 -31.1965 -31.1940 -31.1940
   -31.1819 -31.1462 -31.1434 -31.1433 -31.1415 -31.1415 -31.1366 -31.1327
   -31.1327 -31.1255 -31.1255 -31.1177 -31.1177 -31.1121 -31.1121 -31.1068
   -31.0131 -31.0099 -31.0068 -31.0025 -30.9828 -30.9828 -30.9792 -30.9792
     4.1093   5.3372   5.4866   5.4866   5.7615   5.7736   5.7788   5.7795
     5.7795   5.8037   5.9865   5.9865   6.2288   6.2288   6.3043   6.4076
     6.4076   6.6709   6.6709   6.6922   6.8464   6.8464   6.8811   6.8811
     7.0398   7.0399   7.0764   7.0929   7.1031   7.1031   7.1502   7.1502
     7.3719   7.3719   7.4082   7.4082   7.4317   7.4317   7.4811   7.4811
     7.6242   7.6242   7.7039   7.7039   7.7394   7.8409   7.8409   7.8503
     7.8503   8.1028   8.1029   8.1232   8.1440   8.1440   8.1483   8.1483
     8.2330   8.2330   8.3769   8.4058   8.4058   8.4545   8.5602   8.5775
     8.5776   8.6078   8.6427   8.6427   8.7979   8.7979   8.9039   8.9039
     8.9529   8.9530   8.9697   8.9779   9.0936   9.1133   9.2691   9.2791
     9.2791   9.3291   9.5642   9.5642   9.6370   9.6370   9.6529   9.6529
     9.7626   9.7626   9.9028   9.9029   9.9087   9.9087   9.9137   9.9292
     9.9292  10.0043  10.0308  10.0506  10.0809  10.0809  10.2595  10.2595
    10.2721  10.3153  10.3153  10.3883  10.3883  10.4137  10.5071  10.5071
    10.5831  10.5831  10.6898  10.6898  10.6955  10.6955  10.7322  10.8495
    10.8495  10.8816  10.8817  11.0090  11.0090  11.2654  11.2654  11.2655
    11.2915  11.2915  11.3395  11.4408  11.5499  11.5499  11.5663  11.5817
    11.6102  11.6102  11.6121  11.6121  11.6600  11.7718  11.7718  11.7888
    11.8101  11.8101  11.9518  11.9874  11.9874  12.3164  12.3390  12.3390
    12.4798  12.4867  12.4867  12.5429  12.6094  12.7295  12.7334  12.7334
    12.7769  12.7966  12.7966  12.8077  12.8077  12.9554  13.1548  13.2020
    13.2020  13.2917  13.2917  13.5677  13.5677  13.5794  13.7059  13.7059
    13.7746  14.4817  14.4820

[...]

          k = 0.3889-0.5000-0.2857 ( 52744 PWs)   bands (ev):

[...]

          k =-0.5000-0.5000 0.0317 ( 52848 PWs)   bands (ev):

[...]

          k =-0.5000-0.5000-0.2857 ( 52800 PWs)   bands (ev):

   -61.7798 -61.7798 -61.7798 -61.7798 -61.7016 -61.7016 -61.7016 -61.7016
   -61.6820 -61.6820 -61.6820 -61.6819 -61.6819 -61.6818 -61.6818 -61.6818
   -61.2735 -61.2735 -61.2734 -61.2734 -61.2729 -61.2729 -61.2729 -61.2729
   -61.2212 -61.2212 -61.2212 -61.2212 -61.2211 -61.2211 -61.2211 -61.2211
   -32.0796 -32.0796 -32.0796 -32.0796 -32.0796 -32.0796 -32.0795 -32.0795
   -31.9975 -31.9975 -31.9975 -31.9975 -31.9245 -31.9245 -31.9245 -31.9245
   -31.7836 -31.7836 -31.7836 -31.7835 -31.7835 -31.7835 -31.7835 -31.7835
   -31.6841 -31.6841 -31.6841 -31.6841 -31.6047 -31.6047 -31.6047 -31.6047
   -31.6047 -31.6047 -31.6046 -31.6046 -31.5841 -31.5841 -31.5841 -31.5841
   -31.5124 -31.5124 -31.5124 -31.5124 -31.4016 -31.4016 -31.4016 -31.4016
   -31.4016 -31.4016 -31.4016 -31.4016 -31.3858 -31.3858 -31.3858 -31.3858
   -31.2620 -31.2620 -31.2620 -31.2620 -31.2287 -31.2287 -31.2287 -31.2287
   -31.2286 -31.2286 -31.2286 -31.2286 -31.2267 -31.2267 -31.2267 -31.2267
   -31.1393 -31.1393 -31.1393 -31.1393 -31.1392 -31.1392 -31.1392 -31.1392
   -31.1252 -31.1251 -31.1251 -31.1251 -31.1237 -31.1237 -31.1237 -31.1237
   -30.9940 -30.9940 -30.9940 -30.9940 -30.9913 -30.9913 -30.9913 -30.9913
     5.3544   5.3544   5.3545   5.3545   5.9584   5.9584   5.9585   5.9585
     6.3813   6.3813   6.3813   6.3813   6.3813   6.3813   6.3813   6.3813
     6.4628   6.4628   6.4628   6.4628   6.5297   6.5297   6.5297   6.5297
     6.5298   6.5298   6.5298   6.5298   6.6799   6.6799   6.6799   6.6799
     7.1029   7.1029   7.1029   7.1029   7.4704   7.4704   7.4704   7.4704
     7.4704   7.4704   7.4704   7.4704   7.8200   7.8200   7.8200   7.8201
     7.8201   7.8201   7.8201   7.8201   8.0976   8.0976   8.0976   8.0976
     8.5151   8.5151   8.5151   8.5151   8.9896   8.9896   8.9896   8.9896
     9.0118   9.0118   9.0118   9.0118   9.0853   9.0853   9.0853   9.0853
     9.3091   9.3091   9.3091   9.3091   9.3407   9.3407   9.3407   9.3407
     9.3407   9.3407   9.3407   9.3407   9.5233   9.5233   9.5233   9.5233
     9.5824   9.5824   9.5824   9.5824   9.8000   9.8000   9.8000   9.8000
    10.1626  10.1627  10.1627  10.1627  10.1627  10.1627  10.1627  10.1627
    10.2886  10.2886  10.2886  10.2886  10.2886  10.2886  10.2886  10.2886
    10.4322  10.4322  10.4322  10.4322  10.8052  10.8052  10.8052  10.8052
    10.9086  10.9086  10.9086  10.9086  11.0106  11.0106  11.0106  11.0106
    11.0106  11.0106  11.0106  11.0106  11.2117  11.2117  11.2117  11.2117
    11.6135  11.6135  11.6135  11.6135  11.9239  11.9239  11.9239  11.9239
    12.0872  12.0872  12.0872  12.0872  12.0873  12.0873  12.0873  12.0873
    12.4841  12.4841  12.4841  12.4841  12.6913  12.6913  12.6913  12.6913
    12.8377  12.8377  12.8377  12.8377  12.8378  12.8378  12.8378  12.8378
    12.9002  12.9002  12.9003  12.9003  14.6251  14.6254  14.6254  14.6254
    15.8209  15.8209  15.8209

     the Fermi energy is    11.2554 ev

!    total energy              =  -13811.65367879 Ry

     total all-electron energy =   -289988.044018 Ry
     estimated scf accuracy    <       0.00000053 Ry
     smearing contrib. (-TS)   =      -0.00323222 Ry
     internal energy E=F+TS    =  -13811.65044657 Ry

     The total energy is F=E-TS. E is the sum of the following terms:
     one-electron contribution =  -13896.69573994 Ry
     hartree contribution      =    7145.80592840 Ry
     xc contribution           =    -925.65664517 Ry
     ewald contribution        =    1454.23034548 Ry
     one-center paw contrib.   =   -7589.33433533 Ry

     convergence has been achieved in  35 iterations

     negative rho (up, down):  4.532E-07 0.000E+00

     Forces acting on atoms (cartesian axes, Ry/au):

     atom    1 type  1   force =     0.00000000    0.00000000    0.03834201
     atom    2 type  1   force =    -0.00001460   -0.00001460    0.03841865
     atom    3 type  1   force =    -0.00004525    0.00000000   -0.03280382
     atom    4 type  1   force =     0.00000000   -0.00004525   -0.03280382
     atom    5 type  1   force =     0.00000000    0.00000000    0.03281007
     atom    6 type  1   force =    -0.00000230   -0.00000230    0.03280872
     atom    7 type  1   force =    -0.00004595    0.00000000   -0.03841268
     atom    8 type  1   force =     0.00000000   -0.00004595   -0.03841268
     atom    9 type  1   force =     0.00000000    0.00000000    0.03842100
     atom   10 type  1   force =    -0.00001460    0.00001460    0.03841865
     atom   11 type  1   force =     0.00002653    0.00000000   -0.03281051
     atom   12 type  1   force =     0.00000000    0.00004525   -0.03280382
     atom   13 type  1   force =     0.00000000    0.00000000    0.03280359
     atom   14 type  1   force =    -0.00000230    0.00000230    0.03280872
     atom   15 type  1   force =     0.00005054    0.00000000   -0.03842406
     atom   16 type  1   force =     0.00000000    0.00004595   -0.03841268
     atom   17 type  1   force =     0.00000000    0.00000000    0.03842100
     atom   18 type  1   force =     0.00001460   -0.00001460    0.03841865
     atom   19 type  1   force =     0.00004525   -0.00000000   -0.03280382
     atom   20 type  1   force =     0.00000000    0.00002653   -0.03281051
     atom   21 type  1   force =     0.00000000    0.00000000    0.03280359
     atom   22 type  1   force =     0.00000230   -0.00000230    0.03280872
     atom   23 type  1   force =     0.00004595    0.00000000   -0.03841268
     atom   24 type  1   force =     0.00000000    0.00005054   -0.03842406
     atom   25 type  1   force =     0.00000000    0.00000000    0.03835622
     atom   26 type  1   force =     0.00001460    0.00001460    0.03841865
     atom   27 type  1   force =    -0.00002653    0.00000000   -0.03281051
     atom   28 type  1   force =     0.00000000   -0.00002653   -0.03281051
     atom   29 type  1   force =     0.00000000    0.00000000    0.03293736
     atom   30 type  1   force =     0.00000230    0.00000230    0.03280872
     atom   31 type  1   force =    -0.00005054    0.00000000   -0.03842406
     atom   32 type  1   force =     0.00000000   -0.00005054   -0.03842406

     Total force =     0.202077     Total SCF correction =     0.006068

     Computing stress (Cartesian axis) and pressure

     negative rho (up, down):  4.532E-07 0.000E+00
          total   stress  (Ry/bohr**3)                   (kbar)     P=      -71.23
  -0.00054269   0.00000000   0.00000000          -79.83        0.00        0.00
   0.00000000  -0.00054269   0.00000000            0.00      -79.83        0.00
   0.00000000   0.00000000  -0.00036719            0.00        0.00      -54.02

     Writing output data file /scratch/hFZFqATGZrxdpwXL.save/

     General routines

     Parallel routines

   This run was terminated on:   0:51:38  26Nov2021

   JOB DONE.