     Program PWSCF v.6.7MaX starts on 25Nov2021 at 19:49:52

     R & G space division:  proc/nbgrp/npool/nimage =      72
     Reading input from scf_10.in
Warning: card &CELL ignored
Warning: card CELL_DYNAMICS = 'BFGS', ignored
Warning: card CELL_FACTOR = 2.0, ignored
Warning: card PRESS = 0.0, ignored
Warning: card / ignored

     Current dimensions of program PWSCF are:
     Max number of different atomic species (ntypx) = 10
     Max number of k-points (npk) =  40000
     Max angular momentum in pseudopotentials (lmaxx) =  3
     file Ru.pbe-spn-kjpaw_psl.1.0.0.UPF: wavefunction(s)  4D renormalized

     Subspace diagonalization in iterative solution of the eigenvalue problem:
     one sub-group per band group will be used

     Found symmetry operation: I + (  0.2500  0.2500  0.0000)
     This is a supercell, fractional translations are disabled
     Message from routine setup:
     using ibrav=0 with symmetry is DISCOURAGED, use correct ibrav instead

     bravais-lattice index     =            0
     lattice parameter (alat)  =      14.4007  a.u.
     unit-cell volume          =    4330.3458 (a.u.)^3
     number of atoms/cell      =           32
     number of atomic types    =            1
     number of electrons       =       512.00
     number of Kohn-Sham states=          307
     kinetic-energy cutoff     =      71.0000  Ry
     charge density cutoff     =     430.0000  Ry
     scf convergence threshold =      1.0E-06
     mixing beta               =       0.1000
     number of iterations used =           10  TF        mixing
     Exchange-correlation= SLA  PW   PBX  PBC
                           (   1   4   3   4   0   0   0)

     celldm(1)=  14.400742  celldm(2)=   0.000000  celldm(3)=   0.000000
     celldm(4)=   0.000000  celldm(5)=   0.000000  celldm(6)=   0.000000

     crystal axes: (cart. coord. in units of alat)
               a(1) = (   1.000000   0.000000   0.000000 )
               a(2) = (   0.000000   1.000000   0.000000 )
               a(3) = (   0.000000   0.000000   1.450000 )

     reciprocal axes: (cart. coord. in units 2 pi/alat)
               b(1) = (  1.000000  0.000000  0.000000 )
               b(2) = (  0.000000  1.000000  0.000000 )
               b(3) = (  0.000000  0.000000  0.689655 )

     PseudoPot. # 1 for Ru read from file:
     /rds/homes/b/bxp912/pp/Ru.pbe-spn-kjpaw_psl.1.0.0.UPF
     MD5 check sum: 0ae1f594dea09af7be8575c3a481d1ae
     Pseudo is Projector augmented-wave + core cor, Zval = 16.0
     Generated using "atomic" code by A. Dal Corso  v.5.1
     Shape of augmentation charge: PSQ
     Using radial grid of 1233 points,  6 beta functions with:
                l(1) =   0
                l(2) =   0
                l(3) =   1
                l(4) =   1
                l(5) =   2
                l(6) =   2
     Q(r) pseudized with 0 coefficients

     atomic species   valence    mass     pseudopotential
        Ru            16.00   101.07000     Ru( 1.00)

      8 Sym. Ops. (no inversion) found

   Cartesian axes

     site n.     atom                  positions (alat units)
         1           Ru  tau(   1) = (   0.0000000   0.0000000   0.0000000  )
         2           Ru  tau(   2) = (   0.2500000   0.2500000   0.0000000  )
         3           Ru  tau(   3) = (   0.2500000   0.0000000   0.2500000  )
         4           Ru  tau(   4) = (   0.0000000   0.2500000   0.2500000  )
         5           Ru  tau(   5) = (   0.0000000   0.0000000   0.9500000  )
         6           Ru  tau(   6) = (   0.2500000   0.2500000   0.9500000  )
         7           Ru  tau(   7) = (   0.2500000   0.0000000   1.2000000  )
         8           Ru  tau(   8) = (   0.0000000   0.2500000   1.2000000  )
         9           Ru  tau(   9) = (   0.0000000   0.5000000   0.0000000  )
        10           Ru  tau(  10) = (   0.2500000   0.7500000   0.0000000  )
        11           Ru  tau(  11) = (   0.2500000   0.5000000   0.2500000  )
        12           Ru  tau(  12) = (   0.0000000   0.7500000   0.2500000  )
        13           Ru  tau(  13) = (   0.0000000   0.5000000   0.9500000  )
        14           Ru  tau(  14) = (   0.2500000   0.7500000   0.9500000  )
        15           Ru  tau(  15) = (   0.2500000   0.5000000   1.2000000  )
        16           Ru  tau(  16) = (   0.0000000   0.7500000   1.2000000  )
        17           Ru  tau(  17) = (   0.5000000   0.0000000   0.0000000  )
        18           Ru  tau(  18) = (   0.7500000   0.2500000   0.0000000  )
        19           Ru  tau(  19) = (   0.7500000   0.0000000   0.2500000  )
        20           Ru  tau(  20) = (   0.5000000   0.2500000   0.2500000  )
        21           Ru  tau(  21) = (   0.5000000   0.0000000   0.9500000  )
        22           Ru  tau(  22) = (   0.7500000   0.2500000   0.9500000  )
        23           Ru  tau(  23) = (   0.7500000   0.0000000   1.2000000  )
        24           Ru  tau(  24) = (   0.5000000   0.2500000   1.2000000  )
        25           Ru  tau(  25) = (   0.5000000   0.5000000   0.0000000  )
        26           Ru  tau(  26) = (   0.7500000   0.7500000   0.0000000  )
        27           Ru  tau(  27) = (   0.7500000   0.5000000   0.2500000  )
        28           Ru  tau(  28) = (   0.5000000   0.7500000   0.2500000  )
        29           Ru  tau(  29) = (   0.5000000   0.5000000   0.9500000  )
        30           Ru  tau(  30) = (   0.7500000   0.7500000   0.9500000  )
        31           Ru  tau(  31) = (   0.7500000   0.5000000   1.2000000  )
        32           Ru  tau(  32) = (   0.5000000   0.7500000   1.2000000  )

     number of k points=    75  Marzari-Vanderbilt smearing, width (Ry)=  0.0400
                       cart. coord. in units 2pi/alat
        k(    1) = (   0.0555556   0.0555556   0.0383142), wk =   0.0219479
        k(    2) = (   0.0555556   0.0555556   0.1149425), wk =   0.0219479
        k(    3) = (   0.0555556   0.0555556   0.1915709), wk =   0.0219479
        k(    4) = (   0.0555556   0.0555556   0.2681992), wk =   0.0219479
        k(    5) = (   0.0555556   0.0555556  -0.3448276), wk =   0.0109739
        k(    6) = (   0.0555556   0.1666667   0.0383142), wk =   0.0438957
        k(    7) = (   0.0555556   0.1666667   0.1149425), wk =   0.0438957
        k(    8) = (   0.0555556   0.1666667   0.1915709), wk =   0.0438957
        k(    9) = (   0.0555556   0.1666667   0.2681992), wk =   0.0438957
        k(   10) = (   0.0555556   0.1666667  -0.3448276), wk =   0.0219479
        k(   11) = (   0.0555556   0.2777778   0.0383142), wk =   0.0438957
        k(   12) = (   0.0555556   0.2777778   0.1149425), wk =   0.0438957
        k(   13) = (   0.0555556   0.2777778   0.1915709), wk =   0.0438957
        k(   14) = (   0.0555556   0.2777778   0.2681992), wk =   0.0438957
        k(   15) = (   0.0555556   0.2777778  -0.3448276), wk =   0.0219479
        k(   16) = (   0.0555556   0.3888889   0.0383142), wk =   0.0438957
        k(   17) = (   0.0555556   0.3888889   0.1149425), wk =   0.0438957
        k(   18) = (   0.0555556   0.3888889   0.1915709), wk =   0.0438957
        k(   19) = (   0.0555556   0.3888889   0.2681992), wk =   0.0438957
        k(   20) = (   0.0555556   0.3888889  -0.3448276), wk =   0.0219479
        k(   21) = (   0.0555556  -0.5000000   0.0383142), wk =   0.0219479
        k(   22) = (   0.0555556  -0.5000000   0.1149425), wk =   0.0219479
        k(   23) = (   0.0555556  -0.5000000   0.1915709), wk =   0.0219479
        k(   24) = (   0.0555556  -0.5000000   0.2681992), wk =   0.0219479
        k(   25) = (   0.0555556  -0.5000000  -0.3448276), wk =   0.0109739
        k(   26) = (   0.1666667   0.1666667   0.0383142), wk =   0.0219479
        k(   27) = (   0.1666667   0.1666667   0.1149425), wk =   0.0219479
        k(   28) = (   0.1666667   0.1666667   0.1915709), wk =   0.0219479
        k(   29) = (   0.1666667   0.1666667   0.2681992), wk =   0.0219479
        k(   30) = (   0.1666667   0.1666667  -0.3448276), wk =   0.0109739
        k(   31) = (   0.1666667   0.2777778   0.0383142), wk =   0.0438957
        k(   32) = (   0.1666667   0.2777778   0.1149425), wk =   0.0438957
        k(   33) = (   0.1666667   0.2777778   0.1915709), wk =   0.0438957
        k(   34) = (   0.1666667   0.2777778   0.2681992), wk =   0.0438957
        k(   35) = (   0.1666667   0.2777778  -0.3448276), wk =   0.0219479
        k(   36) = (   0.1666667   0.3888889   0.0383142), wk =   0.0438957
        k(   37) = (   0.1666667   0.3888889   0.1149425), wk =   0.0438957
        k(   38) = (   0.1666667   0.3888889   0.1915709), wk =   0.0438957
        k(   39) = (   0.1666667   0.3888889   0.2681992), wk =   0.0438957
        k(   40) = (   0.1666667   0.3888889  -0.3448276), wk =   0.0219479
        k(   41) = (   0.1666667  -0.5000000   0.0383142), wk =   0.0219479
        k(   42) = (   0.1666667  -0.5000000   0.1149425), wk =   0.0219479
        k(   43) = (   0.1666667  -0.5000000   0.1915709), wk =   0.0219479
        k(   44) = (   0.1666667  -0.5000000   0.2681992), wk =   0.0219479
        k(   45) = (   0.1666667  -0.5000000  -0.3448276), wk =   0.0109739
        k(   46) = (   0.2777778   0.2777778   0.0383142), wk =   0.0219479
        k(   47) = (   0.2777778   0.2777778   0.1149425), wk =   0.0219479
        k(   48) = (   0.2777778   0.2777778   0.1915709), wk =   0.0219479
        k(   49) = (   0.2777778   0.2777778   0.2681992), wk =   0.0219479
        k(   50) = (   0.2777778   0.2777778  -0.3448276), wk =   0.0109739
        k(   51) = (   0.2777778   0.3888889   0.0383142), wk =   0.0438957
        k(   52) = (   0.2777778   0.3888889   0.1149425), wk =   0.0438957
        k(   53) = (   0.2777778   0.3888889   0.1915709), wk =   0.0438957
        k(   54) = (   0.2777778   0.3888889   0.2681992), wk =   0.0438957
        k(   55) = (   0.2777778   0.3888889  -0.3448276), wk =   0.0219479
        k(   56) = (   0.2777778  -0.5000000   0.0383142), wk =   0.0219479
        k(   57) = (   0.2777778  -0.5000000   0.1149425), wk =   0.0219479
        k(   58) = (   0.2777778  -0.5000000   0.1915709), wk =   0.0219479
        k(   59) = (   0.2777778  -0.5000000   0.2681992), wk =   0.0219479
        k(   60) = (   0.2777778  -0.5000000  -0.3448276), wk =   0.0109739
        k(   61) = (   0.3888889   0.3888889   0.0383142), wk =   0.0219479
        k(   62) = (   0.3888889   0.3888889   0.1149425), wk =   0.0219479
        k(   63) = (   0.3888889   0.3888889   0.1915709), wk =   0.0219479
        k(   64) = (   0.3888889   0.3888889   0.2681992), wk =   0.0219479
        k(   65) = (   0.3888889   0.3888889  -0.3448276), wk =   0.0109739
        k(   66) = (   0.3888889  -0.5000000   0.0383142), wk =   0.0219479
        k(   67) = (   0.3888889  -0.5000000   0.1149425), wk =   0.0219479
        k(   68) = (   0.3888889  -0.5000000   0.1915709), wk =   0.0219479
        k(   69) = (   0.3888889  -0.5000000   0.2681992), wk =   0.0219479
        k(   70) = (   0.3888889  -0.5000000  -0.3448276), wk =   0.0109739
        k(   71) = (  -0.5000000  -0.5000000   0.0383142), wk =   0.0054870
        k(   72) = (  -0.5000000  -0.5000000   0.1149425), wk =   0.0054870
        k(   73) = (  -0.5000000  -0.5000000   0.1915709), wk =   0.0054870
        k(   74) = (  -0.5000000  -0.5000000   0.2681992), wk =   0.0054870
        k(   75) = (  -0.5000000  -0.5000000  -0.3448276), wk =   0.0027435

     Check: negative core charge=   -0.000002

     Initial potential from superposition of free atoms

     starting charge  511.97959, renormalised to  512.00000
     Starting wfcs are  320 randomized atomic wfcs
     Checking if some PAW data can be deallocated...

     Self-consistent Calculation

     iteration #  1     ecut=    71.00 Ry     beta= 0.10
     Davidson diagonalization with overlap
     ethr =  1.00E-02,  avg # of iterations =  3.6

     total energy              =  -13812.51595135 Ry
     estimated scf accuracy    <      11.75957317 Ry

[...]

     total energy              =  -13811.66908817 Ry
     estimated scf accuracy    <       0.00000198 Ry

     iteration # 23     ecut=    71.00 Ry     beta= 0.10
     Davidson diagonalization with overlap
     ethr =  3.87E-10,  avg # of iterations =  3.4

     End of self-consistent calculation

          k = 0.0556 0.0556 0.0383 ( 43752 PWs)   bands (ev):

   -58.5093 -58.4300 -58.4300 -58.4150 -58.4150 -58.4004 -58.3980 -58.3922
   -58.3922 -58.3882 -58.3696 -58.3696 -58.3642 -58.3642 -58.3381 -58.3381
   -57.9864 -57.9848 -57.9400 -57.9400 -57.9398 -57.9398 -57.9371 -57.9370
   -57.9363 -57.9363 -57.9310 -57.9310 -57.9308 -57.9308 -57.8824 -57.8823
   -28.8304 -28.8298 -28.8298 -28.8244 -28.7939 -28.7939 -28.7240 -28.6225
   -28.6225 -28.6208 -28.6208 -28.5758 -28.5758 -28.5489 -28.5489 -28.5334
   -28.5334 -28.5231 -28.5231 -28.4882 -28.4882 -28.4483 -28.4434 -28.4434
   -28.4350 -28.4147 -28.4147 -28.3866 -28.3866 -28.3403 -28.3230 -28.3230
   -28.3124 -28.3124 -28.2826 -28.2826 -28.2516 -28.2505 -28.1968 -28.1968
   -28.1870 -28.1870 -28.1456 -28.1456 -28.1201 -28.1201 -28.1079 -28.1046
   -28.1046 -28.0919 -28.0845 -28.0844 -28.0777 -28.0705 -28.0705 -28.0563
   -27.9581 -27.9581 -27.9540 -27.9540 -27.9271 -27.9271 -27.9178 -27.9178
   -27.9172 -27.9172 -27.9170 -27.9170 -27.8838 -27.8838 -27.8809 -27.8809
   -27.8713 -27.8356 -27.8334 -27.8334 -27.8309 -27.8309 -27.8259 -27.8218
   -27.8218 -27.8140 -27.8140 -27.8065 -27.8065 -27.8007 -27.8007 -27.7951
   -27.7000 -27.6968 -27.6936 -27.6892 -27.6698 -27.6698 -27.6662 -27.6662
     7.4228   8.6552   8.8027   8.8027   9.0773   9.0895   9.0952   9.0953
     9.0953   9.1323   9.3026   9.3026   9.5438   9.5438   9.6147   9.7228
     9.7228   9.9872   9.9872  10.0080  10.1627  10.1627  10.1973  10.1973
    10.3562  10.3562  10.3953  10.4111  10.4218  10.4218  10.4680  10.4680
    10.6880  10.6880  10.7252  10.7252  10.7486  10.7486  10.7983  10.7983
    10.9386  10.9386  11.0207  11.0207  11.0542  11.1569  11.1569  11.1663
    11.1663  11.4197  11.4197  11.4411  11.4594  11.4594  11.4640  11.4640
    11.5503  11.5503  11.6937  11.7300  11.7300  11.7705  11.8761  11.8932
    11.8932  11.9234  11.9710  11.9710  12.1011  12.1011  12.2038  12.2038
    12.2680  12.2680  12.2859  12.2941  12.4103  12.4294  12.5676  12.5826
    12.5826  12.6332  12.8754  12.8754  12.9519  12.9519  12.9698  12.9698
    13.1089  13.1089  13.1351  13.2201  13.2201  13.2418  13.2418  13.2571
    13.2571  13.3281  13.3460  13.3658  13.3955  13.3955  13.5456  13.5456
    13.5874  13.6292  13.6292  13.6570  13.6731  13.6731  13.8204  13.8204
    13.8804  13.8804  14.0031  14.0031  14.0111  14.0111  14.0482  14.1801
    14.1801  14.2166  14.2166  14.3150  14.3150  14.5781  14.5782  14.5819
    14.6356  14.6356  14.6820  14.8073  14.8633  14.8633  14.8749  14.8749
    14.8960  14.9240  14.9240  14.9557  14.9741  15.0381  15.0381  15.1029
    15.1316  15.1316  15.2666  15.3122  15.3122  15.6582  15.6582  15.7942
    15.7977  15.7977  15.8586  15.9247  15.9684  16.0922  16.1141  16.1141
    16.1181  16.1250  16.1250  16.1761  16.1761  16.2713  16.4331  16.6083
    16.6083  16.6378  16.6378  16.8077  16.8299  16.8299  17.0195  17.0195
    17.0425  17.6378  17.6378

[...]

          k = 0.3889-0.5000-0.3448 ( 43752 PWs)   bands (ev):

[...]

          k =-0.5000-0.5000 0.0383 ( 43700 PWs)   bands (ev):

[...]

          k =-0.5000-0.5000-0.3448 ( 43784 PWs)   bands (ev):

   -58.4631 -58.4631 -58.4631 -58.4631 -58.3850 -58.3850 -58.3850 -58.3850
   -58.3652 -58.3652 -58.3652 -58.3652 -58.3652 -58.3652 -58.3652 -58.3652
   -57.9616 -57.9616 -57.9616 -57.9616 -57.9611 -57.9611 -57.9611 -57.9611
   -57.9094 -57.9094 -57.9094 -57.9094 -57.9094 -57.9094 -57.9094 -57.9094
   -28.7630 -28.7630 -28.7630 -28.7630 -28.7630 -28.7630 -28.7630 -28.7630
   -28.6811 -28.6811 -28.6811 -28.6811 -28.6084 -28.6084 -28.6084 -28.6084
   -28.4679 -28.4679 -28.4679 -28.4679 -28.4679 -28.4679 -28.4679 -28.4679
   -28.3683 -28.3683 -28.3683 -28.3683 -28.2882 -28.2882 -28.2882 -28.2882
   -28.2882 -28.2882 -28.2882 -28.2882 -28.2684 -28.2684 -28.2684 -28.2684
   -28.1956 -28.1956 -28.1956 -28.1956 -28.0873 -28.0873 -28.0873 -28.0873
   -28.0873 -28.0873 -28.0873 -28.0873 -28.0691 -28.0691 -28.0691 -28.0691
   -27.9488 -27.9488 -27.9488 -27.9488 -27.9158 -27.9158 -27.9158 -27.9158
   -27.9157 -27.9157 -27.9157 -27.9157 -27.9139 -27.9139 -27.9139 -27.9139
   -27.8288 -27.8288 -27.8288 -27.8288 -27.8288 -27.8288 -27.8288 -27.8288
   -27.8133 -27.8133 -27.8133 -27.8133 -27.8126 -27.8126 -27.8126 -27.8126
   -27.6809 -27.6809 -27.6809 -27.6809 -27.6781 -27.6781 -27.6781 -27.6781
     8.6716   8.6716   8.6716   8.6716   9.2738   9.2738   9.2738   9.2738
     9.6975   9.6975   9.6975   9.6975   9.6975   9.6975   9.6975   9.6975
     9.7747   9.7747   9.7747   9.7747   9.8457   9.8457   9.8457   9.8457
     9.8457   9.8457   9.8457   9.8457  10.0015  10.0015  10.0015  10.0015
    10.4172  10.4172  10.4172  10.4172  10.7881  10.7881  10.7881  10.7881
    10.7881  10.7881  10.7881  10.7881  11.1348  11.1348  11.1348  11.1348
    11.1348  11.1348  11.1348  11.1348  11.4153  11.4153  11.4153  11.4153
    11.8298  11.8299  11.8299  11.8299  12.2929  12.2929  12.2929  12.2929
    12.3355  12.3355  12.3355  12.3355  12.4212  12.4212  12.4212  12.4212
    12.6254  12.6254  12.6254  12.6254  12.6565  12.6565  12.6565  12.6565
    12.6565  12.6565  12.6565  12.6565  12.8131  12.8131  12.8131  12.8131
    12.8982  12.8982  12.8982  12.8982  13.1288  13.1288  13.1288  13.1288
    13.4769  13.4769  13.4769  13.4769  13.4769  13.4769  13.4769  13.4769
    13.6121  13.6121  13.6121  13.6121  13.6121  13.6121  13.6121  13.6121
    13.7476  13.7476  13.7476  13.7476  14.0899  14.0899  14.0899  14.0899
    14.1204  14.1204  14.1204  14.1204  14.3055  14.3055  14.3055  14.3055
    14.3055  14.3055  14.3055  14.3055  14.5820  14.5820  14.5820  14.5820
    14.9280  14.9280  14.9280  14.9280  15.2378  15.2379  15.2379  15.2379
    15.4219  15.4219  15.4219  15.4219  15.4219  15.4219  15.4219  15.4219
    16.0067  16.0067  16.0067  16.0067  16.0602  16.0602  16.0602  16.0602
    16.1544  16.1544  16.1544  16.1544  16.1544  16.1544  16.1544  16.1544
    16.2159  16.2159  16.2159  16.2159  17.7501  17.7501  17.7501  17.7501
    19.1426  19.1426  19.1426

     the Fermi energy is    14.5722 ev

!    total energy              =  -13811.66908997 Ry

     total all-electron energy =   -289988.059429 Ry
     estimated scf accuracy    <       0.00000030 Ry
     smearing contrib. (-TS)   =      -0.00241545 Ry
     internal energy E=F+TS    =  -13811.66667452 Ry

     The total energy is F=E-TS. E is the sum of the following terms:
     one-electron contribution =   -6809.61733419 Ry
     hartree contribution      =    3664.64616382 Ry
     xc contribution           =    -925.63634953 Ry
     ewald contribution        =   -2151.72507404 Ry
     one-center paw contrib.   =   -7589.33408058 Ry

     convergence has been achieved in  23 iterations

     Forces acting on atoms (cartesian axes, Ry/au):

     atom    1 type  1   force =     0.00000000    0.00000000    0.03903567
     atom    2 type  1   force =    -0.00000028   -0.00000028    0.03903666
     atom    3 type  1   force =     0.00000237    0.00000000   -0.03154655
     atom    4 type  1   force =     0.00000000    0.00000237   -0.03154655
     atom    5 type  1   force =     0.00000000    0.00000000    0.03157218
     atom    6 type  1   force =    -0.00000056   -0.00000056    0.03157337
     atom    7 type  1   force =    -0.00000387    0.00000000   -0.03905862
     atom    8 type  1   force =     0.00000000   -0.00000387   -0.03905862
     atom    9 type  1   force =     0.00000000    0.00000000    0.03903166
     atom   10 type  1   force =    -0.00000028    0.00000028    0.03903666
     atom   11 type  1   force =    -0.00000178    0.00000000   -0.03154150
     atom   12 type  1   force =     0.00000000   -0.00000237   -0.03154655
     atom   13 type  1   force =     0.00000000    0.00000000    0.03156695
     atom   14 type  1   force =    -0.00000056    0.00000056    0.03157337
     atom   15 type  1   force =    -0.00000493    0.00000000   -0.03906465
     atom   16 type  1   force =     0.00000000    0.00000387   -0.03905862
     atom   17 type  1   force =     0.00000000    0.00000000    0.03903166
     atom   18 type  1   force =     0.00000028   -0.00000028    0.03903666
     atom   19 type  1   force =    -0.00000237    0.00000000   -0.03154655
     atom   20 type  1   force =     0.00000000   -0.00000178   -0.03154150
     atom   21 type  1   force =     0.00000000    0.00000000    0.03156695
     atom   22 type  1   force =     0.00000056   -0.00000056    0.03157337
     atom   23 type  1   force =     0.00000387    0.00000000   -0.03905862
     atom   24 type  1   force =     0.00000000   -0.00000493   -0.03906465
     atom   25 type  1   force =     0.00000000    0.00000000    0.03903715
     atom   26 type  1   force =     0.00000028    0.00000028    0.03903666
     atom   27 type  1   force =     0.00000178   -0.00000000   -0.03154150
     atom   28 type  1   force =     0.00000000    0.00000178   -0.03154150
     atom   29 type  1   force =     0.00000000    0.00000000    0.03156301
     atom   30 type  1   force =     0.00000056    0.00000056    0.03157337
     atom   31 type  1   force =     0.00000493    0.00000000   -0.03906465
     atom   32 type  1   force =     0.00000000    0.00000493   -0.03906465

     Total force =     0.200824     Total SCF correction =     0.002594

     Computing stress (Cartesian axis) and pressure

          total   stress  (Ry/bohr**3)                   (kbar)     P=      -87.22
  -0.00065012   0.00000000   0.00000000          -95.64        0.00        0.00
   0.00000000  -0.00065012   0.00000000            0.00      -95.64        0.00
   0.00000000   0.00000000  -0.00047847            0.00        0.00      -70.39

     Writing output data file /scratch/vGLZspsnQCHibsKo.save/

     General routines

     Parallel routines

   This run was terminated on:  20:26:45  25Nov2021

   JOB DONE.