     Program PWSCF v.6.7MaX starts on 25Nov2021 at 16:15:13

     R & G space division:  proc/nbgrp/npool/nimage =      72
     Reading input from scf_3.in
Warning: card &CELL ignored
Warning: card CELL_DYNAMICS = 'BFGS', ignored
Warning: card CELL_FACTOR = 2.0, ignored
Warning: card PRESS = 0.0, ignored
Warning: card / ignored

     Current dimensions of program PWSCF are:
     Max number of different atomic species (ntypx) = 10
     Max number of k-points (npk) =  40000
     Max angular momentum in pseudopotentials (lmaxx) =  3
     file Ru.pbe-spn-kjpaw_psl.1.0.0.UPF: wavefunction(s)  4D renormalized

     Subspace diagonalization in iterative solution of the eigenvalue problem:
     one sub-group per band group will be used

     Found symmetry operation: I + (  0.2500  0.2500  0.0000)
     This is a supercell, fractional translations are disabled
     Message from routine setup:
     using ibrav=0 with symmetry is DISCOURAGED, use correct ibrav instead

     bravais-lattice index     =            0
     lattice parameter (alat)  =      14.4007  a.u.
     unit-cell volume          =    3285.0899 (a.u.)^3
     number of atoms/cell      =           32
     number of atomic types    =            1
     number of electrons       =       512.00
     number of Kohn-Sham states=          307
     kinetic-energy cutoff     =      71.0000  Ry
     charge density cutoff     =     430.0000  Ry
     scf convergence threshold =      1.0E-06
     mixing beta               =       0.1000
     number of iterations used =           10  TF        mixing
     Exchange-correlation= SLA  PW   PBX  PBC
                           (   1   4   3   4   0   0   0)

     celldm(1)=  14.400742  celldm(2)=   0.000000  celldm(3)=   0.000000
     celldm(4)=   0.000000  celldm(5)=   0.000000  celldm(6)=   0.000000

     crystal axes: (cart. coord. in units of alat)
               a(1) = (   1.000000   0.000000   0.000000 )
               a(2) = (   0.000000   1.000000   0.000000 )
               a(3) = (   0.000000   0.000000   1.100000 )

     reciprocal axes: (cart. coord. in units 2 pi/alat)
               b(1) = (  1.000000  0.000000  0.000000 )
               b(2) = (  0.000000  1.000000  0.000000 )
               b(3) = (  0.000000  0.000000  0.909091 )

     PseudoPot. # 1 for Ru read from file:
     /rds/homes/b/bxp912/pp/Ru.pbe-spn-kjpaw_psl.1.0.0.UPF
     MD5 check sum: 0ae1f594dea09af7be8575c3a481d1ae
     Pseudo is Projector augmented-wave + core cor, Zval = 16.0
     Generated using "atomic" code by A. Dal Corso  v.5.1
     Shape of augmentation charge: PSQ
     Using radial grid of 1233 points,  6 beta functions with:
                l(1) =   0
                l(2) =   0
                l(3) =   1
                l(4) =   1
                l(5) =   2
                l(6) =   2
     Q(r) pseudized with 0 coefficients

     atomic species   valence    mass     pseudopotential
        Ru            16.00   101.07000     Ru( 1.00)

      8 Sym. Ops. (no inversion) found

   Cartesian axes

     site n.     atom                  positions (alat units)
         1           Ru  tau(   1) = (   0.0000000   0.0000000   0.0000000  )
         2           Ru  tau(   2) = (   0.2500000   0.2500000   0.0000000  )
         3           Ru  tau(   3) = (   0.2500000   0.0000000   0.2500000  )
         4           Ru  tau(   4) = (   0.0000000   0.2500000   0.2500000  )
         5           Ru  tau(   5) = (   0.0000000   0.0000000   0.6000000  )
         6           Ru  tau(   6) = (   0.2500000   0.2500000   0.6000000  )
         7           Ru  tau(   7) = (   0.2500000   0.0000000   0.8500000  )
         8           Ru  tau(   8) = (   0.0000000   0.2500000   0.8500000  )
         9           Ru  tau(   9) = (   0.0000000   0.5000000   0.0000000  )
        10           Ru  tau(  10) = (   0.2500000   0.7500000   0.0000000  )
        11           Ru  tau(  11) = (   0.2500000   0.5000000   0.2500000  )
        12           Ru  tau(  12) = (   0.0000000   0.7500000   0.2500000  )
        13           Ru  tau(  13) = (   0.0000000   0.5000000   0.6000000  )
        14           Ru  tau(  14) = (   0.2500000   0.7500000   0.6000000  )
        15           Ru  tau(  15) = (   0.2500000   0.5000000   0.8500000  )
        16           Ru  tau(  16) = (   0.0000000   0.7500000   0.8500000  )
        17           Ru  tau(  17) = (   0.5000000   0.0000000   0.0000000  )
        18           Ru  tau(  18) = (   0.7500000   0.2500000   0.0000000  )
        19           Ru  tau(  19) = (   0.7500000   0.0000000   0.2500000  )
        20           Ru  tau(  20) = (   0.5000000   0.2500000   0.2500000  )
        21           Ru  tau(  21) = (   0.5000000   0.0000000   0.6000000  )
        22           Ru  tau(  22) = (   0.7500000   0.2500000   0.6000000  )
        23           Ru  tau(  23) = (   0.7500000   0.0000000   0.8500000  )
        24           Ru  tau(  24) = (   0.5000000   0.2500000   0.8500000  )
        25           Ru  tau(  25) = (   0.5000000   0.5000000   0.0000000  )
        26           Ru  tau(  26) = (   0.7500000   0.7500000   0.0000000  )
        27           Ru  tau(  27) = (   0.7500000   0.5000000   0.2500000  )
        28           Ru  tau(  28) = (   0.5000000   0.7500000   0.2500000  )
        29           Ru  tau(  29) = (   0.5000000   0.5000000   0.6000000  )
        30           Ru  tau(  30) = (   0.7500000   0.7500000   0.6000000  )
        31           Ru  tau(  31) = (   0.7500000   0.5000000   0.8500000  )
        32           Ru  tau(  32) = (   0.5000000   0.7500000   0.8500000  )

     number of k points=    75  Marzari-Vanderbilt smearing, width (Ry)=  0.0400
                       cart. coord. in units 2pi/alat
        k(    1) = (   0.0555556   0.0555556   0.0505051), wk =   0.0219479
        k(    2) = (   0.0555556   0.0555556   0.1515152), wk =   0.0219479
        k(    3) = (   0.0555556   0.0555556   0.2525253), wk =   0.0219479
        k(    4) = (   0.0555556   0.0555556   0.3535354), wk =   0.0219479
        k(    5) = (   0.0555556   0.0555556  -0.4545455), wk =   0.0109739
        k(    6) = (   0.0555556   0.1666667   0.0505051), wk =   0.0438957
        k(    7) = (   0.0555556   0.1666667   0.1515152), wk =   0.0438957
        k(    8) = (   0.0555556   0.1666667   0.2525253), wk =   0.0438957
        k(    9) = (   0.0555556   0.1666667   0.3535354), wk =   0.0438957
        k(   10) = (   0.0555556   0.1666667  -0.4545455), wk =   0.0219479
        k(   11) = (   0.0555556   0.2777778   0.0505051), wk =   0.0438957
        k(   12) = (   0.0555556   0.2777778   0.1515152), wk =   0.0438957
        k(   13) = (   0.0555556   0.2777778   0.2525253), wk =   0.0438957
        k(   14) = (   0.0555556   0.2777778   0.3535354), wk =   0.0438957
        k(   15) = (   0.0555556   0.2777778  -0.4545455), wk =   0.0219479
        k(   16) = (   0.0555556   0.3888889   0.0505051), wk =   0.0438957
        k(   17) = (   0.0555556   0.3888889   0.1515152), wk =   0.0438957
        k(   18) = (   0.0555556   0.3888889   0.2525253), wk =   0.0438957
        k(   19) = (   0.0555556   0.3888889   0.3535354), wk =   0.0438957
        k(   20) = (   0.0555556   0.3888889  -0.4545455), wk =   0.0219479
        k(   21) = (   0.0555556  -0.5000000   0.0505051), wk =   0.0219479
        k(   22) = (   0.0555556  -0.5000000   0.1515152), wk =   0.0219479
        k(   23) = (   0.0555556  -0.5000000   0.2525253), wk =   0.0219479
        k(   24) = (   0.0555556  -0.5000000   0.3535354), wk =   0.0219479
        k(   25) = (   0.0555556  -0.5000000  -0.4545455), wk =   0.0109739
        k(   26) = (   0.1666667   0.1666667   0.0505051), wk =   0.0219479
        k(   27) = (   0.1666667   0.1666667   0.1515152), wk =   0.0219479
        k(   28) = (   0.1666667   0.1666667   0.2525253), wk =   0.0219479
        k(   29) = (   0.1666667   0.1666667   0.3535354), wk =   0.0219479
        k(   30) = (   0.1666667   0.1666667  -0.4545455), wk =   0.0109739
        k(   31) = (   0.1666667   0.2777778   0.0505051), wk =   0.0438957
        k(   32) = (   0.1666667   0.2777778   0.1515152), wk =   0.0438957
        k(   33) = (   0.1666667   0.2777778   0.2525253), wk =   0.0438957
        k(   34) = (   0.1666667   0.2777778   0.3535354), wk =   0.0438957
        k(   35) = (   0.1666667   0.2777778  -0.4545455), wk =   0.0219479
        k(   36) = (   0.1666667   0.3888889   0.0505051), wk =   0.0438957
        k(   37) = (   0.1666667   0.3888889   0.1515152), wk =   0.0438957
        k(   38) = (   0.1666667   0.3888889   0.2525253), wk =   0.0438957
        k(   39) = (   0.1666667   0.3888889   0.3535354), wk =   0.0438957
        k(   40) = (   0.1666667   0.3888889  -0.4545455), wk =   0.0219479
        k(   41) = (   0.1666667  -0.5000000   0.0505051), wk =   0.0219479
        k(   42) = (   0.1666667  -0.5000000   0.1515152), wk =   0.0219479
        k(   43) = (   0.1666667  -0.5000000   0.2525253), wk =   0.0219479
        k(   44) = (   0.1666667  -0.5000000   0.3535354), wk =   0.0219479
        k(   45) = (   0.1666667  -0.5000000  -0.4545455), wk =   0.0109739
        k(   46) = (   0.2777778   0.2777778   0.0505051), wk =   0.0219479
        k(   47) = (   0.2777778   0.2777778   0.1515152), wk =   0.0219479
        k(   48) = (   0.2777778   0.2777778   0.2525253), wk =   0.0219479
        k(   49) = (   0.2777778   0.2777778   0.3535354), wk =   0.0219479
        k(   50) = (   0.2777778   0.2777778  -0.4545455), wk =   0.0109739
        k(   51) = (   0.2777778   0.3888889   0.0505051), wk =   0.0438957
        k(   52) = (   0.2777778   0.3888889   0.1515152), wk =   0.0438957
        k(   53) = (   0.2777778   0.3888889   0.2525253), wk =   0.0438957
        k(   54) = (   0.2777778   0.3888889   0.3535354), wk =   0.0438957
        k(   55) = (   0.2777778   0.3888889  -0.4545455), wk =   0.0219479
        k(   56) = (   0.2777778  -0.5000000   0.0505051), wk =   0.0219479
        k(   57) = (   0.2777778  -0.5000000   0.1515152), wk =   0.0219479
        k(   58) = (   0.2777778  -0.5000000   0.2525253), wk =   0.0219479
        k(   59) = (   0.2777778  -0.5000000   0.3535354), wk =   0.0219479
        k(   60) = (   0.2777778  -0.5000000  -0.4545455), wk =   0.0109739
        k(   61) = (   0.3888889   0.3888889   0.0505051), wk =   0.0219479
        k(   62) = (   0.3888889   0.3888889   0.1515152), wk =   0.0219479
        k(   63) = (   0.3888889   0.3888889   0.2525253), wk =   0.0219479
        k(   64) = (   0.3888889   0.3888889   0.3535354), wk =   0.0219479
        k(   65) = (   0.3888889   0.3888889  -0.4545455), wk =   0.0109739
        k(   66) = (   0.3888889  -0.5000000   0.0505051), wk =   0.0219479
        k(   67) = (   0.3888889  -0.5000000   0.1515152), wk =   0.0219479
        k(   68) = (   0.3888889  -0.5000000   0.2525253), wk =   0.0219479
        k(   69) = (   0.3888889  -0.5000000   0.3535354), wk =   0.0219479
        k(   70) = (   0.3888889  -0.5000000  -0.4545455), wk =   0.0109739
        k(   71) = (  -0.5000000  -0.5000000   0.0505051), wk =   0.0054870
        k(   72) = (  -0.5000000  -0.5000000   0.1515152), wk =   0.0054870
        k(   73) = (  -0.5000000  -0.5000000   0.2525253), wk =   0.0054870
        k(   74) = (  -0.5000000  -0.5000000   0.3535354), wk =   0.0054870
        k(   75) = (  -0.5000000  -0.5000000  -0.4545455), wk =   0.0027435

     Check: negative core charge=   -0.000002

     Initial potential from superposition of free atoms

     starting charge  511.97959, renormalised to  512.00000
     Starting wfcs are  320 randomized atomic wfcs
     Checking if some PAW data can be deallocated...

     Self-consistent Calculation

     iteration #  1     ecut=    71.00 Ry     beta= 0.10
     Davidson diagonalization with overlap
     ethr =  1.00E-02,  avg # of iterations =  3.5

     Threshold (ethr) on eigenvalues was too large:
     Diagonalizing with lowered threshold

     Davidson diagonalization with overlap
     ethr =  8.09E-04,  avg # of iterations =  3.5

     total energy              =  -13812.96065686 Ry
     estimated scf accuracy    <       4.39896405 Ry

[...]

     total energy              =  -13812.68857317 Ry
     estimated scf accuracy    <       0.00001804 Ry

     iteration # 14     ecut=    71.00 Ry     beta= 0.10
     Davidson diagonalization with overlap
     ethr =  3.52E-09,  avg # of iterations =  2.1

     End of self-consistent calculation

          k = 0.0556 0.0556 0.0505 ( 33242 PWs)   bands (ev):

   -52.4444 -52.3622 -52.3622 -52.3468 -52.3468 -52.3387 -52.3287 -52.3229
   -52.3229 -52.3189 -52.3024 -52.3024 -52.2963 -52.2963 -52.2687 -52.2687
   -52.1351 -52.1228 -52.0904 -52.0904 -52.0872 -52.0866 -52.0862 -52.0861
   -52.0855 -52.0855 -52.0815 -52.0815 -52.0776 -52.0776 -52.0327 -52.0327
   -22.7781 -22.7780 -22.7780 -22.7736 -22.7363 -22.7363 -22.6896 -22.5675
   -22.5675 -22.5612 -22.5612 -22.5259 -22.5259 -22.5057 -22.5057 -22.5004
   -22.5004 -22.4757 -22.4757 -22.4729 -22.4729 -22.4708 -22.4695 -22.4345
   -22.4345 -22.3907 -22.3907 -22.3627 -22.3627 -22.3359 -22.2819 -22.2819
   -22.2726 -22.2726 -22.2399 -22.2399 -22.2389 -22.2389 -22.1890 -22.1874
   -22.1873 -22.1873 -22.1750 -22.1750 -22.1628 -22.1628 -22.1377 -22.1148
   -22.1148 -22.0892 -22.0859 -22.0859 -22.0593 -22.0593 -22.0593 -22.0593
   -22.0563 -22.0354 -22.0299 -22.0299 -22.0243 -22.0220 -22.0220 -22.0193
   -22.0058 -22.0053 -22.0053 -21.9913 -21.9913 -21.9814 -21.9814 -21.9714
   -21.9714 -21.9694 -21.9694 -21.9498 -21.9434 -21.9434 -21.9366 -21.9306
   -21.9306 -21.9113 -21.9113 -21.9082 -21.9082 -21.8971 -21.8971 -21.8488
   -21.8164 -21.8158 -21.7913 -21.7913 -21.7894 -21.7882 -21.7872 -21.7851
    13.2321  14.6893  14.7683  14.7683  15.0145  15.0336  15.0346  15.0346
    15.1160  15.2468  15.2468  15.2890  15.4496  15.4496  15.4723  15.6343
    15.6343  16.0115  16.0115  16.0698  16.1539  16.1539  16.1752  16.1752
    16.3612  16.3612  16.5092  16.5092  16.5164  16.5495  16.5628  16.5628
    16.6933  16.6933  16.7117  16.7118  16.7327  16.7327  16.7829  16.7829
    16.9141  16.9810  16.9810  17.0590  17.0590  17.1626  17.1626  17.1935
    17.1935  17.3672  17.3672  17.4292  17.4465  17.4465  17.5080  17.5080
    17.5427  17.5427  17.5638  17.5827  17.5827  17.5870  17.5870  17.7537
    17.7537  17.7720  17.7720  17.7942  17.8075  17.8575  18.0024  18.0024
    18.0285  18.0285  18.0318  18.1055  18.1485  18.2752  18.2752  18.2959
    18.3029  18.3133  18.3133  18.3950  18.4128  18.4531  18.4531  18.6674
    18.6674  19.1075  19.1075  19.2044  19.2044  19.2811  19.2811  19.3886
    19.4002  19.4077  19.4077  19.4267  19.4267  19.5353  19.5481  19.5481
    19.6001  19.6001  19.6202  19.6202  19.6902  19.7158  19.7525  19.7525
    19.8724  19.8724  19.9391  19.9391  20.0029  20.0029  20.1508  20.2199
    20.2199  20.2924  20.2925  20.4069  20.4069  20.4617  20.4617  20.6209
    20.6401  20.6401  20.6995  20.7124  20.7597  20.7597  20.7770  20.8160
    20.8160  20.8828  20.8828  20.9595  21.0388  21.0388  21.1565  21.2311
    21.2311  21.2356  21.4717  21.7223  21.8728  21.8728  21.9147  21.9147
    21.9528  21.9785  21.9785  21.9944  22.0866  22.1126  22.1780  22.3186
    22.3186  22.3303  22.3303  22.4089  22.4258  22.4513  22.4513  22.6656
    22.6656  22.9274  22.9274  23.4771  23.4773  23.4773  23.9196  23.9196
    23.9730  23.9730  24.0575

[...]

          k = 0.3889-0.5000-0.4545 ( 33176 PWs)   bands (ev):

[...]

          k =-0.5000-0.5000 0.0505 ( 33216 PWs)   bands (ev):

[...]

          k =-0.5000-0.5000-0.4545 ( 33144 PWs)   bands (ev):

   -52.3962 -52.3962 -52.3962 -52.3962 -52.3195 -52.3195 -52.3195 -52.3195
   -52.2959 -52.2959 -52.2958 -52.2958 -52.2958 -52.2958 -52.2958 -52.2958
   -52.1094 -52.1094 -52.1094 -52.1094 -52.1063 -52.1063 -52.1063 -52.1063
   -52.0595 -52.0595 -52.0595 -52.0595 -52.0595 -52.0595 -52.0595 -52.0595
   -22.7015 -22.7015 -22.7015 -22.7015 -22.7015 -22.7015 -22.7015 -22.7015
   -22.6354 -22.6354 -22.6354 -22.6354 -22.5670 -22.5670 -22.5670 -22.5670
   -22.4822 -22.4822 -22.4822 -22.4822 -22.4822 -22.4822 -22.4822 -22.4822
   -22.3368 -22.3368 -22.3368 -22.3368 -22.2652 -22.2652 -22.2652 -22.2652
   -22.2325 -22.2325 -22.2324 -22.2324 -22.2324 -22.2324 -22.2324 -22.2324
   -22.1278 -22.1278 -22.1278 -22.1278 -22.1232 -22.1232 -22.1232 -22.1232
   -22.1232 -22.1232 -22.1232 -22.1232 -22.0581 -22.0581 -22.0581 -22.0581
   -22.0406 -22.0406 -22.0406 -22.0406 -22.0335 -22.0335 -22.0335 -22.0335
   -22.0335 -22.0334 -22.0334 -22.0334 -22.0070 -22.0070 -22.0070 -22.0070
   -21.9577 -21.9577 -21.9577 -21.9577 -21.9577 -21.9577 -21.9577 -21.9577
   -21.8907 -21.8907 -21.8907 -21.8907 -21.8891 -21.8891 -21.8891 -21.8891
   -21.7932 -21.7932 -21.7932 -21.7932 -21.7932 -21.7932 -21.7932 -21.7932
    14.7087  14.7087  14.7087  14.7087  15.1613  15.1613  15.1613  15.1613
    15.5776  15.5776  15.5776  15.5776  15.7123  15.7123  15.7123  15.7123
    15.7123  15.7123  15.7123  15.7123  15.8145  15.8145  15.8145  15.8145
    15.8145  15.8145  15.8145  15.8145  16.0545  16.0545  16.0545  16.0545
    16.4162  16.4162  16.4162  16.4162  16.7637  16.7637  16.7637  16.7637
    16.7637  16.7637  16.7637  16.7637  17.0043  17.0043  17.0043  17.0043
    17.0043  17.0043  17.0043  17.0043  17.2980  17.2980  17.2980  17.2980
    17.8450  17.8450  17.8450  17.8450  17.9099  17.9099  17.9099  17.9099
    18.3510  18.3510  18.3511  18.3511  18.5256  18.5256  18.5257  18.5257
    18.5846  18.5846  18.5846  18.5846  18.6508  18.6508  18.6509  18.6509
    18.6569  18.6569  18.6569  18.6569  18.6569  18.6569  18.6569  18.6569
    18.8549  18.8549  18.8549  18.8549  18.8802  18.8802  18.8802  18.8802
    19.2659  19.2659  19.2659  19.2659  19.2659  19.2659  19.2659  19.2659
    19.6366  19.6366  19.6366  19.6366  19.6366  19.6366  19.6366  19.6366
    19.8312  19.8312  19.8312  19.8312  19.8644  19.8644  19.8644  19.8644
    19.8644  19.8644  19.8644  19.8644  19.9849  19.9849  19.9849  19.9849
    20.1003  20.1003  20.1003  20.1003  20.7925  20.7925  20.7925  20.7925
    20.8865  20.8865  20.8865  20.8865  20.9816  20.9816  20.9816  20.9816
    21.9657  21.9657  21.9657  21.9657  21.9657  21.9657  21.9657  21.9657
    22.1114  22.1114  22.1114  22.1114  22.2613  22.2613  22.2613  22.2613
    22.2636  22.2636  22.2636  22.2636  22.2636  22.2636  22.2636  22.2636
    24.5237  24.5237  24.5237  24.5237  24.8835  24.8835  24.8835  24.8835
    25.2867  25.2867  25.2867

     the Fermi energy is    20.6060 ev

!    total energy              =  -13812.68857674 Ry

     total all-electron energy =   -289989.078916 Ry
     estimated scf accuracy    <       0.00000060 Ry
     smearing contrib. (-TS)   =       0.01842579 Ry
     internal energy E=F+TS    =  -13812.70700253 Ry

     The total energy is F=E-TS. E is the sum of the following terms:
     one-electron contribution =   -1523.00729480 Ry
     hartree contribution      =    1133.57263888 Ry
     xc contribution           =    -925.95281426 Ry
     ewald contribution        =   -4907.95914290 Ry
     one-center paw contrib.   =   -7589.36038945 Ry

     convergence has been achieved in  14 iterations

     Forces acting on atoms (cartesian axes, Ry/au):

     atom    1 type  1   force =     0.00000000    0.00000000    0.05622638
     atom    2 type  1   force =    -0.00000074   -0.00000074    0.05621108
     atom    3 type  1   force =     0.00000241    0.00000000    0.03015675
     atom    4 type  1   force =     0.00000000    0.00000241    0.03015675
     atom    5 type  1   force =     0.00000000    0.00000000   -0.03016139
     atom    6 type  1   force =     0.00002489    0.00002489   -0.03014711
     atom    7 type  1   force =    -0.00000955    0.00000000   -0.05619205
     atom    8 type  1   force =     0.00000000   -0.00000955   -0.05619205
     atom    9 type  1   force =     0.00000000    0.00000000    0.05619277
     atom   10 type  1   force =    -0.00000074    0.00000074    0.05621108
     atom   11 type  1   force =    -0.00000561    0.00000000    0.03018384
     atom   12 type  1   force =     0.00000000   -0.00000241    0.03015675
     atom   13 type  1   force =     0.00000000    0.00000000   -0.03018596
     atom   14 type  1   force =     0.00002489   -0.00002489   -0.03014711
     atom   15 type  1   force =     0.00000469    0.00000000   -0.05623695
     atom   16 type  1   force =     0.00000000    0.00000955   -0.05619205
     atom   17 type  1   force =     0.00000000    0.00000000    0.05619277
     atom   18 type  1   force =     0.00000074   -0.00000074    0.05621108
     atom   19 type  1   force =    -0.00000241    0.00000000    0.03015675
     atom   20 type  1   force =     0.00000000   -0.00000561    0.03018384
     atom   21 type  1   force =     0.00000000    0.00000000   -0.03018596
     atom   22 type  1   force =    -0.00002489    0.00002489   -0.03014711
     atom   23 type  1   force =     0.00000955    0.00000000   -0.05619205
     atom   24 type  1   force =     0.00000000    0.00000469   -0.05623695
     atom   25 type  1   force =     0.00000000    0.00000000    0.05620465
     atom   26 type  1   force =     0.00000074    0.00000074    0.05621108
     atom   27 type  1   force =     0.00000561    0.00000000    0.03018384
     atom   28 type  1   force =     0.00000000    0.00000561    0.03018384
     atom   29 type  1   force =     0.00000000    0.00000000   -0.03018546
     atom   30 type  1   force =    -0.00002489   -0.00002489   -0.03014711
     atom   31 type  1   force =    -0.00000469   -0.00000000   -0.05623695
     atom   32 type  1   force =     0.00000000   -0.00000469   -0.05623695

     Total force =     0.255178     Total SCF correction =     0.005427

     Computing stress (Cartesian axis) and pressure

          total   stress  (Ry/bohr**3)                   (kbar)     P=     -130.76
  -0.00063085   0.00000000   0.00000000          -92.80        0.00        0.00
   0.00000000  -0.00063085   0.00000000            0.00      -92.80        0.00
   0.00000000   0.00000000  -0.00140503            0.00        0.00     -206.69

     Writing output data file /scratch/vLzakKnuRBOVFQHl.save/

     General routines

     Parallel routines

   This run was terminated on:  16:37:29  25Nov2021

   JOB DONE.