     Program PWSCF v.6.7MaX starts on 25Nov2021 at 17: 1: 8

     R & G space division:  proc/nbgrp/npool/nimage =      72
     Reading input from scf_5.in
Warning: card &CELL ignored
Warning: card CELL_DYNAMICS = 'BFGS', ignored
Warning: card CELL_FACTOR = 2.0, ignored
Warning: card PRESS = 0.0, ignored
Warning: card / ignored

     Current dimensions of program PWSCF are:
     Max number of different atomic species (ntypx) = 10
     Max number of k-points (npk) =  40000
     Max angular momentum in pseudopotentials (lmaxx) =  3
     file Ru.pbe-spn-kjpaw_psl.1.0.0.UPF: wavefunction(s)  4D renormalized

     Subspace diagonalization in iterative solution of the eigenvalue problem:
     one sub-group per band group will be used

     Found symmetry operation: I + (  0.2500  0.2500  0.0000)
     This is a supercell, fractional translations are disabled
     Message from routine setup:
     using ibrav=0 with symmetry is DISCOURAGED, use correct ibrav instead

     bravais-lattice index     =            0
     lattice parameter (alat)  =      14.4007  a.u.
     unit-cell volume          =    3583.7344 (a.u.)^3
     number of atoms/cell      =           32
     number of atomic types    =            1
     number of electrons       =       512.00
     number of Kohn-Sham states=          307
     kinetic-energy cutoff     =      71.0000  Ry
     charge density cutoff     =     430.0000  Ry
     scf convergence threshold =      1.0E-06
     mixing beta               =       0.1000
     number of iterations used =           10  TF        mixing
     Exchange-correlation= SLA  PW   PBX  PBC
                           (   1   4   3   4   0   0   0)

     celldm(1)=  14.400742  celldm(2)=   0.000000  celldm(3)=   0.000000
     celldm(4)=   0.000000  celldm(5)=   0.000000  celldm(6)=   0.000000

     crystal axes: (cart. coord. in units of alat)
               a(1) = (   1.000000   0.000000   0.000000 )
               a(2) = (   0.000000   1.000000   0.000000 )
               a(3) = (   0.000000   0.000000   1.200000 )

     reciprocal axes: (cart. coord. in units 2 pi/alat)
               b(1) = (  1.000000  0.000000  0.000000 )
               b(2) = (  0.000000  1.000000  0.000000 )
               b(3) = (  0.000000  0.000000  0.833333 )

     PseudoPot. # 1 for Ru read from file:
     /rds/homes/b/bxp912/pp/Ru.pbe-spn-kjpaw_psl.1.0.0.UPF
     MD5 check sum: 0ae1f594dea09af7be8575c3a481d1ae
     Pseudo is Projector augmented-wave + core cor, Zval = 16.0
     Generated using "atomic" code by A. Dal Corso  v.5.1
     Shape of augmentation charge: PSQ
     Using radial grid of 1233 points,  6 beta functions with:
                l(1) =   0
                l(2) =   0
                l(3) =   1
                l(4) =   1
                l(5) =   2
                l(6) =   2
     Q(r) pseudized with 0 coefficients

     atomic species   valence    mass     pseudopotential
        Ru            16.00   101.07000     Ru( 1.00)

      8 Sym. Ops. (no inversion) found

   Cartesian axes

     site n.     atom                  positions (alat units)
         1           Ru  tau(   1) = (   0.0000000   0.0000000   0.0000000  )
         2           Ru  tau(   2) = (   0.2500000   0.2500000   0.0000000  )
         3           Ru  tau(   3) = (   0.2500000   0.0000000   0.2500000  )
         4           Ru  tau(   4) = (   0.0000000   0.2500000   0.2500000  )
         5           Ru  tau(   5) = (   0.0000000   0.0000000   0.7000000  )
         6           Ru  tau(   6) = (   0.2500000   0.2500000   0.7000000  )
         7           Ru  tau(   7) = (   0.2500000   0.0000000   0.9500000  )
         8           Ru  tau(   8) = (   0.0000000   0.2500000   0.9500000  )
         9           Ru  tau(   9) = (   0.0000000   0.5000000   0.0000000  )
        10           Ru  tau(  10) = (   0.2500000   0.7500000   0.0000000  )
        11           Ru  tau(  11) = (   0.2500000   0.5000000   0.2500000  )
        12           Ru  tau(  12) = (   0.0000000   0.7500000   0.2500000  )
        13           Ru  tau(  13) = (   0.0000000   0.5000000   0.7000000  )
        14           Ru  tau(  14) = (   0.2500000   0.7500000   0.7000000  )
        15           Ru  tau(  15) = (   0.2500000   0.5000000   0.9500000  )
        16           Ru  tau(  16) = (   0.0000000   0.7500000   0.9500000  )
        17           Ru  tau(  17) = (   0.5000000   0.0000000   0.0000000  )
        18           Ru  tau(  18) = (   0.7500000   0.2500000   0.0000000  )
        19           Ru  tau(  19) = (   0.7500000   0.0000000   0.2500000  )
        20           Ru  tau(  20) = (   0.5000000   0.2500000   0.2500000  )
        21           Ru  tau(  21) = (   0.5000000   0.0000000   0.7000000  )
        22           Ru  tau(  22) = (   0.7500000   0.2500000   0.7000000  )
        23           Ru  tau(  23) = (   0.7500000   0.0000000   0.9500000  )
        24           Ru  tau(  24) = (   0.5000000   0.2500000   0.9500000  )
        25           Ru  tau(  25) = (   0.5000000   0.5000000   0.0000000  )
        26           Ru  tau(  26) = (   0.7500000   0.7500000   0.0000000  )
        27           Ru  tau(  27) = (   0.7500000   0.5000000   0.2500000  )
        28           Ru  tau(  28) = (   0.5000000   0.7500000   0.2500000  )
        29           Ru  tau(  29) = (   0.5000000   0.5000000   0.7000000  )
        30           Ru  tau(  30) = (   0.7500000   0.7500000   0.7000000  )
        31           Ru  tau(  31) = (   0.7500000   0.5000000   0.9500000  )
        32           Ru  tau(  32) = (   0.5000000   0.7500000   0.9500000  )

     number of k points=    75  Marzari-Vanderbilt smearing, width (Ry)=  0.0400
                       cart. coord. in units 2pi/alat
        k(    1) = (   0.0555556   0.0555556   0.0462963), wk =   0.0219479
        k(    2) = (   0.0555556   0.0555556   0.1388889), wk =   0.0219479
        k(    3) = (   0.0555556   0.0555556   0.2314815), wk =   0.0219479
        k(    4) = (   0.0555556   0.0555556   0.3240741), wk =   0.0219479
        k(    5) = (   0.0555556   0.0555556  -0.4166667), wk =   0.0109739
        k(    6) = (   0.0555556   0.1666667   0.0462963), wk =   0.0438957
        k(    7) = (   0.0555556   0.1666667   0.1388889), wk =   0.0438957
        k(    8) = (   0.0555556   0.1666667   0.2314815), wk =   0.0438957
        k(    9) = (   0.0555556   0.1666667   0.3240741), wk =   0.0438957
        k(   10) = (   0.0555556   0.1666667  -0.4166667), wk =   0.0219479
        k(   11) = (   0.0555556   0.2777778   0.0462963), wk =   0.0438957
        k(   12) = (   0.0555556   0.2777778   0.1388889), wk =   0.0438957
        k(   13) = (   0.0555556   0.2777778   0.2314815), wk =   0.0438957
        k(   14) = (   0.0555556   0.2777778   0.3240741), wk =   0.0438957
        k(   15) = (   0.0555556   0.2777778  -0.4166667), wk =   0.0219479
        k(   16) = (   0.0555556   0.3888889   0.0462963), wk =   0.0438957
        k(   17) = (   0.0555556   0.3888889   0.1388889), wk =   0.0438957
        k(   18) = (   0.0555556   0.3888889   0.2314815), wk =   0.0438957
        k(   19) = (   0.0555556   0.3888889   0.3240741), wk =   0.0438957
        k(   20) = (   0.0555556   0.3888889  -0.4166667), wk =   0.0219479
        k(   21) = (   0.0555556  -0.5000000   0.0462963), wk =   0.0219479
        k(   22) = (   0.0555556  -0.5000000   0.1388889), wk =   0.0219479
        k(   23) = (   0.0555556  -0.5000000   0.2314815), wk =   0.0219479
        k(   24) = (   0.0555556  -0.5000000   0.3240741), wk =   0.0219479
        k(   25) = (   0.0555556  -0.5000000  -0.4166667), wk =   0.0109739
        k(   26) = (   0.1666667   0.1666667   0.0462963), wk =   0.0219479
        k(   27) = (   0.1666667   0.1666667   0.1388889), wk =   0.0219479
        k(   28) = (   0.1666667   0.1666667   0.2314815), wk =   0.0219479
        k(   29) = (   0.1666667   0.1666667   0.3240741), wk =   0.0219479
        k(   30) = (   0.1666667   0.1666667  -0.4166667), wk =   0.0109739
        k(   31) = (   0.1666667   0.2777778   0.0462963), wk =   0.0438957
        k(   32) = (   0.1666667   0.2777778   0.1388889), wk =   0.0438957
        k(   33) = (   0.1666667   0.2777778   0.2314815), wk =   0.0438957
        k(   34) = (   0.1666667   0.2777778   0.3240741), wk =   0.0438957
        k(   35) = (   0.1666667   0.2777778  -0.4166667), wk =   0.0219479
        k(   36) = (   0.1666667   0.3888889   0.0462963), wk =   0.0438957
        k(   37) = (   0.1666667   0.3888889   0.1388889), wk =   0.0438957
        k(   38) = (   0.1666667   0.3888889   0.2314815), wk =   0.0438957
        k(   39) = (   0.1666667   0.3888889   0.3240741), wk =   0.0438957
        k(   40) = (   0.1666667   0.3888889  -0.4166667), wk =   0.0219479
        k(   41) = (   0.1666667  -0.5000000   0.0462963), wk =   0.0219479
        k(   42) = (   0.1666667  -0.5000000   0.1388889), wk =   0.0219479
        k(   43) = (   0.1666667  -0.5000000   0.2314815), wk =   0.0219479
        k(   44) = (   0.1666667  -0.5000000   0.3240741), wk =   0.0219479
        k(   45) = (   0.1666667  -0.5000000  -0.4166667), wk =   0.0109739
        k(   46) = (   0.2777778   0.2777778   0.0462963), wk =   0.0219479
        k(   47) = (   0.2777778   0.2777778   0.1388889), wk =   0.0219479
        k(   48) = (   0.2777778   0.2777778   0.2314815), wk =   0.0219479
        k(   49) = (   0.2777778   0.2777778   0.3240741), wk =   0.0219479
        k(   50) = (   0.2777778   0.2777778  -0.4166667), wk =   0.0109739
        k(   51) = (   0.2777778   0.3888889   0.0462963), wk =   0.0438957
        k(   52) = (   0.2777778   0.3888889   0.1388889), wk =   0.0438957
        k(   53) = (   0.2777778   0.3888889   0.2314815), wk =   0.0438957
        k(   54) = (   0.2777778   0.3888889   0.3240741), wk =   0.0438957
        k(   55) = (   0.2777778   0.3888889  -0.4166667), wk =   0.0219479
        k(   56) = (   0.2777778  -0.5000000   0.0462963), wk =   0.0219479
        k(   57) = (   0.2777778  -0.5000000   0.1388889), wk =   0.0219479
        k(   58) = (   0.2777778  -0.5000000   0.2314815), wk =   0.0219479
        k(   59) = (   0.2777778  -0.5000000   0.3240741), wk =   0.0219479
        k(   60) = (   0.2777778  -0.5000000  -0.4166667), wk =   0.0109739
        k(   61) = (   0.3888889   0.3888889   0.0462963), wk =   0.0219479
        k(   62) = (   0.3888889   0.3888889   0.1388889), wk =   0.0219479
        k(   63) = (   0.3888889   0.3888889   0.2314815), wk =   0.0219479
        k(   64) = (   0.3888889   0.3888889   0.3240741), wk =   0.0219479
        k(   65) = (   0.3888889   0.3888889  -0.4166667), wk =   0.0109739
        k(   66) = (   0.3888889  -0.5000000   0.0462963), wk =   0.0219479
        k(   67) = (   0.3888889  -0.5000000   0.1388889), wk =   0.0219479
        k(   68) = (   0.3888889  -0.5000000   0.2314815), wk =   0.0219479
        k(   69) = (   0.3888889  -0.5000000   0.3240741), wk =   0.0219479
        k(   70) = (   0.3888889  -0.5000000  -0.4166667), wk =   0.0109739
        k(   71) = (  -0.5000000  -0.5000000   0.0462963), wk =   0.0054870
        k(   72) = (  -0.5000000  -0.5000000   0.1388889), wk =   0.0054870
        k(   73) = (  -0.5000000  -0.5000000   0.2314815), wk =   0.0054870
        k(   74) = (  -0.5000000  -0.5000000   0.3240741), wk =   0.0054870
        k(   75) = (  -0.5000000  -0.5000000  -0.4166667), wk =   0.0027435

     Check: negative core charge=   -0.000002

     Initial potential from superposition of free atoms

     starting charge  511.97959, renormalised to  512.00000
     Starting wfcs are  320 randomized atomic wfcs
     Checking if some PAW data can be deallocated...

     Self-consistent Calculation

     iteration #  1     ecut=    71.00 Ry     beta= 0.10
     Davidson diagonalization with overlap
     ethr =  1.00E-02,  avg # of iterations =  3.6

     total energy              =  -13812.53776269 Ry
     estimated scf accuracy    <       8.33589772 Ry

[...]

     iteration # 10     ecut=    71.00 Ry     beta= 0.10
     Davidson diagonalization with overlap
     c_bands:  1 eigenvalues not converged
     ethr =  3.06E-07,  avg # of iterations =  4.9

[...]

     total energy              =  -13812.06191222 Ry
     estimated scf accuracy    <       0.00000111 Ry

     iteration # 17     ecut=    71.00 Ry     beta= 0.10
     Davidson diagonalization with overlap
     ethr =  2.17E-10,  avg # of iterations =  2.0

     End of self-consistent calculation

          k = 0.0556 0.0556 0.0463 ( 36198 PWs)   bands (ev):

   -54.5432 -54.4631 -54.4631 -54.4479 -54.4479 -54.4350 -54.4306 -54.4248
   -54.4248 -54.4208 -54.4028 -54.4028 -54.3972 -54.3972 -54.3707 -54.3707
   -54.1099 -54.1071 -54.0645 -54.0645 -54.0639 -54.0639 -54.0619 -54.0618
   -54.0611 -54.0611 -54.0556 -54.0556 -54.0552 -54.0552 -54.0074 -54.0074
   -24.8681 -24.8676 -24.8676 -24.8625 -24.8291 -24.8291 -24.7698 -24.6612
   -24.6612 -24.6573 -24.6572 -24.6140 -24.6140 -24.5902 -24.5902 -24.5769
   -24.5769 -24.5628 -24.5628 -24.5254 -24.5254 -24.5160 -24.5137 -24.5137
   -24.5070 -24.4636 -24.4636 -24.4342 -24.4342 -24.4015 -24.3632 -24.3632
   -24.3510 -24.3510 -24.3222 -24.3222 -24.2849 -24.2846 -24.2491 -24.2491
   -24.2439 -24.2439 -24.2334 -24.2334 -24.2145 -24.2145 -24.1660 -24.1522
   -24.1522 -24.1382 -24.1308 -24.1308 -24.1307 -24.1222 -24.1222 -24.1136
   -24.0644 -24.0644 -24.0558 -24.0558 -24.0359 -24.0359 -24.0205 -24.0205
   -24.0198 -24.0198 -24.0188 -24.0188 -23.9913 -23.9900 -23.9900 -23.9839
   -23.9839 -23.9597 -23.9597 -23.9534 -23.9475 -23.9475 -23.9412 -23.9348
   -23.9348 -23.9216 -23.9216 -23.9165 -23.9165 -23.9081 -23.9081 -23.8914
   -23.8077 -23.8049 -23.7979 -23.7936 -23.7804 -23.7804 -23.7767 -23.7767
    11.3122  12.6212  12.7465  12.7465  13.0105  13.0250  13.0293  13.0293
    13.0515  13.2002  13.2398  13.2398  13.4669  13.4669  13.4982  13.6488
    13.6488  13.9516  13.9516  13.9634  14.1122  14.1122  14.1440  14.1440
    14.3066  14.3066  14.3920  14.4056  14.4205  14.4205  14.4333  14.4333
    14.6385  14.6385  14.6761  14.6762  14.6973  14.6973  14.7983  14.7983
    14.8494  14.8494  14.9734  14.9808  14.9808  15.1088  15.1088  15.1197
    15.1197  15.3768  15.3768  15.4090  15.4090  15.4112  15.4295  15.4295
    15.5148  15.5149  15.6497  15.7156  15.7156  15.7342  15.8166  15.8289
    15.8289  15.8408  15.8408  15.8571  15.8658  15.8658  16.0090  16.0090
    16.1606  16.1606  16.2125  16.2281  16.2394  16.2472  16.3381  16.3381
    16.3475  16.3596  16.3758  16.6591  16.6591  16.7936  16.7936  16.9994
    16.9994  17.0562  17.0562  17.1322  17.1322  17.2348  17.2348  17.2916
    17.2916  17.2923  17.3096  17.3344  17.3344  17.3379  17.3379  17.5051
    17.5051  17.5079  17.5272  17.5272  17.5504  17.5719  17.6929  17.6929
    17.7842  17.7842  17.9284  17.9284  17.9675  17.9675  18.0161  18.1759
    18.1759  18.2820  18.2820  18.2906  18.2906  18.4290  18.4291  18.5415
    18.6949  18.6949  18.7395  18.7395  18.7800  18.7800  18.8048  18.8139
    18.8139  18.8499  18.8499  18.8644  18.8935  18.9332  19.0173  19.1457
    19.1457  19.1789  19.1912  19.4551  19.4551  19.6769  19.6769  19.7155
    19.7358  19.7358  19.8210  19.8797  19.9695  20.0355  20.0764  20.1141
    20.1141  20.1248  20.1248  20.2495  20.3477  20.4681  20.4681  20.5730
    20.5730  20.8077  20.8077  20.9236  20.9236  21.0699  21.2316  21.2316
    21.5498  21.5498  21.8663

[...]

          k = 0.3889-0.5000-0.4167 ( 36212 PWs)   bands (ev):

[...]

          k =-0.5000-0.5000 0.0463 ( 36188 PWs)   bands (ev):

[...]

          k =-0.5000-0.5000-0.4167 ( 36168 PWs)   bands (ev):

   -54.4965 -54.4965 -54.4965 -54.4965 -54.4185 -54.4185 -54.4185 -54.4185
   -54.3978 -54.3978 -54.3978 -54.3978 -54.3978 -54.3978 -54.3978 -54.3978
   -54.0855 -54.0855 -54.0855 -54.0855 -54.0849 -54.0849 -54.0849 -54.0849
   -54.0343 -54.0343 -54.0343 -54.0343 -54.0343 -54.0343 -54.0343 -54.0343
   -24.7978 -24.7978 -24.7978 -24.7978 -24.7978 -24.7978 -24.7978 -24.7978
   -24.7230 -24.7230 -24.7230 -24.7230 -24.6495 -24.6495 -24.6495 -24.6495
   -24.5285 -24.5285 -24.5285 -24.5285 -24.5285 -24.5285 -24.5285 -24.5285
   -24.4157 -24.4156 -24.4156 -24.4156 -24.3253 -24.3253 -24.3253 -24.3253
   -24.3252 -24.3252 -24.3252 -24.3252 -24.3252 -24.3252 -24.3251 -24.3251
   -24.2276 -24.2276 -24.2276 -24.2276 -24.1679 -24.1679 -24.1679 -24.1679
   -24.1679 -24.1679 -24.1679 -24.1679 -24.1022 -24.1022 -24.1022 -24.1022
   -24.0542 -24.0542 -24.0542 -24.0542 -24.0253 -24.0253 -24.0253 -24.0253
   -24.0253 -24.0253 -24.0253 -24.0253 -24.0194 -24.0194 -24.0194 -24.0194
   -23.9486 -23.9486 -23.9486 -23.9486 -23.9486 -23.9486 -23.9486 -23.9486
   -23.9178 -23.9178 -23.9178 -23.9178 -23.9157 -23.9157 -23.9157 -23.9157
   -23.7897 -23.7897 -23.7896 -23.7896 -23.7860 -23.7860 -23.7860 -23.7860
    12.6324  12.6324  12.6324  12.6324  13.2043  13.2043  13.2043  13.2043
    13.6493  13.6493  13.6493  13.6493  13.6493  13.6493  13.6493  13.6493
    13.6507  13.6507  13.6507  13.6507  13.7879  13.7879  13.7879  13.7879
    13.7879  13.7879  13.7879  13.7879  13.9999  13.9999  13.9999  13.9999
    14.3460  14.3460  14.3460  14.3460  14.7557  14.7557  14.7557  14.7557
    14.7557  14.7557  14.7557  14.7557  15.0477  15.0477  15.0477  15.0477
    15.0477  15.0477  15.0477  15.0477  15.3528  15.3528  15.3528  15.3528
    15.7706  15.7706  15.7706  15.7706  16.0347  16.0347  16.0347  16.0347
    16.3067  16.3067  16.3067  16.3067  16.4788  16.4788  16.4788  16.4788
    16.5762  16.5762  16.5762  16.5762  16.5798  16.5798  16.5798  16.5798
    16.6022  16.6022  16.6022  16.6022  16.6022  16.6022  16.6022  16.6022
    16.8439  16.8439  16.8439  16.8439  17.0454  17.0454  17.0454  17.0454
    17.4036  17.4036  17.4036  17.4036  17.4036  17.4036  17.4036  17.4036
    17.6575  17.6575  17.6575  17.6575  17.6575  17.6575  17.6575  17.6575
    17.6919  17.6920  17.6920  17.6920  17.7091  17.7091  17.7091  17.7091
    17.9228  17.9228  17.9228  17.9228  17.9228  17.9228  17.9228  17.9228
    18.0556  18.0556  18.0556  18.0556  18.6912  18.6912  18.6912  18.6912
    18.8563  18.8563  18.8563  18.8563  19.1275  19.1275  19.1275  19.1275
    19.5886  19.5886  19.5886  19.5886  19.5886  19.5886  19.5886  19.5886
    19.9736  19.9736  19.9736  19.9736  20.1262  20.1262  20.1262  20.1262
    20.1262  20.1262  20.1262  20.1262  20.1662  20.1662  20.1662  20.1662
    21.5311  21.5311  21.5311  21.5311  21.8789  21.8789  21.8789  21.8789
    23.0997  23.0997  23.0997

     the Fermi energy is    18.5278 ev

!    total energy              =  -13812.06191295 Ry

     total all-electron energy =   -289988.452252 Ry
     estimated scf accuracy    <       0.00000041 Ry
     smearing contrib. (-TS)   =       0.01352542 Ry
     internal energy E=F+TS    =  -13812.07543837 Ry

     The total energy is F=E-TS. E is the sum of the following terms:
     one-electron contribution =   -2560.28285064 Ry
     hartree contribution      =    1613.82077010 Ry
     xc contribution           =    -925.57512449 Ry
     ewald contribution        =   -4350.70056560 Ry
     one-center paw contrib.   =   -7589.33766774 Ry

     convergence has been achieved in  17 iterations

     Forces acting on atoms (cartesian axes, Ry/au):

     atom    1 type  1   force =     0.00000000    0.00000000    0.05160690
     atom    2 type  1   force =     0.00000034    0.00000034    0.05160792
     atom    3 type  1   force =     0.00000189    0.00000000   -0.00106635
     atom    4 type  1   force =     0.00000000    0.00000189   -0.00106635
     atom    5 type  1   force =     0.00000000    0.00000000    0.00106182
     atom    6 type  1   force =     0.00000452    0.00000452    0.00105909
     atom    7 type  1   force =     0.00000739    0.00000000   -0.05160282
     atom    8 type  1   force =     0.00000000    0.00000739   -0.05160282
     atom    9 type  1   force =     0.00000000    0.00000000    0.05161161
     atom   10 type  1   force =     0.00000034   -0.00000034    0.05160792
     atom   11 type  1   force =    -0.00000273    0.00000000   -0.00106897
     atom   12 type  1   force =     0.00000000   -0.00000189   -0.00106635
     atom   13 type  1   force =     0.00000000    0.00000000    0.00106685
     atom   14 type  1   force =     0.00000452   -0.00000452    0.00105909
     atom   15 type  1   force =     0.00000241    0.00000000   -0.05160296
     atom   16 type  1   force =     0.00000000   -0.00000739   -0.05160282
     atom   17 type  1   force =     0.00000000    0.00000000    0.05161161
     atom   18 type  1   force =    -0.00000034    0.00000034    0.05160792
     atom   19 type  1   force =    -0.00000189    0.00000000   -0.00106635
     atom   20 type  1   force =     0.00000000   -0.00000273   -0.00106897
     atom   21 type  1   force =     0.00000000    0.00000000    0.00106685
     atom   22 type  1   force =    -0.00000452    0.00000452    0.00105909
     atom   23 type  1   force =    -0.00000739    0.00000000   -0.05160282
     atom   24 type  1   force =     0.00000000    0.00000241   -0.05160296
     atom   25 type  1   force =     0.00000000    0.00000000    0.05160379
     atom   26 type  1   force =    -0.00000034   -0.00000034    0.05160792
     atom   27 type  1   force =     0.00000273    0.00000000   -0.00106897
     atom   28 type  1   force =     0.00000000    0.00000273   -0.00106897
     atom   29 type  1   force =     0.00000000    0.00000000    0.00106693
     atom   30 type  1   force =    -0.00000452   -0.00000452    0.00105909
     atom   31 type  1   force =    -0.00000241    0.00000000   -0.05160296
     atom   32 type  1   force =     0.00000000   -0.00000241   -0.05160296

     Total force =     0.206466     Total SCF correction =     0.000508

     Computing stress (Cartesian axis) and pressure

          total   stress  (Ry/bohr**3)                   (kbar)     P=     -122.87
  -0.00070113   0.00000000   0.00000000         -103.14        0.00        0.00
   0.00000000  -0.00070113   0.00000000            0.00     -103.14        0.00
   0.00000000   0.00000000  -0.00110350            0.00        0.00     -162.33

     Writing output data file /scratch/ReKTEeFVHsUzNKaj.save/

     General routines

     Parallel routines

   This run was terminated on:  17:27:23  25Nov2021

   JOB DONE.