     Program PWSCF v.6.7MaX starts on 25Nov2021 at 22:22:15

     R & G space division:  proc/nbgrp/npool/nimage =      72
     Reading input from scf_14.in
Warning: card &CELL ignored
Warning: card CELL_DYNAMICS = 'BFGS', ignored
Warning: card CELL_FACTOR = 2.0, ignored
Warning: card PRESS = 0.0, ignored
Warning: card / ignored

     Current dimensions of program PWSCF are:
     Max number of different atomic species (ntypx) = 10
     Max number of k-points (npk) =  40000
     Max angular momentum in pseudopotentials (lmaxx) =  3
     file Ru.pbe-spn-kjpaw_psl.1.0.0.UPF: wavefunction(s)  4D renormalized

     Subspace diagonalization in iterative solution of the eigenvalue problem:
     one sub-group per band group will be used

     Found symmetry operation: I + (  0.2500  0.2500  0.0000)
     This is a supercell, fractional translations are disabled
     Message from routine setup:
     using ibrav=0 with symmetry is DISCOURAGED, use correct ibrav instead

     bravais-lattice index     =            0
     lattice parameter (alat)  =      14.4007  a.u.
     unit-cell volume          =    4927.6348 (a.u.)^3
     number of atoms/cell      =           32
     number of atomic types    =            1
     number of electrons       =       512.00
     number of Kohn-Sham states=          307
     kinetic-energy cutoff     =      71.0000  Ry
     charge density cutoff     =     430.0000  Ry
     scf convergence threshold =      1.0E-06
     mixing beta               =       0.1000
     number of iterations used =           10  TF        mixing
     Exchange-correlation= SLA  PW   PBX  PBC
                           (   1   4   3   4   0   0   0)

     celldm(1)=  14.400742  celldm(2)=   0.000000  celldm(3)=   0.000000
     celldm(4)=   0.000000  celldm(5)=   0.000000  celldm(6)=   0.000000

     crystal axes: (cart. coord. in units of alat)
               a(1) = (   1.000000   0.000000   0.000000 )
               a(2) = (   0.000000   1.000000   0.000000 )
               a(3) = (   0.000000   0.000000   1.650000 )

     reciprocal axes: (cart. coord. in units 2 pi/alat)
               b(1) = (  1.000000  0.000000  0.000000 )
               b(2) = (  0.000000  1.000000  0.000000 )
               b(3) = (  0.000000  0.000000  0.606061 )

     PseudoPot. # 1 for Ru read from file:
     /rds/homes/b/bxp912/pp/Ru.pbe-spn-kjpaw_psl.1.0.0.UPF
     MD5 check sum: 0ae1f594dea09af7be8575c3a481d1ae
     Pseudo is Projector augmented-wave + core cor, Zval = 16.0
     Generated using "atomic" code by A. Dal Corso  v.5.1
     Shape of augmentation charge: PSQ
     Using radial grid of 1233 points,  6 beta functions with:
                l(1) =   0
                l(2) =   0
                l(3) =   1
                l(4) =   1
                l(5) =   2
                l(6) =   2
     Q(r) pseudized with 0 coefficients

     atomic species   valence    mass     pseudopotential
        Ru            16.00   101.07000     Ru( 1.00)

      8 Sym. Ops. (no inversion) found

   Cartesian axes

     site n.     atom                  positions (alat units)
         1           Ru  tau(   1) = (   0.0000000   0.0000000   0.0000000  )
         2           Ru  tau(   2) = (   0.2500000   0.2500000   0.0000000  )
         3           Ru  tau(   3) = (   0.2500000   0.0000000   0.2500000  )
         4           Ru  tau(   4) = (   0.0000000   0.2500000   0.2500000  )
         5           Ru  tau(   5) = (   0.0000000   0.0000000   1.1500000  )
         6           Ru  tau(   6) = (   0.2500000   0.2500000   1.1500000  )
         7           Ru  tau(   7) = (   0.2500000   0.0000000   1.4000000  )
         8           Ru  tau(   8) = (   0.0000000   0.2500000   1.4000000  )
         9           Ru  tau(   9) = (   0.0000000   0.5000000   0.0000000  )
        10           Ru  tau(  10) = (   0.2500000   0.7500000   0.0000000  )
        11           Ru  tau(  11) = (   0.2500000   0.5000000   0.2500000  )
        12           Ru  tau(  12) = (   0.0000000   0.7500000   0.2500000  )
        13           Ru  tau(  13) = (   0.0000000   0.5000000   1.1500000  )
        14           Ru  tau(  14) = (   0.2500000   0.7500000   1.1500000  )
        15           Ru  tau(  15) = (   0.2500000   0.5000000   1.4000000  )
        16           Ru  tau(  16) = (   0.0000000   0.7500000   1.4000000  )
        17           Ru  tau(  17) = (   0.5000000   0.0000000   0.0000000  )
        18           Ru  tau(  18) = (   0.7500000   0.2500000   0.0000000  )
        19           Ru  tau(  19) = (   0.7500000   0.0000000   0.2500000  )
        20           Ru  tau(  20) = (   0.5000000   0.2500000   0.2500000  )
        21           Ru  tau(  21) = (   0.5000000   0.0000000   1.1500000  )
        22           Ru  tau(  22) = (   0.7500000   0.2500000   1.1500000  )
        23           Ru  tau(  23) = (   0.7500000   0.0000000   1.4000000  )
        24           Ru  tau(  24) = (   0.5000000   0.2500000   1.4000000  )
        25           Ru  tau(  25) = (   0.5000000   0.5000000   0.0000000  )
        26           Ru  tau(  26) = (   0.7500000   0.7500000   0.0000000  )
        27           Ru  tau(  27) = (   0.7500000   0.5000000   0.2500000  )
        28           Ru  tau(  28) = (   0.5000000   0.7500000   0.2500000  )
        29           Ru  tau(  29) = (   0.5000000   0.5000000   1.1500000  )
        30           Ru  tau(  30) = (   0.7500000   0.7500000   1.1500000  )
        31           Ru  tau(  31) = (   0.7500000   0.5000000   1.4000000  )
        32           Ru  tau(  32) = (   0.5000000   0.7500000   1.4000000  )

     number of k points=    75  Marzari-Vanderbilt smearing, width (Ry)=  0.0400
                       cart. coord. in units 2pi/alat
        k(    1) = (   0.0555556   0.0555556   0.0336700), wk =   0.0219479
        k(    2) = (   0.0555556   0.0555556   0.1010101), wk =   0.0219479
        k(    3) = (   0.0555556   0.0555556   0.1683502), wk =   0.0219479
        k(    4) = (   0.0555556   0.0555556   0.2356902), wk =   0.0219479
        k(    5) = (   0.0555556   0.0555556  -0.3030303), wk =   0.0109739
        k(    6) = (   0.0555556   0.1666667   0.0336700), wk =   0.0438957
        k(    7) = (   0.0555556   0.1666667   0.1010101), wk =   0.0438957
        k(    8) = (   0.0555556   0.1666667   0.1683502), wk =   0.0438957
        k(    9) = (   0.0555556   0.1666667   0.2356902), wk =   0.0438957
        k(   10) = (   0.0555556   0.1666667  -0.3030303), wk =   0.0219479
        k(   11) = (   0.0555556   0.2777778   0.0336700), wk =   0.0438957
        k(   12) = (   0.0555556   0.2777778   0.1010101), wk =   0.0438957
        k(   13) = (   0.0555556   0.2777778   0.1683502), wk =   0.0438957
        k(   14) = (   0.0555556   0.2777778   0.2356902), wk =   0.0438957
        k(   15) = (   0.0555556   0.2777778  -0.3030303), wk =   0.0219479
        k(   16) = (   0.0555556   0.3888889   0.0336700), wk =   0.0438957
        k(   17) = (   0.0555556   0.3888889   0.1010101), wk =   0.0438957
        k(   18) = (   0.0555556   0.3888889   0.1683502), wk =   0.0438957
        k(   19) = (   0.0555556   0.3888889   0.2356902), wk =   0.0438957
        k(   20) = (   0.0555556   0.3888889  -0.3030303), wk =   0.0219479
        k(   21) = (   0.0555556  -0.5000000   0.0336700), wk =   0.0219479
        k(   22) = (   0.0555556  -0.5000000   0.1010101), wk =   0.0219479
        k(   23) = (   0.0555556  -0.5000000   0.1683502), wk =   0.0219479
        k(   24) = (   0.0555556  -0.5000000   0.2356902), wk =   0.0219479
        k(   25) = (   0.0555556  -0.5000000  -0.3030303), wk =   0.0109739
        k(   26) = (   0.1666667   0.1666667   0.0336700), wk =   0.0219479
        k(   27) = (   0.1666667   0.1666667   0.1010101), wk =   0.0219479
        k(   28) = (   0.1666667   0.1666667   0.1683502), wk =   0.0219479
        k(   29) = (   0.1666667   0.1666667   0.2356902), wk =   0.0219479
        k(   30) = (   0.1666667   0.1666667  -0.3030303), wk =   0.0109739
        k(   31) = (   0.1666667   0.2777778   0.0336700), wk =   0.0438957
        k(   32) = (   0.1666667   0.2777778   0.1010101), wk =   0.0438957
        k(   33) = (   0.1666667   0.2777778   0.1683502), wk =   0.0438957
        k(   34) = (   0.1666667   0.2777778   0.2356902), wk =   0.0438957
        k(   35) = (   0.1666667   0.2777778  -0.3030303), wk =   0.0219479
        k(   36) = (   0.1666667   0.3888889   0.0336700), wk =   0.0438957
        k(   37) = (   0.1666667   0.3888889   0.1010101), wk =   0.0438957
        k(   38) = (   0.1666667   0.3888889   0.1683502), wk =   0.0438957
        k(   39) = (   0.1666667   0.3888889   0.2356902), wk =   0.0438957
        k(   40) = (   0.1666667   0.3888889  -0.3030303), wk =   0.0219479
        k(   41) = (   0.1666667  -0.5000000   0.0336700), wk =   0.0219479
        k(   42) = (   0.1666667  -0.5000000   0.1010101), wk =   0.0219479
        k(   43) = (   0.1666667  -0.5000000   0.1683502), wk =   0.0219479
        k(   44) = (   0.1666667  -0.5000000   0.2356902), wk =   0.0219479
        k(   45) = (   0.1666667  -0.5000000  -0.3030303), wk =   0.0109739
        k(   46) = (   0.2777778   0.2777778   0.0336700), wk =   0.0219479
        k(   47) = (   0.2777778   0.2777778   0.1010101), wk =   0.0219479
        k(   48) = (   0.2777778   0.2777778   0.1683502), wk =   0.0219479
        k(   49) = (   0.2777778   0.2777778   0.2356902), wk =   0.0219479
        k(   50) = (   0.2777778   0.2777778  -0.3030303), wk =   0.0109739
        k(   51) = (   0.2777778   0.3888889   0.0336700), wk =   0.0438957
        k(   52) = (   0.2777778   0.3888889   0.1010101), wk =   0.0438957
        k(   53) = (   0.2777778   0.3888889   0.1683502), wk =   0.0438957
        k(   54) = (   0.2777778   0.3888889   0.2356902), wk =   0.0438957
        k(   55) = (   0.2777778   0.3888889  -0.3030303), wk =   0.0219479
        k(   56) = (   0.2777778  -0.5000000   0.0336700), wk =   0.0219479
        k(   57) = (   0.2777778  -0.5000000   0.1010101), wk =   0.0219479
        k(   58) = (   0.2777778  -0.5000000   0.1683502), wk =   0.0219479
        k(   59) = (   0.2777778  -0.5000000   0.2356902), wk =   0.0219479
        k(   60) = (   0.2777778  -0.5000000  -0.3030303), wk =   0.0109739
        k(   61) = (   0.3888889   0.3888889   0.0336700), wk =   0.0219479
        k(   62) = (   0.3888889   0.3888889   0.1010101), wk =   0.0219479
        k(   63) = (   0.3888889   0.3888889   0.1683502), wk =   0.0219479
        k(   64) = (   0.3888889   0.3888889   0.2356902), wk =   0.0219479
        k(   65) = (   0.3888889   0.3888889  -0.3030303), wk =   0.0109739
        k(   66) = (   0.3888889  -0.5000000   0.0336700), wk =   0.0219479
        k(   67) = (   0.3888889  -0.5000000   0.1010101), wk =   0.0219479
        k(   68) = (   0.3888889  -0.5000000   0.1683502), wk =   0.0219479
        k(   69) = (   0.3888889  -0.5000000   0.2356902), wk =   0.0219479
        k(   70) = (   0.3888889  -0.5000000  -0.3030303), wk =   0.0109739
        k(   71) = (  -0.5000000  -0.5000000   0.0336700), wk =   0.0054870
        k(   72) = (  -0.5000000  -0.5000000   0.1010101), wk =   0.0054870
        k(   73) = (  -0.5000000  -0.5000000   0.1683502), wk =   0.0054870
        k(   74) = (  -0.5000000  -0.5000000   0.2356902), wk =   0.0054870
        k(   75) = (  -0.5000000  -0.5000000  -0.3030303), wk =   0.0027435

     Check: negative core charge=   -0.000002

     Initial potential from superposition of free atoms

     starting charge  511.97959, renormalised to  512.00000
     Starting wfcs are  320 randomized atomic wfcs
     Checking if some PAW data can be deallocated...

     Self-consistent Calculation

     iteration #  1     ecut=    71.00 Ry     beta= 0.10
     Davidson diagonalization with overlap
     ethr =  1.00E-02,  avg # of iterations =  3.8

     total energy              =  -13812.50835247 Ry
     estimated scf accuracy    <      11.74014037 Ry

[...]

     total energy              =  -13811.65485366 Ry
     estimated scf accuracy    <       0.00000416 Ry

     iteration # 26     ecut=    71.00 Ry     beta= 0.10
     Davidson diagonalization with overlap
     ethr =  4.37E-10,  avg # of iterations =  3.0

     End of self-consistent calculation

          k = 0.0556 0.0556 0.0337 ( 49784 PWs)   bands (ev):

   -60.8507 -60.7714 -60.7714 -60.7564 -60.7564 -60.7418 -60.7394 -60.7336
   -60.7336 -60.7296 -60.7111 -60.7111 -60.7056 -60.7056 -60.6795 -60.6795
   -60.3232 -60.3216 -60.2768 -60.2768 -60.2766 -60.2766 -60.2738 -60.2738
   -60.2730 -60.2730 -60.2677 -60.2677 -60.2676 -60.2676 -60.2191 -60.2191
   -31.1716 -31.1709 -31.1709 -31.1656 -31.1352 -31.1352 -31.0650 -30.9639
   -30.9639 -30.9622 -30.9622 -30.9170 -30.9170 -30.8899 -30.8899 -30.8743
   -30.8743 -30.8642 -30.8642 -30.8294 -30.8294 -30.7883 -30.7833 -30.7833
   -30.7748 -30.7554 -30.7554 -30.7272 -30.7272 -30.6803 -30.6641 -30.6641
   -30.6538 -30.6538 -30.6238 -30.6238 -30.5930 -30.5918 -30.5379 -30.5379
   -30.5280 -30.5280 -30.4837 -30.4837 -30.4585 -30.4585 -30.4494 -30.4460
   -30.4460 -30.4334 -30.4256 -30.4237 -30.4190 -30.4099 -30.4099 -30.3958
   -30.2961 -30.2961 -30.2922 -30.2922 -30.2649 -30.2649 -30.2559 -30.2559
   -30.2553 -30.2553 -30.2550 -30.2550 -30.2215 -30.2214 -30.2189 -30.2189
   -30.2070 -30.1712 -30.1685 -30.1684 -30.1666 -30.1666 -30.1617 -30.1578
   -30.1578 -30.1505 -30.1505 -30.1427 -30.1427 -30.1372 -30.1372 -30.1320
   -30.0379 -30.0348 -30.0317 -30.0274 -30.0077 -30.0077 -30.0041 -30.0041
     5.0844   6.3125   6.4618   6.4618   6.7368   6.7489   6.7541   6.7548
     6.7548   6.7799   6.9618   6.9618   7.2040   7.2040   7.2791   7.3828
     7.3828   7.6462   7.6462   7.6675   7.8217   7.8217   7.8563   7.8563
     8.0151   8.0151   8.0518   8.0683   8.0785   8.0785   8.1256   8.1256
     8.3472   8.3472   8.3835   8.3835   8.4070   8.4070   8.4564   8.4564
     8.5993   8.5993   8.6792   8.6792   8.7146   8.8162   8.8162   8.8256
     8.8256   9.0782   9.0782   9.0985   9.1192   9.1192   9.1235   9.1235
     9.2083   9.2083   9.3522   9.3817   9.3817   9.4298   9.5354   9.5528
     9.5528   9.5831   9.6190   9.6190   9.7723   9.7723   9.8779   9.8779
     9.9282   9.9282   9.9450   9.9532  10.0690  10.0886  10.2433  10.2536
    10.2536  10.3037  10.5393  10.5393  10.6124  10.6124  10.6282  10.6282
    10.7407  10.7407  10.8782  10.8782  10.8868  10.8868  10.8993  10.9043
    10.9043  10.9622  11.0060  11.0259  11.0561  11.0561  11.2321  11.2321
    11.2473  11.2905  11.2905  11.3609  11.3609  11.3754  11.4823  11.4823
    11.5565  11.5565  11.6649  11.6649  11.6707  11.6707  11.7074  11.8262
    11.8262  11.8589  11.8589  11.9833  11.9833  12.2405  12.2405  12.2408
    12.2690  12.2690  12.3168  12.4204  12.5250  12.5250  12.5560  12.5569
    12.5810  12.5810  12.5854  12.5854  12.6352  12.7415  12.7415  12.7640
    12.7858  12.7858  12.9270  12.9632  12.9632  13.3144  13.3144  13.3515
    13.4550  13.4615  13.4615  13.5182  13.5847  13.6974  13.7251  13.7251
    13.7521  13.7720  13.7720  13.7830  13.7830  13.9307  14.1267  14.1927
    14.1927  14.2670  14.2670  14.5376  14.5376  14.5450  14.6811  14.6811
    14.7239  15.4239  15.4587

[...]

          k = 0.3889-0.5000-0.3030 ( 49792 PWs)   bands (ev):

[...]

          k =-0.5000-0.5000 0.0337 ( 49756 PWs)   bands (ev):

[...]

          k =-0.5000-0.5000-0.3030 ( 49848 PWs)   bands (ev):

   -60.8046 -60.8046 -60.8045 -60.8045 -60.7264 -60.7264 -60.7264 -60.7264
   -60.7066 -60.7066 -60.7066 -60.7066 -60.7066 -60.7066 -60.7066 -60.7066
   -60.2984 -60.2984 -60.2984 -60.2984 -60.2979 -60.2979 -60.2979 -60.2979
   -60.2461 -60.2461 -60.2461 -60.2461 -60.2461 -60.2461 -60.2461 -60.2461
   -31.1043 -31.1043 -31.1043 -31.1043 -31.1043 -31.1043 -31.1043 -31.1043
   -31.0223 -31.0223 -31.0222 -31.0222 -30.9493 -30.9493 -30.9493 -30.9493
   -30.8083 -30.8083 -30.8083 -30.8083 -30.8083 -30.8083 -30.8083 -30.8083
   -30.7088 -30.7088 -30.7088 -30.7088 -30.6295 -30.6294 -30.6294 -30.6294
   -30.6294 -30.6294 -30.6294 -30.6294 -30.6089 -30.6089 -30.6089 -30.6089
   -30.5371 -30.5371 -30.5371 -30.5371 -30.4265 -30.4265 -30.4264 -30.4264
   -30.4264 -30.4264 -30.4264 -30.4264 -30.4105 -30.4105 -30.4105 -30.4105
   -30.2868 -30.2868 -30.2868 -30.2868 -30.2536 -30.2536 -30.2536 -30.2536
   -30.2536 -30.2536 -30.2536 -30.2536 -30.2517 -30.2517 -30.2517 -30.2517
   -30.1644 -30.1644 -30.1644 -30.1644 -30.1644 -30.1644 -30.1644 -30.1644
   -30.1502 -30.1502 -30.1502 -30.1502 -30.1488 -30.1488 -30.1488 -30.1488
   -30.0189 -30.0189 -30.0189 -30.0189 -30.0161 -30.0161 -30.0161 -30.0161
     6.3298   6.3298   6.3298   6.3298   6.9336   6.9336   6.9336   6.9336
     7.3566   7.3566   7.3566   7.3566   7.3566   7.3566   7.3566   7.3566
     7.4378   7.4378   7.4378   7.4378   7.5050   7.5050   7.5050   7.5050
     7.5050   7.5050   7.5050   7.5050   7.6556   7.6556   7.6556   7.6556
     8.0780   8.0780   8.0780   8.0780   8.4458   8.4458   8.4458   8.4458
     8.4458   8.4458   8.4458   8.4458   8.7953   8.7953   8.7953   8.7953
     8.7953   8.7953   8.7953   8.7953   9.0730   9.0730   9.0730   9.0730
     9.4902   9.4902   9.4902   9.4902   9.9638   9.9638   9.9638   9.9638
     9.9880   9.9880   9.9880   9.9880  10.0624  10.0624  10.0624  10.0624
    10.2844  10.2844  10.2844  10.2844  10.3160  10.3160  10.3160  10.3160
    10.3160  10.3160  10.3160  10.3160  10.4960  10.4960  10.4960  10.4960
    10.5577  10.5577  10.5577  10.5577  10.7768  10.7768  10.7768  10.7768
    11.1379  11.1379  11.1379  11.1379  11.1379  11.1379  11.1379  11.1379
    11.2643  11.2643  11.2643  11.2643  11.2643  11.2643  11.2643  11.2643
    11.4074  11.4074  11.4074  11.4074  11.7805  11.7805  11.7805  11.7805
    11.8672  11.8672  11.8672  11.8672  11.9845  11.9845  11.9845  11.9845
    11.9845  11.9845  11.9845  11.9845  12.1944  12.1944  12.1944  12.1944
    12.5887  12.5887  12.5887  12.5887  12.8991  12.8991  12.8991  12.8991
    13.0639  13.0639  13.0639  13.0639  13.0639  13.0639  13.0639  13.0639
    13.4942  13.4942  13.4942  13.4942  13.6665  13.6665  13.6665  13.6665
    13.8131  13.8131  13.8131  13.8131  13.8131  13.8131  13.8131  13.8131
    13.8755  13.8755  13.8755  13.8755  15.5450  15.5450  15.5450  15.5450
    16.7971  16.7971  16.7971

     the Fermi energy is    12.2307 ev

!    total energy              =  -13811.65485497 Ry

     total all-electron energy =   -289988.045194 Ry
     estimated scf accuracy    <       0.00000020 Ry
     smearing contrib. (-TS)   =      -0.00320313 Ry
     internal energy E=F+TS    =  -13811.65165184 Ry

     The total energy is F=E-TS. E is the sum of the following terms:
     one-electron contribution =  -11358.71261502 Ry
     hartree contribution      =    5895.16985352 Ry
     xc contribution           =    -925.65564649 Ry
     ewald contribution        =     166.88104810 Ry
     one-center paw contrib.   =   -7589.33429195 Ry

     convergence has been achieved in  26 iterations

     Forces acting on atoms (cartesian axes, Ry/au):

     atom    1 type  1   force =     0.00000000    0.00000000    0.03841297
     atom    2 type  1   force =     0.00000080    0.00000080    0.03842941
     atom    3 type  1   force =    -0.00000006    0.00000000   -0.03303738
     atom    4 type  1   force =    -0.00000000   -0.00000006   -0.03303738
     atom    5 type  1   force =     0.00000000    0.00000000    0.03301126
     atom    6 type  1   force =    -0.00001417   -0.00001417    0.03300555
     atom    7 type  1   force =     0.00000457   -0.00000000   -0.03841313
     atom    8 type  1   force =     0.00000000    0.00000457   -0.03841313
     atom    9 type  1   force =     0.00000000    0.00000000    0.03844068
     atom   10 type  1   force =     0.00000080   -0.00000080    0.03842941
     atom   11 type  1   force =     0.00000679    0.00000000   -0.03305009
     atom   12 type  1   force =     0.00000000    0.00000006   -0.03303738
     atom   13 type  1   force =     0.00000000    0.00000000    0.03302390
     atom   14 type  1   force =    -0.00001417    0.00001417    0.03300555
     atom   15 type  1   force =    -0.00000433    0.00000000   -0.03838585
     atom   16 type  1   force =     0.00000000   -0.00000457   -0.03841313
     atom   17 type  1   force =     0.00000000    0.00000000    0.03844068
     atom   18 type  1   force =    -0.00000080    0.00000080    0.03842941
     atom   19 type  1   force =     0.00000006   -0.00000000   -0.03303738
     atom   20 type  1   force =     0.00000000    0.00000679   -0.03305009
     atom   21 type  1   force =     0.00000000    0.00000000    0.03302390
     atom   22 type  1   force =     0.00001417   -0.00001417    0.03300555
     atom   23 type  1   force =    -0.00000457    0.00000000   -0.03841313
     atom   24 type  1   force =     0.00000000   -0.00000433   -0.03838585
     atom   25 type  1   force =     0.00000000    0.00000000    0.03842925
     atom   26 type  1   force =    -0.00000080   -0.00000080    0.03842941
     atom   27 type  1   force =    -0.00000679    0.00000000   -0.03305009
     atom   28 type  1   force =     0.00000000   -0.00000679   -0.03305009
     atom   29 type  1   force =     0.00000000    0.00000000    0.03302329
     atom   30 type  1   force =     0.00001417    0.00001417    0.03300555
     atom   31 type  1   force =     0.00000433    0.00000000   -0.03838585
     atom   32 type  1   force =     0.00000000    0.00000433   -0.03838585

     Total force =     0.202645     Total SCF correction =     0.004361

     Computing stress (Cartesian axis) and pressure

          total   stress  (Ry/bohr**3)                   (kbar)     P=      -75.66
  -0.00057539   0.00000000   0.00000000          -84.64        0.00        0.00
   0.00000000  -0.00057539   0.00000000            0.00      -84.64        0.00
   0.00000000   0.00000000  -0.00039213            0.00        0.00      -57.68

     Writing output data file /scratch/IzyhCxlsMnDEQoeC.save/

     General routines

     Parallel routines

   This run was terminated on:  23: 6: 7  25Nov2021

   JOB DONE.