     Program PWSCF v.6.7MaX starts on 25Nov2021 at 17:57:35

     R & G space division:  proc/nbgrp/npool/nimage =      72
     Reading input from scf_7.in
Warning: card &CELL ignored
Warning: card CELL_DYNAMICS = 'BFGS', ignored
Warning: card CELL_FACTOR = 2.0, ignored
Warning: card PRESS = 0.0, ignored
Warning: card / ignored

     Current dimensions of program PWSCF are:
     Max number of different atomic species (ntypx) = 10
     Max number of k-points (npk) =  40000
     Max angular momentum in pseudopotentials (lmaxx) =  3
     file Ru.pbe-spn-kjpaw_psl.1.0.0.UPF: wavefunction(s)  4D renormalized

     Subspace diagonalization in iterative solution of the eigenvalue problem:
     one sub-group per band group will be used

     Found symmetry operation: I + (  0.2500  0.2500  0.0000)
     This is a supercell, fractional translations are disabled
     Message from routine setup:
     using ibrav=0 with symmetry is DISCOURAGED, use correct ibrav instead

     bravais-lattice index     =            0
     lattice parameter (alat)  =      14.4007  a.u.
     unit-cell volume          =    3882.3790 (a.u.)^3
     number of atoms/cell      =           32
     number of atomic types    =            1
     number of electrons       =       512.00
     number of Kohn-Sham states=          307
     kinetic-energy cutoff     =      71.0000  Ry
     charge density cutoff     =     430.0000  Ry
     scf convergence threshold =      1.0E-06
     mixing beta               =       0.1000
     number of iterations used =           10  TF        mixing
     Exchange-correlation= SLA  PW   PBX  PBC
                           (   1   4   3   4   0   0   0)

     celldm(1)=  14.400742  celldm(2)=   0.000000  celldm(3)=   0.000000
     celldm(4)=   0.000000  celldm(5)=   0.000000  celldm(6)=   0.000000

     crystal axes: (cart. coord. in units of alat)
               a(1) = (   1.000000   0.000000   0.000000 )
               a(2) = (   0.000000   1.000000   0.000000 )
               a(3) = (   0.000000   0.000000   1.300000 )

     reciprocal axes: (cart. coord. in units 2 pi/alat)
               b(1) = (  1.000000  0.000000  0.000000 )
               b(2) = (  0.000000  1.000000  0.000000 )
               b(3) = (  0.000000  0.000000  0.769231 )

     PseudoPot. # 1 for Ru read from file:
     /rds/homes/b/bxp912/pp/Ru.pbe-spn-kjpaw_psl.1.0.0.UPF
     MD5 check sum: 0ae1f594dea09af7be8575c3a481d1ae
     Pseudo is Projector augmented-wave + core cor, Zval = 16.0
     Generated using "atomic" code by A. Dal Corso  v.5.1
     Shape of augmentation charge: PSQ
     Using radial grid of 1233 points,  6 beta functions with:
                l(1) =   0
                l(2) =   0
                l(3) =   1
                l(4) =   1
                l(5) =   2
                l(6) =   2
     Q(r) pseudized with 0 coefficients

     atomic species   valence    mass     pseudopotential
        Ru            16.00   101.07000     Ru( 1.00)

      8 Sym. Ops. (no inversion) found

   Cartesian axes

     site n.     atom                  positions (alat units)
         1           Ru  tau(   1) = (   0.0000000   0.0000000   0.0000000  )
         2           Ru  tau(   2) = (   0.2500000   0.2500000   0.0000000  )
         3           Ru  tau(   3) = (   0.2500000   0.0000000   0.2500000  )
         4           Ru  tau(   4) = (   0.0000000   0.2500000   0.2500000  )
         5           Ru  tau(   5) = (   0.0000000   0.0000000   0.8000000  )
         6           Ru  tau(   6) = (   0.2500000   0.2500000   0.8000000  )
         7           Ru  tau(   7) = (   0.2500000   0.0000000   1.0500000  )
         8           Ru  tau(   8) = (   0.0000000   0.2500000   1.0500000  )
         9           Ru  tau(   9) = (   0.0000000   0.5000000   0.0000000  )
        10           Ru  tau(  10) = (   0.2500000   0.7500000   0.0000000  )
        11           Ru  tau(  11) = (   0.2500000   0.5000000   0.2500000  )
        12           Ru  tau(  12) = (   0.0000000   0.7500000   0.2500000  )
        13           Ru  tau(  13) = (   0.0000000   0.5000000   0.8000000  )
        14           Ru  tau(  14) = (   0.2500000   0.7500000   0.8000000  )
        15           Ru  tau(  15) = (   0.2500000   0.5000000   1.0500000  )
        16           Ru  tau(  16) = (   0.0000000   0.7500000   1.0500000  )
        17           Ru  tau(  17) = (   0.5000000   0.0000000   0.0000000  )
        18           Ru  tau(  18) = (   0.7500000   0.2500000   0.0000000  )
        19           Ru  tau(  19) = (   0.7500000   0.0000000   0.2500000  )
        20           Ru  tau(  20) = (   0.5000000   0.2500000   0.2500000  )
        21           Ru  tau(  21) = (   0.5000000   0.0000000   0.8000000  )
        22           Ru  tau(  22) = (   0.7500000   0.2500000   0.8000000  )
        23           Ru  tau(  23) = (   0.7500000   0.0000000   1.0500000  )
        24           Ru  tau(  24) = (   0.5000000   0.2500000   1.0500000  )
        25           Ru  tau(  25) = (   0.5000000   0.5000000   0.0000000  )
        26           Ru  tau(  26) = (   0.7500000   0.7500000   0.0000000  )
        27           Ru  tau(  27) = (   0.7500000   0.5000000   0.2500000  )
        28           Ru  tau(  28) = (   0.5000000   0.7500000   0.2500000  )
        29           Ru  tau(  29) = (   0.5000000   0.5000000   0.8000000  )
        30           Ru  tau(  30) = (   0.7500000   0.7500000   0.8000000  )
        31           Ru  tau(  31) = (   0.7500000   0.5000000   1.0500000  )
        32           Ru  tau(  32) = (   0.5000000   0.7500000   1.0500000  )

     number of k points=    75  Marzari-Vanderbilt smearing, width (Ry)=  0.0400
                       cart. coord. in units 2pi/alat
        k(    1) = (   0.0555556   0.0555556   0.0427350), wk =   0.0219479
        k(    2) = (   0.0555556   0.0555556   0.1282051), wk =   0.0219479
        k(    3) = (   0.0555556   0.0555556   0.2136752), wk =   0.0219479
        k(    4) = (   0.0555556   0.0555556   0.2991453), wk =   0.0219479
        k(    5) = (   0.0555556   0.0555556  -0.3846154), wk =   0.0109739
        k(    6) = (   0.0555556   0.1666667   0.0427350), wk =   0.0438957
        k(    7) = (   0.0555556   0.1666667   0.1282051), wk =   0.0438957
        k(    8) = (   0.0555556   0.1666667   0.2136752), wk =   0.0438957
        k(    9) = (   0.0555556   0.1666667   0.2991453), wk =   0.0438957
        k(   10) = (   0.0555556   0.1666667  -0.3846154), wk =   0.0219479
        k(   11) = (   0.0555556   0.2777778   0.0427350), wk =   0.0438957
        k(   12) = (   0.0555556   0.2777778   0.1282051), wk =   0.0438957
        k(   13) = (   0.0555556   0.2777778   0.2136752), wk =   0.0438957
        k(   14) = (   0.0555556   0.2777778   0.2991453), wk =   0.0438957
        k(   15) = (   0.0555556   0.2777778  -0.3846154), wk =   0.0219479
        k(   16) = (   0.0555556   0.3888889   0.0427350), wk =   0.0438957
        k(   17) = (   0.0555556   0.3888889   0.1282051), wk =   0.0438957
        k(   18) = (   0.0555556   0.3888889   0.2136752), wk =   0.0438957
        k(   19) = (   0.0555556   0.3888889   0.2991453), wk =   0.0438957
        k(   20) = (   0.0555556   0.3888889  -0.3846154), wk =   0.0219479
        k(   21) = (   0.0555556  -0.5000000   0.0427350), wk =   0.0219479
        k(   22) = (   0.0555556  -0.5000000   0.1282051), wk =   0.0219479
        k(   23) = (   0.0555556  -0.5000000   0.2136752), wk =   0.0219479
        k(   24) = (   0.0555556  -0.5000000   0.2991453), wk =   0.0219479
        k(   25) = (   0.0555556  -0.5000000  -0.3846154), wk =   0.0109739
        k(   26) = (   0.1666667   0.1666667   0.0427350), wk =   0.0219479
        k(   27) = (   0.1666667   0.1666667   0.1282051), wk =   0.0219479
        k(   28) = (   0.1666667   0.1666667   0.2136752), wk =   0.0219479
        k(   29) = (   0.1666667   0.1666667   0.2991453), wk =   0.0219479
        k(   30) = (   0.1666667   0.1666667  -0.3846154), wk =   0.0109739
        k(   31) = (   0.1666667   0.2777778   0.0427350), wk =   0.0438957
        k(   32) = (   0.1666667   0.2777778   0.1282051), wk =   0.0438957
        k(   33) = (   0.1666667   0.2777778   0.2136752), wk =   0.0438957
        k(   34) = (   0.1666667   0.2777778   0.2991453), wk =   0.0438957
        k(   35) = (   0.1666667   0.2777778  -0.3846154), wk =   0.0219479
        k(   36) = (   0.1666667   0.3888889   0.0427350), wk =   0.0438957
        k(   37) = (   0.1666667   0.3888889   0.1282051), wk =   0.0438957
        k(   38) = (   0.1666667   0.3888889   0.2136752), wk =   0.0438957
        k(   39) = (   0.1666667   0.3888889   0.2991453), wk =   0.0438957
        k(   40) = (   0.1666667   0.3888889  -0.3846154), wk =   0.0219479
        k(   41) = (   0.1666667  -0.5000000   0.0427350), wk =   0.0219479
        k(   42) = (   0.1666667  -0.5000000   0.1282051), wk =   0.0219479
        k(   43) = (   0.1666667  -0.5000000   0.2136752), wk =   0.0219479
        k(   44) = (   0.1666667  -0.5000000   0.2991453), wk =   0.0219479
        k(   45) = (   0.1666667  -0.5000000  -0.3846154), wk =   0.0109739
        k(   46) = (   0.2777778   0.2777778   0.0427350), wk =   0.0219479
        k(   47) = (   0.2777778   0.2777778   0.1282051), wk =   0.0219479
        k(   48) = (   0.2777778   0.2777778   0.2136752), wk =   0.0219479
        k(   49) = (   0.2777778   0.2777778   0.2991453), wk =   0.0219479
        k(   50) = (   0.2777778   0.2777778  -0.3846154), wk =   0.0109739
        k(   51) = (   0.2777778   0.3888889   0.0427350), wk =   0.0438957
        k(   52) = (   0.2777778   0.3888889   0.1282051), wk =   0.0438957
        k(   53) = (   0.2777778   0.3888889   0.2136752), wk =   0.0438957
        k(   54) = (   0.2777778   0.3888889   0.2991453), wk =   0.0438957
        k(   55) = (   0.2777778   0.3888889  -0.3846154), wk =   0.0219479
        k(   56) = (   0.2777778  -0.5000000   0.0427350), wk =   0.0219479
        k(   57) = (   0.2777778  -0.5000000   0.1282051), wk =   0.0219479
        k(   58) = (   0.2777778  -0.5000000   0.2136752), wk =   0.0219479
        k(   59) = (   0.2777778  -0.5000000   0.2991453), wk =   0.0219479
        k(   60) = (   0.2777778  -0.5000000  -0.3846154), wk =   0.0109739
        k(   61) = (   0.3888889   0.3888889   0.0427350), wk =   0.0219479
        k(   62) = (   0.3888889   0.3888889   0.1282051), wk =   0.0219479
        k(   63) = (   0.3888889   0.3888889   0.2136752), wk =   0.0219479
        k(   64) = (   0.3888889   0.3888889   0.2991453), wk =   0.0219479
        k(   65) = (   0.3888889   0.3888889  -0.3846154), wk =   0.0109739
        k(   66) = (   0.3888889  -0.5000000   0.0427350), wk =   0.0219479
        k(   67) = (   0.3888889  -0.5000000   0.1282051), wk =   0.0219479
        k(   68) = (   0.3888889  -0.5000000   0.2136752), wk =   0.0219479
        k(   69) = (   0.3888889  -0.5000000   0.2991453), wk =   0.0219479
        k(   70) = (   0.3888889  -0.5000000  -0.3846154), wk =   0.0109739
        k(   71) = (  -0.5000000  -0.5000000   0.0427350), wk =   0.0054870
        k(   72) = (  -0.5000000  -0.5000000   0.1282051), wk =   0.0054870
        k(   73) = (  -0.5000000  -0.5000000   0.2136752), wk =   0.0054870
        k(   74) = (  -0.5000000  -0.5000000   0.2991453), wk =   0.0054870
        k(   75) = (  -0.5000000  -0.5000000  -0.3846154), wk =   0.0027435

     Check: negative core charge=   -0.000002

     Initial potential from superposition of free atoms

     starting charge  511.97959, renormalised to  512.00000
     Starting wfcs are  320 randomized atomic wfcs
     Checking if some PAW data can be deallocated...

     Self-consistent Calculation

     iteration #  1     ecut=    71.00 Ry     beta= 0.10
     Davidson diagonalization with overlap
     ethr =  1.00E-02,  avg # of iterations =  3.5

     total energy              =  -13812.49328911 Ry
     estimated scf accuracy    <      10.83653834 Ry

[...]

     iteration #  6     ecut=    71.00 Ry     beta= 0.10
     Davidson diagonalization with overlap
     c_bands:  1 eigenvalues not converged
     ethr =  6.13E-05,  avg # of iterations =  4.2

[...]

     total energy              =  -13811.77977039 Ry
     estimated scf accuracy    <       0.00000249 Ry

     iteration # 19     ecut=    71.00 Ry     beta= 0.10
     Davidson diagonalization with overlap
     ethr =  4.87E-10,  avg # of iterations =  2.5

     End of self-consistent calculation

          k = 0.0556 0.0556 0.0427 ( 39187 PWs)   bands (ev):

   -56.3108 -56.2313 -56.2312 -56.2162 -56.2162 -56.2021 -56.1991 -56.1933
   -56.1933 -56.1893 -56.1709 -56.1709 -56.1655 -56.1654 -56.1392 -56.1392
   -55.8185 -55.8166 -55.7724 -55.7724 -55.7721 -55.7721 -55.7696 -55.7696
   -55.7688 -55.7688 -55.7634 -55.7634 -55.7632 -55.7632 -55.7149 -55.7149
   -26.6332 -26.6325 -26.6325 -26.6273 -26.5956 -26.5956 -26.5296 -26.4256
   -26.4256 -26.4232 -26.4231 -26.3787 -26.3786 -26.3528 -26.3528 -26.3375
   -26.3375 -26.3265 -26.3265 -26.2908 -26.2908 -26.2606 -26.2565 -26.2564
   -26.2486 -26.2212 -26.2212 -26.1927 -26.1927 -26.1516 -26.1261 -26.1261
   -26.1154 -26.1154 -26.0856 -26.0856 -26.0527 -26.0522 -26.0021 -26.0021
   -25.9921 -25.9921 -25.9702 -25.9702 -25.9422 -25.9422 -25.9082 -25.9062
   -25.9062 -25.9023 -25.8922 -25.8868 -25.8857 -25.8857 -25.8796 -25.8718
   -25.7836 -25.7836 -25.7782 -25.7782 -25.7535 -25.7535 -25.7426 -25.7426
   -25.7422 -25.7422 -25.7419 -25.7419 -25.7105 -25.7105 -25.7059 -25.7059
   -25.7045 -25.6697 -25.6696 -25.6692 -25.6641 -25.6640 -25.6585 -25.6535
   -25.6535 -25.6433 -25.6433 -25.6368 -25.6368 -25.6298 -25.6298 -25.6215
   -25.5259 -25.5228 -25.5187 -25.5144 -25.4966 -25.4966 -25.4930 -25.4930
     9.6012  10.8558  10.9959  10.9959  11.2676  11.2805  11.2859  11.2859
    11.2911  11.3731  11.4942  11.4942  11.7309  11.7309  11.7862  11.9108
    11.9108  12.1844  12.1844  12.2013  12.3568  12.3568  12.3908  12.3908
    12.5506  12.5506  12.6040  12.6174  12.6302  12.6302  12.6681  12.6681
    12.8819  12.8819  12.9209  12.9209  12.9441  12.9441  13.0033  13.0033
    13.1230  13.1230  13.2180  13.2180  13.2400  13.3506  13.3506  13.3604
    13.3604  13.6165  13.6165  13.6432  13.6517  13.6517  13.6589  13.6589
    13.7500  13.7500  13.8908  13.9494  13.9494  13.9659  14.0694  14.0844
    14.0844  14.1138  14.1959  14.1959  14.2334  14.2334  14.3261  14.3261
    14.4545  14.4545  14.4809  14.4891  14.6043  14.6227  14.6717  14.7101
    14.7101  14.7594  14.8846  15.0312  15.0312  15.1244  15.1244  15.1785
    15.1785  15.3840  15.3840  15.4049  15.4049  15.4331  15.4331  15.5359
    15.5400  15.5400  15.5551  15.5826  15.5826  15.6306  15.6306  15.6617
    15.7602  15.7602  15.7803  15.8073  15.8075  15.8075  15.9948  15.9948
    16.0360  16.0360  16.1883  16.1883  16.2057  16.2057  16.2445  16.4147
    16.4147  16.4616  16.4616  16.4833  16.4833  16.7476  16.7476  16.7785
    16.9216  16.9216  16.9717  16.9717  16.9766  17.0386  17.0386  17.0791
    17.1020  17.1020  17.1327  17.1327  17.1543  17.1703  17.1977  17.2863
    17.3464  17.3464  17.4522  17.5599  17.5599  17.8709  17.8709  17.9755
    17.9755  17.9776  18.0530  18.1170  18.1732  18.2824  18.3193  18.3193
    18.3298  18.3298  18.4687  18.4984  18.6535  18.6535  18.7871  18.8067
    18.8067  18.8741  18.8741  19.0772  19.0983  19.0983  19.1973  19.1973
    19.6730  19.7203  19.7203

[...]

          k = 0.3889-0.5000-0.3846 ( 39232 PWs)   bands (ev):

[...]

          k =-0.5000-0.5000 0.0427 ( 39196 PWs)   bands (ev):

[...]

          k =-0.5000-0.5000-0.3846 ( 39240 PWs)   bands (ev):

   -56.2645 -56.2645 -56.2645 -56.2645 -56.1864 -56.1864 -56.1863 -56.1863
   -56.1664 -56.1664 -56.1663 -56.1663 -56.1663 -56.1663 -56.1663 -56.1663
   -55.7939 -55.7939 -55.7939 -55.7939 -55.7933 -55.7933 -55.7933 -55.7933
   -55.7420 -55.7420 -55.7420 -55.7419 -55.7419 -55.7419 -55.7419 -55.7419
   -26.5648 -26.5648 -26.5648 -26.5648 -26.5648 -26.5648 -26.5648 -26.5648
   -26.4853 -26.4853 -26.4852 -26.4852 -26.4123 -26.4123 -26.4123 -26.4123
   -26.2774 -26.2774 -26.2774 -26.2774 -26.2774 -26.2774 -26.2774 -26.2774
   -26.1746 -26.1746 -26.1746 -26.1746 -26.0907 -26.0907 -26.0907 -26.0907
   -26.0907 -26.0907 -26.0907 -26.0907 -26.0771 -26.0771 -26.0771 -26.0771
   -25.9964 -25.9964 -25.9964 -25.9964 -25.9051 -25.9051 -25.9051 -25.9051
   -25.9051 -25.9051 -25.9051 -25.9051 -25.8702 -25.8702 -25.8702 -25.8702
   -25.7742 -25.7742 -25.7742 -25.7742 -25.7425 -25.7425 -25.7425 -25.7425
   -25.7425 -25.7425 -25.7424 -25.7424 -25.7396 -25.7396 -25.7396 -25.7396
   -25.6628 -25.6628 -25.6628 -25.6628 -25.6628 -25.6628 -25.6628 -25.6628
   -25.6421 -25.6421 -25.6421 -25.6421 -25.6409 -25.6409 -25.6409 -25.6409
   -25.5073 -25.5073 -25.5073 -25.5073 -25.5041 -25.5041 -25.5041 -25.5041
    10.8695  10.8695  10.8695  10.8695  11.4636  11.4636  11.4636  11.4636
    11.8917  11.8917  11.8917  11.8917  11.8917  11.8917  11.8917  11.8917
    11.9480  11.9480  11.9480  11.9480  12.0382  12.0382  12.0382  12.0382
    12.0382  12.0382  12.0382  12.0382  12.2153  12.2153  12.2153  12.2153
    12.6032  12.6032  12.6032  12.6032  12.9901  12.9901  12.9901  12.9901
    12.9901  12.9901  12.9901  12.9901  13.3196  13.3196  13.3196  13.3196
    13.3196  13.3196  13.3196  13.3196  13.6097  13.6097  13.6097  13.6097
    14.0187  14.0187  14.0187  14.0187  14.4274  14.4274  14.4274  14.4274
    14.5408  14.5408  14.5408  14.5408  14.6699  14.6699  14.6699  14.6699
    14.8203  14.8203  14.8204  14.8204  14.8489  14.8489  14.8489  14.8489
    14.8489  14.8489  14.8489  14.8489  14.9241  14.9241  14.9241  14.9241
    15.0911  15.0911  15.0911  15.0911  15.3369  15.3369  15.3369  15.3369
    15.6629  15.6629  15.6629  15.6629  15.6629  15.6629  15.6629  15.6629
    15.8405  15.8405  15.8405  15.8405  15.8405  15.8405  15.8405  15.8405
    15.9412  15.9412  15.9412  15.9412  16.0373  16.0373  16.0373  16.0373
    16.3086  16.3086  16.3086  16.3086  16.3937  16.3937  16.3937  16.3937
    16.3938  16.3938  16.3938  16.3938  16.8630  16.8630  16.8631  16.8631
    17.1128  17.1128  17.1128  17.1129  17.4177  17.4178  17.4178  17.4178
    17.6892  17.6892  17.6892  17.6892  17.6892  17.6892  17.6892  17.6892
    18.2014  18.2014  18.2014  18.2014  18.3523  18.3523  18.3523  18.3523
    18.3523  18.3523  18.3523  18.3523  18.4080  18.4080  18.4081  18.4081
    18.8670  18.8670  18.8670  18.8670  19.9111  19.9111  19.9111  19.9111
    21.3363  21.3363  21.3363

     the Fermi energy is    16.7685 ev

!    total energy              =  -13811.77977129 Ry

     total all-electron energy =   -289988.170111 Ry
     estimated scf accuracy    <       0.00000090 Ry
     smearing contrib. (-TS)   =       0.00358211 Ry
     internal energy E=F+TS    =  -13811.78335341 Ry

     The total energy is F=E-TS. E is the sum of the following terms:
     one-electron contribution =   -4017.22368669 Ry
     hartree contribution      =    2309.51859342 Ry
     xc contribution           =    -925.57083273 Ry
     ewald contribution        =   -3589.17397264 Ry
     one-center paw contrib.   =   -7589.33345477 Ry

     convergence has been achieved in  19 iterations

     Forces acting on atoms (cartesian axes, Ry/au):

     atom    1 type  1   force =     0.00000000    0.00000000    0.04388657
     atom    2 type  1   force =    -0.00000434   -0.00000434    0.04390384
     atom    3 type  1   force =    -0.00001293    0.00000000   -0.02105786
     atom    4 type  1   force =     0.00000000   -0.00001293   -0.02105786
     atom    5 type  1   force =     0.00000000    0.00000000    0.02107363
     atom    6 type  1   force =    -0.00001920   -0.00001920    0.02106571
     atom    7 type  1   force =    -0.00001180    0.00000000   -0.04392834
     atom    8 type  1   force =     0.00000000   -0.00001180   -0.04392834
     atom    9 type  1   force =     0.00000000    0.00000000    0.04391225
     atom   10 type  1   force =    -0.00000434    0.00000434    0.04390384
     atom   11 type  1   force =     0.00001286    0.00000000   -0.02106554
     atom   12 type  1   force =     0.00000000    0.00001293   -0.02105786
     atom   13 type  1   force =     0.00000000    0.00000000    0.02108104
     atom   14 type  1   force =    -0.00001920    0.00001920    0.02106571
     atom   15 type  1   force =     0.00000188    0.00000000   -0.04390087
     atom   16 type  1   force =     0.00000000    0.00001180   -0.04392834
     atom   17 type  1   force =     0.00000000    0.00000000    0.04391225
     atom   18 type  1   force =     0.00000434   -0.00000434    0.04390384
     atom   19 type  1   force =     0.00001293    0.00000000   -0.02105786
     atom   20 type  1   force =     0.00000000    0.00001286   -0.02106554
     atom   21 type  1   force =     0.00000000    0.00000000    0.02108104
     atom   22 type  1   force =     0.00001920   -0.00001920    0.02106571
     atom   23 type  1   force =     0.00001180    0.00000000   -0.04392834
     atom   24 type  1   force =     0.00000000    0.00000188   -0.04390087
     atom   25 type  1   force =     0.00000000    0.00000000    0.04390194
     atom   26 type  1   force =     0.00000434    0.00000434    0.04390384
     atom   27 type  1   force =    -0.00001286    0.00000000   -0.02106554
     atom   28 type  1   force =     0.00000000   -0.00001286   -0.02106554
     atom   29 type  1   force =     0.00000000    0.00000000    0.02108350
     atom   30 type  1   force =     0.00001920    0.00001920    0.02106571
     atom   31 type  1   force =    -0.00000188    0.00000000   -0.04390087
     atom   32 type  1   force =     0.00000000   -0.00000188   -0.04390087

     Total force =     0.194806     Total SCF correction =     0.009014

     Computing stress (Cartesian axis) and pressure

          total   stress  (Ry/bohr**3)                   (kbar)     P=     -104.19
  -0.00069692   0.00000000   0.00000000         -102.52        0.00        0.00
   0.00000000  -0.00069692   0.00000000            0.00     -102.52        0.00
   0.00000000   0.00000000  -0.00073099            0.00        0.00     -107.53

     Writing output data file /scratch/mmgSSEeUDOxOsDUi.save/

     General routines

     Parallel routines

   This run was terminated on:  18:29: 9  25Nov2021

   JOB DONE.