     Program PWSCF v.6.7MaX starts on 16Jan2022 at 11:21:26

     R & G space division:  proc/nbgrp/npool/nimage =      72
     Reading input from scf_5.in
Warning: card &CELL ignored
Warning: card CELL_DYNAMICS = 'BFGS', ignored
Warning: card CELL_FACTOR = 2.0, ignored
Warning: card PRESS = 0.0, ignored
Warning: card / ignored

     Current dimensions of program PWSCF are:
     Max number of different atomic species (ntypx) = 10
     Max number of k-points (npk) =  40000
     Max angular momentum in pseudopotentials (lmaxx) =  3
     file Fe.pbe-spn-kjpaw_psl.1.0.0.UPF: wavefunction(s)  3P 3D renormalized
     file Fe.pbe-spn-kjpaw_psl.1.0.0.UPF: wavefunction(s)  3P 3D renormalized

     Subspace diagonalization in iterative solution of the eigenvalue problem:
     one sub-group per band group will be used

     Found symmetry operation: I + (  0.2500  0.0000  0.2500)
     This is a supercell, fractional translations are disabled
     Message from routine setup:
     using ibrav=0 with symmetry is DISCOURAGED, use correct ibrav instead

     bravais-lattice index     =            0
     lattice parameter (alat)  =      12.9382  a.u.
     unit-cell volume          =    2815.5544 (a.u.)^3
     number of atoms/cell      =           32
     number of atomic types    =            2
     number of electrons       =       512.00
     number of Kohn-Sham states=          325
     kinetic-energy cutoff     =      71.0000  Ry
     charge density cutoff     =     430.0000  Ry
     scf convergence threshold =      1.0E-07
     mixing beta               =       0.1000
     number of iterations used =           10  local-TF  mixing
     Exchange-correlation= SLA  PW   PBX  PBC
                           (   1   4   3   4   0   0   0)

     celldm(1)=  12.938190  celldm(2)=   0.000000  celldm(3)=   0.000000
     celldm(4)=   0.000000  celldm(5)=   0.000000  celldm(6)=   0.000000

     crystal axes: (cart. coord. in units of alat)
               a(1) = (   1.000000   0.000000   0.000000 )
               a(2) = (   0.000000   1.300000   0.000000 )
               a(3) = (   0.000000   0.000000   1.000000 )

     reciprocal axes: (cart. coord. in units 2 pi/alat)
               b(1) = (  1.000000  0.000000  0.000000 )
               b(2) = (  0.000000  0.769231  0.000000 )
               b(3) = (  0.000000  0.000000  1.000000 )

     PseudoPot. # 1 for Fe read from file:
     /rds/homes/b/bxp912/pp/Fe.pbe-spn-kjpaw_psl.1.0.0.UPF
     MD5 check sum: 42f43b795421b414b0dc916aa790dbcb
     Pseudo is Projector augmented-wave + core cor, Zval = 16.0
     Generated using &quot;atomic&quot; code by A. Dal Corso  v.6.3
     Shape of augmentation charge: PSQ
     Using radial grid of 1191 points,  6 beta functions with:
                l(1) =   0
                l(2) =   0
                l(3) =   1
                l(4) =   1
                l(5) =   2
                l(6) =   2
     Q(r) pseudized with 0 coefficients

     PseudoPot. # 2 for Fe read from file:
     /rds/homes/b/bxp912/pp/Fe.pbe-spn-kjpaw_psl.1.0.0.UPF
     MD5 check sum: 42f43b795421b414b0dc916aa790dbcb
     Pseudo is Projector augmented-wave + core cor, Zval = 16.0
     Generated using &quot;atomic&quot; code by A. Dal Corso  v.6.3
     Shape of augmentation charge: PSQ
     Using radial grid of 1191 points,  6 beta functions with:
                l(1) =   0
                l(2) =   0
                l(3) =   1
                l(4) =   1
                l(5) =   2
                l(6) =   2
     Q(r) pseudized with 0 coefficients

     atomic species   valence    mass     pseudopotential
        Fe1           16.00    55.84500     Fe( 1.00)
        Fe2           16.00    55.84500     Fe( 1.00)

     Starting magnetic structure
     atomic species   magnetization
        Fe1          0.100
        Fe2         -0.100

      8 Sym. Ops. (no inversion) found

   Cartesian axes

     site n.     atom                  positions (alat units)
         1           Fe1 tau(   1) = (   0.0000000   0.0000000   0.0000000  )
         2           Fe2 tau(   2) = (   0.2500000   0.2500000   0.0000000  )
         3           Fe1 tau(   3) = (   0.2500000   0.0000000   0.2500000  )
         4           Fe2 tau(   4) = (   0.0000000   0.2500000   0.2500000  )
         5           Fe1 tau(   5) = (   0.0000000   0.0000000   0.5000000  )
         6           Fe2 tau(   6) = (   0.2500000   0.2500000   0.5000000  )
         7           Fe1 tau(   7) = (   0.2500000   0.0000000   0.7500000  )
         8           Fe2 tau(   8) = (   0.0000000   0.2500000   0.7500000  )
         9           Fe1 tau(   9) = (   0.0000000   0.8000000   0.0000000  )
        10           Fe2 tau(  10) = (   0.2500000   1.0500000   0.0000000  )
        11           Fe1 tau(  11) = (   0.2500000   0.8000000   0.2500000  )
        12           Fe2 tau(  12) = (   0.0000000   1.0500000   0.2500000  )
        13           Fe1 tau(  13) = (   0.0000000   0.8000000   0.5000000  )
        14           Fe2 tau(  14) = (   0.2500000   1.0500000   0.5000000  )
        15           Fe1 tau(  15) = (   0.2500000   0.8000000   0.7500000  )
        16           Fe2 tau(  16) = (   0.0000000   1.0500000   0.7500000  )
        17           Fe1 tau(  17) = (   0.5000000   0.0000000   0.0000000  )
        18           Fe2 tau(  18) = (   0.7500000   0.2500000   0.0000000  )
        19           Fe1 tau(  19) = (   0.7500000   0.0000000   0.2500000  )
        20           Fe2 tau(  20) = (   0.5000000   0.2500000   0.2500000  )
        21           Fe1 tau(  21) = (   0.5000000   0.0000000   0.5000000  )
        22           Fe2 tau(  22) = (   0.7500000   0.2500000   0.5000000  )
        23           Fe1 tau(  23) = (   0.7500000   0.0000000   0.7500000  )
        24           Fe2 tau(  24) = (   0.5000000   0.2500000   0.7500000  )
        25           Fe1 tau(  25) = (   0.5000000   0.8000000   0.0000000  )
        26           Fe2 tau(  26) = (   0.7500000   1.0500000   0.0000000  )
        27           Fe1 tau(  27) = (   0.7500000   0.8000000   0.2500000  )
        28           Fe2 tau(  28) = (   0.5000000   1.0500000   0.2500000  )
        29           Fe1 tau(  29) = (   0.5000000   0.8000000   0.5000000  )
        30           Fe2 tau(  30) = (   0.7500000   1.0500000   0.5000000  )
        31           Fe1 tau(  31) = (   0.7500000   0.8000000   0.7500000  )
        32           Fe2 tau(  32) = (   0.5000000   1.0500000   0.7500000  )

     number of k points=    75  Marzari-Vanderbilt smearing, width (Ry)=  0.0400
                       cart. coord. in units 2pi/alat
        k(    1) = (   0.0555556   0.0427350   0.0555556), wk =   0.0109739
        k(    2) = (   0.0555556   0.0427350   0.1666667), wk =   0.0219479
        k(    3) = (   0.0555556   0.0427350   0.2777778), wk =   0.0219479
        k(    4) = (   0.0555556   0.0427350   0.3888889), wk =   0.0219479
        k(    5) = (   0.0555556   0.0427350  -0.5000000), wk =   0.0109739
        k(    6) = (   0.0555556   0.1282051   0.0555556), wk =   0.0109739
        k(    7) = (   0.0555556   0.1282051   0.1666667), wk =   0.0219479
        k(    8) = (   0.0555556   0.1282051   0.2777778), wk =   0.0219479
        k(    9) = (   0.0555556   0.1282051   0.3888889), wk =   0.0219479
        k(   10) = (   0.0555556   0.1282051  -0.5000000), wk =   0.0109739
        k(   11) = (   0.0555556   0.2136752   0.0555556), wk =   0.0109739
        k(   12) = (   0.0555556   0.2136752   0.1666667), wk =   0.0219479
        k(   13) = (   0.0555556   0.2136752   0.2777778), wk =   0.0219479
        k(   14) = (   0.0555556   0.2136752   0.3888889), wk =   0.0219479
        k(   15) = (   0.0555556   0.2136752  -0.5000000), wk =   0.0109739
        k(   16) = (   0.0555556   0.2991453   0.0555556), wk =   0.0109739
        k(   17) = (   0.0555556   0.2991453   0.1666667), wk =   0.0219479
        k(   18) = (   0.0555556   0.2991453   0.2777778), wk =   0.0219479
        k(   19) = (   0.0555556   0.2991453   0.3888889), wk =   0.0219479
        k(   20) = (   0.0555556   0.2991453  -0.5000000), wk =   0.0109739
        k(   21) = (   0.0555556  -0.3846154   0.0555556), wk =   0.0054870
        k(   22) = (   0.0555556  -0.3846154   0.1666667), wk =   0.0109739
        k(   23) = (   0.0555556  -0.3846154   0.2777778), wk =   0.0109739
        k(   24) = (   0.0555556  -0.3846154   0.3888889), wk =   0.0109739
        k(   25) = (   0.0555556  -0.3846154  -0.5000000), wk =   0.0054870
        k(   26) = (   0.1666667   0.0427350   0.1666667), wk =   0.0109739
        k(   27) = (   0.1666667   0.0427350   0.2777778), wk =   0.0219479
        k(   28) = (   0.1666667   0.0427350   0.3888889), wk =   0.0219479
        k(   29) = (   0.1666667   0.0427350  -0.5000000), wk =   0.0109739
        k(   30) = (   0.1666667   0.1282051   0.1666667), wk =   0.0109739
        k(   31) = (   0.1666667   0.1282051   0.2777778), wk =   0.0219479
        k(   32) = (   0.1666667   0.1282051   0.3888889), wk =   0.0219479
        k(   33) = (   0.1666667   0.1282051  -0.5000000), wk =   0.0109739
        k(   34) = (   0.1666667   0.2136752   0.1666667), wk =   0.0109739
        k(   35) = (   0.1666667   0.2136752   0.2777778), wk =   0.0219479
        k(   36) = (   0.1666667   0.2136752   0.3888889), wk =   0.0219479
        k(   37) = (   0.1666667   0.2136752  -0.5000000), wk =   0.0109739
        k(   38) = (   0.1666667   0.2991453   0.1666667), wk =   0.0109739
        k(   39) = (   0.1666667   0.2991453   0.2777778), wk =   0.0219479
        k(   40) = (   0.1666667   0.2991453   0.3888889), wk =   0.0219479
        k(   41) = (   0.1666667   0.2991453  -0.5000000), wk =   0.0109739
        k(   42) = (   0.1666667  -0.3846154   0.1666667), wk =   0.0054870
        k(   43) = (   0.1666667  -0.3846154   0.2777778), wk =   0.0109739
        k(   44) = (   0.1666667  -0.3846154   0.3888889), wk =   0.0109739
        k(   45) = (   0.1666667  -0.3846154  -0.5000000), wk =   0.0054870
        k(   46) = (   0.2777778   0.0427350   0.2777778), wk =   0.0109739
        k(   47) = (   0.2777778   0.0427350   0.3888889), wk =   0.0219479
        k(   48) = (   0.2777778   0.0427350  -0.5000000), wk =   0.0109739
        k(   49) = (   0.2777778   0.1282051   0.2777778), wk =   0.0109739
        k(   50) = (   0.2777778   0.1282051   0.3888889), wk =   0.0219479
        k(   51) = (   0.2777778   0.1282051  -0.5000000), wk =   0.0109739
        k(   52) = (   0.2777778   0.2136752   0.2777778), wk =   0.0109739
        k(   53) = (   0.2777778   0.2136752   0.3888889), wk =   0.0219479
        k(   54) = (   0.2777778   0.2136752  -0.5000000), wk =   0.0109739
        k(   55) = (   0.2777778   0.2991453   0.2777778), wk =   0.0109739
        k(   56) = (   0.2777778   0.2991453   0.3888889), wk =   0.0219479
        k(   57) = (   0.2777778   0.2991453  -0.5000000), wk =   0.0109739
        k(   58) = (   0.2777778  -0.3846154   0.2777778), wk =   0.0054870
        k(   59) = (   0.2777778  -0.3846154   0.3888889), wk =   0.0109739
        k(   60) = (   0.2777778  -0.3846154  -0.5000000), wk =   0.0054870
        k(   61) = (   0.3888889   0.0427350   0.3888889), wk =   0.0109739
        k(   62) = (   0.3888889   0.0427350  -0.5000000), wk =   0.0109739
        k(   63) = (   0.3888889   0.1282051   0.3888889), wk =   0.0109739
        k(   64) = (   0.3888889   0.1282051  -0.5000000), wk =   0.0109739
        k(   65) = (   0.3888889   0.2136752   0.3888889), wk =   0.0109739
        k(   66) = (   0.3888889   0.2136752  -0.5000000), wk =   0.0109739
        k(   67) = (   0.3888889   0.2991453   0.3888889), wk =   0.0109739
        k(   68) = (   0.3888889   0.2991453  -0.5000000), wk =   0.0109739
        k(   69) = (   0.3888889  -0.3846154   0.3888889), wk =   0.0054870
        k(   70) = (   0.3888889  -0.3846154  -0.5000000), wk =   0.0054870
        k(   71) = (  -0.5000000   0.0427350  -0.5000000), wk =   0.0027435
        k(   72) = (  -0.5000000   0.1282051  -0.5000000), wk =   0.0027435
        k(   73) = (  -0.5000000   0.2136752  -0.5000000), wk =   0.0027435
        k(   74) = (  -0.5000000   0.2991453  -0.5000000), wk =   0.0027435
        k(   75) = (  -0.5000000  -0.3846154  -0.5000000), wk =   0.0013717

     Check: negative core charge=   -0.000005
     Generating pointlists ...
     new r_m :   0.1458 (alat units)  1.8869 (a.u.) for type    1
     new r_m :   0.1458 (alat units)  1.8869 (a.u.) for type    2

     Initial potential from superposition of free atoms

     starting charge  511.98600, renormalised to  512.00000
     Starting wfcs are  320 randomized atomic wfcs +    5 random wfcs
     Checking if some PAW data can be deallocated...

     Self-consistent Calculation

     iteration #  1     ecut=    71.00 Ry     beta= 0.10
     Davidson diagonalization with overlap
     ethr =  1.00E-02,  avg # of iterations =  3.0

     total energy              =  -10536.19029416 Ry
     estimated scf accuracy    <      29.05327043 Ry

     total magnetization       =     0.02 Bohr mag/cell
     absolute magnetization    =    45.17 Bohr mag/cell

[...]

     negative rho (up, down):  0.000E+00 2.708E-03

[...]

     iteration #  6     ecut=    71.00 Ry     beta= 0.10
     Davidson diagonalization with overlap
     c_bands:  1 eigenvalues not converged
     ethr =  8.73E-05,  avg # of iterations =  3.7

[...]

     iteration #  8     ecut=    71.00 Ry     beta= 0.10
     Davidson diagonalization with overlap
     c_bands:  1 eigenvalues not converged
     ethr =  8.31E-06,  avg # of iterations =  8.2

[...]

     total energy              =  -10535.14074441 Ry
     estimated scf accuracy    <       0.00000024 Ry

[...]

     iteration # 26     ecut=    71.00 Ry     beta= 0.10
     Davidson diagonalization with overlap
     ethr =  4.69E-11,  avg # of iterations =  2.4

[...]

     Magnetic moment per site:
     atom:    1    charge:   14.4698    magn:    1.0033    constr:    0.0000
     atom:    2    charge:   14.3051    magn:   -2.1884    constr:    0.0000
     atom:    3    charge:   14.4687    magn:    1.0194    constr:    0.0000
     atom:    4    charge:   14.3051    magn:   -2.1884    constr:    0.0000
     atom:    5    charge:   14.4698    magn:    1.0017    constr:    0.0000
     atom:    6    charge:   14.3051    magn:   -2.1885    constr:    0.0000
     atom:    7    charge:   14.4687    magn:    1.0194    constr:    0.0000
     atom:    8    charge:   14.3051    magn:   -2.1884    constr:    0.0000
     atom:    9    charge:   14.3050    magn:    2.1885    constr:    0.0000
     atom:   10    charge:   14.4697    magn:   -1.0093    constr:    0.0000
     atom:   11    charge:   14.3046    magn:    2.1886    constr:    0.0000
     atom:   12    charge:   14.4697    magn:   -1.0093    constr:    0.0000
     atom:   13    charge:   14.3050    magn:    2.1883    constr:    0.0000
     atom:   14    charge:   14.4696    magn:   -1.0121    constr:    0.0000
     atom:   15    charge:   14.3046    magn:    2.1886    constr:    0.0000
     atom:   16    charge:   14.4697    magn:   -1.0093    constr:    0.0000
     atom:   17    charge:   14.4698    magn:    1.0017    constr:    0.0000
     atom:   18    charge:   14.3051    magn:   -2.1884    constr:    0.0000
     atom:   19    charge:   14.4687    magn:    1.0194    constr:    0.0000
     atom:   20    charge:   14.3051    magn:   -2.1885    constr:    0.0000
     atom:   21    charge:   14.4698    magn:    1.0021    constr:    0.0000
     atom:   22    charge:   14.3051    magn:   -2.1885    constr:    0.0000
     atom:   23    charge:   14.4687    magn:    1.0194    constr:    0.0000
     atom:   24    charge:   14.3051    magn:   -2.1885    constr:    0.0000
     atom:   25    charge:   14.3050    magn:    2.1883    constr:    0.0000
     atom:   26    charge:   14.4697    magn:   -1.0093    constr:    0.0000
     atom:   27    charge:   14.3046    magn:    2.1886    constr:    0.0000
     atom:   28    charge:   14.4696    magn:   -1.0121    constr:    0.0000
     atom:   29    charge:   14.3051    magn:    2.1879    constr:    0.0000
     atom:   30    charge:   14.4696    magn:   -1.0121    constr:    0.0000
     atom:   31    charge:   14.3046    magn:    2.1886    constr:    0.0000
     atom:   32    charge:   14.4696    magn:   -1.0121    constr:    0.0000

     End of self-consistent calculation

     Number of k-points >= 100: set verbosity='high' to print the bands.

     the Fermi energy is    15.5874 ev

!    total energy              =  -10535.14074974 Ry

     total all-electron energy =    -81456.629808 Ry
     estimated scf accuracy    <       0.00000009 Ry
     smearing contrib. (-TS)   =       0.03251514 Ry
     internal energy E=F+TS    =  -10535.17326488 Ry

     The total energy is F=E-TS. E is the sum of the following terms:
     one-electron contribution =   -6541.56204492 Ry
     hartree contribution      =    3537.63881054 Ry
     xc contribution           =    -886.96038105 Ry
     ewald contribution        =   -3994.89935898 Ry
     one-center paw contrib.   =   -2649.39029046 Ry

     total magnetization       =     0.00 Bohr mag/cell
     absolute magnetization    =    53.46 Bohr mag/cell

     convergence has been achieved in  26 iterations

     negative rho (up, down):  0.000E+00 2.120E-04

     Forces acting on atoms (cartesian axes, Ry/au):

     atom    1 type  1   force =     0.00000000    0.00163026    0.00000000
     atom    2 type  2   force =     0.00001082    0.04215642    0.00000000
     atom    3 type  1   force =    -0.00001098    0.00151149   -0.00001098
     atom    4 type  2   force =    -0.00000000    0.04215642    0.00001082
     atom    5 type  1   force =     0.00000000    0.00163239    0.00000000
     atom    6 type  2   force =    -0.00000251    0.04215399    0.00000000
     atom    7 type  1   force =    -0.00001098    0.00151149    0.00001098
     atom    8 type  2   force =     0.00000000    0.04215642   -0.00001082
     atom    9 type  1   force =     0.00000000   -0.04213304    0.00000000
     atom   10 type  2   force =     0.00001727   -0.00154096    0.00000000
     atom   11 type  1   force =    -0.00001141   -0.04224059   -0.00001141
     atom   12 type  2   force =     0.00000000   -0.00154096    0.00001727
     atom   13 type  1   force =     0.00000000   -0.04215376    0.00000000
     atom   14 type  2   force =     0.00000807   -0.00153071    0.00000000
     atom   15 type  1   force =    -0.00001141   -0.04224059    0.00001141
     atom   16 type  2   force =     0.00000000   -0.00154096   -0.00001727
     atom   17 type  1   force =     0.00000000    0.00163239    0.00000000
     atom   18 type  2   force =    -0.00001082    0.04215642    0.00000000
     atom   19 type  1   force =     0.00001098    0.00151149   -0.00001098
     atom   20 type  2   force =     0.00000000    0.04215399   -0.00000251
     atom   21 type  1   force =     0.00000000    0.00167391    0.00000000
     atom   22 type  2   force =     0.00000251    0.04215399    0.00000000
     atom   23 type  1   force =     0.00001098    0.00151149    0.00001098
     atom   24 type  2   force =     0.00000000    0.04215399    0.00000251
     atom   25 type  1   force =     0.00000000   -0.04215376    0.00000000
     atom   26 type  2   force =    -0.00001727   -0.00154096    0.00000000
     atom   27 type  1   force =     0.00001141   -0.04224059   -0.00001141
     atom   28 type  2   force =     0.00000000   -0.00153071    0.00000807
     atom   29 type  1   force =     0.00000000   -0.04216696    0.00000000
     atom   30 type  2   force =    -0.00000807   -0.00153071    0.00000000
     atom   31 type  1   force =     0.00001141   -0.04224059    0.00001141
     atom   32 type  2   force =     0.00000000   -0.00153071   -0.00000807

     Total force =     0.168818     Total SCF correction =     0.001018

     Computing stress (Cartesian axis) and pressure

     negative rho (up, down):  0.000E+00 2.120E-04
          total   stress  (Ry/bohr**3)                   (kbar)     P=       16.18
   0.00012199   0.00000000   0.00000000           17.95        0.00        0.00
   0.00000000   0.00008606   0.00000000            0.00       12.66        0.00
   0.00000000   0.00000000   0.00012199            0.00        0.00       17.95

     Writing output data file /scratch/gYThioHCkCHMwLVU.save/

     General routines

     Parallel routines

   This run was terminated on:  12:20: 2  16Jan2022

   JOB DONE.