     Program PWSCF v.6.7MaX starts on 16Jan2022 at 12:46:10

     R & G space division:  proc/nbgrp/npool/nimage =      72
     Reading input from scf_10.in
Warning: card &CELL ignored
Warning: card CELL_DYNAMICS = 'BFGS', ignored
Warning: card CELL_FACTOR = 2.0, ignored
Warning: card PRESS = 0.0, ignored
Warning: card / ignored

     Current dimensions of program PWSCF are:
     Max number of different atomic species (ntypx) = 10
     Max number of k-points (npk) =  40000
     Max angular momentum in pseudopotentials (lmaxx) =  3
     file Fe.pbe-spn-kjpaw_psl.1.0.0.UPF: wavefunction(s)  3P 3D renormalized
     file Fe.pbe-spn-kjpaw_psl.1.0.0.UPF: wavefunction(s)  3P 3D renormalized

     Subspace diagonalization in iterative solution of the eigenvalue problem:
     one sub-group per band group will be used

     Found symmetry operation: I + (  0.2500  0.0000  0.2500)
     This is a supercell, fractional translations are disabled
     Message from routine setup:
     using ibrav=0 with symmetry is DISCOURAGED, use correct ibrav instead

     bravais-lattice index     =            0
     lattice parameter (alat)  =      12.9382  a.u.
     unit-cell volume          =    3898.4600 (a.u.)^3
     number of atoms/cell      =           32
     number of atomic types    =            2
     number of electrons       =       512.00
     number of Kohn-Sham states=          325
     kinetic-energy cutoff     =      71.0000  Ry
     charge density cutoff     =     430.0000  Ry
     scf convergence threshold =      1.0E-07
     mixing beta               =       0.1000
     number of iterations used =           10  local-TF  mixing
     Exchange-correlation= SLA  PW   PBX  PBC
                           (   1   4   3   4   0   0   0)

     celldm(1)=  12.938190  celldm(2)=   0.000000  celldm(3)=   0.000000
     celldm(4)=   0.000000  celldm(5)=   0.000000  celldm(6)=   0.000000

     crystal axes: (cart. coord. in units of alat)
               a(1) = (   1.000000   0.000000   0.000000 )
               a(2) = (   0.000000   1.800000   0.000000 )
               a(3) = (   0.000000   0.000000   1.000000 )

     reciprocal axes: (cart. coord. in units 2 pi/alat)
               b(1) = (  1.000000  0.000000  0.000000 )
               b(2) = (  0.000000  0.555556  0.000000 )
               b(3) = (  0.000000  0.000000  1.000000 )

     PseudoPot. # 1 for Fe read from file:
     /rds/homes/b/bxp912/pp/Fe.pbe-spn-kjpaw_psl.1.0.0.UPF
     MD5 check sum: 42f43b795421b414b0dc916aa790dbcb
     Pseudo is Projector augmented-wave + core cor, Zval = 16.0
     Generated using &quot;atomic&quot; code by A. Dal Corso  v.6.3
     Shape of augmentation charge: PSQ
     Using radial grid of 1191 points,  6 beta functions with:

     Initial potential from superposition of free atoms

     starting charge  511.98600, renormalised to  512.00000
     Checking if some PAW data can be deallocated...

     Self-consistent Calculation

     iteration #  1     ecut=    71.00 Ry     beta= 0.10
     Davidson diagonalization with overlap
     ethr =  1.00E-02,  avg # of iterations =  3.1

     total energy              =  -10536.27769987 Ry
     estimated scf accuracy    <      32.02531431 Ry

     total magnetization       =     0.01 Bohr mag/cell
     absolute magnetization    =    45.28 Bohr mag/cell

[...]

     negative rho (up, down):  7.365E-04 2.936E-03

[...]

     iteration #  8     ecut=    71.00 Ry     beta= 0.10
     Davidson diagonalization with overlap
     c_bands:  1 eigenvalues not converged
     c_bands:  2 eigenvalues not converged
     c_bands:  1 eigenvalues not converged
     c_bands:  1 eigenvalues not converged
     c_bands:  1 eigenvalues not converged
     ethr =  2.96E-05,  avg # of iterations =  8.0

[...]

     iteration # 13     ecut=    71.00 Ry     beta= 0.10
     Davidson diagonalization with overlap
     c_bands:  1 eigenvalues not converged
     c_bands:  1 eigenvalues not converged
     ethr =  1.62E-06,  avg # of iterations =  4.7

[...]

     total energy              =  -10534.96750762 Ry
     estimated scf accuracy    <       0.00000014 Ry

[...]

     iteration # 29     ecut=    71.00 Ry     beta= 0.10
     Davidson diagonalization with overlap
     ethr =  2.70E-11,  avg # of iterations =  2.0

[...]

     Magnetic moment per site:
     atom:    1    charge:   14.4698    magn:    1.0050    constr:    0.0000
     atom:    2    charge:   14.3142    magn:   -2.1615    constr:    0.0000
     atom:    3    charge:   14.4686    magn:    1.0246    constr:    0.0000
     atom:    4    charge:   14.3142    magn:   -2.1615    constr:    0.0000
     atom:    5    charge:   14.4698    magn:    1.0027    constr:    0.0000
     atom:    6    charge:   14.3142    magn:   -2.1615    constr:    0.0000
     atom:    7    charge:   14.4686    magn:    1.0246    constr:    0.0000
     atom:    8    charge:   14.3142    magn:   -2.1615    constr:    0.0000
     atom:    9    charge:   14.3144    magn:    2.1617    constr:    0.0000
     atom:   10    charge:   14.4697    magn:   -1.0119    constr:    0.0000
     atom:   11    charge:   14.3137    magn:    2.1618    constr:    0.0000
     atom:   12    charge:   14.4697    magn:   -1.0119    constr:    0.0000
     atom:   13    charge:   14.3144    magn:    2.1612    constr:    0.0000
     atom:   14    charge:   14.4696    magn:   -1.0161    constr:    0.0000
     atom:   15    charge:   14.3137    magn:    2.1618    constr:    0.0000
     atom:   16    charge:   14.4697    magn:   -1.0119    constr:    0.0000
     atom:   17    charge:   14.4698    magn:    1.0027    constr:    0.0000
     atom:   18    charge:   14.3142    magn:   -2.1615    constr:    0.0000
     atom:   19    charge:   14.4686    magn:    1.0246    constr:    0.0000
     atom:   20    charge:   14.3142    magn:   -2.1615    constr:    0.0000
     atom:   21    charge:   14.4698    magn:    1.0044    constr:    0.0000
     atom:   22    charge:   14.3142    magn:   -2.1615    constr:    0.0000
     atom:   23    charge:   14.4686    magn:    1.0246    constr:    0.0000
     atom:   24    charge:   14.3142    magn:   -2.1615    constr:    0.0000
     atom:   25    charge:   14.3144    magn:    2.1612    constr:    0.0000
     atom:   26    charge:   14.4697    magn:   -1.0119    constr:    0.0000
     atom:   27    charge:   14.3137    magn:    2.1618    constr:    0.0000
     atom:   28    charge:   14.4696    magn:   -1.0161    constr:    0.0000
     atom:   29    charge:   14.3144    magn:    2.1609    constr:    0.0000
     atom:   30    charge:   14.4696    magn:   -1.0161    constr:    0.0000
     atom:   31    charge:   14.3137    magn:    2.1618    constr:    0.0000
     atom:   32    charge:   14.4696    magn:   -1.0161    constr:    0.0000

     End of self-consistent calculation

     Number of k-points >= 100: set verbosity='high' to print the bands.

     the Fermi energy is     9.9930 ev

!    total energy              =  -10534.96750896 Ry

     total all-electron energy =    -81456.456567 Ry
     estimated scf accuracy    <       0.00000009 Ry
     smearing contrib. (-TS)   =       0.03693194 Ry
     internal energy E=F+TS    =  -10535.00444090 Ry

     The total energy is F=E-TS. E is the sum of the following terms:
     one-electron contribution =  -19048.69727377 Ry
     hartree contribution      =    9686.29414138 Ry
     xc contribution           =    -886.97373388 Ry
     ewald contribution        =    2363.75844723 Ry
     one-center paw contrib.   =   -2649.38602186 Ry

     total magnetization       =     0.00 Bohr mag/cell
     absolute magnetization    =    53.11 Bohr mag/cell

     convergence has been achieved in  29 iterations

     negative rho (up, down):  0.000E+00 1.556E-04

     Forces acting on atoms (cartesian axes, Ry/au):

     atom    1 type  1   force =     0.00000000    0.00125829    0.00000000
     atom    2 type  2   force =     0.00001036    0.02356306    0.00000000
     atom    3 type  1   force =    -0.00002249    0.00110470   -0.00002249
     atom    4 type  2   force =     0.00000000    0.02356306    0.00001036
     atom    5 type  1   force =     0.00000000    0.00131044    0.00000000
     atom    6 type  2   force =    -0.00000902    0.02355593    0.00000000
     atom    7 type  1   force =    -0.00002249    0.00110470    0.00002249
     atom    8 type  2   force =     0.00000000    0.02356306   -0.00001036
     atom    9 type  1   force =     0.00000000   -0.02385322    0.00000000
     atom   10 type  2   force =     0.00003497   -0.00098683    0.00000000
     atom   11 type  1   force =    -0.00000806   -0.02369822   -0.00000806
     atom   12 type  2   force =    -0.00000000   -0.00098683    0.00003497
     atom   13 type  1   force =     0.00000000   -0.02384978    0.00000000
     atom   14 type  2   force =     0.00001494   -0.00098178    0.00000000
     atom   15 type  1   force =    -0.00000806   -0.02369822    0.00000806
     atom   16 type  2   force =     0.00000000   -0.00098683   -0.00003497
     atom   17 type  1   force =     0.00000000    0.00131044    0.00000000
     atom   18 type  2   force =    -0.00001036    0.02356306    0.00000000
     atom   19 type  1   force =     0.00002249    0.00110470   -0.00002249
     atom   20 type  2   force =     0.00000000    0.02355593   -0.00000902
     atom   21 type  1   force =     0.00000000    0.00132852    0.00000000
     atom   22 type  2   force =     0.00000902    0.02355593    0.00000000
     atom   23 type  1   force =     0.00002249    0.00110470    0.00002249
     atom   24 type  2   force =     0.00000000    0.02355593    0.00000902
     atom   25 type  1   force =     0.00000000   -0.02384978    0.00000000
     atom   26 type  2   force =    -0.00003497   -0.00098683   -0.00000000
     atom   27 type  1   force =     0.00000806   -0.02369822   -0.00000806
     atom   28 type  2   force =     0.00000000   -0.00098178    0.00001494
     atom   29 type  1   force =     0.00000000   -0.02388235    0.00000000
     atom   30 type  2   force =    -0.00001494   -0.00098178    0.00000000
     atom   31 type  1   force =     0.00000806   -0.02369822    0.00000806
     atom   32 type  2   force =     0.00000000   -0.00098178   -0.00001494

     Total force =     0.094780     Total SCF correction =     0.000843

     Computing stress (Cartesian axis) and pressure

     negative rho (up, down):  0.000E+00 1.556E-04
          total   stress  (Ry/bohr**3)                   (kbar)     P=       19.02
   0.00005628   0.00000000   0.00000000            8.28        0.00        0.00
   0.00000000   0.00027525   0.00000000            0.00       40.49        0.00
   0.00000000   0.00000000   0.00005628            0.00        0.00        8.28

     Writing output data file /scratch/qNzzkNfwyhvtgOUM.save/

     General routines

     Parallel routines

   This run was terminated on:  14: 2:45  16Jan2022

   JOB DONE.