     Program PWSCF v.6.3 starts on  9Sep2020 at 10:15:12

     R & G space division:  proc/nbgrp/npool/nimage =      40
     Reading input from wd/eos/eos_002.in
Warning: card &IONS ignored
Warning: card ION_DYNAMICS = 'BFGS', ignored
Warning: card / ignored
Warning: card &CELL ignored
Warning: card CELL_DYNAMICS = 'BFGS', ignored
Warning: card CELL_FACTOR = 2.0, ignored
Warning: card PRESS = 0.0, ignored
Warning: card / ignored

     Current dimensions of program PWSCF are:
     Max number of different atomic species (ntypx) = 10
     Max number of k-points (npk) =  40000
     Max angular momentum in pseudopotentials (lmaxx) =  3
               file Fe.pbe-spn-kjpaw_psl.1.0.0.UPF: wavefunction(s)  3P 3D renormalized
               file Fe.pbe-spn-kjpaw_psl.1.0.0.UPF: wavefunction(s)  3P 3D renormalized

     Subspace diagonalization in iterative solution of the eigenvalue problem:
     a serial algorithm will be used

     Found symmetry operation: I + (  0.0000  0.0000 -0.5000)
     This is a supercell, fractional translations are disabled

     bravais-lattice index     =            0
     lattice parameter (alat)  =      10.5935  a.u.
     unit-cell volume          =    1176.9842 (a.u.)^3
     number of atoms/cell      =           16
     number of atomic types    =            2
     number of electrons       =       256.00
     number of Kohn-Sham states=          154
     kinetic-energy cutoff     =      71.0000  Ry
     charge density cutoff     =     430.0000  Ry
     convergence threshold     =      1.0E-06
     mixing beta               =       0.1000
     number of iterations used =           10  plain     mixing
     Exchange-correlation      = SLA PW PBX PBC ( 1  4  3  4 0 0)

     celldm(1)=  10.593520  celldm(2)=   0.000000  celldm(3)=   0.000000
     celldm(4)=   0.000000  celldm(5)=   0.000000  celldm(6)=   0.000000

     crystal axes: (cart. coord. in units of alat)
               a(1) = (   0.996667   0.000000   0.000000 )
               a(2) = (   0.000000   0.996667   0.000000 )
               a(3) = (   0.000000   0.000000   0.996667 )

     reciprocal axes: (cart. coord. in units 2 pi/alat)
               b(1) = (  1.003344  0.000000  0.000000 )
               b(2) = (  0.000000  1.003344  0.000000 )
               b(3) = (  0.000000  0.000000  1.003344 )

     PseudoPot. # 1 for Fe read from file:
     /rds/homes/b/bxp912/pp/Fe.pbe-spn-kjpaw_psl.1.0.0.UPF
     MD5 check sum: 42f43b795421b414b0dc916aa790dbcb
     Pseudo is Projector augmented-wave + core cor, Zval = 16.0
     Generated using "atomic" code by A. Dal Corso v.6.3
     Shape of augmentation charge: PSQ
     Using radial grid of 1191 points,  6 beta functions with:
                l(1) =   0
                l(2) =   0
                l(3) =   1
                l(4) =   1
                l(5) =   2
                l(6) =   2
     Q(r) pseudized with 0 coefficients

     PseudoPot. # 2 for Fe read from file:
     /rds/homes/b/bxp912/pp/Fe.pbe-spn-kjpaw_psl.1.0.0.UPF
     MD5 check sum: 42f43b795421b414b0dc916aa790dbcb
     Pseudo is Projector augmented-wave + core cor, Zval = 16.0
     Generated using "atomic" code by A. Dal Corso v.6.3
     Shape of augmentation charge: PSQ
     Using radial grid of 1191 points,  6 beta functions with:
                l(1) =   0
                l(2) =   0
                l(3) =   1
                l(4) =   1
                l(5) =   2
                l(6) =   2
     Q(r) pseudized with 0 coefficients

     atomic species   valence    mass     pseudopotential
        Fe1           16.00    55.84500     Fe( 1.00)
        Fe2           16.00    55.84500     Fe( 1.00)

     Starting magnetic structure
     atomic species   magnetization
        Fe1          0.100
        Fe2          0.100

     48 Sym. Ops., with inversion, found

   Cartesian axes

     site n.     atom                  positions (alat units)
         1           Fe1 tau(   1) = (   0.0000000   0.0000000   0.0000000  )
         2           Fe2 tau(   2) = (   0.2491671   0.2491671   0.2491671  )
         3           Fe1 tau(   3) = (   0.0000000   0.0000000   0.4983333  )
         4           Fe2 tau(   4) = (   0.2491671   0.2491671   0.7474996  )
         5           Fe1 tau(   5) = (   0.0000000   0.4983333   0.0000000  )
         6           Fe2 tau(   6) = (   0.2491671   0.7474996   0.2491671  )
         7           Fe1 tau(   7) = (   0.0000000   0.4983333   0.4983333  )
         8           Fe2 tau(   8) = (   0.2491671   0.7474996   0.7474996  )
         9           Fe1 tau(   9) = (   0.4983333   0.0000000   0.0000000  )
        10           Fe2 tau(  10) = (   0.7474996   0.2491671   0.2491671  )
        11           Fe1 tau(  11) = (   0.4983333   0.0000000   0.4983333  )
        12           Fe2 tau(  12) = (   0.7474996   0.2491671   0.7474996  )
        13           Fe1 tau(  13) = (   0.4983333   0.4983333   0.0000000  )
        14           Fe2 tau(  14) = (   0.7474996   0.7474996   0.2491671  )
        15           Fe1 tau(  15) = (   0.4983333   0.4983333   0.4983333  )
        16           Fe2 tau(  16) = (   0.7474996   0.7474996   0.7474996  )

     number of k points=    35  Marzari-Vanderbilt smearing, width (Ry)=  0.0400
                       cart. coord. in units 2pi/alat
        k(    1) = (   0.0557414   0.0557414   0.0557414), wk =   0.0109739
        k(    2) = (   0.0557414   0.0557414   0.1672241), wk =   0.0329218
        k(    3) = (   0.0557414   0.0557414   0.2787068), wk =   0.0329218
        k(    4) = (   0.0557414   0.0557414   0.3901895), wk =   0.0329218
        k(    5) = (   0.0557414   0.0557414  -0.5016722), wk =   0.0164609
        k(    6) = (   0.0557414   0.1672241   0.1672241), wk =   0.0329218
        k(    7) = (   0.0557414   0.1672241   0.2787068), wk =   0.0658436
        k(    8) = (   0.0557414   0.1672241   0.3901895), wk =   0.0658436
        k(    9) = (   0.0557414   0.1672241  -0.5016722), wk =   0.0329218
        k(   10) = (   0.0557414   0.2787068   0.2787068), wk =   0.0329218
        k(   11) = (   0.0557414   0.2787068   0.3901895), wk =   0.0658436
        k(   12) = (   0.0557414   0.2787068  -0.5016722), wk =   0.0329218
        k(   13) = (   0.0557414   0.3901895   0.3901895), wk =   0.0329218
        k(   14) = (   0.0557414   0.3901895  -0.5016722), wk =   0.0329218
        k(   15) = (   0.0557414  -0.5016722  -0.5016722), wk =   0.0082305
        k(   16) = (   0.1672241   0.1672241   0.1672241), wk =   0.0109739
        k(   17) = (   0.1672241   0.1672241   0.2787068), wk =   0.0329218
        k(   18) = (   0.1672241   0.1672241   0.3901895), wk =   0.0329218
        k(   19) = (   0.1672241   0.1672241  -0.5016722), wk =   0.0164609
        k(   20) = (   0.1672241   0.2787068   0.2787068), wk =   0.0329218
        k(   21) = (   0.1672241   0.2787068   0.3901895), wk =   0.0658436
        k(   22) = (   0.1672241   0.2787068  -0.5016722), wk =   0.0329218
        k(   23) = (   0.1672241   0.3901895   0.3901895), wk =   0.0329218
        k(   24) = (   0.1672241   0.3901895  -0.5016722), wk =   0.0329218
        k(   25) = (   0.1672241  -0.5016722  -0.5016722), wk =   0.0082305
        k(   26) = (   0.2787068   0.2787068   0.2787068), wk =   0.0109739
        k(   27) = (   0.2787068   0.2787068   0.3901895), wk =   0.0329218
        k(   28) = (   0.2787068   0.2787068  -0.5016722), wk =   0.0164609
        k(   29) = (   0.2787068   0.3901895   0.3901895), wk =   0.0329218
        k(   30) = (   0.2787068   0.3901895  -0.5016722), wk =   0.0329218
        k(   31) = (   0.2787068  -0.5016722  -0.5016722), wk =   0.0082305
        k(   32) = (   0.3901895   0.3901895   0.3901895), wk =   0.0109739
        k(   33) = (   0.3901895   0.3901895  -0.5016722), wk =   0.0164609
        k(   34) = (   0.3901895  -0.5016722  -0.5016722), wk =   0.0082305
        k(   35) = (  -0.5016722  -0.5016722  -0.5016722), wk =   0.0013717

     Check: negative/imaginary core charge=   -0.000006    0.000000

     Initial potential from superposition of free atoms

     starting charge  255.99300, renormalised to  256.00000
     Starting wfcs are  160 randomized atomic wfcs
     Checking if some PAW data can be deallocated...

     Self-consistent Calculation

     iteration #  1     ecut=    71.00 Ry     beta= 0.10
     Davidson diagonalization with overlap
     ethr =  1.00E-02,  avg # of iterations =  3.3

     Threshold (ethr) on eigenvalues was too large:
     Diagonalizing with lowered threshold

     Davidson diagonalization with overlap
     ethr =  2.05E-04,  avg # of iterations =  3.5

     total energy              =   -5267.97718569 Ry
     Harris-Foulkes estimate   =   -5268.02876839 Ry
     estimated scf accuracy    <       0.60579289 Ry

     total magnetization       =    27.84 Bohr mag/cell
     absolute magnetization    =    27.94 Bohr mag/cell

[...]

     negative rho (up, down):  0.000E+00 3.254E-03

[...]

     total energy              =   -5268.18482969 Ry
     Harris-Foulkes estimate   =   -5268.18482856 Ry
     estimated scf accuracy    <       0.00000333 Ry

[...]

     iteration # 18     ecut=    71.00 Ry     beta= 0.10
     Davidson diagonalization with overlap
     ethr =  1.30E-09,  avg # of iterations =  2.9

[...]

     Magnetic moment per site:
     atom:    1    charge:   14.3583    magn:    2.0859    constr:    0.0000
     atom:    2    charge:   14.3583    magn:    2.0880    constr:    0.0000
     atom:    3    charge:   14.3583    magn:    2.0867    constr:    0.0000
     atom:    4    charge:   14.3583    magn:    2.0880    constr:    0.0000
     atom:    5    charge:   14.3583    magn:    2.0867    constr:    0.0000
     atom:    6    charge:   14.3583    magn:    2.0880    constr:    0.0000
     atom:    7    charge:   14.3584    magn:    2.0871    constr:    0.0000
     atom:    8    charge:   14.3583    magn:    2.0880    constr:    0.0000
     atom:    9    charge:   14.3583    magn:    2.0867    constr:    0.0000
     atom:   10    charge:   14.3583    magn:    2.0880    constr:    0.0000
     atom:   11    charge:   14.3584    magn:    2.0871    constr:    0.0000
     atom:   12    charge:   14.3583    magn:    2.0880    constr:    0.0000
     atom:   13    charge:   14.3584    magn:    2.0871    constr:    0.0000
     atom:   14    charge:   14.3583    magn:    2.0880    constr:    0.0000
     atom:   15    charge:   14.3583    magn:    2.0875    constr:    0.0000
     atom:   16    charge:   14.3583    magn:    2.0880    constr:    0.0000

     End of self-consistent calculation

 ------ SPIN UP ------------

          k = 0.0557 0.0557 0.0557 ( 11876 PWs)   bands (ev):

   -68.8635 -68.7839 -68.7839 -68.7839 -68.7713 -68.7713 -68.7713 -68.7699
   -68.7698 -68.7698 -68.7694 -68.7694 -68.7692 -68.7647 -68.7632 -68.7023
   -35.0941 -35.0940 -35.0940 -35.0916 -35.0916 -35.0915 -34.9599 -34.9599
   -34.9545 -34.8930 -34.8904 -34.8904 -34.8904 -34.8726 -34.8726 -34.8610
   -34.8610 -34.8610 -34.8312 -34.8312 -34.8107 -34.7998 -34.7997 -34.7997
   -34.7901 -34.7900 -34.7900 -34.7800 -34.7800 -34.7800 -34.7771 -34.7771
   -34.7771 -34.7698 -34.7698 -34.7698 -34.7608 -34.7608 -34.7607 -34.6246
   -34.6231 -34.6231 -34.6231 -34.6205 -34.6204 -34.6204 -34.6196 -34.6196
    10.5288  14.0954  14.0954  14.0954  14.1145  14.1145  14.1145  14.1409
    14.1409  14.1587  14.1588  14.1588  14.5669  14.5669  14.5669  15.7496
    15.7609  15.7609  15.7609  15.7740  15.7740  15.7740  15.8361  15.8361
    15.9112  15.9112  15.9112  15.9820  15.9820  16.0383  16.2562  16.2562
    16.2562  16.9162  16.9162  16.9587  17.2471  17.2471  17.2471  17.3276
    17.3277  17.3277  17.4224  17.4224  17.4224  17.5045  17.5046  17.5046
    18.1512  18.1512  18.1512  18.1570  18.1570  18.1990  18.1990  18.1990
    18.2467  18.2467  18.2467  18.2535  18.2535  18.2535  18.3712  18.3712
    18.3712  18.3766  18.3766  18.3766  18.4113  18.4113  18.4127  18.4127
    19.2887  19.2887  19.2887  19.3258  19.3258  19.3258  19.4519  19.5194
    19.5194  19.5262  19.5262  19.5262  19.8677  19.8677  19.8677  20.0588
    20.0588  20.0588

[...]

          k =-0.5017-0.5017-0.5017 ( 11752 PWs)   bands (ev):

[...]

 ------ SPIN DOWN ----------

[...]

          k = 0.3902-0.5017-0.5017 ( 11872 PWs)   bands (ev):

[...]

          k =-0.5017-0.5017-0.5017 ( 11752 PWs)   bands (ev):

   -66.3231 -66.3229 -66.3229 -66.3229 -66.3227 -66.3227 -66.3227 -66.3226
   -66.2611 -66.2609 -66.2609 -66.2609 -66.2607 -66.2607 -66.2607 -66.2606
   -32.5650 -32.5650 -32.5650 -32.5649 -32.5649 -32.5648 -32.5648 -32.5648
   -32.5647 -32.5647 -32.5647 -32.5647 -32.5647 -32.5646 -32.5646 -32.5646
   -32.5272 -32.5271 -32.5271 -32.5271 -32.5270 -32.5270 -32.5270 -32.5270
   -32.2873 -32.2872 -32.2872 -32.2872 -32.2871 -32.2871 -32.2871 -32.2871
   -32.2465 -32.2465 -32.2465 -32.2464 -32.2464 -32.2463 -32.2463 -32.2463
   -32.2462 -32.2462 -32.2462 -32.2462 -32.2462 -32.2461 -32.2461 -32.2461
    14.1365  14.1365  14.1365  14.1365  14.1366  14.1366  14.1366  14.1366
    17.1537  17.1537  17.1538  17.1538  17.1538  17.1538  17.1538  17.1538
    17.1538  17.1538  17.1538  17.1539  17.1539  17.1539  17.1539  17.1539
    17.5433  17.5433  17.5433  17.5434  17.5434  17.5434  17.5434  17.5434
    17.6446  17.6446  17.6446  17.6447  17.6447  17.6447  17.6447  17.6447
    17.6448  17.6448  17.6449  17.6449  17.6449  17.6449  17.6449  17.6449
    20.8260  20.8260  20.8260  20.8261  20.8261  20.8261  20.8261  20.8261
    20.8261  20.8261  20.8262  20.8262  20.8262  20.8262  20.8262  20.8262
    20.8569  20.8569  20.8570  20.8570  20.8570  20.8571  20.8571  20.8571
    20.8571  20.8571  20.8571  20.8571  20.8571  20.8571  20.8572  20.8572
    21.2167  21.2167  21.2167  21.2167  21.2168  21.2168  21.2168  21.2168
    27.6452  27.6452

     the Fermi energy is    19.2162 ev

!    total energy              =   -5268.18483155 Ry
     Harris-Foulkes estimate   =   -5268.18483029 Ry
     estimated scf accuracy    <       0.00000038 Ry

     total all-electron energy =    -40728.929361 Ry

     The total energy is the sum of the following terms:

     one-electron contribution =   -1692.55898028 Ry
     hartree contribution      =    1016.94035899 Ry
     xc contribution           =    -444.37028160 Ry
     ewald contribution        =   -2823.64212314 Ry
     one-center paw contrib.   =   -1324.67313632 Ry
     smearing contrib. (-TS)   =       0.11933080 Ry

     total magnetization       =    32.72 Bohr mag/cell
     absolute magnetization    =    34.44 Bohr mag/cell

     convergence has been achieved in  18 iterations

     negative rho (up, down):  0.000E+00 2.401E-03

     Forces acting on atoms (cartesian axes, Ry/au):

     atom    1 type  1   force =     0.00000000   -0.00000000    0.00000000
     atom    2 type  2   force =     0.00001385    0.00001385    0.00001385
     atom    3 type  1   force =     0.00000000    0.00000000    0.00000000
     atom    4 type  2   force =     0.00001385    0.00001385   -0.00001385
     atom    5 type  1   force =     0.00000000    0.00000000    0.00000000
     atom    6 type  2   force =     0.00001385   -0.00001385    0.00001385
     atom    7 type  1   force =     0.00000000    0.00000000   -0.00000000
     atom    8 type  2   force =     0.00001385   -0.00001385   -0.00001385
     atom    9 type  1   force =     0.00000000    0.00000000    0.00000000
     atom   10 type  2   force =    -0.00001385    0.00001385    0.00001385
     atom   11 type  1   force =     0.00000000    0.00000000    0.00000000
     atom   12 type  2   force =    -0.00001385    0.00001385   -0.00001385
     atom   13 type  1   force =     0.00000000    0.00000000    0.00000000
     atom   14 type  2   force =    -0.00001385   -0.00001385    0.00001385
     atom   15 type  1   force =     0.00000000    0.00000000    0.00000000
     atom   16 type  2   force =    -0.00001385   -0.00001385   -0.00001385

     Total force =     0.000068     Total SCF correction =     0.002270
     SCF correction compared to forces is large: reduce conv_thr to get better values

     Computing stress (Cartesian axis) and pressure

     negative rho (up, down):  0.000E+00 2.401E-03
          total   stress  (Ry/bohr**3)                   (kbar)     P=   21.93
   0.00014908   0.00000000   0.00000000         21.93      0.00      0.00
   0.00000000   0.00014908   0.00000000          0.00     21.93      0.00
   0.00000000   0.00000000   0.00014908          0.00      0.00     21.93

     Writing output data file MxjnGXVXINNaRfYL.save/

     General routines

     Parallel routines

   This run was terminated on:  10:22:46   9Sep2020

   JOB DONE.