     Program PWSCF v.6.3 starts on  9Sep2020 at 10:45:33

     R & G space division:  proc/nbgrp/npool/nimage =      40
     Reading input from wd/eos/eos_007.in
Warning: card &IONS ignored
Warning: card ION_DYNAMICS = 'BFGS', ignored
Warning: card / ignored
Warning: card &CELL ignored
Warning: card CELL_DYNAMICS = 'BFGS', ignored
Warning: card CELL_FACTOR = 2.0, ignored
Warning: card PRESS = 0.0, ignored
Warning: card / ignored

     Current dimensions of program PWSCF are:
     Max number of different atomic species (ntypx) = 10
     Max number of k-points (npk) =  40000
     Max angular momentum in pseudopotentials (lmaxx) =  3
               file Fe.pbe-spn-kjpaw_psl.1.0.0.UPF: wavefunction(s)  3P 3D renormalized
               file Fe.pbe-spn-kjpaw_psl.1.0.0.UPF: wavefunction(s)  3P 3D renormalized

     Subspace diagonalization in iterative solution of the eigenvalue problem:
     a serial algorithm will be used

     Found symmetry operation: I + (  0.0000  0.0000 -0.5000)
     This is a supercell, fractional translations are disabled

     bravais-lattice index     =            0
     lattice parameter (alat)  =      10.5935  a.u.
     unit-cell volume          =    1206.7547 (a.u.)^3
     number of atoms/cell      =           16
     number of atomic types    =            2
     number of electrons       =       256.00
     number of Kohn-Sham states=          154
     kinetic-energy cutoff     =      71.0000  Ry
     charge density cutoff     =     430.0000  Ry
     convergence threshold     =      1.0E-06
     mixing beta               =       0.1000
     number of iterations used =           10  plain     mixing
     Exchange-correlation      = SLA PW PBX PBC ( 1  4  3  4 0 0)

     celldm(1)=  10.593520  celldm(2)=   0.000000  celldm(3)=   0.000000
     celldm(4)=   0.000000  celldm(5)=   0.000000  celldm(6)=   0.000000

     crystal axes: (cart. coord. in units of alat)
               a(1) = (   1.005000   0.000000   0.000000 )
               a(2) = (   0.000000   1.005000   0.000000 )
               a(3) = (   0.000000   0.000000   1.005000 )

     reciprocal axes: (cart. coord. in units 2 pi/alat)
               b(1) = (  0.995025  0.000000  0.000000 )
               b(2) = (  0.000000  0.995025  0.000000 )
               b(3) = (  0.000000  0.000000  0.995025 )

     PseudoPot. # 1 for Fe read from file:
     /rds/homes/b/bxp912/pp/Fe.pbe-spn-kjpaw_psl.1.0.0.UPF
     MD5 check sum: 42f43b795421b414b0dc916aa790dbcb
     Pseudo is Projector augmented-wave + core cor, Zval = 16.0
     Generated using "atomic" code by A. Dal Corso v.6.3
     Shape of augmentation charge: PSQ
     Using radial grid of 1191 points,  6 beta functions with:
                l(1) =   0
                l(2) =   0
                l(3) =   1
                l(4) =   1
                l(5) =   2
                l(6) =   2
     Q(r) pseudized with 0 coefficients

     PseudoPot. # 2 for Fe read from file:
     /rds/homes/b/bxp912/pp/Fe.pbe-spn-kjpaw_psl.1.0.0.UPF
     MD5 check sum: 42f43b795421b414b0dc916aa790dbcb
     Pseudo is Projector augmented-wave + core cor, Zval = 16.0
     Generated using "atomic" code by A. Dal Corso v.6.3
     Shape of augmentation charge: PSQ
     Using radial grid of 1191 points,  6 beta functions with:
                l(1) =   0
                l(2) =   0
                l(3) =   1
                l(4) =   1
                l(5) =   2
                l(6) =   2
     Q(r) pseudized with 0 coefficients

     atomic species   valence    mass     pseudopotential
        Fe1           16.00    55.84500     Fe( 1.00)
        Fe2           16.00    55.84500     Fe( 1.00)

     Starting magnetic structure
     atomic species   magnetization
        Fe1          0.100
        Fe2          0.100

     48 Sym. Ops., with inversion, found

   Cartesian axes

     site n.     atom                  positions (alat units)
         1           Fe1 tau(   1) = (   0.0000000   0.0000000   0.0000000  )
         2           Fe2 tau(   2) = (   0.2512504   0.2512504   0.2512504  )
         3           Fe1 tau(   3) = (   0.0000000   0.0000000   0.5025000  )
         4           Fe2 tau(   4) = (   0.2512504   0.2512504   0.7537496  )
         5           Fe1 tau(   5) = (   0.0000000   0.5025000   0.0000000  )
         6           Fe2 tau(   6) = (   0.2512504   0.7537496   0.2512504  )
         7           Fe1 tau(   7) = (   0.0000000   0.5025000   0.5025000  )
         8           Fe2 tau(   8) = (   0.2512504   0.7537496   0.7537496  )
         9           Fe1 tau(   9) = (   0.5025000   0.0000000   0.0000000  )
        10           Fe2 tau(  10) = (   0.7537496   0.2512504   0.2512504  )
        11           Fe1 tau(  11) = (   0.5025000   0.0000000   0.5025000  )
        12           Fe2 tau(  12) = (   0.7537496   0.2512504   0.7537496  )
        13           Fe1 tau(  13) = (   0.5025000   0.5025000   0.0000000  )
        14           Fe2 tau(  14) = (   0.7537496   0.7537496   0.2512504  )
        15           Fe1 tau(  15) = (   0.5025000   0.5025000   0.5025000  )
        16           Fe2 tau(  16) = (   0.7537496   0.7537496   0.7537496  )

     number of k points=    35  Marzari-Vanderbilt smearing, width (Ry)=  0.0400
                       cart. coord. in units 2pi/alat
        k(    1) = (   0.0552792   0.0552792   0.0552792), wk =   0.0109739
        k(    2) = (   0.0552792   0.0552792   0.1658375), wk =   0.0329218
        k(    3) = (   0.0552792   0.0552792   0.2763958), wk =   0.0329218
        k(    4) = (   0.0552792   0.0552792   0.3869541), wk =   0.0329218
        k(    5) = (   0.0552792   0.0552792  -0.4975124), wk =   0.0164609
        k(    6) = (   0.0552792   0.1658375   0.1658375), wk =   0.0329218
        k(    7) = (   0.0552792   0.1658375   0.2763958), wk =   0.0658436
        k(    8) = (   0.0552792   0.1658375   0.3869541), wk =   0.0658436
        k(    9) = (   0.0552792   0.1658375  -0.4975124), wk =   0.0329218
        k(   10) = (   0.0552792   0.2763958   0.2763958), wk =   0.0329218
        k(   11) = (   0.0552792   0.2763958   0.3869541), wk =   0.0658436
        k(   12) = (   0.0552792   0.2763958  -0.4975124), wk =   0.0329218
        k(   13) = (   0.0552792   0.3869541   0.3869541), wk =   0.0329218
        k(   14) = (   0.0552792   0.3869541  -0.4975124), wk =   0.0329218
        k(   15) = (   0.0552792  -0.4975124  -0.4975124), wk =   0.0082305
        k(   16) = (   0.1658375   0.1658375   0.1658375), wk =   0.0109739
        k(   17) = (   0.1658375   0.1658375   0.2763958), wk =   0.0329218
        k(   18) = (   0.1658375   0.1658375   0.3869541), wk =   0.0329218
        k(   19) = (   0.1658375   0.1658375  -0.4975124), wk =   0.0164609
        k(   20) = (   0.1658375   0.2763958   0.2763958), wk =   0.0329218
        k(   21) = (   0.1658375   0.2763958   0.3869541), wk =   0.0658436
        k(   22) = (   0.1658375   0.2763958  -0.4975124), wk =   0.0329218
        k(   23) = (   0.1658375   0.3869541   0.3869541), wk =   0.0329218
        k(   24) = (   0.1658375   0.3869541  -0.4975124), wk =   0.0329218
        k(   25) = (   0.1658375  -0.4975124  -0.4975124), wk =   0.0082305
        k(   26) = (   0.2763958   0.2763958   0.2763958), wk =   0.0109739
        k(   27) = (   0.2763958   0.2763958   0.3869541), wk =   0.0329218
        k(   28) = (   0.2763958   0.2763958  -0.4975124), wk =   0.0164609
        k(   29) = (   0.2763958   0.3869541   0.3869541), wk =   0.0329218
        k(   30) = (   0.2763958   0.3869541  -0.4975124), wk =   0.0329218
        k(   31) = (   0.2763958  -0.4975124  -0.4975124), wk =   0.0082305
        k(   32) = (   0.3869541   0.3869541   0.3869541), wk =   0.0109739
        k(   33) = (   0.3869541   0.3869541  -0.4975124), wk =   0.0164609
        k(   34) = (   0.3869541  -0.4975124  -0.4975124), wk =   0.0082305
        k(   35) = (  -0.4975124  -0.4975124  -0.4975124), wk =   0.0013717

     Check: negative/imaginary core charge=   -0.000006    0.000000

     Initial potential from superposition of free atoms

     starting charge  255.99300, renormalised to  256.00000
     Starting wfcs are  160 randomized atomic wfcs
     Checking if some PAW data can be deallocated...

     Self-consistent Calculation

     iteration #  1     ecut=    71.00 Ry     beta= 0.10
     Davidson diagonalization with overlap
     ethr =  1.00E-02,  avg # of iterations =  3.3

     Threshold (ethr) on eigenvalues was too large:
     Diagonalizing with lowered threshold

     Davidson diagonalization with overlap
     ethr =  1.94E-04,  avg # of iterations =  3.5

     total energy              =   -5267.97266462 Ry
     Harris-Foulkes estimate   =   -5268.01775576 Ry
     estimated scf accuracy    <       0.57961769 Ry

     total magnetization       =    28.28 Bohr mag/cell
     absolute magnetization    =    28.39 Bohr mag/cell

[...]

     negative rho (up, down):  0.000E+00 3.573E-03

[...]

     total energy              =   -5268.19287616 Ry
     Harris-Foulkes estimate   =   -5268.19287474 Ry
     estimated scf accuracy    <       0.00000411 Ry

[...]

     iteration # 18     ecut=    71.00 Ry     beta= 0.10
     Davidson diagonalization with overlap
     ethr =  1.61E-09,  avg # of iterations =  2.3

[...]

     Magnetic moment per site:
     atom:    1    charge:   14.3785    magn:    2.1199    constr:    0.0000
     atom:    2    charge:   14.3785    magn:    2.1221    constr:    0.0000
     atom:    3    charge:   14.3786    magn:    2.1207    constr:    0.0000
     atom:    4    charge:   14.3785    magn:    2.1221    constr:    0.0000
     atom:    5    charge:   14.3786    magn:    2.1207    constr:    0.0000
     atom:    6    charge:   14.3785    magn:    2.1221    constr:    0.0000
     atom:    7    charge:   14.3786    magn:    2.1212    constr:    0.0000
     atom:    8    charge:   14.3785    magn:    2.1221    constr:    0.0000
     atom:    9    charge:   14.3786    magn:    2.1207    constr:    0.0000
     atom:   10    charge:   14.3785    magn:    2.1221    constr:    0.0000
     atom:   11    charge:   14.3786    magn:    2.1212    constr:    0.0000
     atom:   12    charge:   14.3785    magn:    2.1221    constr:    0.0000
     atom:   13    charge:   14.3786    magn:    2.1212    constr:    0.0000
     atom:   14    charge:   14.3785    magn:    2.1221    constr:    0.0000
     atom:   15    charge:   14.3786    magn:    2.1217    constr:    0.0000
     atom:   16    charge:   14.3785    magn:    2.1221    constr:    0.0000

     End of self-consistent calculation

 ------ SPIN UP ------------

          k = 0.0553 0.0553 0.0553 ( 12191 PWs)   bands (ev):

   -69.4237 -69.3520 -69.3520 -69.3519 -69.3407 -69.3407 -69.3407 -69.3395
   -69.3394 -69.3394 -69.3389 -69.3389 -69.3386 -69.3350 -69.3336 -69.2784
   -35.6369 -35.6369 -35.6369 -35.6347 -35.6347 -35.6347 -35.5156 -35.5156
   -35.5107 -35.4528 -35.4504 -35.4504 -35.4504 -35.4345 -35.4345 -35.4232
   -35.4232 -35.4232 -35.3968 -35.3968 -35.3775 -35.3681 -35.3680 -35.3680
   -35.3590 -35.3590 -35.3590 -35.3500 -35.3500 -35.3500 -35.3469 -35.3469
   -35.3469 -35.3404 -35.3404 -35.3404 -35.3320 -35.3320 -35.3320 -35.2074
   -35.2049 -35.2049 -35.2048 -35.2023 -35.2023 -35.2023 -35.2023 -35.2023
    10.0975  13.6513  13.6514  13.6514  13.6707  13.6707  13.6707  13.6785
    13.6785  13.6785  13.7091  13.7091  14.0874  14.0874  14.0874  15.2578
    15.2717  15.2717  15.2717  15.2837  15.2837  15.2838  15.3413  15.3413
    15.4166  15.4166  15.4166  15.4821  15.4821  15.5362  15.7484  15.7484
    15.7484  16.3814  16.3814  16.4222  16.7031  16.7031  16.7031  16.7805
    16.7805  16.7805  16.8722  16.8722  16.8722  16.9514  16.9514  16.9514
    17.5686  17.5686  17.5727  17.5727  17.5727  17.6117  17.6118  17.6118
    17.6556  17.6556  17.6556  17.6619  17.6619  17.6619  17.7728  17.7728
    17.7728  17.7898  17.7898  17.7898  17.8099  17.8099  17.8115  17.8115
    18.6580  18.6580  18.6580  18.7351  18.7351  18.7351  18.8240  18.8887
    18.8887  18.9151  18.9151  18.9151  19.2228  19.2228  19.2228  19.4334
    19.4334  19.4334

[...]

          k =-0.4975-0.4975-0.4975 ( 12160 PWs)   bands (ev):

[...]

 ------ SPIN DOWN ----------

[...]

          k = 0.3870-0.4975-0.4975 ( 12208 PWs)   bands (ev):

[...]

          k =-0.4975-0.4975-0.4975 ( 12160 PWs)   bands (ev):

   -66.8525 -66.8523 -66.8523 -66.8523 -66.8522 -66.8522 -66.8522 -66.8520
   -66.7964 -66.7962 -66.7962 -66.7962 -66.7961 -66.7961 -66.7961 -66.7959
   -33.0820 -33.0820 -33.0820 -33.0820 -33.0820 -33.0819 -33.0819 -33.0819
   -33.0818 -33.0818 -33.0818 -33.0818 -33.0818 -33.0817 -33.0817 -33.0817
   -33.0475 -33.0475 -33.0475 -33.0475 -33.0474 -33.0474 -33.0474 -33.0473
   -32.8268 -32.8267 -32.8267 -32.8267 -32.8266 -32.8266 -32.8266 -32.8266
   -32.7887 -32.7887 -32.7887 -32.7887 -32.7887 -32.7886 -32.7886 -32.7886
   -32.7885 -32.7885 -32.7885 -32.7885 -32.7885 -32.7884 -32.7884 -32.7884
    13.6429  13.6430  13.6430  13.6430  13.6430  13.6430  13.6430  13.6431
    16.6893  16.6893  16.6894  16.6894  16.6894  16.6894  16.6894  16.6894
    16.6894  16.6894  16.6894  16.6895  16.6895  16.6895  16.6895  16.6895
    17.0654  17.0654  17.0654  17.0654  17.0655  17.0655  17.0655  17.0655
    17.1717  17.1717  17.1717  17.1718  17.1718  17.1718  17.1719  17.1719
    17.1720  17.1720  17.1720  17.1720  17.1720  17.1721  17.1721  17.1721
    20.2546  20.2546  20.2546  20.2547  20.2547  20.2547  20.2547  20.2547
    20.2547  20.2547  20.2548  20.2548  20.2548  20.2548  20.2548  20.2548
    20.2945  20.2945  20.2946  20.2946  20.2946  20.2947  20.2947  20.2947
    20.2947  20.2947  20.2947  20.2947  20.2947  20.2947  20.2948  20.2948
    20.6243  20.6243  20.6243  20.6243  20.6244  20.6244  20.6244  20.6245
    26.8939  26.8940

     the Fermi energy is    18.6180 ev

!    total energy              =   -5268.19287797 Ry
     Harris-Foulkes estimate   =   -5268.19287667 Ry
     estimated scf accuracy    <       0.00000052 Ry

     total all-electron energy =    -40728.937407 Ry

     The total energy is the sum of the following terms:

     one-electron contribution =   -1729.60653057 Ry
     hartree contribution      =    1030.28350505 Ry
     xc contribution           =    -444.10431418 Ry
     ewald contribution        =   -2800.22883854 Ry
     one-center paw contrib.   =   -1324.66759826 Ry
     smearing contrib. (-TS)   =       0.13089853 Ry

     total magnetization       =    33.19 Bohr mag/cell
     absolute magnetization    =    35.03 Bohr mag/cell

     convergence has been achieved in  18 iterations

     negative rho (up, down):  0.000E+00 2.558E-03

     Forces acting on atoms (cartesian axes, Ry/au):

     atom    1 type  1   force =     0.00000000    0.00000000    0.00000000
     atom    2 type  2   force =    -0.00000086   -0.00000086   -0.00000086
     atom    3 type  1   force =     0.00000000    0.00000000    0.00000000
     atom    4 type  2   force =    -0.00000086   -0.00000086    0.00000086
     atom    5 type  1   force =     0.00000000   -0.00000000   -0.00000000
     atom    6 type  2   force =    -0.00000086    0.00000086   -0.00000086
     atom    7 type  1   force =     0.00000000    0.00000000    0.00000000
     atom    8 type  2   force =    -0.00000086    0.00000086    0.00000086
     atom    9 type  1   force =     0.00000000    0.00000000   -0.00000000
     atom   10 type  2   force =     0.00000086   -0.00000086   -0.00000086
     atom   11 type  1   force =     0.00000000    0.00000000    0.00000000
     atom   12 type  2   force =     0.00000086   -0.00000086    0.00000086
     atom   13 type  1   force =     0.00000000    0.00000000   -0.00000000
     atom   14 type  2   force =     0.00000086    0.00000086   -0.00000086
     atom   15 type  1   force =     0.00000000    0.00000000   -0.00000000
     atom   16 type  2   force =     0.00000086    0.00000086    0.00000086

     Total force =     0.000004     Total SCF correction =     0.002611
     SCF correction compared to forces is large: reduce conv_thr to get better values

     Computing stress (Cartesian axis) and pressure

     negative rho (up, down):  0.000E+00 2.558E-03
          total   stress  (Ry/bohr**3)                   (kbar)     P=  -34.81
  -0.00023665   0.00000000   0.00000000        -34.81      0.00      0.00
   0.00000000  -0.00023665   0.00000000          0.00    -34.81      0.00
   0.00000000   0.00000000  -0.00023665          0.00      0.00    -34.81

     Writing output data file ENCcWhqvEiUoQhzw.save/

     General routines

     Parallel routines

   This run was terminated on:  10:53:12   9Sep2020

   JOB DONE.