     Program PWSCF v.6.3 starts on  9Sep2020 at 10: 7:39

     R & G space division:  proc/nbgrp/npool/nimage =      40
     Reading input from wd/eos/eos_001.in
Warning: card &IONS ignored
Warning: card ION_DYNAMICS = 'BFGS', ignored
Warning: card / ignored
Warning: card &CELL ignored
Warning: card CELL_DYNAMICS = 'BFGS', ignored
Warning: card CELL_FACTOR = 2.0, ignored
Warning: card PRESS = 0.0, ignored
Warning: card / ignored

     Current dimensions of program PWSCF are:
     Max number of different atomic species (ntypx) = 10
     Max number of k-points (npk) =  40000
     Max angular momentum in pseudopotentials (lmaxx) =  3
               file Fe.pbe-spn-kjpaw_psl.1.0.0.UPF: wavefunction(s)  3P 3D renormalized
               file Fe.pbe-spn-kjpaw_psl.1.0.0.UPF: wavefunction(s)  3P 3D renormalized

     Subspace diagonalization in iterative solution of the eigenvalue problem:
     a serial algorithm will be used

     Found symmetry operation: I + (  0.0000  0.0000 -0.5000)
     This is a supercell, fractional translations are disabled

     bravais-lattice index     =            0
     lattice parameter (alat)  =      10.5935  a.u.
     unit-cell volume          =    1171.0894 (a.u.)^3
     number of atoms/cell      =           16
     number of atomic types    =            2
     number of electrons       =       256.00
     number of Kohn-Sham states=          154
     kinetic-energy cutoff     =      71.0000  Ry
     charge density cutoff     =     430.0000  Ry
     convergence threshold     =      1.0E-06
     mixing beta               =       0.1000
     number of iterations used =           10  plain     mixing
     Exchange-correlation      = SLA PW PBX PBC ( 1  4  3  4 0 0)

     celldm(1)=  10.593520  celldm(2)=   0.000000  celldm(3)=   0.000000
     celldm(4)=   0.000000  celldm(5)=   0.000000  celldm(6)=   0.000000

     crystal axes: (cart. coord. in units of alat)
               a(1) = (   0.995000   0.000000   0.000000 )
               a(2) = (   0.000000   0.995000   0.000000 )
               a(3) = (   0.000000   0.000000   0.995000 )

     reciprocal axes: (cart. coord. in units 2 pi/alat)
               b(1) = (  1.005025  0.000000  0.000000 )
               b(2) = (  0.000000  1.005025  0.000000 )
               b(3) = (  0.000000  0.000000  1.005025 )

     PseudoPot. # 1 for Fe read from file:
     /rds/homes/b/bxp912/pp/Fe.pbe-spn-kjpaw_psl.1.0.0.UPF
     MD5 check sum: 42f43b795421b414b0dc916aa790dbcb
     Pseudo is Projector augmented-wave + core cor, Zval = 16.0
     Generated using "atomic" code by A. Dal Corso v.6.3
     Shape of augmentation charge: PSQ
     Using radial grid of 1191 points,  6 beta functions with:
                l(1) =   0
                l(2) =   0
                l(3) =   1
                l(4) =   1
                l(5) =   2
                l(6) =   2
     Q(r) pseudized with 0 coefficients

     PseudoPot. # 2 for Fe read from file:
     /rds/homes/b/bxp912/pp/Fe.pbe-spn-kjpaw_psl.1.0.0.UPF
     MD5 check sum: 42f43b795421b414b0dc916aa790dbcb
     Pseudo is Projector augmented-wave + core cor, Zval = 16.0
     Generated using "atomic" code by A. Dal Corso v.6.3
     Shape of augmentation charge: PSQ
     Using radial grid of 1191 points,  6 beta functions with:
                l(1) =   0
                l(2) =   0
                l(3) =   1
                l(4) =   1
                l(5) =   2
                l(6) =   2
     Q(r) pseudized with 0 coefficients

     atomic species   valence    mass     pseudopotential
        Fe1           16.00    55.84500     Fe( 1.00)
        Fe2           16.00    55.84500     Fe( 1.00)

     Starting magnetic structure
     atomic species   magnetization
        Fe1          0.100
        Fe2          0.100

     48 Sym. Ops., with inversion, found

   Cartesian axes

     site n.     atom                  positions (alat units)
         1           Fe1 tau(   1) = (   0.0000000   0.0000000   0.0000000  )
         2           Fe2 tau(   2) = (   0.2487504   0.2487504   0.2487504  )
         3           Fe1 tau(   3) = (   0.0000000   0.0000000   0.4975000  )
         4           Fe2 tau(   4) = (   0.2487504   0.2487504   0.7462496  )
         5           Fe1 tau(   5) = (   0.0000000   0.4975000   0.0000000  )
         6           Fe2 tau(   6) = (   0.2487504   0.7462496   0.2487504  )
         7           Fe1 tau(   7) = (   0.0000000   0.4975000   0.4975000  )
         8           Fe2 tau(   8) = (   0.2487504   0.7462496   0.7462496  )
         9           Fe1 tau(   9) = (   0.4975000   0.0000000   0.0000000  )
        10           Fe2 tau(  10) = (   0.7462496   0.2487504   0.2487504  )
        11           Fe1 tau(  11) = (   0.4975000   0.0000000   0.4975000  )
        12           Fe2 tau(  12) = (   0.7462496   0.2487504   0.7462496  )
        13           Fe1 tau(  13) = (   0.4975000   0.4975000   0.0000000  )
        14           Fe2 tau(  14) = (   0.7462496   0.7462496   0.2487504  )
        15           Fe1 tau(  15) = (   0.4975000   0.4975000   0.4975000  )
        16           Fe2 tau(  16) = (   0.7462496   0.7462496   0.7462496  )

     number of k points=    35  Marzari-Vanderbilt smearing, width (Ry)=  0.0400
                       cart. coord. in units 2pi/alat
        k(    1) = (   0.0558347   0.0558347   0.0558347), wk =   0.0109739
        k(    2) = (   0.0558347   0.0558347   0.1675042), wk =   0.0329218
        k(    3) = (   0.0558347   0.0558347   0.2791736), wk =   0.0329218
        k(    4) = (   0.0558347   0.0558347   0.3908431), wk =   0.0329218
        k(    5) = (   0.0558347   0.0558347  -0.5025126), wk =   0.0164609
        k(    6) = (   0.0558347   0.1675042   0.1675042), wk =   0.0329218
        k(    7) = (   0.0558347   0.1675042   0.2791736), wk =   0.0658436
        k(    8) = (   0.0558347   0.1675042   0.3908431), wk =   0.0658436
        k(    9) = (   0.0558347   0.1675042  -0.5025126), wk =   0.0329218
        k(   10) = (   0.0558347   0.2791736   0.2791736), wk =   0.0329218
        k(   11) = (   0.0558347   0.2791736   0.3908431), wk =   0.0658436
        k(   12) = (   0.0558347   0.2791736  -0.5025126), wk =   0.0329218
        k(   13) = (   0.0558347   0.3908431   0.3908431), wk =   0.0329218
        k(   14) = (   0.0558347   0.3908431  -0.5025126), wk =   0.0329218
        k(   15) = (   0.0558347  -0.5025126  -0.5025126), wk =   0.0082305
        k(   16) = (   0.1675042   0.1675042   0.1675042), wk =   0.0109739
        k(   17) = (   0.1675042   0.1675042   0.2791736), wk =   0.0329218
        k(   18) = (   0.1675042   0.1675042   0.3908431), wk =   0.0329218
        k(   19) = (   0.1675042   0.1675042  -0.5025126), wk =   0.0164609
        k(   20) = (   0.1675042   0.2791736   0.2791736), wk =   0.0329218
        k(   21) = (   0.1675042   0.2791736   0.3908431), wk =   0.0658436
        k(   22) = (   0.1675042   0.2791736  -0.5025126), wk =   0.0329218
        k(   23) = (   0.1675042   0.3908431   0.3908431), wk =   0.0329218
        k(   24) = (   0.1675042   0.3908431  -0.5025126), wk =   0.0329218
        k(   25) = (   0.1675042  -0.5025126  -0.5025126), wk =   0.0082305
        k(   26) = (   0.2791736   0.2791736   0.2791736), wk =   0.0109739
        k(   27) = (   0.2791736   0.2791736   0.3908431), wk =   0.0329218
        k(   28) = (   0.2791736   0.2791736  -0.5025126), wk =   0.0164609
        k(   29) = (   0.2791736   0.3908431   0.3908431), wk =   0.0329218
        k(   30) = (   0.2791736   0.3908431  -0.5025126), wk =   0.0329218
        k(   31) = (   0.2791736  -0.5025126  -0.5025126), wk =   0.0082305
        k(   32) = (   0.3908431   0.3908431   0.3908431), wk =   0.0109739
        k(   33) = (   0.3908431   0.3908431  -0.5025126), wk =   0.0164609
        k(   34) = (   0.3908431  -0.5025126  -0.5025126), wk =   0.0082305
        k(   35) = (  -0.5025126  -0.5025126  -0.5025126), wk =   0.0013717

     Check: negative/imaginary core charge=   -0.000006    0.000000

     Initial potential from superposition of free atoms

     starting charge  255.99300, renormalised to  256.00000
     Starting wfcs are  160 randomized atomic wfcs
     Checking if some PAW data can be deallocated...

     Self-consistent Calculation

     iteration #  1     ecut=    71.00 Ry     beta= 0.10
     Davidson diagonalization with overlap
     ethr =  1.00E-02,  avg # of iterations =  3.3

     Threshold (ethr) on eigenvalues was too large:
     Diagonalizing with lowered threshold

     Davidson diagonalization with overlap
     ethr =  2.07E-04,  avg # of iterations =  3.4

     total energy              =   -5267.97670256 Ry
     Harris-Foulkes estimate   =   -5268.02956816 Ry
     estimated scf accuracy    <       0.61096832 Ry

     total magnetization       =    27.75 Bohr mag/cell
     absolute magnetization    =    27.84 Bohr mag/cell

[...]

     negative rho (up, down):  0.000E+00 3.186E-03

[...]

     total energy              =   -5268.18180009 Ry
     Harris-Foulkes estimate   =   -5268.18179870 Ry
     estimated scf accuracy    <       0.00000266 Ry

[...]

     iteration # 18     ecut=    71.00 Ry     beta= 0.10
     Davidson diagonalization with overlap
     ethr =  1.04E-09,  avg # of iterations =  3.2

[...]

     Magnetic moment per site:
     atom:    1    charge:   14.3543    magn:    2.0797    constr:    0.0000
     atom:    2    charge:   14.3542    magn:    2.0817    constr:    0.0000
     atom:    3    charge:   14.3543    magn:    2.0804    constr:    0.0000
     atom:    4    charge:   14.3542    magn:    2.0817    constr:    0.0000
     atom:    5    charge:   14.3543    magn:    2.0804    constr:    0.0000
     atom:    6    charge:   14.3542    magn:    2.0817    constr:    0.0000
     atom:    7    charge:   14.3543    magn:    2.0808    constr:    0.0000
     atom:    8    charge:   14.3542    magn:    2.0817    constr:    0.0000
     atom:    9    charge:   14.3543    magn:    2.0804    constr:    0.0000
     atom:   10    charge:   14.3542    magn:    2.0817    constr:    0.0000
     atom:   11    charge:   14.3543    magn:    2.0808    constr:    0.0000
     atom:   12    charge:   14.3542    magn:    2.0817    constr:    0.0000
     atom:   13    charge:   14.3543    magn:    2.0808    constr:    0.0000
     atom:   14    charge:   14.3542    magn:    2.0817    constr:    0.0000
     atom:   15    charge:   14.3542    magn:    2.0812    constr:    0.0000
     atom:   16    charge:   14.3542    magn:    2.0817    constr:    0.0000

     End of self-consistent calculation

 ------ SPIN UP ------------

          k = 0.0558 0.0558 0.0558 ( 11843 PWs)   bands (ev):

   -68.7493 -68.6682 -68.6682 -68.6682 -68.6553 -68.6553 -68.6553 -68.6539
   -68.6538 -68.6538 -68.6534 -68.6534 -68.6531 -68.6485 -68.6471 -68.5849
   -34.9836 -34.9836 -34.9836 -34.9812 -34.9812 -34.9811 -34.8469 -34.8469
   -34.8415 -34.7792 -34.7764 -34.7764 -34.7764 -34.7585 -34.7585 -34.7466
   -34.7466 -34.7466 -34.7163 -34.7163 -34.6955 -34.6841 -34.6840 -34.6840
   -34.6742 -34.6742 -34.6742 -34.6639 -34.6638 -34.6638 -34.6610 -34.6610
   -34.6610 -34.6537 -34.6537 -34.6537 -34.6446 -34.6446 -34.6445 -34.5061
   -34.5045 -34.5045 -34.5044 -34.5019 -34.5019 -34.5019 -34.5003 -34.5003
    10.6171  14.1857  14.1857  14.1857  14.2049  14.2049  14.2049  14.2287
    14.2287  14.2569  14.2569  14.2569  14.6648  14.6648  14.6648  15.8495
    15.8603  15.8603  15.8603  15.8735  15.8735  15.8735  15.9366  15.9366
    16.0117  16.0117  16.0117  16.0836  16.0836  16.1405  16.3595  16.3595
    16.3595  17.0253  17.0253  17.0680  17.3577  17.3577  17.3577  17.4389
    17.4389  17.4389  17.5343  17.5343  17.5343  17.6172  17.6172  17.6172
    18.2688  18.2688  18.2688  18.2770  18.2770  18.3188  18.3188  18.3188
    18.3673  18.3674  18.3674  18.3740  18.3740  18.3740  18.4933  18.4933
    18.4933  18.4960  18.4960  18.4960  18.5337  18.5337  18.5352  18.5352
    19.4174  19.4174  19.4174  19.4461  19.4461  19.4461  19.5797  19.6477
    19.6477  19.6506  19.6506  19.6506  19.9992  19.9992  19.9992  20.1866
    20.1866  20.1866

[...]

          k =-0.5025-0.5025-0.5025 ( 11752 PWs)   bands (ev):

[...]

 ------ SPIN DOWN ----------

[...]

          k = 0.3908-0.5025-0.5025 ( 11808 PWs)   bands (ev):

[...]

          k =-0.5025-0.5025-0.5025 ( 11752 PWs)   bands (ev):

   -66.2147 -66.2144 -66.2144 -66.2144 -66.2143 -66.2143 -66.2143 -66.2141
   -66.1514 -66.1511 -66.1511 -66.1511 -66.1510 -66.1510 -66.1510 -66.1508
   -32.4592 -32.4592 -32.4592 -32.4591 -32.4591 -32.4590 -32.4590 -32.4590
   -32.4589 -32.4589 -32.4589 -32.4589 -32.4589 -32.4589 -32.4589 -32.4589
   -32.4209 -32.4208 -32.4208 -32.4208 -32.4207 -32.4207 -32.4207 -32.4206
   -32.1769 -32.1768 -32.1768 -32.1768 -32.1767 -32.1767 -32.1767 -32.1767
   -32.1355 -32.1355 -32.1355 -32.1354 -32.1354 -32.1353 -32.1353 -32.1353
   -32.1352 -32.1352 -32.1352 -32.1352 -32.1352 -32.1351 -32.1351 -32.1351
    14.2375  14.2375  14.2375  14.2375  14.2376  14.2376  14.2376  14.2376
    17.2485  17.2485  17.2486  17.2486  17.2486  17.2487  17.2487  17.2487
    17.2487  17.2487  17.2487  17.2487  17.2487  17.2487  17.2488  17.2488
    17.6410  17.6410  17.6410  17.6410  17.6411  17.6411  17.6411  17.6411
    17.7412  17.7412  17.7412  17.7414  17.7414  17.7414  17.7414  17.7414
    17.7415  17.7415  17.7415  17.7415  17.7415  17.7416  17.7416  17.7416
    20.9430  20.9430  20.9430  20.9431  20.9431  20.9431  20.9432  20.9432
    20.9432  20.9432  20.9433  20.9433  20.9433  20.9433  20.9433  20.9433
    20.9717  20.9717  20.9719  20.9719  20.9719  20.9719  20.9719  20.9719
    20.9720  20.9720  20.9720  20.9720  20.9720  20.9720  20.9721  20.9721
    21.3380  21.3380  21.3380  21.3380  21.3381  21.3381  21.3381  21.3382
    27.7987  27.7987

     the Fermi energy is    19.3385 ev

!    total energy              =   -5268.18180201 Ry
     Harris-Foulkes estimate   =   -5268.18180073 Ry
     estimated scf accuracy    <       0.00000036 Ry

     total all-electron energy =    -40728.926331 Ry

     The total energy is the sum of the following terms:

     one-electron contribution =   -1685.09142293 Ry
     hartree contribution      =    1014.26534145 Ry
     xc contribution           =    -444.42665728 Ry
     ewald contribution        =   -2828.37184194 Ry
     one-center paw contrib.   =   -1324.67405477 Ry
     smearing contrib. (-TS)   =       0.11683346 Ry

     total magnetization       =    32.64 Bohr mag/cell
     absolute magnetization    =    34.33 Bohr mag/cell

     convergence has been achieved in  18 iterations

     negative rho (up, down):  0.000E+00 2.370E-03

     Forces acting on atoms (cartesian axes, Ry/au):

     atom    1 type  1   force =     0.00000000   -0.00000000    0.00000000
     atom    2 type  2   force =     0.00001256    0.00001256    0.00001256
     atom    3 type  1   force =     0.00000000    0.00000000    0.00000000
     atom    4 type  2   force =     0.00001256    0.00001256   -0.00001256
     atom    5 type  1   force =     0.00000000    0.00000000    0.00000000
     atom    6 type  2   force =     0.00001256   -0.00001256    0.00001256
     atom    7 type  1   force =     0.00000000    0.00000000   -0.00000000
     atom    8 type  2   force =     0.00001256   -0.00001256   -0.00001256
     atom    9 type  1   force =     0.00000000    0.00000000    0.00000000
     atom   10 type  2   force =    -0.00001256    0.00001256    0.00001256
     atom   11 type  1   force =     0.00000000    0.00000000    0.00000000
     atom   12 type  2   force =    -0.00001256    0.00001256   -0.00001256
     atom   13 type  1   force =     0.00000000    0.00000000    0.00000000
     atom   14 type  2   force =    -0.00001256   -0.00001256    0.00001256
     atom   15 type  1   force =     0.00000000   -0.00000000   -0.00000000
     atom   16 type  2   force =    -0.00001256   -0.00001256   -0.00001256

     Total force =     0.000062     Total SCF correction =     0.002013
     SCF correction compared to forces is large: reduce conv_thr to get better values

     Computing stress (Cartesian axis) and pressure

     negative rho (up, down):  0.000E+00 2.370E-03
          total   stress  (Ry/bohr**3)                   (kbar)     P=   34.23
   0.00023266   0.00000000   0.00000000         34.23      0.00      0.00
   0.00000000   0.00023266   0.00000000          0.00     34.23      0.00
   0.00000000   0.00000000   0.00023266          0.00      0.00     34.23

     Writing output data file FrGXODtzqToJvcpV.save/

     General routines

     Parallel routines

   This run was terminated on:  10:15:11   9Sep2020

   JOB DONE.