     Program PWSCF v.6.3 starts on  9Sep2020 at 10:30:26

     R & G space division:  proc/nbgrp/npool/nimage =      40
     Reading input from wd/eos/eos_005.in
Warning: card &IONS ignored
Warning: card ION_DYNAMICS = 'BFGS', ignored
Warning: card / ignored
Warning: card &CELL ignored
Warning: card CELL_DYNAMICS = 'BFGS', ignored
Warning: card CELL_FACTOR = 2.0, ignored
Warning: card PRESS = 0.0, ignored
Warning: card / ignored

     Current dimensions of program PWSCF are:
     Max number of different atomic species (ntypx) = 10
     Max number of k-points (npk) =  40000
     Max angular momentum in pseudopotentials (lmaxx) =  3
               file Fe.pbe-spn-kjpaw_psl.1.0.0.UPF: wavefunction(s)  3P 3D renormalized
               file Fe.pbe-spn-kjpaw_psl.1.0.0.UPF: wavefunction(s)  3P 3D renormalized

     Subspace diagonalization in iterative solution of the eigenvalue problem:
     a serial algorithm will be used

     Found symmetry operation: I + (  0.0000  0.0000 -0.5000)
     This is a supercell, fractional translations are disabled

     bravais-lattice index     =            0
     lattice parameter (alat)  =      10.5935  a.u.
     unit-cell volume          =    1194.7870 (a.u.)^3
     number of atoms/cell      =           16
     number of atomic types    =            2
     number of electrons       =       256.00
     number of Kohn-Sham states=          154
     kinetic-energy cutoff     =      71.0000  Ry
     charge density cutoff     =     430.0000  Ry
     convergence threshold     =      1.0E-06
     mixing beta               =       0.1000
     number of iterations used =           10  plain     mixing
     Exchange-correlation      = SLA PW PBX PBC ( 1  4  3  4 0 0)

     celldm(1)=  10.593520  celldm(2)=   0.000000  celldm(3)=   0.000000
     celldm(4)=   0.000000  celldm(5)=   0.000000  celldm(6)=   0.000000

     crystal axes: (cart. coord. in units of alat)
               a(1) = (   1.001667   0.000000   0.000000 )
               a(2) = (   0.000000   1.001667   0.000000 )
               a(3) = (   0.000000   0.000000   1.001667 )

     reciprocal axes: (cart. coord. in units 2 pi/alat)
               b(1) = (  0.998336  0.000000  0.000000 )
               b(2) = (  0.000000  0.998336  0.000000 )
               b(3) = (  0.000000  0.000000  0.998336 )

     PseudoPot. # 1 for Fe read from file:
     /rds/homes/b/bxp912/pp/Fe.pbe-spn-kjpaw_psl.1.0.0.UPF
     MD5 check sum: 42f43b795421b414b0dc916aa790dbcb
     Pseudo is Projector augmented-wave + core cor, Zval = 16.0
     Generated using "atomic" code by A. Dal Corso v.6.3
     Shape of augmentation charge: PSQ
     Using radial grid of 1191 points,  6 beta functions with:
                l(1) =   0
                l(2) =   0
                l(3) =   1
                l(4) =   1
                l(5) =   2
                l(6) =   2
     Q(r) pseudized with 0 coefficients

     PseudoPot. # 2 for Fe read from file:
     /rds/homes/b/bxp912/pp/Fe.pbe-spn-kjpaw_psl.1.0.0.UPF
     MD5 check sum: 42f43b795421b414b0dc916aa790dbcb
     Pseudo is Projector augmented-wave + core cor, Zval = 16.0
     Generated using "atomic" code by A. Dal Corso v.6.3
     Shape of augmentation charge: PSQ
     Using radial grid of 1191 points,  6 beta functions with:
                l(1) =   0
                l(2) =   0
                l(3) =   1
                l(4) =   1
                l(5) =   2
                l(6) =   2
     Q(r) pseudized with 0 coefficients

     atomic species   valence    mass     pseudopotential
        Fe1           16.00    55.84500     Fe( 1.00)
        Fe2           16.00    55.84500     Fe( 1.00)

     Starting magnetic structure
     atomic species   magnetization
        Fe1          0.100
        Fe2          0.100

     48 Sym. Ops., with inversion, found

   Cartesian axes

     site n.     atom                  positions (alat units)
         1           Fe1 tau(   1) = (   0.0000000   0.0000000   0.0000000  )
         2           Fe2 tau(   2) = (   0.2504171   0.2504171   0.2504171  )
         3           Fe1 tau(   3) = (   0.0000000   0.0000000   0.5008333  )
         4           Fe2 tau(   4) = (   0.2504171   0.2504171   0.7512496  )
         5           Fe1 tau(   5) = (   0.0000000   0.5008333   0.0000000  )
         6           Fe2 tau(   6) = (   0.2504171   0.7512496   0.2504171  )
         7           Fe1 tau(   7) = (   0.0000000   0.5008333   0.5008333  )
         8           Fe2 tau(   8) = (   0.2504171   0.7512496   0.7512496  )
         9           Fe1 tau(   9) = (   0.5008333   0.0000000   0.0000000  )
        10           Fe2 tau(  10) = (   0.7512496   0.2504171   0.2504171  )
        11           Fe1 tau(  11) = (   0.5008333   0.0000000   0.5008333  )
        12           Fe2 tau(  12) = (   0.7512496   0.2504171   0.7512496  )
        13           Fe1 tau(  13) = (   0.5008333   0.5008333   0.0000000  )
        14           Fe2 tau(  14) = (   0.7512496   0.7512496   0.2504171  )
        15           Fe1 tau(  15) = (   0.5008333   0.5008333   0.5008333  )
        16           Fe2 tau(  16) = (   0.7512496   0.7512496   0.7512496  )

     number of k points=    35  Marzari-Vanderbilt smearing, width (Ry)=  0.0400
                       cart. coord. in units 2pi/alat
        k(    1) = (   0.0554631   0.0554631   0.0554631), wk =   0.0109739
        k(    2) = (   0.0554631   0.0554631   0.1663894), wk =   0.0329218
        k(    3) = (   0.0554631   0.0554631   0.2773156), wk =   0.0329218
        k(    4) = (   0.0554631   0.0554631   0.3882418), wk =   0.0329218
        k(    5) = (   0.0554631   0.0554631  -0.4991681), wk =   0.0164609
        k(    6) = (   0.0554631   0.1663894   0.1663894), wk =   0.0329218
        k(    7) = (   0.0554631   0.1663894   0.2773156), wk =   0.0658436
        k(    8) = (   0.0554631   0.1663894   0.3882418), wk =   0.0658436
        k(    9) = (   0.0554631   0.1663894  -0.4991681), wk =   0.0329218
        k(   10) = (   0.0554631   0.2773156   0.2773156), wk =   0.0329218
        k(   11) = (   0.0554631   0.2773156   0.3882418), wk =   0.0658436
        k(   12) = (   0.0554631   0.2773156  -0.4991681), wk =   0.0329218
        k(   13) = (   0.0554631   0.3882418   0.3882418), wk =   0.0329218
        k(   14) = (   0.0554631   0.3882418  -0.4991681), wk =   0.0329218
        k(   15) = (   0.0554631  -0.4991681  -0.4991681), wk =   0.0082305
        k(   16) = (   0.1663894   0.1663894   0.1663894), wk =   0.0109739
        k(   17) = (   0.1663894   0.1663894   0.2773156), wk =   0.0329218
        k(   18) = (   0.1663894   0.1663894   0.3882418), wk =   0.0329218
        k(   19) = (   0.1663894   0.1663894  -0.4991681), wk =   0.0164609
        k(   20) = (   0.1663894   0.2773156   0.2773156), wk =   0.0329218
        k(   21) = (   0.1663894   0.2773156   0.3882418), wk =   0.0658436
        k(   22) = (   0.1663894   0.2773156  -0.4991681), wk =   0.0329218
        k(   23) = (   0.1663894   0.3882418   0.3882418), wk =   0.0329218
        k(   24) = (   0.1663894   0.3882418  -0.4991681), wk =   0.0329218
        k(   25) = (   0.1663894  -0.4991681  -0.4991681), wk =   0.0082305
        k(   26) = (   0.2773156   0.2773156   0.2773156), wk =   0.0109739
        k(   27) = (   0.2773156   0.2773156   0.3882418), wk =   0.0329218
        k(   28) = (   0.2773156   0.2773156  -0.4991681), wk =   0.0164609
        k(   29) = (   0.2773156   0.3882418   0.3882418), wk =   0.0329218
        k(   30) = (   0.2773156   0.3882418  -0.4991681), wk =   0.0329218
        k(   31) = (   0.2773156  -0.4991681  -0.4991681), wk =   0.0082305
        k(   32) = (   0.3882418   0.3882418   0.3882418), wk =   0.0109739
        k(   33) = (   0.3882418   0.3882418  -0.4991681), wk =   0.0164609
        k(   34) = (   0.3882418  -0.4991681  -0.4991681), wk =   0.0082305
        k(   35) = (  -0.4991681  -0.4991681  -0.4991681), wk =   0.0013717

     Check: negative/imaginary core charge=   -0.000006    0.000000

     Initial potential from superposition of free atoms

     starting charge  255.99300, renormalised to  256.00000
     Starting wfcs are  160 randomized atomic wfcs
     Checking if some PAW data can be deallocated...

     Self-consistent Calculation

     iteration #  1     ecut=    71.00 Ry     beta= 0.10
     Davidson diagonalization with overlap
     ethr =  1.00E-02,  avg # of iterations =  3.4

     Threshold (ethr) on eigenvalues was too large:
     Diagonalizing with lowered threshold

     Davidson diagonalization with overlap
     ethr =  1.99E-04,  avg # of iterations =  3.6

     total energy              =   -5267.97586124 Ry
     Harris-Foulkes estimate   =   -5268.02358892 Ry
     estimated scf accuracy    <       0.59022397 Ry

     total magnetization       =    28.10 Bohr mag/cell
     absolute magnetization    =    28.21 Bohr mag/cell

[...]

     negative rho (up, down):  0.000E+00 3.449E-03

[...]

     total energy              =   -5268.19108447 Ry
     Harris-Foulkes estimate   =   -5268.19108336 Ry
     estimated scf accuracy    <       0.00000410 Ry

[...]

     iteration # 18     ecut=    71.00 Ry     beta= 0.10
     Davidson diagonalization with overlap
     ethr =  1.60E-09,  avg # of iterations =  2.3

[...]

     Magnetic moment per site:
     atom:    1    charge:   14.3704    magn:    2.1056    constr:    0.0000
     atom:    2    charge:   14.3704    magn:    2.1078    constr:    0.0000
     atom:    3    charge:   14.3705    magn:    2.1064    constr:    0.0000
     atom:    4    charge:   14.3704    magn:    2.1078    constr:    0.0000
     atom:    5    charge:   14.3705    magn:    2.1064    constr:    0.0000
     atom:    6    charge:   14.3704    magn:    2.1078    constr:    0.0000
     atom:    7    charge:   14.3706    magn:    2.1069    constr:    0.0000
     atom:    8    charge:   14.3704    magn:    2.1078    constr:    0.0000
     atom:    9    charge:   14.3705    magn:    2.1064    constr:    0.0000
     atom:   10    charge:   14.3704    magn:    2.1078    constr:    0.0000
     atom:   11    charge:   14.3706    magn:    2.1069    constr:    0.0000
     atom:   12    charge:   14.3704    magn:    2.1078    constr:    0.0000
     atom:   13    charge:   14.3706    magn:    2.1069    constr:    0.0000
     atom:   14    charge:   14.3704    magn:    2.1078    constr:    0.0000
     atom:   15    charge:   14.3705    magn:    2.1074    constr:    0.0000
     atom:   16    charge:   14.3704    magn:    2.1078    constr:    0.0000

     End of self-consistent calculation

 ------ SPIN UP ------------

          k = 0.0555 0.0555 0.0555 ( 12047 PWs)   bands (ev):

   -69.2016 -69.1268 -69.1268 -69.1267 -69.1151 -69.1151 -69.1151 -69.1137
   -69.1136 -69.1136 -69.1132 -69.1132 -69.1129 -69.1090 -69.1075 -69.0501
   -35.4215 -35.4215 -35.4215 -35.4192 -35.4192 -35.4191 -35.2951 -35.2951
   -35.2904 -35.2311 -35.2283 -35.2283 -35.2283 -35.2115 -35.2115 -35.2003
   -35.2003 -35.2003 -35.1722 -35.1722 -35.1532 -35.1427 -35.1427 -35.1427
   -35.1334 -35.1334 -35.1334 -35.1239 -35.1239 -35.1239 -35.1212 -35.1212
   -35.1212 -35.1142 -35.1142 -35.1142 -35.1053 -35.1053 -35.1052 -34.9764
   -34.9742 -34.9742 -34.9742 -34.9720 -34.9719 -34.9719 -34.9718 -34.9718
    10.2681  13.8275  13.8275  13.8275  13.8467  13.8467  13.8467  13.8686
    13.8686  13.8686  13.8803  13.8803  14.2773  14.2773  14.2773  15.4528
    15.4658  15.4659  15.4659  15.4785  15.4785  15.4785  15.5376  15.5376
    15.6128  15.6128  15.6128  15.6805  15.6805  15.7355  15.9498  15.9498
    15.9498  16.5932  16.5932  16.6354  16.9190  16.9190  16.9190  16.9976
    16.9977  16.9977  17.0904  17.0904  17.0904  17.1708  17.1708  17.1708
    17.8013  17.8013  17.8022  17.8023  17.8023  17.8445  17.8445  17.8445
    17.8899  17.8899  17.8899  17.8960  17.8960  17.8960  18.0097  18.0098
    18.0098  18.0225  18.0225  18.0226  18.0481  18.0481  18.0495  18.0495
    18.9077  18.9078  18.9078  18.9693  18.9693  18.9693  19.0730  19.1388
    19.1388  19.1575  19.1575  19.1575  19.4781  19.4782  19.4782  19.6808
    19.6808  19.6808

[...]

          k =-0.4992-0.4992-0.4992 ( 11992 PWs)   bands (ev):

[...]

 ------ SPIN DOWN ----------

[...]

          k = 0.3882-0.4992-0.4992 ( 12044 PWs)   bands (ev):

[...]

          k =-0.4992-0.4992-0.4992 ( 11992 PWs)   bands (ev):

   -66.6437 -66.6435 -66.6435 -66.6435 -66.6434 -66.6434 -66.6434 -66.6432
   -66.5849 -66.5847 -66.5847 -66.5847 -66.5846 -66.5846 -66.5846 -66.5844
   -32.8774 -32.8774 -32.8774 -32.8773 -32.8773 -32.8773 -32.8773 -32.8773
   -32.8772 -32.8772 -32.8772 -32.8771 -32.8771 -32.8771 -32.8771 -32.8771
   -32.8426 -32.8426 -32.8426 -32.8426 -32.8424 -32.8424 -32.8424 -32.8424
   -32.6132 -32.6132 -32.6132 -32.6132 -32.6130 -32.6130 -32.6130 -32.6130
   -32.5751 -32.5751 -32.5751 -32.5750 -32.5750 -32.5750 -32.5750 -32.5750
   -32.5749 -32.5749 -32.5749 -32.5748 -32.5748 -32.5748 -32.5748 -32.5748
    13.8379  13.8380  13.8380  13.8380  13.8380  13.8380  13.8380  13.8381
    16.8732  16.8732  16.8733  16.8733  16.8733  16.8733  16.8733  16.8733
    16.8734  16.8734  16.8734  16.8734  16.8734  16.8734  16.8734  16.8734
    17.2548  17.2548  17.2548  17.2548  17.2549  17.2549  17.2549  17.2549
    17.3581  17.3581  17.3581  17.3582  17.3582  17.3582  17.3583  17.3583
    17.3584  17.3584  17.3584  17.3584  17.3584  17.3585  17.3585  17.3585
    20.4804  20.4804  20.4804  20.4804  20.4804  20.4804  20.4805  20.4805
    20.4805  20.4805  20.4806  20.4806  20.4806  20.4806  20.4806  20.4806
    20.5166  20.5166  20.5167  20.5167  20.5167  20.5167  20.5167  20.5167
    20.5167  20.5167  20.5167  20.5168  20.5168  20.5168  20.5169  20.5169
    20.8578  20.8578  20.8578  20.8578  20.8579  20.8579  20.8579  20.8580
    27.1913  27.1913

     the Fermi energy is    18.8545 ev

!    total energy              =   -5268.19108619 Ry
     Harris-Foulkes estimate   =   -5268.19108499 Ry
     estimated scf accuracy    <       0.00000047 Ry

     total all-electron energy =    -40728.935615 Ry

     The total energy is the sum of the following terms:

     one-electron contribution =   -1714.84576116 Ry
     hartree contribution      =    1024.95305574 Ry
     xc contribution           =    -444.20743562 Ry
     ewald contribution        =   -2809.54740372 Ry
     one-center paw contrib.   =   -1324.67003326 Ry
     smearing contrib. (-TS)   =       0.12649182 Ry

     total magnetization       =    32.99 Bohr mag/cell
     absolute magnetization    =    34.78 Bohr mag/cell

     convergence has been achieved in  18 iterations

     negative rho (up, down):  0.000E+00 2.488E-03

     Forces acting on atoms (cartesian axes, Ry/au):

     atom    1 type  1   force =     0.00000000    0.00000000   -0.00000000
     atom    2 type  2   force =     0.00000760    0.00000760    0.00000760
     atom    3 type  1   force =     0.00000000    0.00000000    0.00000000
     atom    4 type  2   force =     0.00000760    0.00000760   -0.00000760
     atom    5 type  1   force =     0.00000000    0.00000000    0.00000000
     atom    6 type  2   force =     0.00000760   -0.00000760    0.00000760
     atom    7 type  1   force =     0.00000000    0.00000000    0.00000000
     atom    8 type  2   force =     0.00000760   -0.00000760   -0.00000760
     atom    9 type  1   force =     0.00000000    0.00000000    0.00000000
     atom   10 type  2   force =    -0.00000760    0.00000760    0.00000760
     atom   11 type  1   force =     0.00000000    0.00000000    0.00000000
     atom   12 type  2   force =    -0.00000760    0.00000760   -0.00000760
     atom   13 type  1   force =     0.00000000    0.00000000    0.00000000
     atom   14 type  2   force =    -0.00000760   -0.00000760    0.00000760
     atom   15 type  1   force =     0.00000000    0.00000000    0.00000000
     atom   16 type  2   force =    -0.00000760   -0.00000760   -0.00000760

     Total force =     0.000037     Total SCF correction =     0.002755
     SCF correction compared to forces is large: reduce conv_thr to get better values

     Computing stress (Cartesian axis) and pressure

     negative rho (up, down):  0.000E+00 2.488E-03
          total   stress  (Ry/bohr**3)                   (kbar)     P=  -12.96
  -0.00008809   0.00000000   0.00000000        -12.96      0.00      0.00
   0.00000000  -0.00008809   0.00000000          0.00    -12.96      0.00
   0.00000000   0.00000000  -0.00008809          0.00      0.00    -12.96

     Writing output data file LHWBCqeNJwGKmfmh.save/

     General routines

     Parallel routines

   This run was terminated on:  10:37:57   9Sep2020

   JOB DONE.