     Program PWSCF v.6.3 starts on  9Sep2020 at 10:22:47

     R & G space division:  proc/nbgrp/npool/nimage =      40
     Reading input from wd/eos/eos_003.in
Warning: card &IONS ignored
Warning: card ION_DYNAMICS = 'BFGS', ignored
Warning: card / ignored
Warning: card &CELL ignored
Warning: card CELL_DYNAMICS = 'BFGS', ignored
Warning: card CELL_FACTOR = 2.0, ignored
Warning: card PRESS = 0.0, ignored
Warning: card / ignored

     Current dimensions of program PWSCF are:
     Max number of different atomic species (ntypx) = 10
     Max number of k-points (npk) =  40000
     Max angular momentum in pseudopotentials (lmaxx) =  3
               file Fe.pbe-spn-kjpaw_psl.1.0.0.UPF: wavefunction(s)  3P 3D renormalized
               file Fe.pbe-spn-kjpaw_psl.1.0.0.UPF: wavefunction(s)  3P 3D renormalized

     Subspace diagonalization in iterative solution of the eigenvalue problem:
     a serial algorithm will be used

     Found symmetry operation: I + (  0.0000  0.0000 -0.5000)
     This is a supercell, fractional translations are disabled

     bravais-lattice index     =            0
     lattice parameter (alat)  =      10.5935  a.u.
     unit-cell volume          =    1182.8987 (a.u.)^3
     number of atoms/cell      =           16
     number of atomic types    =            2
     number of electrons       =       256.00
     number of Kohn-Sham states=          154
     kinetic-energy cutoff     =      71.0000  Ry
     charge density cutoff     =     430.0000  Ry
     convergence threshold     =      1.0E-06
     mixing beta               =       0.1000
     number of iterations used =           10  plain     mixing
     Exchange-correlation      = SLA PW PBX PBC ( 1  4  3  4 0 0)

     celldm(1)=  10.593520  celldm(2)=   0.000000  celldm(3)=   0.000000
     celldm(4)=   0.000000  celldm(5)=   0.000000  celldm(6)=   0.000000

     crystal axes: (cart. coord. in units of alat)
               a(1) = (   0.998333   0.000000   0.000000 )
               a(2) = (   0.000000   0.998333   0.000000 )
               a(3) = (   0.000000   0.000000   0.998333 )

     reciprocal axes: (cart. coord. in units 2 pi/alat)
               b(1) = (  1.001669  0.000000  0.000000 )
               b(2) = (  0.000000  1.001669  0.000000 )
               b(3) = (  0.000000  0.000000  1.001669 )

     PseudoPot. # 1 for Fe read from file:
     /rds/homes/b/bxp912/pp/Fe.pbe-spn-kjpaw_psl.1.0.0.UPF
     MD5 check sum: 42f43b795421b414b0dc916aa790dbcb
     Pseudo is Projector augmented-wave + core cor, Zval = 16.0
     Generated using "atomic" code by A. Dal Corso v.6.3
     Shape of augmentation charge: PSQ
     Using radial grid of 1191 points,  6 beta functions with:
                l(1) =   0
                l(2) =   0
                l(3) =   1
                l(4) =   1
                l(5) =   2
                l(6) =   2
     Q(r) pseudized with 0 coefficients

     PseudoPot. # 2 for Fe read from file:
     /rds/homes/b/bxp912/pp/Fe.pbe-spn-kjpaw_psl.1.0.0.UPF
     MD5 check sum: 42f43b795421b414b0dc916aa790dbcb
     Pseudo is Projector augmented-wave + core cor, Zval = 16.0
     Generated using "atomic" code by A. Dal Corso v.6.3
     Shape of augmentation charge: PSQ
     Using radial grid of 1191 points,  6 beta functions with:
                l(1) =   0
                l(2) =   0
                l(3) =   1
                l(4) =   1
                l(5) =   2
                l(6) =   2
     Q(r) pseudized with 0 coefficients

     atomic species   valence    mass     pseudopotential
        Fe1           16.00    55.84500     Fe( 1.00)
        Fe2           16.00    55.84500     Fe( 1.00)

     Starting magnetic structure
     atomic species   magnetization
        Fe1          0.100
        Fe2          0.100

     48 Sym. Ops., with inversion, found

   Cartesian axes

     site n.     atom                  positions (alat units)
         1           Fe1 tau(   1) = (   0.0000000   0.0000000   0.0000000  )
         2           Fe2 tau(   2) = (   0.2495838   0.2495838   0.2495838  )
         3           Fe1 tau(   3) = (   0.0000000   0.0000000   0.4991667  )
         4           Fe2 tau(   4) = (   0.2495838   0.2495838   0.7487496  )
         5           Fe1 tau(   5) = (   0.0000000   0.4991667   0.0000000  )
         6           Fe2 tau(   6) = (   0.2495838   0.7487496   0.2495838  )
         7           Fe1 tau(   7) = (   0.0000000   0.4991667   0.4991667  )
         8           Fe2 tau(   8) = (   0.2495838   0.7487496   0.7487496  )
         9           Fe1 tau(   9) = (   0.4991667   0.0000000   0.0000000  )
        10           Fe2 tau(  10) = (   0.7487496   0.2495838   0.2495838  )
        11           Fe1 tau(  11) = (   0.4991667   0.0000000   0.4991667  )
        12           Fe2 tau(  12) = (   0.7487496   0.2495838   0.7487496  )
        13           Fe1 tau(  13) = (   0.4991667   0.4991667   0.0000000  )
        14           Fe2 tau(  14) = (   0.7487496   0.7487496   0.2495838  )
        15           Fe1 tau(  15) = (   0.4991667   0.4991667   0.4991667  )
        16           Fe2 tau(  16) = (   0.7487496   0.7487496   0.7487496  )

     number of k points=    35  Marzari-Vanderbilt smearing, width (Ry)=  0.0400
                       cart. coord. in units 2pi/alat
        k(    1) = (   0.0556483   0.0556483   0.0556483), wk =   0.0109739
        k(    2) = (   0.0556483   0.0556483   0.1669449), wk =   0.0329218
        k(    3) = (   0.0556483   0.0556483   0.2782415), wk =   0.0329218
        k(    4) = (   0.0556483   0.0556483   0.3895381), wk =   0.0329218
        k(    5) = (   0.0556483   0.0556483  -0.5008347), wk =   0.0164609
        k(    6) = (   0.0556483   0.1669449   0.1669449), wk =   0.0329218
        k(    7) = (   0.0556483   0.1669449   0.2782415), wk =   0.0658436
        k(    8) = (   0.0556483   0.1669449   0.3895381), wk =   0.0658436
        k(    9) = (   0.0556483   0.1669449  -0.5008347), wk =   0.0329218
        k(   10) = (   0.0556483   0.2782415   0.2782415), wk =   0.0329218
        k(   11) = (   0.0556483   0.2782415   0.3895381), wk =   0.0658436
        k(   12) = (   0.0556483   0.2782415  -0.5008347), wk =   0.0329218
        k(   13) = (   0.0556483   0.3895381   0.3895381), wk =   0.0329218
        k(   14) = (   0.0556483   0.3895381  -0.5008347), wk =   0.0329218
        k(   15) = (   0.0556483  -0.5008347  -0.5008347), wk =   0.0082305
        k(   16) = (   0.1669449   0.1669449   0.1669449), wk =   0.0109739
        k(   17) = (   0.1669449   0.1669449   0.2782415), wk =   0.0329218
        k(   18) = (   0.1669449   0.1669449   0.3895381), wk =   0.0329218
        k(   19) = (   0.1669449   0.1669449  -0.5008347), wk =   0.0164609
        k(   20) = (   0.1669449   0.2782415   0.2782415), wk =   0.0329218
        k(   21) = (   0.1669449   0.2782415   0.3895381), wk =   0.0658436
        k(   22) = (   0.1669449   0.2782415  -0.5008347), wk =   0.0329218
        k(   23) = (   0.1669449   0.3895381   0.3895381), wk =   0.0329218
        k(   24) = (   0.1669449   0.3895381  -0.5008347), wk =   0.0329218
        k(   25) = (   0.1669449  -0.5008347  -0.5008347), wk =   0.0082305
        k(   26) = (   0.2782415   0.2782415   0.2782415), wk =   0.0109739
        k(   27) = (   0.2782415   0.2782415   0.3895381), wk =   0.0329218
        k(   28) = (   0.2782415   0.2782415  -0.5008347), wk =   0.0164609
        k(   29) = (   0.2782415   0.3895381   0.3895381), wk =   0.0329218
        k(   30) = (   0.2782415   0.3895381  -0.5008347), wk =   0.0329218
        k(   31) = (   0.2782415  -0.5008347  -0.5008347), wk =   0.0082305
        k(   32) = (   0.3895381   0.3895381   0.3895381), wk =   0.0109739
        k(   33) = (   0.3895381   0.3895381  -0.5008347), wk =   0.0164609
        k(   34) = (   0.3895381  -0.5008347  -0.5008347), wk =   0.0082305
        k(   35) = (  -0.5008347  -0.5008347  -0.5008347), wk =   0.0013717

     Check: negative/imaginary core charge=   -0.000006    0.000000

     Initial potential from superposition of free atoms

     starting charge  255.99300, renormalised to  256.00000
     Starting wfcs are  160 randomized atomic wfcs
     Checking if some PAW data can be deallocated...

     Self-consistent Calculation

     iteration #  1     ecut=    71.00 Ry     beta= 0.10
     Davidson diagonalization with overlap
     ethr =  1.00E-02,  avg # of iterations =  3.3

     Threshold (ethr) on eigenvalues was too large:
     Diagonalizing with lowered threshold

     Davidson diagonalization with overlap
     ethr =  2.02E-04,  avg # of iterations =  3.5

     total energy              =   -5267.97725073 Ry
     Harris-Foulkes estimate   =   -5268.02755825 Ry
     estimated scf accuracy    <       0.60065706 Ry

     total magnetization       =    27.93 Bohr mag/cell
     absolute magnetization    =    28.03 Bohr mag/cell

[...]

     negative rho (up, down):  0.000E+00 3.326E-03

[...]

     total energy              =   -5268.18741728 Ry
     Harris-Foulkes estimate   =   -5268.18741617 Ry
     estimated scf accuracy    <       0.00000357 Ry

[...]

     iteration # 18     ecut=    71.00 Ry     beta= 0.10
     Davidson diagonalization with overlap
     ethr =  1.39E-09,  avg # of iterations =  2.8

[...]

     Magnetic moment per site:
     atom:    1    charge:   14.3624    magn:    2.0923    constr:    0.0000
     atom:    2    charge:   14.3623    magn:    2.0944    constr:    0.0000
     atom:    3    charge:   14.3624    magn:    2.0931    constr:    0.0000
     atom:    4    charge:   14.3623    magn:    2.0944    constr:    0.0000
     atom:    5    charge:   14.3624    magn:    2.0931    constr:    0.0000
     atom:    6    charge:   14.3623    magn:    2.0944    constr:    0.0000
     atom:    7    charge:   14.3624    magn:    2.0935    constr:    0.0000
     atom:    8    charge:   14.3623    magn:    2.0944    constr:    0.0000
     atom:    9    charge:   14.3624    magn:    2.0931    constr:    0.0000
     atom:   10    charge:   14.3623    magn:    2.0944    constr:    0.0000
     atom:   11    charge:   14.3624    magn:    2.0935    constr:    0.0000
     atom:   12    charge:   14.3623    magn:    2.0944    constr:    0.0000
     atom:   13    charge:   14.3624    magn:    2.0935    constr:    0.0000
     atom:   14    charge:   14.3623    magn:    2.0944    constr:    0.0000
     atom:   15    charge:   14.3624    magn:    2.0939    constr:    0.0000
     atom:   16    charge:   14.3623    magn:    2.0944    constr:    0.0000

     End of self-consistent calculation

 ------ SPIN UP ------------

          k = 0.0556 0.0556 0.0556 ( 11936 PWs)   bands (ev):

   -68.9768 -68.8989 -68.8989 -68.8989 -68.8866 -68.8866 -68.8866 -68.8852
   -68.8851 -68.8851 -68.8847 -68.8847 -68.8844 -68.8802 -68.8787 -68.8189
   -35.2038 -35.2038 -35.2038 -35.2013 -35.2013 -35.2013 -35.0721 -35.0721
   -35.0669 -35.0065 -35.0036 -35.0036 -35.0036 -34.9863 -34.9863 -34.9749
   -34.9748 -34.9748 -34.9454 -34.9454 -34.9261 -34.9149 -34.9148 -34.9148
   -34.9052 -34.9052 -34.9052 -34.8955 -34.8955 -34.8955 -34.8924 -34.8924
   -34.8924 -34.8854 -34.8853 -34.8853 -34.8763 -34.8763 -34.8763 -34.7424
   -34.7410 -34.7410 -34.7409 -34.7382 -34.7382 -34.7382 -34.7377 -34.7377
    10.4412  14.0056  14.0056  14.0056  14.0247  14.0247  14.0247  14.0537
    14.0537  14.0613  14.0613  14.0613  14.4697  14.4697  14.4697  15.6498
    15.6621  15.6621  15.6621  15.6748  15.6748  15.6749  15.7360  15.7360
    15.8112  15.8112  15.8112  15.8809  15.8809  15.9368  16.1535  16.1535
    16.1535  16.8079  16.8079  16.8503  17.1370  17.1370  17.1371  17.2171
    17.2171  17.2171  17.3110  17.3110  17.3110  17.3927  17.3927  17.3927
    18.0340  18.0341  18.0341  18.0380  18.0380  18.0800  18.0801  18.0801
    18.1269  18.1269  18.1269  18.1338  18.1339  18.1339  18.2499  18.2499
    18.2499  18.2578  18.2578  18.2579  18.2895  18.2895  18.2907  18.2907
    19.1608  19.1608  19.1608  19.2063  19.2063  19.2063  19.3250  19.3919
    19.3919  19.4024  19.4025  19.4025  19.7370  19.7370  19.7370  19.9320
    19.9320  19.9320

[...]

          k =-0.5008-0.5008-0.5008 ( 11992 PWs)   bands (ev):

[...]

 ------ SPIN DOWN ----------

[...]

          k = 0.3895-0.5008-0.5008 ( 11924 PWs)   bands (ev):

[...]

          k =-0.5008-0.5008-0.5008 ( 11992 PWs)   bands (ev):

   -66.4312 -66.4309 -66.4309 -66.4309 -66.4308 -66.4308 -66.4308 -66.4306
   -66.3700 -66.3697 -66.3697 -66.3697 -66.3696 -66.3696 -66.3696 -66.3694
   -32.6699 -32.6699 -32.6699 -32.6698 -32.6698 -32.6698 -32.6698 -32.6698
   -32.6697 -32.6697 -32.6697 -32.6696 -32.6696 -32.6696 -32.6696 -32.6696
   -32.6341 -32.6340 -32.6340 -32.6340 -32.6339 -32.6339 -32.6339 -32.6339
   -32.3968 -32.3968 -32.3968 -32.3968 -32.3967 -32.3967 -32.3967 -32.3966
   -32.3576 -32.3576 -32.3576 -32.3576 -32.3576 -32.3575 -32.3575 -32.3575
   -32.3574 -32.3574 -32.3574 -32.3574 -32.3574 -32.3573 -32.3573 -32.3573
    14.0361  14.0361  14.0361  14.0361  14.0362  14.0362  14.0362  14.0362
    17.0595  17.0595  17.0596  17.0596  17.0596  17.0596  17.0596  17.0596
    17.0597  17.0597  17.0597  17.0597  17.0597  17.0597  17.0598  17.0598
    17.4464  17.4464  17.4464  17.4464  17.4465  17.4465  17.4465  17.4465
    17.5477  17.5477  17.5477  17.5479  17.5479  17.5479  17.5479  17.5479
    17.5480  17.5480  17.5480  17.5480  17.5480  17.5481  17.5481  17.5481
    20.7098  20.7098  20.7098  20.7099  20.7099  20.7099  20.7100  20.7100
    20.7100  20.7100  20.7101  20.7101  20.7101  20.7101  20.7101  20.7101
    20.7421  20.7421  20.7422  20.7422  20.7422  20.7422  20.7422  20.7422
    20.7423  20.7423  20.7423  20.7423  20.7423  20.7423  20.7424  20.7424
    21.0955  21.0955  21.0955  21.0955  21.0957  21.0957  21.0957  21.0957
    27.4928  27.4928

     the Fermi energy is    19.0948 ev

!    total energy              =   -5268.18741918 Ry
     Harris-Foulkes estimate   =   -5268.18741786 Ry
     estimated scf accuracy    <       0.00000040 Ry

     total all-electron energy =    -40728.931948 Ry

     The total energy is the sum of the following terms:

     one-electron contribution =   -1700.00673216 Ry
     hartree contribution      =    1019.61276519 Ry
     xc contribution           =    -444.31486513 Ry
     ewald contribution        =   -2818.92819639 Ry
     one-center paw contrib.   =   -1324.67216853 Ry
     smearing contrib. (-TS)   =       0.12177784 Ry

     total magnetization       =    32.81 Bohr mag/cell
     absolute magnetization    =    34.55 Bohr mag/cell

     convergence has been achieved in  18 iterations

     negative rho (up, down):  0.000E+00 2.432E-03

     Forces acting on atoms (cartesian axes, Ry/au):

     atom    1 type  1   force =     0.00000000   -0.00000000    0.00000000
     atom    2 type  2   force =     0.00001307    0.00001307    0.00001307
     atom    3 type  1   force =     0.00000000    0.00000000    0.00000000
     atom    4 type  2   force =     0.00001307    0.00001307   -0.00001307
     atom    5 type  1   force =     0.00000000    0.00000000    0.00000000
     atom    6 type  2   force =     0.00001307   -0.00001307    0.00001307
     atom    7 type  1   force =     0.00000000    0.00000000    0.00000000
     atom    8 type  2   force =     0.00001307   -0.00001307   -0.00001307
     atom    9 type  1   force =     0.00000000   -0.00000000    0.00000000
     atom   10 type  2   force =    -0.00001307    0.00001307    0.00001307
     atom   11 type  1   force =     0.00000000    0.00000000    0.00000000
     atom   12 type  2   force =    -0.00001307    0.00001307   -0.00001307
     atom   13 type  1   force =     0.00000000    0.00000000    0.00000000
     atom   14 type  2   force =    -0.00001307   -0.00001307    0.00001307
     atom   15 type  1   force =     0.00000000    0.00000000    0.00000000
     atom   16 type  2   force =    -0.00001307   -0.00001307   -0.00001307

     Total force =     0.000064     Total SCF correction =     0.002410
     SCF correction compared to forces is large: reduce conv_thr to get better values

     Computing stress (Cartesian axis) and pressure

     negative rho (up, down):  0.000E+00 2.432E-03
          total   stress  (Ry/bohr**3)                   (kbar)     P=    9.89
   0.00006721   0.00000000   0.00000000          9.89      0.00      0.00
   0.00000000   0.00006721   0.00000000          0.00      9.89      0.00
   0.00000000   0.00000000   0.00006721          0.00      0.00      9.89

     Writing output data file fGAFuiOAgqQqACvF.save/

     General routines

     Parallel routines

   This run was terminated on:  10:30:24   9Sep2020

   JOB DONE.