     Program PWSCF v.6.3 starts on  9Sep2020 at 10:38: 1

     R & G space division:  proc/nbgrp/npool/nimage =      40
     Reading input from wd/eos/eos_006.in
Warning: card &IONS ignored
Warning: card ION_DYNAMICS = 'BFGS', ignored
Warning: card / ignored
Warning: card &CELL ignored
Warning: card CELL_DYNAMICS = 'BFGS', ignored
Warning: card CELL_FACTOR = 2.0, ignored
Warning: card PRESS = 0.0, ignored
Warning: card / ignored

     Current dimensions of program PWSCF are:
     Max number of different atomic species (ntypx) = 10
     Max number of k-points (npk) =  40000
     Max angular momentum in pseudopotentials (lmaxx) =  3
               file Fe.pbe-spn-kjpaw_psl.1.0.0.UPF: wavefunction(s)  3P 3D renormalized
               file Fe.pbe-spn-kjpaw_psl.1.0.0.UPF: wavefunction(s)  3P 3D renormalized

     Subspace diagonalization in iterative solution of the eigenvalue problem:
     a serial algorithm will be used

     Found symmetry operation: I + (  0.0000  0.0000 -0.5000)
     This is a supercell, fractional translations are disabled

     bravais-lattice index     =            0
     lattice parameter (alat)  =      10.5935  a.u.
     unit-cell volume          =    1200.7609 (a.u.)^3
     number of atoms/cell      =           16
     number of atomic types    =            2
     number of electrons       =       256.00
     number of Kohn-Sham states=          154
     kinetic-energy cutoff     =      71.0000  Ry
     charge density cutoff     =     430.0000  Ry
     convergence threshold     =      1.0E-06
     mixing beta               =       0.1000
     number of iterations used =           10  plain     mixing
     Exchange-correlation      = SLA PW PBX PBC ( 1  4  3  4 0 0)

     celldm(1)=  10.593520  celldm(2)=   0.000000  celldm(3)=   0.000000
     celldm(4)=   0.000000  celldm(5)=   0.000000  celldm(6)=   0.000000

     crystal axes: (cart. coord. in units of alat)
               a(1) = (   1.003333   0.000000   0.000000 )
               a(2) = (   0.000000   1.003333   0.000000 )
               a(3) = (   0.000000   0.000000   1.003333 )

     reciprocal axes: (cart. coord. in units 2 pi/alat)
               b(1) = (  0.996678  0.000000  0.000000 )
               b(2) = (  0.000000  0.996678  0.000000 )
               b(3) = (  0.000000  0.000000  0.996678 )

     PseudoPot. # 1 for Fe read from file:
     /rds/homes/b/bxp912/pp/Fe.pbe-spn-kjpaw_psl.1.0.0.UPF
     MD5 check sum: 42f43b795421b414b0dc916aa790dbcb
     Pseudo is Projector augmented-wave + core cor, Zval = 16.0
     Generated using "atomic" code by A. Dal Corso v.6.3
     Shape of augmentation charge: PSQ
     Using radial grid of 1191 points,  6 beta functions with:
                l(1) =   0
                l(2) =   0
                l(3) =   1
                l(4) =   1
                l(5) =   2
                l(6) =   2
     Q(r) pseudized with 0 coefficients

     PseudoPot. # 2 for Fe read from file:
     /rds/homes/b/bxp912/pp/Fe.pbe-spn-kjpaw_psl.1.0.0.UPF
     MD5 check sum: 42f43b795421b414b0dc916aa790dbcb
     Pseudo is Projector augmented-wave + core cor, Zval = 16.0
     Generated using "atomic" code by A. Dal Corso v.6.3
     Shape of augmentation charge: PSQ
     Using radial grid of 1191 points,  6 beta functions with:
                l(1) =   0
                l(2) =   0
                l(3) =   1
                l(4) =   1
                l(5) =   2
                l(6) =   2
     Q(r) pseudized with 0 coefficients

     atomic species   valence    mass     pseudopotential
        Fe1           16.00    55.84500     Fe( 1.00)
        Fe2           16.00    55.84500     Fe( 1.00)

     Starting magnetic structure
     atomic species   magnetization
        Fe1          0.100
        Fe2          0.100

     48 Sym. Ops., with inversion, found

   Cartesian axes

     site n.     atom                  positions (alat units)
         1           Fe1 tau(   1) = (   0.0000000   0.0000000   0.0000000  )
         2           Fe2 tau(   2) = (   0.2508338   0.2508338   0.2508338  )
         3           Fe1 tau(   3) = (   0.0000000   0.0000000   0.5016667  )
         4           Fe2 tau(   4) = (   0.2508338   0.2508338   0.7524996  )
         5           Fe1 tau(   5) = (   0.0000000   0.5016667   0.0000000  )
         6           Fe2 tau(   6) = (   0.2508338   0.7524996   0.2508338  )
         7           Fe1 tau(   7) = (   0.0000000   0.5016667   0.5016667  )
         8           Fe2 tau(   8) = (   0.2508338   0.7524996   0.7524996  )
         9           Fe1 tau(   9) = (   0.5016667   0.0000000   0.0000000  )
        10           Fe2 tau(  10) = (   0.7524996   0.2508338   0.2508338  )
        11           Fe1 tau(  11) = (   0.5016667   0.0000000   0.5016667  )
        12           Fe2 tau(  12) = (   0.7524996   0.2508338   0.7524996  )
        13           Fe1 tau(  13) = (   0.5016667   0.5016667   0.0000000  )
        14           Fe2 tau(  14) = (   0.7524996   0.7524996   0.2508338  )
        15           Fe1 tau(  15) = (   0.5016667   0.5016667   0.5016667  )
        16           Fe2 tau(  16) = (   0.7524996   0.7524996   0.7524996  )

     number of k points=    35  Marzari-Vanderbilt smearing, width (Ry)=  0.0400
                       cart. coord. in units 2pi/alat
        k(    1) = (   0.0553710   0.0553710   0.0553710), wk =   0.0109739
        k(    2) = (   0.0553710   0.0553710   0.1661130), wk =   0.0329218
        k(    3) = (   0.0553710   0.0553710   0.2768549), wk =   0.0329218
        k(    4) = (   0.0553710   0.0553710   0.3875969), wk =   0.0329218
        k(    5) = (   0.0553710   0.0553710  -0.4983389), wk =   0.0164609
        k(    6) = (   0.0553710   0.1661130   0.1661130), wk =   0.0329218
        k(    7) = (   0.0553710   0.1661130   0.2768549), wk =   0.0658436
        k(    8) = (   0.0553710   0.1661130   0.3875969), wk =   0.0658436
        k(    9) = (   0.0553710   0.1661130  -0.4983389), wk =   0.0329218
        k(   10) = (   0.0553710   0.2768549   0.2768549), wk =   0.0329218
        k(   11) = (   0.0553710   0.2768549   0.3875969), wk =   0.0658436
        k(   12) = (   0.0553710   0.2768549  -0.4983389), wk =   0.0329218
        k(   13) = (   0.0553710   0.3875969   0.3875969), wk =   0.0329218
        k(   14) = (   0.0553710   0.3875969  -0.4983389), wk =   0.0329218
        k(   15) = (   0.0553710  -0.4983389  -0.4983389), wk =   0.0082305
        k(   16) = (   0.1661130   0.1661130   0.1661130), wk =   0.0109739
        k(   17) = (   0.1661130   0.1661130   0.2768549), wk =   0.0329218
        k(   18) = (   0.1661130   0.1661130   0.3875969), wk =   0.0329218
        k(   19) = (   0.1661130   0.1661130  -0.4983389), wk =   0.0164609
        k(   20) = (   0.1661130   0.2768549   0.2768549), wk =   0.0329218
        k(   21) = (   0.1661130   0.2768549   0.3875969), wk =   0.0658436
        k(   22) = (   0.1661130   0.2768549  -0.4983389), wk =   0.0329218
        k(   23) = (   0.1661130   0.3875969   0.3875969), wk =   0.0329218
        k(   24) = (   0.1661130   0.3875969  -0.4983389), wk =   0.0329218
        k(   25) = (   0.1661130  -0.4983389  -0.4983389), wk =   0.0082305
        k(   26) = (   0.2768549   0.2768549   0.2768549), wk =   0.0109739
        k(   27) = (   0.2768549   0.2768549   0.3875969), wk =   0.0329218
        k(   28) = (   0.2768549   0.2768549  -0.4983389), wk =   0.0164609
        k(   29) = (   0.2768549   0.3875969   0.3875969), wk =   0.0329218
        k(   30) = (   0.2768549   0.3875969  -0.4983389), wk =   0.0329218
        k(   31) = (   0.2768549  -0.4983389  -0.4983389), wk =   0.0082305
        k(   32) = (   0.3875969   0.3875969   0.3875969), wk =   0.0109739
        k(   33) = (   0.3875969   0.3875969  -0.4983389), wk =   0.0164609
        k(   34) = (   0.3875969  -0.4983389  -0.4983389), wk =   0.0082305
        k(   35) = (  -0.4983389  -0.4983389  -0.4983389), wk =   0.0013717

     Check: negative/imaginary core charge=   -0.000006    0.000000

     Initial potential from superposition of free atoms

     starting charge  255.99300, renormalised to  256.00000
     Starting wfcs are  160 randomized atomic wfcs
     Checking if some PAW data can be deallocated...

     Self-consistent Calculation

     iteration #  1     ecut=    71.00 Ry     beta= 0.10
     Davidson diagonalization with overlap
     ethr =  1.00E-02,  avg # of iterations =  3.3

     Threshold (ethr) on eigenvalues was too large:
     Diagonalizing with lowered threshold

     Davidson diagonalization with overlap
     ethr =  1.96E-04,  avg # of iterations =  3.5

     total energy              =   -5267.97455449 Ry
     Harris-Foulkes estimate   =   -5268.02096443 Ry
     estimated scf accuracy    <       0.58493807 Ry

     total magnetization       =    28.19 Bohr mag/cell
     absolute magnetization    =    28.30 Bohr mag/cell

[...]

     negative rho (up, down):  0.000E+00 3.513E-03

[...]

     total energy              =   -5268.19224621 Ry
     Harris-Foulkes estimate   =   -5268.19224492 Ry
     estimated scf accuracy    <       0.00000426 Ry

[...]

     iteration # 18     ecut=    71.00 Ry     beta= 0.10
     Davidson diagonalization with overlap
     ethr =  1.66E-09,  avg # of iterations =  2.2

[...]

     Magnetic moment per site:
     atom:    1    charge:   14.3745    magn:    2.1126    constr:    0.0000
     atom:    2    charge:   14.3745    magn:    2.1148    constr:    0.0000
     atom:    3    charge:   14.3745    magn:    2.1134    constr:    0.0000
     atom:    4    charge:   14.3745    magn:    2.1148    constr:    0.0000
     atom:    5    charge:   14.3745    magn:    2.1134    constr:    0.0000
     atom:    6    charge:   14.3745    magn:    2.1148    constr:    0.0000
     atom:    7    charge:   14.3746    magn:    2.1139    constr:    0.0000
     atom:    8    charge:   14.3745    magn:    2.1148    constr:    0.0000
     atom:    9    charge:   14.3745    magn:    2.1134    constr:    0.0000
     atom:   10    charge:   14.3745    magn:    2.1148    constr:    0.0000
     atom:   11    charge:   14.3746    magn:    2.1139    constr:    0.0000
     atom:   12    charge:   14.3745    magn:    2.1148    constr:    0.0000
     atom:   13    charge:   14.3746    magn:    2.1139    constr:    0.0000
     atom:   14    charge:   14.3745    magn:    2.1148    constr:    0.0000
     atom:   15    charge:   14.3746    magn:    2.1144    constr:    0.0000
     atom:   16    charge:   14.3745    magn:    2.1148    constr:    0.0000

     End of self-consistent calculation

 ------ SPIN UP ------------

          k = 0.0554 0.0554 0.0554 ( 12113 PWs)   bands (ev):

   -69.3130 -69.2398 -69.2398 -69.2397 -69.2283 -69.2283 -69.2282 -69.2269
   -69.2268 -69.2268 -69.2264 -69.2264 -69.2260 -69.2224 -69.2209 -69.1646
   -35.5295 -35.5294 -35.5294 -35.5271 -35.5271 -35.5271 -35.4056 -35.4056
   -35.4009 -35.3423 -35.3397 -35.3397 -35.3397 -35.3233 -35.3233 -35.3121
   -35.3121 -35.3121 -35.2850 -35.2850 -35.2657 -35.2557 -35.2556 -35.2556
   -35.2465 -35.2465 -35.2465 -35.2372 -35.2372 -35.2372 -35.2344 -35.2344
   -35.2344 -35.2278 -35.2277 -35.2277 -35.2191 -35.2191 -35.2190 -35.0926
   -35.0897 -35.0897 -35.0897 -35.0875 -35.0875 -35.0875 -35.0874 -35.0874
    10.1825  13.7393  13.7393  13.7393  13.7584  13.7585  13.7585  13.7732
    13.7732  13.7732  13.7944  13.7944  14.1820  14.1820  14.1820  15.3550
    15.3685  15.3685  15.3685  15.3810  15.3810  15.3811  15.4390  15.4390
    15.5144  15.5144  15.5144  15.5810  15.5810  15.6355  15.8487  15.8487
    15.8487  16.4870  16.4870  16.5281  16.8108  16.8108  16.8109  16.8887
    16.8887  16.8887  16.9810  16.9810  16.9810  17.0608  17.0608  17.0608
    17.6845  17.6845  17.6871  17.6872  17.6872  17.7278  17.7279  17.7279
    17.7724  17.7724  17.7724  17.7786  17.7786  17.7786  17.8908  17.8909
    17.8909  17.9059  17.9059  17.9060  17.9286  17.9286  17.9301  17.9301
    18.7824  18.7824  18.7824  18.8519  18.8519  18.8519  18.9482  19.0135
    19.0135  19.0359  19.0360  19.0360  19.3501  19.3501  19.3501  19.5566
    19.5566  19.5567

[...]

          k =-0.4983-0.4983-0.4983 ( 12160 PWs)   bands (ev):

[...]

 ------ SPIN DOWN ----------

[...]

          k = 0.3876-0.4983-0.4983 ( 12124 PWs)   bands (ev):

[...]

          k =-0.4983-0.4983-0.4983 ( 12160 PWs)   bands (ev):

   -66.7486 -66.7484 -66.7484 -66.7484 -66.7483 -66.7483 -66.7483 -66.7481
   -66.6913 -66.6911 -66.6911 -66.6911 -66.6910 -66.6910 -66.6910 -66.6908
   -32.9805 -32.9805 -32.9805 -32.9805 -32.9805 -32.9804 -32.9804 -32.9804
   -32.9803 -32.9803 -32.9803 -32.9803 -32.9803 -32.9802 -32.9802 -32.9802
   -32.9455 -32.9455 -32.9455 -32.9455 -32.9454 -32.9454 -32.9454 -32.9453
   -32.7210 -32.7210 -32.7210 -32.7210 -32.7208 -32.7208 -32.7208 -32.7208
   -32.6824 -32.6824 -32.6824 -32.6824 -32.6824 -32.6823 -32.6823 -32.6823
   -32.6822 -32.6822 -32.6822 -32.6822 -32.6822 -32.6821 -32.6821 -32.6821
    13.7400  13.7401  13.7401  13.7401  13.7401  13.7401  13.7401  13.7402
    16.7807  16.7807  16.7808  16.7808  16.7808  16.7808  16.7808  16.7808
    16.7809  16.7809  16.7809  16.7809  16.7809  16.7809  16.7810  16.7810
    17.1592  17.1592  17.1592  17.1592  17.1593  17.1593  17.1593  17.1593
    17.2645  17.2645  17.2645  17.2646  17.2646  17.2646  17.2647  17.2647
    17.2648  17.2648  17.2648  17.2648  17.2648  17.2649  17.2649  17.2649
    20.3669  20.3669  20.3669  20.3669  20.3669  20.3669  20.3670  20.3670
    20.3670  20.3670  20.3671  20.3671  20.3671  20.3671  20.3671  20.3671
    20.4051  20.4051  20.4052  20.4052  20.4052  20.4052  20.4052  20.4052
    20.4053  20.4053  20.4053  20.4053  20.4053  20.4053  20.4054  20.4054
    20.7405  20.7405  20.7405  20.7405  20.7406  20.7406  20.7406  20.7407
    27.0418  27.0418

     the Fermi energy is    18.7358 ev

!    total energy              =   -5268.19224799 Ry
     Harris-Foulkes estimate   =   -5268.19224674 Ry
     estimated scf accuracy    <       0.00000051 Ry

     total all-electron energy =    -40728.936777 Ry

     The total energy is the sum of the following terms:

     one-electron contribution =   -1722.23647920 Ry
     hartree contribution      =    1027.62017191 Ry
     xc contribution           =    -444.15543039 Ry
     ewald contribution        =   -2804.88038147 Ry
     one-center paw contrib.   =   -1324.66886673 Ry
     smearing contrib. (-TS)   =       0.12873789 Ry

     total magnetization       =    33.09 Bohr mag/cell
     absolute magnetization    =    34.90 Bohr mag/cell

     convergence has been achieved in  18 iterations

     negative rho (up, down):  0.000E+00 2.525E-03

     Forces acting on atoms (cartesian axes, Ry/au):

     atom    1 type  1   force =     0.00000000    0.00000000    0.00000000
     atom    2 type  2   force =     0.00000301    0.00000301    0.00000301
     atom    3 type  1   force =     0.00000000    0.00000000    0.00000000
     atom    4 type  2   force =     0.00000301    0.00000301   -0.00000301
     atom    5 type  1   force =     0.00000000    0.00000000    0.00000000
     atom    6 type  2   force =     0.00000301   -0.00000301    0.00000301
     atom    7 type  1   force =     0.00000000    0.00000000   -0.00000000
     atom    8 type  2   force =     0.00000301   -0.00000301   -0.00000301
     atom    9 type  1   force =     0.00000000    0.00000000    0.00000000
     atom   10 type  2   force =    -0.00000301    0.00000301    0.00000301
     atom   11 type  1   force =     0.00000000    0.00000000    0.00000000
     atom   12 type  2   force =    -0.00000301    0.00000301   -0.00000301
     atom   13 type  1   force =     0.00000000    0.00000000    0.00000000
     atom   14 type  2   force =    -0.00000301   -0.00000301    0.00000301
     atom   15 type  1   force =     0.00000000    0.00000000    0.00000000
     atom   16 type  2   force =    -0.00000301   -0.00000301   -0.00000301

     Total force =     0.000015     Total SCF correction =     0.002812
     SCF correction compared to forces is large: reduce conv_thr to get better values

     Computing stress (Cartesian axis) and pressure

     negative rho (up, down):  0.000E+00 2.525E-03
          total   stress  (Ry/bohr**3)                   (kbar)     P=  -23.90
  -0.00016246   0.00000000   0.00000000        -23.90      0.00      0.00
   0.00000000  -0.00016246   0.00000000          0.00    -23.90      0.00
   0.00000000   0.00000000  -0.00016246          0.00      0.00    -23.90

     Writing output data file vjHXoIFrCGOTovgV.save/

     General routines

     Parallel routines

   This run was terminated on:  10:45:31   9Sep2020

   JOB DONE.