     Program PWSCF v.6.7MaX starts on 22May2022 at  3:36:45

     R & G space division:  proc/nbgrp/npool/nimage =      72
     Reading input from fepdslab06.in
Warning: card &CELL ignored
Warning: card CELL_DYNAMICS = 'BFGS', ignored
Warning: card CELL_FACTOR = 2.0, ignored
Warning: card PRESS = 0.0, ignored
Warning: card / ignored

     Current dimensions of program PWSCF are:
     Max number of different atomic species (ntypx) = 10
     Max number of k-points (npk) =  40000
     Max angular momentum in pseudopotentials (lmaxx) =  3
     file Fe.pbe-spn-kjpaw_psl.1.0.0.UPF: wavefunction(s)  3P 3D renormalized
     file Fe.pbe-spn-kjpaw_psl.1.0.0.UPF: wavefunction(s)  3P 3D renormalized
     file Pd.pbe-spn-kjpaw_psl.1.0.0.UPF: wavefunction(s)  4S 5S 4D renormalized

     gamma-point specific algorithms are used

     Subspace diagonalization in iterative solution of the eigenvalue problem:
     one sub-group per band group will be used

     bravais-lattice index     =            0
     lattice parameter (alat)  =      25.8600  a.u.
     unit-cell volume          =   18186.5006 (a.u.)^3
     number of atoms/cell      =          129
     number of atomic types    =            3
     number of electrons       =      2066.00
     number of Kohn-Sham states=         1240
     kinetic-energy cutoff     =      71.0000  Ry
     charge density cutoff     =     430.0000  Ry
     scf convergence threshold =      1.0E-08
     mixing beta               =       0.3000
     number of iterations used =           10  local-TF  mixing
     Exchange-correlation= SLA  PW   PBX  PBC
                           (   1   4   3   4   0   0   0)

     celldm(1)=  25.860000  celldm(2)=   0.000000  celldm(3)=   0.000000
     celldm(4)=   0.000000  celldm(5)=   0.000000  celldm(6)=   0.000000

     crystal axes: (cart. coord. in units of alat)
               a(1) = (   1.000000   0.000000   0.000000 )
               a(2) = (   0.000000   1.051631   0.000000 )
               a(3) = (   0.000000   0.000000   1.000000 )

     reciprocal axes: (cart. coord. in units 2 pi/alat)
               b(1) = (  1.000000  0.000000  0.000000 )
               b(2) = (  0.000000  0.950903  0.000000 )
               b(3) = (  0.000000  0.000000  1.000000 )

     PseudoPot. # 1 for Fe read from file:
     /rds/homes/b/bxp912/pp/Fe.pbe-spn-kjpaw_psl.1.0.0.UPF
     MD5 check sum: 42f43b795421b414b0dc916aa790dbcb
     Pseudo is Projector augmented-wave + core cor, Zval = 16.0
     Generated using &quot;atomic&quot; code by A. Dal Corso  v.6.3
     Shape of augmentation charge: PSQ
     Using radial grid of 1191 points,  6 beta functions with:
                l(1) =   0
                l(2) =   0
                l(3) =   1
                l(4) =   1
                l(5) =   2
                l(6) =   2
     Q(r) pseudized with 0 coefficients

     PseudoPot. # 2 for Fe read from file:
     /rds/homes/b/bxp912/pp/Fe.pbe-spn-kjpaw_psl.1.0.0.UPF
     MD5 check sum: 42f43b795421b414b0dc916aa790dbcb
     Pseudo is Projector augmented-wave + core cor, Zval = 16.0
     Generated using &quot;atomic&quot; code by A. Dal Corso  v.6.3
     Shape of augmentation charge: PSQ
     Using radial grid of 1191 points,  6 beta functions with:
                l(1) =   0
                l(2) =   0
                l(3) =   1
                l(4) =   1
                l(5) =   2
                l(6) =   2
     Q(r) pseudized with 0 coefficients

     PseudoPot. # 3 for Pd read from file:
     /rds/homes/b/bxp912/pp/Pd.pbe-spn-kjpaw_psl.1.0.0.UPF
     MD5 check sum: 790f2ebce206edfd9790dcb9844eca51
     Pseudo is Projector augmented-wave + core cor, Zval = 18.0
     Generated using &quot;atomic&quot; code by A. Dal Corso  v.6.3
     Shape of augmentation charge: PSQ
     Using radial grid of 1235 points,  6 beta functions with:
                l(1) =   0
                l(2) =   0
                l(3) =   1
                l(4) =   1
                l(5) =   2
                l(6) =   2
     Q(r) pseudized with 0 coefficients

     atomic species   valence    mass     pseudopotential
        Fe1           16.00    55.84500     Fe( 1.00)
        Fe2           16.00    55.84500     Fe( 1.00)
        Pd            18.00   106.42000     Pd( 1.00)

     Starting magnetic structure
     atomic species   magnetization
        Fe1          0.100
        Fe2         -0.100
        Pd           0.001

     No symmetry found

   Cartesian axes

     site n.     atom                  positions (alat units)
         1           Pd  tau(   1) = (   0.1363174   0.1122642   0.1814444  )
         2           Fe1 tau(   2) = (   0.0587515   0.0653881   0.3211198  )
         3           Fe2 tau(   3) = (   0.1884265   0.2002713   0.3214448  )
         4           Fe1 tau(   4) = (   0.1868213   0.0655646   0.4421276  )
         5           Fe2 tau(   5) = (   0.0624952   0.1980629   0.4424469  )
         6           Fe1 tau(   6) = (   0.0623234   0.0655267   0.5697271  )
         7           Fe2 tau(   7) = (   0.1876610   0.1975943   0.5698145  )
         8           Fe1 tau(   8) = (   0.1882185   0.0650035   0.6879009  )
         9           Fe2 tau(   9) = (   0.0616632   0.1980291   0.6879420  )
        10           Fe1 tau(  10) = (   0.0653597   0.3265762   0.3172267  )
        11           Fe2 tau(  11) = (   0.1877413   0.4579090   0.3175394  )
        12           Fe1 tau(  12) = (   0.1881227   0.3296492   0.4412225  )
        13           Fe2 tau(  13) = (   0.0633903   0.4595175   0.4385688  )
        14           Fe1 tau(  14) = (   0.0628268   0.3296102   0.5678640  )
        15           Fe2 tau(  15) = (   0.1885537   0.4615096   0.5682187  )
        16           Fe1 tau(  16) = (   0.1887326   0.3305664   0.6874596  )
        17           Fe2 tau(  17) = (   0.0603308   0.4618776   0.6862421  )
        18           Fe1 tau(  18) = (   0.0648519   0.5907106   0.3145093  )
        19           Fe2 tau(  19) = (   0.1847510   0.7238107   0.3145456  )
        20           Fe1 tau(  20) = (   0.1863681   0.5909977   0.4371267  )
        21           Fe2 tau(  21) = (   0.0633682   0.7236125   0.4371464  )
        22           Fe1 tau(  22) = (   0.0615849   0.5918936   0.5662034  )
        23           Fe2 tau(  23) = (   0.1882586   0.7226899   0.5660552  )
        24           Fe1 tau(  24) = (   0.1887997   0.5925453   0.6861716  )
        25           Fe2 tau(  25) = (   0.0613274   0.7219977   0.6862125  )
        26           Fe1 tau(  26) = (   0.0618357   0.8560935   0.3172000  )
        27           Fe2 tau(  27) = (   0.1829530   0.9895025   0.3139428  )
        28           Fe1 tau(  28) = (   0.1862919   0.8555747   0.4379183  )
        29           Fe2 tau(  29) = (   0.0618572   0.9855343   0.4406165  )
        30           Fe1 tau(  30) = (   0.0613876   0.8531658   0.5679772  )
        31           Fe2 tau(  31) = (   0.1869233   0.9851356   0.5677120  )
        32           Fe1 tau(  32) = (   0.1896322   0.8527645   0.6860337  )
        33           Fe2 tau(  33) = (   0.0612834   0.9839846   0.6875207  )
        34           Fe1 tau(  34) = (   0.3076371   0.0696373   0.3122286  )
        35           Fe2 tau(  35) = (   0.4357117   0.1980603   0.3171939  )
        36           Fe1 tau(  36) = (   0.4341488   0.0657210   0.4341951  )
        37           Fe2 tau(  37) = (   0.3121648   0.1978698   0.4418603  )
        38           Fe1 tau(  38) = (   0.3124073   0.0653502   0.5666112  )
        39           Fe2 tau(  39) = (   0.4385533   0.1968925   0.5660486  )
        40           Fe1 tau(  40) = (   0.4380091   0.0657438   0.6859902  )
        41           Fe2 tau(  41) = (   0.3146724   0.1973275   0.6859048  )
        42           Fe1 tau(  42) = (   0.3112557   0.3275738   0.3170910  )
        43           Fe2 tau(  43) = (   0.4354886   0.4597974   0.3147106  )
        44           Fe1 tau(  44) = (   0.4374791   0.3293042   0.4369893  )
        45           Fe2 tau(  45) = (   0.3125364   0.4604356   0.4366549  )
        46           Fe1 tau(  46) = (   0.3141732   0.3293478   0.5679259  )
        47           Fe2 tau(  47) = (   0.4390386   0.4604040   0.5632767  )
        48           Fe1 tau(  48) = (   0.4403086   0.3292951   0.6845898  )
        49           Fe2 tau(  49) = (   0.3159177   0.4625217   0.6855273  )
        50           Fe1 tau(  50) = (   0.3083587   0.5903099   0.3147277  )
        51           Fe2 tau(  51) = (   0.4339295   0.7233087   0.3130231  )
        52           Fe1 tau(  52) = (   0.4358847   0.5924128   0.4322183  )
        53           Fe2 tau(  53) = (   0.3104159   0.7228918   0.4334436  )
        54           Fe1 tau(  54) = (   0.3142966   0.5918280   0.5641361  )
        55           Fe2 tau(  55) = (   0.4385180   0.7234213   0.5598951  )
        56           Fe1 tau(  56) = (   0.4419191   0.5923939   0.6824908  )
        57           Fe2 tau(  57) = (   0.3162141   0.7223454   0.6842751  )
        58           Fe1 tau(  58) = (   0.3074024   0.8548895   0.3147790  )
        59           Fe2 tau(  59) = (   0.4344514   0.9868630   0.3150403  )
        60           Fe1 tau(  60) = (   0.4356335   0.8547100   0.4315209  )
[...]
       115           Fe2 tau( 115) = (   0.9412610   0.7242602   0.3148148  )
       116           Fe1 tau( 116) = (   0.9393584   0.5917595   0.4337111  )
       117           Fe2 tau( 117) = (   0.8139347   0.7222047   0.4324709  )
       118           Fe1 tau( 118) = (   0.8112426   0.5912370   0.5601288  )
       119           Fe2 tau( 119) = (   0.9356265   0.7227141   0.5643328  )
       120           Fe1 tau( 120) = (   0.9336551   0.5923087   0.6844350  )
       121           Fe2 tau( 121) = (   0.8078635   0.7222525   0.6825759  )
       122           Fe1 tau( 122) = (   0.8143703   0.8548553   0.3146769  )
       123           Fe2 tau( 123) = (   0.9388847   0.9870538   0.3171989  )
       124           Fe1 tau( 124) = (   0.9373427   0.8541441   0.4366752  )
       125           Fe2 tau( 125) = (   0.8125994   0.9853090   0.4370552  )
       126           Fe1 tau( 126) = (   0.8108362   0.8541803   0.5632913  )
       127           Fe2 tau( 127) = (   0.9358746   0.9851837   0.5680012  )
       128           Fe1 tau( 128) = (   0.9341019   0.8520056   0.6853792  )
       129           Fe2 tau( 129) = (   0.8094919   0.9851394   0.6846363  )

     number of k points=     1  Marzari-Vanderbilt smearing, width (Ry)=  0.0400
                       cart. coord. in units 2pi/alat
        k(    1) = (   0.0000000   0.0000000   0.0000000), wk =   1.0000000

     Check: negative core charge=   -0.000004
     Generating pointlists ...
     new r_m :   0.0687 (alat units)  1.7761 (a.u.) for type    1
     new r_m :   0.0709 (alat units)  1.8345 (a.u.) for type    2
     new r_m :   0.0687 (alat units)  1.7761 (a.u.) for type    3

     Initial potential from superposition of free atoms

     starting charge 2065.94361, renormalised to 2066.00000

     negative rho (up, down):  1.777E-04 1.778E-04
     Starting wfcs are 1290 randomized atomic wfcs
     Checking if some PAW data can be deallocated...

     Self-consistent Calculation

[...]
   -46.2386 -46.2369 -46.2360 -46.2355 -46.2351 -46.2307 -46.2283 -46.2239
   -46.2235 -46.2225 -46.2191 -46.2152 -46.2140 -46.2133 -46.2118 -46.2083
   -46.2059 -46.2026 -46.1907 -46.1878 -46.1839 -46.1810 -46.1632 -46.1545
   -46.1475 -45.8613 -45.8474 -45.8045 -45.7813 -45.7785 -45.7643 -45.7602
   -45.7496 -45.7478 -45.7430 -45.7405 -45.7355 -45.7331 -45.7328 -45.7262
   -45.7250 -45.7239 -45.7228 -45.7207 -45.7165 -45.7149 -45.7033 -45.7021
   -45.6988 -45.6960 -45.6957 -45.6933 -45.6917 -45.6904 -45.6899 -45.6881
   -45.6867 -45.6843 -45.6809 -45.6783 -45.6734 -45.6710 -45.6700 -45.6623
   -45.6610 -45.6608 -45.6559 -45.6546 -45.6530 -45.6480 -45.6392 -45.6289
   -45.6238 -45.6169 -45.6060 -45.6051 -45.6040 -45.5952 -45.5920 -45.5866
   -45.5825 -45.5783 -45.5775 -45.5744 -45.5681 -45.5670 -45.5665 -45.5659
   -45.5588 -45.5520 -45.5506 -45.5486 -45.5425 -45.5306 -45.5292 -45.5280
   -45.5241 -45.5223 -45.5209 -45.5205 -45.5200 -45.5183 -45.5177 -45.5166
   -45.5058 -45.5046 -45.5028 -45.5013 -45.4956 -45.4952 -45.4869 -45.4747
   -45.4746 -45.4665 -45.4618 -45.4581 -45.4563 -45.4529 -45.4395 -45.4121
   -45.3916 -44.5113 -44.5067 -44.5044 -44.5033 -44.4947 -44.4908 -44.4883
   -44.4861 -44.4847 -44.4838 -44.4807 -44.4801 -44.4783 -44.4771 -44.4746
   -44.4708 -44.4697 -44.4674 -44.4641 -44.4617 -44.4587 -44.4576 -44.4568
   -44.4554 -44.4540 -44.4534 -44.4505 -44.4498 -44.4470 -44.4462 -44.4434
   -44.4431 -44.4419 -44.4389 -44.4383 -44.4325 -44.4256 -44.4252 -44.4236
   -44.4232 -44.4196 -44.4176 -44.4168 -44.4147 -44.4091 -44.4089 -44.4085
   -44.4012 -44.3974 -44.3904 -44.3877 -44.3845 -44.3770 -44.3647 -44.3530
   -44.3517 -44.3485 -44.3440 -44.3407 -44.3377 -44.3308 -44.3282 -44.3254
   -44.3248 -44.3240 -44.3228 -44.3209 -44.3199 -44.3142 -44.3095 -44.3079
   -44.3041 -44.3018 -44.3011 -44.2983 -44.2966 -44.2944 -44.2900 -44.2882
   -44.2868 -44.2864 -44.2821 -44.2797 -44.2783 -44.2776 -44.2770 -44.2764
   -44.2759 -44.2730 -44.2721 -44.2603 -44.2601 -44.2581 -44.2504 -44.2457
   -44.2353 -44.0462 -43.9304 -43.8851 -43.8843 -43.8713 -43.8701 -43.8609
   -43.8511 -43.8492 -43.8484 -43.8468 -43.8439 -43.8407 -43.8404 -43.8381
   -43.8379 -43.8346 -43.8320 -43.8311 -43.8306 -43.8298 -43.8229 -43.8200
   -43.8197 -43.8183 -43.8118 -43.8111 -43.8073 -43.8055 -43.8044 -43.8027
   -43.7960 -43.7956 -43.7929 -43.7926 -43.7902 -43.7858 -43.7834 -43.7734
   -43.7711 -43.7657 -43.7628 -43.7602 -43.7597 -43.7585 -43.7575 -43.7550
   -43.7544 -43.7521 -43.7517 -43.7508 -43.7478 -43.7456 -43.7440 -43.7431
   -43.7421 -43.7415 -43.7405 -43.7371 -43.7346 -43.7343 -43.7303 -43.7282
[...]
     8.9296   8.9344   8.9365   8.9404   8.9609   8.9766   8.9775   8.9807
     8.9830   8.9854   8.9890   8.9949   9.0070   9.0155   9.0194   9.0201
     9.0256   9.0571   9.0588   9.0607   9.0651   9.0672   9.0717   9.0737
     9.0762   9.0770   9.0792   9.0802   9.0879   9.1247   9.1317   9.1515
     9.1605   9.1637   9.1765   9.1779   9.1795   9.1812   9.1831   9.1865
     9.1882   9.1955   9.1976   9.2012   9.2053   9.2183   9.2298   9.2357
     9.2518   9.2536   9.2591   9.2597   9.2653   9.2702   9.2712   9.2722
     9.2765   9.2823   9.2860   9.2882   9.2911   9.3056   9.3121   9.3265
     9.3327   9.3404   9.3586   9.3675   9.3729   9.3792   9.3899   9.3938
     9.4029   9.4052   9.4072   9.4089   9.4115   9.4165   9.4227   9.4247
     9.4279   9.4324   9.4462   9.4551   9.4594   9.4795   9.4907   9.5093
     9.5292   9.5441   9.5631   9.5847   9.5955   9.6052   9.6321   9.6362
     9.6436   9.7458   9.7634   9.8972   9.9912  10.0694  10.3076  10.3128
    10.4243  10.4470  10.4879  10.5190  10.5254  10.5480  10.5519  10.5632
    10.5766  10.6413  10.6436  10.6537  10.7177  10.7500  10.7538  10.7950

 ------ SPIN DOWN ----------

          k = 0.0000 0.0000 0.0000 ( 91909 PWs)   bands (ev):

   -80.3048 -80.3036 -80.3029 -80.2935 -80.2883 -80.2867 -80.2793 -80.2767
   -80.2745 -80.2737 -80.2713 -80.2653 -80.2624 -80.2616 -80.2561 -80.2496
   -80.2472 -80.2459 -80.2451 -80.2422 -80.2363 -80.2334 -80.2318 -80.2267
   -80.2245 -80.2143 -80.2138 -80.2126 -80.2047 -80.1801 -80.1722 -80.1703
   -79.7418 -79.6806 -79.6585 -79.6563 -79.6559 -79.6483 -79.6368 -79.6295
   -79.6223 -79.6191 -79.6063 -79.5985 -79.5854 -79.5768 -79.5665 -79.5650
   -79.5521 -79.5505 -79.5376 -79.5290 -79.5268 -79.5200 -79.5136 -79.5107
   -79.4965 -79.4930 -79.4668 -79.4652 -79.4536 -79.4466 -79.4336 -79.4246
   -78.4322 -78.3875 -78.3729 -78.3686 -78.3637 -78.3582 -78.3526 -78.3420
   -78.3241 -78.3180 -78.3123 -78.3070 -78.3062 -78.3037 -78.3016 -78.2925
   -78.2911 -78.2841 -78.2732 -78.2713 -78.2611 -78.2587 -78.2452 -78.2435
   -78.2420 -78.2396 -78.2330 -78.2234 -78.2117 -78.2037 -78.1980 -78.1411
   -77.9148 -77.7110 -77.7064 -77.6956 -77.6944 -77.6881 -77.6823 -77.6813
   -77.6745 -77.6739 -77.6716 -77.6714 -77.6665 -77.6655 -77.6655 -77.6645
   -77.6633 -77.6577 -77.6570 -77.6556 -77.6527 -77.6526 -77.6522 -77.6516
   -77.6501 -77.6469 -77.6459 -77.6436 -77.6436 -77.6348 -77.6346 -77.6325
   -75.7099 -46.4621 -46.4598 -46.4510 -46.4478 -46.4452 -46.4401 -46.4399
   -46.4361 -46.4310 -46.4305 -46.4251 -46.4217 -46.4202 -46.4179 -46.4117
   -46.4091 -46.4054 -46.4033 -46.4019 -46.3999 -46.3990 -46.3937 -46.3885
   -46.3880 -46.3866 -46.3847 -46.3714 -46.3703 -46.3684 -46.3655 -46.3636
   -46.3626 -46.3560 -46.3526 -46.3496 -46.3427 -46.3425 -46.3419 -46.3406
   -46.3403 -46.3380 -46.3308 -46.3285 -46.3256 -46.3249 -46.3224 -46.3219
   -46.3209 -46.3126 -46.3094 -46.3055 -46.3024 -46.2997 -46.2967 -46.2965
   -46.2964 -46.2850 -46.2824 -46.2800 -46.2763 -46.2755 -46.2740 -46.2696
   -46.2645 -46.2621 -46.2576 -46.2567 -46.2536 -46.2518 -46.2469 -46.2463
   -46.2442 -46.2406 -46.2396 -46.2386 -46.2379 -46.2376 -46.2357 -46.2297
   -46.2240 -46.2226 -46.2215 -46.2209 -46.2204 -46.2123 -46.2105 -46.2083
   -46.2047 -46.1997 -46.1963 -46.1956 -46.1930 -46.1849 -46.1669 -46.1566
   -46.1563 -45.8301 -45.8176 -45.7825 -45.7729 -45.7644 -45.7632 -45.7622
   -45.7566 -45.7515 -45.7509 -45.7374 -45.7332 -45.7294 -45.7286 -45.7265
   -45.7245 -45.7237 -45.7232 -45.7226 -45.7196 -45.7189 -45.7184 -45.7167
   -45.7138 -45.7094 -45.7049 -45.6998 -45.6974 -45.6945 -45.6931 -45.6897
   -45.6887 -45.6866 -45.6854 -45.6829 -45.6811 -45.6721 -45.6653 -45.6639
   -45.6619 -45.6595 -45.6539 -45.6512 -45.6493 -45.6431 -45.6419 -45.6300
   -45.6276 -45.6153 -45.6116 -45.5994 -45.5975 -45.5921 -45.5898 -45.5882
   -45.5789 -45.5786 -45.5737 -45.5726 -45.5700 -45.5668 -45.5650 -45.5588
   -45.5570 -45.5510 -45.5489 -45.5479 -45.5465 -45.5418 -45.5299 -45.5271
   -45.5265 -45.5260 -45.5223 -45.5222 -45.5218 -45.5193 -45.5187 -45.5160
   -45.5138 -45.5084 -45.5076 -45.5074 -45.5053 -45.4998 -45.4957 -45.4846
   -45.4833 -45.4831 -45.4735 -45.4725 -45.4717 -45.4608 -45.4574 -45.4460
   -45.4386 -44.5516 -44.5389 -44.5105 -44.5102 -44.5086 -44.4972 -44.4932
   -44.4927 -44.4917 -44.4868 -44.4862 -44.4855 -44.4846 -44.4797 -44.4738
   -44.4722 -44.4712 -44.4706 -44.4680 -44.4632 -44.4621 -44.4590 -44.4589
   -44.4577 -44.4566 -44.4558 -44.4537 -44.4483 -44.4458 -44.4438 -44.4394
   -44.4360 -44.4352 -44.4334 -44.4294 -44.4273 -44.4254 -44.4248 -44.4242
   -44.4230 -44.4221 -44.4208 -44.4167 -44.4150 -44.4119 -44.4096 -44.4085
   -44.4019 -44.3949 -44.3946 -44.3894 -44.3811 -44.3769 -44.3759 -44.3556
   -44.3532 -44.3527 -44.3505 -44.3447 -44.3444 -44.3348 -44.3309 -44.3270
   -44.3251 -44.3223 -44.3205 -44.3191 -44.3174 -44.3128 -44.3125 -44.3100
   -44.3085 -44.3060 -44.3049 -44.3018 -44.2983 -44.2914 -44.2910 -44.2908
   -44.2884 -44.2830 -44.2820 -44.2814 -44.2795 -44.2787 -44.2739 -44.2728
   -44.2719 -44.2701 -44.2664 -44.2588 -44.2542 -44.2475 -44.2435 -44.2202
   -44.2004 -44.0729 -44.0209 -43.8984 -43.8919 -43.8852 -43.8708 -43.8666
   -43.8623 -43.8539 -43.8529 -43.8443 -43.8439 -43.8437 -43.8387 -43.8361
   -43.8339 -43.8338 -43.8294 -43.8287 -43.8247 -43.8228 -43.8204 -43.8179
   -43.8176 -43.8137 -43.8130 -43.8094 -43.8070 -43.8067 -43.8063 -43.8050
   -43.7940 -43.7932 -43.7930 -43.7928 -43.7926 -43.7848 -43.7763 -43.7751
   -43.7724 -43.7721 -43.7669 -43.7612 -43.7574 -43.7559 -43.7553 -43.7545
   -43.7522 -43.7517 -43.7515 -43.7507 -43.7491 -43.7458 -43.7451 -43.7443
   -43.7435 -43.7415 -43.7399 -43.7367 -43.7353 -43.7351 -43.7339 -43.7252
[...]
     8.9286   8.9338   8.9357   8.9416   8.9572   8.9756   8.9776   8.9777
     8.9812   8.9861   8.9865   8.9959   9.0109   9.0129   9.0171   9.0201
     9.0232   9.0530   9.0576   9.0615   9.0648   9.0689   9.0697   9.0729
     9.0761   9.0766   9.0775   9.0792   9.0881   9.1242   9.1312   9.1529
     9.1585   9.1638   9.1740   9.1772   9.1788   9.1804   9.1825   9.1862
     9.1891   9.1902   9.1976   9.2007   9.2041   9.2165   9.2266   9.2340
     9.2471   9.2565   9.2580   9.2593   9.2640   9.2687   9.2707   9.2721
     9.2760   9.2826   9.2840   9.2876   9.2898   9.3057   9.3106   9.3264
     9.3289   9.3404   9.3565   9.3665   9.3725   9.3774   9.3850   9.3960
     9.3996   9.4034   9.4066   9.4084   9.4119   9.4163   9.4221   9.4225
     9.4253   9.4317   9.4466   9.4596   9.4607   9.4772   9.4931   9.5088
     9.5248   9.5416   9.5644   9.5872   9.5900   9.6107   9.6328   9.6366
     9.6437   9.7475   9.7576   9.8979   9.9930  10.0795  10.3080  10.3150
    10.4283  10.4483  10.4775  10.5187  10.5220  10.5366  10.5568  10.5588
    10.5919  10.6292  10.6441  10.6620  10.7055  10.7444  10.7525  10.7593

     the Fermi energy is     8.1879 ev

!    total energy              =  -42651.90374725 Ry

     total all-electron energy =   -335917.886657 Ry
     estimated scf accuracy    <          8.4E-09 Ry
     smearing contrib. (-TS)   =       0.00905702 Ry
     internal energy E=F+TS    =  -42651.91280427 Ry

     The total energy is F=E-TS. E is the sum of the following terms:
     one-electron contribution =  -98154.37538911 Ry
     hartree contribution      =   49591.73505456 Ry
     xc contribution           =   -3575.67483902 Ry
     ewald contribution        =   20339.21471224 Ry
     one-center paw contrib.   =  -10852.81234293 Ry

     total magnetization       =    -0.06 Bohr mag/cell
     absolute magnetization    =   229.47 Bohr mag/cell

     convergence has been achieved in  68 iterations

     negative rho (up, down):  1.716E-03 1.874E-03

     Forces acting on atoms (cartesian axes, Ry/au):

     atom    1 type  3   force =     0.02689160   -0.00863411   -0.03685829
     atom    2 type  1   force =    -0.01680865   -0.01130957    0.03113081
     atom    3 type  2   force =     0.00318447    0.00821951    0.00933235
     atom    4 type  1   force =    -0.00001070    0.00306934   -0.00164047
     atom    5 type  2   force =    -0.00088583   -0.00248405   -0.00064083
     atom    6 type  1   force =     0.00125379   -0.00117101    0.00010971
     atom    7 type  2   force =    -0.00123325    0.00110801   -0.00006760
     atom    8 type  1   force =     0.00207906   -0.00018067    0.00107820
     atom    9 type  2   force =    -0.00196876    0.00033964    0.00105241
     atom   10 type  1   force =    -0.00361394    0.00237869   -0.00286016
     atom   11 type  2   force =    -0.00387363    0.00078792   -0.00211283
     atom   12 type  1   force =     0.00014416   -0.00230310   -0.00191270
     atom   13 type  2   force =     0.00037748   -0.00042686   -0.00136041
     atom   14 type  1   force =    -0.00237078    0.00108985    0.00385316
     atom   15 type  2   force =    -0.00225886    0.00016716   -0.00045462
     atom   16 type  1   force =     0.00010641    0.00018042    0.00059139
     atom   17 type  2   force =     0.00062892   -0.00065097   -0.00031716
     atom   18 type  1   force =    -0.00012742   -0.00006459    0.00008656
     atom   19 type  2   force =     0.00000993    0.00002962   -0.00002523
     atom   20 type  1   force =     0.00262825    0.00186988    0.00273447
     atom   21 type  2   force =    -0.00263210   -0.00184140    0.00274544
     atom   22 type  1   force =     0.00119926   -0.00009206    0.00115703
     atom   23 type  2   force =    -0.00104289    0.00043164    0.00096609
     atom   24 type  1   force =    -0.00009079   -0.00080080   -0.00205230
     atom   25 type  2   force =    -0.00001486    0.00110764   -0.00207712
     atom   26 type  1   force =     0.00367435   -0.00102713   -0.00206180
     atom   27 type  2   force =     0.00233343   -0.00043408   -0.00629333
     atom   28 type  1   force =    -0.00091485    0.00075575   -0.00176934
     atom   29 type  2   force =     0.00004029    0.00191893   -0.00148264
     atom   30 type  1   force =     0.00247485    0.00024441   -0.00081687
     atom   31 type  2   force =     0.00224959   -0.00076843    0.00326756
     atom   32 type  1   force =    -0.00064775    0.00080638   -0.00034826
     atom   33 type  2   force =    -0.00009880   -0.00017082    0.00039072
     atom   34 type  1   force =     0.00095970   -0.00294228   -0.00478185
     atom   35 type  2   force =    -0.00167079   -0.00391853   -0.00032816
     atom   36 type  1   force =     0.00173524    0.00155916   -0.00218340
     atom   37 type  2   force =    -0.00073206   -0.00097893   -0.00709819
     atom   38 type  1   force =     0.00010932   -0.00078039    0.00243572
     atom   39 type  2   force =     0.00112818    0.00041939   -0.00159629
     atom   40 type  1   force =     0.00422993   -0.00080433    0.00022235
     atom   41 type  2   force =     0.00003512    0.00152503    0.00580741
     atom   42 type  1   force =    -0.00211676    0.00011081    0.00197730
     atom   43 type  2   force =    -0.00032535   -0.00102575   -0.00226147
     atom   44 type  1   force =    -0.00087278   -0.00289441   -0.00382537
     atom   45 type  2   force =    -0.00090785   -0.00240485    0.00222685
     atom   46 type  1   force =    -0.00396775    0.00194653   -0.00177810
     atom   47 type  2   force =    -0.00035928    0.00118203    0.00028993
     atom   48 type  1   force =     0.00072332    0.00189386    0.00490906
     atom   49 type  2   force =     0.00118852   -0.00183181    0.00170675
     atom   50 type  1   force =     0.00105670    0.00266764   -0.00259826
     atom   51 type  2   force =     0.00018018    0.00184055   -0.00332855
     atom   52 type  1   force =     0.00245749   -0.00278212   -0.00046295
     atom   53 type  2   force =     0.00141810    0.00151669    0.00380088
     atom   54 type  1   force =    -0.00354323    0.00172333    0.00120335
     atom   55 type  2   force =    -0.00240938   -0.00091125    0.00290115
     atom   56 type  1   force =    -0.00074249    0.00000496   -0.00014757
     atom   57 type  2   force =    -0.00007830    0.00015141   -0.00072787
     atom   58 type  1   force =     0.00117185    0.00377930   -0.00151419
     atom   59 type  2   force =    -0.00166823    0.00191599   -0.00064921
     atom   60 type  1   force =     0.00221635    0.00145850    0.00031979
[...]
     atom  115 type  2   force =    -0.00114648   -0.00277589   -0.00253738
     atom  116 type  1   force =    -0.00152985   -0.00117366    0.00412731
     atom  117 type  2   force =    -0.00256673    0.00301723   -0.00066487
     atom  118 type  1   force =     0.00232180    0.00098075    0.00310622
     atom  119 type  2   force =     0.00344302   -0.00142286    0.00128295
     atom  120 type  1   force =    -0.00000464    0.00007238   -0.00066713
     atom  121 type  2   force =     0.00071995    0.00014880   -0.00009994
     atom  122 type  1   force =     0.00046074    0.00140441   -0.00222901
     atom  123 type  2   force =     0.00215576   -0.00013946    0.00148034
     atom  124 type  1   force =     0.00115495    0.00233853    0.00205711
     atom  125 type  2   force =     0.00062590    0.00290914   -0.00383019
     atom  126 type  1   force =     0.00031233   -0.00100591    0.00036158
     atom  127 type  2   force =     0.00398325   -0.00190644   -0.00168866
     atom  128 type  1   force =    -0.00100132    0.00206962    0.00161579
     atom  129 type  2   force =    -0.00079767   -0.00200157    0.00494091

     Total force =     0.071892     Total SCF correction =     0.000281

     Computing stress (Cartesian axis) and pressure

     negative rho (up, down):  1.716E-03 1.874E-03
          total   stress  (Ry/bohr**3)                   (kbar)     P=      -18.85
  -0.00014487   0.00000589  -0.00000867          -21.31        0.87       -1.28
   0.00000589  -0.00009727   0.00000397            0.87      -14.31        0.58
  -0.00000867   0.00000397  -0.00014222           -1.28        0.58      -20.92

     Writing output data file /scratch/bxp912/fepdslab06.save/

     General routines

     Parallel routines

   This run was terminated on:   4: 4:17  22May2022

   JOB DONE.