     Program PWSCF v.6.7MaX starts on 22May2022 at  2:31: 1

     R & G space division:  proc/nbgrp/npool/nimage =      72
     Reading input from fepdslab02.in
Warning: card &CELL ignored
Warning: card CELL_DYNAMICS = 'BFGS', ignored
Warning: card CELL_FACTOR = 2.0, ignored
Warning: card PRESS = 0.0, ignored
Warning: card / ignored

     Current dimensions of program PWSCF are:
     Max number of different atomic species (ntypx) = 10
     Max number of k-points (npk) =  40000
     Max angular momentum in pseudopotentials (lmaxx) =  3
     file Fe.pbe-spn-kjpaw_psl.1.0.0.UPF: wavefunction(s)  3P 3D renormalized
     file Fe.pbe-spn-kjpaw_psl.1.0.0.UPF: wavefunction(s)  3P 3D renormalized
     file Pd.pbe-spn-kjpaw_psl.1.0.0.UPF: wavefunction(s)  4S 5S 4D renormalized

     gamma-point specific algorithms are used

     Subspace diagonalization in iterative solution of the eigenvalue problem:
     one sub-group per band group will be used

     bravais-lattice index     =            0
     lattice parameter (alat)  =      25.8600  a.u.
     unit-cell volume          =   18186.5006 (a.u.)^3
     number of atoms/cell      =          128
     number of atomic types    =            3
     number of electrons       =      2050.00
     number of Kohn-Sham states=         1230
     kinetic-energy cutoff     =      71.0000  Ry
     charge density cutoff     =     430.0000  Ry
     scf convergence threshold =      1.0E-08
     mixing beta               =       0.3000
     number of iterations used =           10  local-TF  mixing
     Exchange-correlation= SLA  PW   PBX  PBC
                           (   1   4   3   4   0   0   0)

     celldm(1)=  25.860000  celldm(2)=   0.000000  celldm(3)=   0.000000
     celldm(4)=   0.000000  celldm(5)=   0.000000  celldm(6)=   0.000000

     crystal axes: (cart. coord. in units of alat)
               a(1) = (   1.000000   0.000000   0.000000 )
               a(2) = (   0.000000   1.051631   0.000000 )
               a(3) = (   0.000000   0.000000   1.000000 )

     reciprocal axes: (cart. coord. in units 2 pi/alat)
               b(1) = (  1.000000  0.000000  0.000000 )
               b(2) = (  0.000000  0.950903  0.000000 )
               b(3) = (  0.000000  0.000000  1.000000 )

     PseudoPot. # 1 for Fe read from file:
     /rds/homes/b/bxp912/pp/Fe.pbe-spn-kjpaw_psl.1.0.0.UPF
     MD5 check sum: 42f43b795421b414b0dc916aa790dbcb
     Pseudo is Projector augmented-wave + core cor, Zval = 16.0
     Generated using &quot;atomic&quot; code by A. Dal Corso  v.6.3
     Shape of augmentation charge: PSQ
     Using radial grid of 1191 points,  6 beta functions with:
                l(1) =   0
                l(2) =   0
                l(3) =   1
                l(4) =   1
                l(5) =   2
                l(6) =   2
     Q(r) pseudized with 0 coefficients

     PseudoPot. # 2 for Fe read from file:
     /rds/homes/b/bxp912/pp/Fe.pbe-spn-kjpaw_psl.1.0.0.UPF
     MD5 check sum: 42f43b795421b414b0dc916aa790dbcb
     Pseudo is Projector augmented-wave + core cor, Zval = 16.0
     Generated using &quot;atomic&quot; code by A. Dal Corso  v.6.3
     Shape of augmentation charge: PSQ
     Using radial grid of 1191 points,  6 beta functions with:
                l(1) =   0
                l(2) =   0
                l(3) =   1
                l(4) =   1
                l(5) =   2
                l(6) =   2
     Q(r) pseudized with 0 coefficients

     PseudoPot. # 3 for Pd read from file:
     /rds/homes/b/bxp912/pp/Pd.pbe-spn-kjpaw_psl.1.0.0.UPF
     MD5 check sum: 790f2ebce206edfd9790dcb9844eca51
     Pseudo is Projector augmented-wave + core cor, Zval = 18.0
     Generated using &quot;atomic&quot; code by A. Dal Corso  v.6.3
     Shape of augmentation charge: PSQ
     Using radial grid of 1235 points,  6 beta functions with:
                l(1) =   0
                l(2) =   0
                l(3) =   1
                l(4) =   1
                l(5) =   2
                l(6) =   2
     Q(r) pseudized with 0 coefficients

     atomic species   valence    mass     pseudopotential
        Fe1           16.00    55.84500     Fe( 1.00)
        Fe2           16.00    55.84500     Fe( 1.00)
        Pd            18.00   106.42000     Pd( 1.00)

     Starting magnetic structure
     atomic species   magnetization
        Fe1          0.100
        Fe2         -0.100
        Pd           0.001

     No symmetry found

   Cartesian axes

     site n.     atom                  positions (alat units)
         1           Pd  tau(   1) = (   0.0562867   0.0627679   0.2971609  )
         2           Fe2 tau(   2) = (   0.1918897   0.2014172   0.3118918  )
         3           Fe1 tau(   3) = (   0.1882328   0.0656869   0.4358379  )
         4           Fe2 tau(   4) = (   0.0624775   0.1970719   0.4359471  )
         5           Fe1 tau(   5) = (   0.0624549   0.0656597   0.5661003  )
         6           Fe2 tau(   6) = (   0.1871430   0.1965451   0.5642273  )
         7           Fe1 tau(   7) = (   0.1889127   0.0656324   0.6868723  )
         8           Fe2 tau(   8) = (   0.0625044   0.1953941   0.6845946  )
         9           Fe1 tau(   9) = (   0.0624492   0.3290082   0.3162931  )
        10           Fe2 tau(  10) = (   0.1878214   0.4592247   0.3140372  )
        11           Fe1 tau(  11) = (   0.1883843   0.3293589   0.4358220  )
        12           Fe2 tau(  12) = (   0.0624760   0.4596378   0.4342728  )
        13           Fe1 tau(  13) = (   0.0624920   0.3282674   0.5642399  )
        14           Fe2 tau(  14) = (   0.1874818   0.4600075   0.5644807  )
        15           Fe1 tau(  15) = (   0.1868970   0.3281618   0.6858748  )
        16           Fe2 tau(  16) = (   0.0624936   0.4605212   0.6849404  )
        17           Fe1 tau(  17) = (   0.0625024   0.5915716   0.3157343  )
        18           Fe2 tau(  18) = (   0.1879142   0.7239319   0.3139752  )
        19           Fe1 tau(  19) = (   0.1872820   0.5915469   0.4358293  )
        20           Fe2 tau(  20) = (   0.0624835   0.7235138   0.4342323  )
        21           Fe1 tau(  21) = (   0.0624907   0.5915302   0.5645538  )
        22           Fe2 tau(  22) = (   0.1874919   0.7231202   0.5644793  )
        23           Fe1 tau(  23) = (   0.1874063   0.5915279   0.6856542  )
        24           Fe2 tau(  24) = (   0.0625142   0.7225942   0.6849283  )
        25           Fe1 tau(  25) = (   0.0624543   0.8539987   0.3163316  )
        26           Fe2 tau(  26) = (   0.1918142   0.9816207   0.3118943  )
        27           Fe1 tau(  27) = (   0.1884013   0.8536921   0.4358345  )
        28           Fe2 tau(  28) = (   0.0624649   0.9860452   0.4359182  )
        29           Fe1 tau(  29) = (   0.0624985   0.8547814   0.5642264  )
        30           Fe2 tau(  30) = (   0.1871332   0.9865130   0.5642305  )
        31           Fe1 tau(  31) = (   0.1869002   0.8548778   0.6858783  )
        32           Fe2 tau(  32) = (   0.0624558   0.9876052   0.6846415  )
        33           Fe1 tau(  33) = (   0.3125283   0.0656767   0.3153241  )
        34           Fe2 tau(  34) = (   0.4366043   0.1971699   0.3142072  )
        35           Fe1 tau(  35) = (   0.4374422   0.0657131   0.4355769  )
        36           Fe2 tau(  36) = (   0.3125894   0.1975774   0.4358271  )
        37           Fe1 tau(  37) = (   0.3120225   0.0656827   0.5647659  )
        38           Fe2 tau(  38) = (   0.4378242   0.1969597   0.5645465  )
        39           Fe1 tau(  39) = (   0.4382670   0.0656506   0.6865253  )
        40           Fe2 tau(  40) = (   0.3128280   0.1968527   0.6838988  )
        41           Fe1 tau(  41) = (   0.3143566   0.3300848   0.3168881  )
        42           Fe2 tau(  42) = (   0.4380142   0.4607661   0.3143143  )
        43           Fe1 tau(  43) = (   0.4381801   0.3288131   0.4365576  )
        44           Fe2 tau(  44) = (   0.3127566   0.4604807   0.4354136  )
        45           Fe1 tau(  45) = (   0.3125129   0.3287898   0.5653541  )
        46           Fe2 tau(  46) = (   0.4375258   0.4601913   0.5648721  )
        47           Fe1 tau(  47) = (   0.4372527   0.3286868   0.6863403  )
        48           Fe2 tau(  48) = (   0.3121639   0.4602999   0.6850825  )
        49           Fe1 tau(  49) = (   0.3122461   0.5915191   0.3156420  )
        50           Fe2 tau(  50) = (   0.4379749   0.7223781   0.3143454  )
        51           Fe1 tau(  51) = (   0.4374235   0.5915294   0.4359555  )
        52           Fe2 tau(  52) = (   0.3127687   0.7226645   0.4354242  )
        53           Fe1 tau(  53) = (   0.3124200   0.5915220   0.5650306  )
        54           Fe2 tau(  54) = (   0.4375286   0.7229381   0.5648768  )
        55           Fe1 tau(  55) = (   0.4377002   0.5915143   0.6861050  )
        56           Fe2 tau(  56) = (   0.3121736   0.7228110   0.6850814  )
        57           Fe1 tau(  57) = (   0.3144103   0.8531069   0.3169355  )
        58           Fe2 tau(  58) = (   0.4366715   0.9859647   0.3142091  )
        59           Fe1 tau(  59) = (   0.4382063   0.8542513   0.4365853  )
        60           Fe2 tau(  60) = (   0.3125895   0.9855573   0.4358131  )
[...]
       114           Fe2 tau( 114) = (   0.9371598   0.7238976   0.3139999  )
       115           Fe1 tau( 115) = (   0.9377646   0.5915458   0.4358419  )
       116           Fe2 tau( 116) = (   0.8122153   0.7226557   0.4354428  )
       117           Fe1 tau( 117) = (   0.8125580   0.5915265   0.5650413  )
       118           Fe2 tau( 118) = (   0.9375705   0.7231224   0.5644911  )
       119           Fe1 tau( 119) = (   0.9376433   0.5915402   0.6856562  )
       120           Fe2 tau( 120) = (   0.8128215   0.7228073   0.6850820  )
       121           Fe1 tau( 121) = (   0.8106770   0.8530522   0.3170121  )
       122           Fe2 tau( 122) = (   0.9331251   0.9816405   0.3118907  )
       123           Fe1 tau( 123) = (   0.9366253   0.8537026   0.4358875  )
       124           Fe2 tau( 124) = (   0.8123694   0.9855677   0.4358403  )
       125           Fe1 tau( 125) = (   0.8124209   0.8542355   0.5653886  )
       126           Fe2 tau( 126) = (   0.9378693   0.9865197   0.5642632  )
       127           Fe1 tau( 127) = (   0.9381364   0.8548433   0.6858883  )
       128           Fe2 tau( 128) = (   0.8121443   0.9862056   0.6839159  )

     number of k points=     1  Marzari-Vanderbilt smearing, width (Ry)=  0.0400
                       cart. coord. in units 2pi/alat
        k(    1) = (   0.0000000   0.0000000   0.0000000), wk =   1.0000000

     Check: negative core charge=   -0.000004
     Generating pointlists ...
     new r_m :   0.0710 (alat units)  1.8364 (a.u.) for type    1
     new r_m :   0.0713 (alat units)  1.8431 (a.u.) for type    2
     new r_m :   0.0749 (alat units)  1.9381 (a.u.) for type    3

     Initial potential from superposition of free atoms

     starting charge 2049.94405, renormalised to 2050.00000

     negative rho (up, down):  2.096E-04 2.091E-04
     Starting wfcs are 1280 randomized atomic wfcs
     Checking if some PAW data can be deallocated...

     Self-consistent Calculation

[...]
   -46.3218 -46.3207 -46.3205 -46.3189 -46.3189 -46.3176 -46.3043 -46.2936
   -46.2929 -46.2899 -46.2889 -46.2802 -46.2730 -46.2603 -46.2556 -46.2499
   -46.2487 -46.2480 -46.2472 -46.2365 -46.2326 -46.2295 -46.2099 -46.1978
   -46.1935 -46.0353 -46.0326 -45.9035 -45.9002 -45.8994 -45.8952 -45.8950
   -45.8934 -45.8932 -45.8910 -45.8877 -45.8870 -45.8773 -45.8758 -45.8751
   -45.8732 -45.8704 -45.8689 -45.8459 -45.8397 -45.8392 -45.8361 -45.8326
   -45.8323 -45.8313 -45.8305 -45.8300 -45.8295 -45.8240 -45.8231 -45.8185
   -45.8150 -45.7934 -45.7929 -45.7910 -45.7856 -45.7826 -45.7820 -45.7766
   -45.7737 -45.7670 -45.7622 -45.7608 -45.7543 -45.7296 -45.7252 -45.6817
   -45.6812 -45.6787 -45.6767 -45.6722 -45.6671 -45.6601 -45.6583 -45.6579
   -45.6526 -45.6504 -45.6442 -45.6392 -45.6374 -45.6347 -45.6321 -45.6314
   -45.6309 -45.6288 -45.6284 -45.6274 -45.6267 -45.6261 -45.6200 -45.6189
   -45.6169 -45.6165 -45.6124 -45.6108 -45.5935 -45.5919 -45.5891 -45.5881
   -45.5849 -45.5829 -45.5807 -45.5610 -45.4730 -45.4697 -45.4147 -45.4113
   -45.3865 -45.3836 -45.1405 -45.0998 -45.0301 -44.7276 -44.7184 -44.6897
   -44.6821 -44.6495 -44.6423 -44.6389 -44.6367 -44.6363 -44.6349 -44.6264
   -44.6243 -44.6225 -44.6211 -44.5942 -44.5927 -44.5921 -44.5915 -44.5893
   -44.5882 -44.5867 -44.5857 -44.5826 -44.5799 -44.5768 -44.5763 -44.5748
   -44.5723 -44.5721 -44.5702 -44.5695 -44.5690 -44.5662 -44.5639 -44.5613
   -44.5603 -44.5557 -44.5504 -44.5502 -44.5482 -44.5463 -44.5451 -44.4655
   -44.4622 -44.4614 -44.4601 -44.4586 -44.4573 -44.4520 -44.4507 -44.4500
   -44.4487 -44.4462 -44.4460 -44.4435 -44.4427 -44.4414 -44.4403 -44.4401
   -44.4392 -44.4354 -44.4347 -44.4109 -44.4106 -44.4097 -44.4090 -44.4087
   -44.4080 -44.4069 -44.4066 -44.4060 -44.4056 -44.4045 -44.4035 -44.3930
   -44.3905 -44.3881 -44.3847 -44.3839 -44.3826 -44.3807 -44.3802 -44.3797
   -44.3791 -44.3787 -44.3783 -44.3782 -44.3776 -44.3749 -44.3734 -44.2256
   -44.2205 -44.1811 -44.1752 -44.1476 -44.1358 -43.9550 -43.9545 -43.9537
   -43.9532 -43.9470 -43.9464 -43.9446 -43.9436 -43.9430 -43.9421 -43.9393
   -43.9385 -43.9381 -43.9376 -43.9320 -43.9303 -43.9289 -43.9287 -43.9272
   -43.9264 -43.9252 -43.9246 -43.9239 -43.9237 -43.9227 -43.9225 -43.9214
   -43.9212 -43.8780 -43.8774 -43.8769 -43.8766 -43.8686 -43.8666 -43.8661
   -43.8616 -43.8605 -43.8603 -43.8599 -43.8595 -43.8591 -43.8589 -43.8585
   -43.8576 -43.8571 -43.8563 -43.8557 -43.8553 -43.8550 -43.8549 -43.8542
   -43.8539 -43.8535 -43.8530 -43.8503 -43.8482 -43.8468 -43.8459 -43.8451
   -43.8449 -43.8077 -43.8068 -43.8039 -43.8038 -43.8036 -43.8034 -43.8002
[...]
     8.8369   8.8589   8.8619   8.8746   8.8746   8.8769   8.8788   8.8816
     8.8851   8.8956   8.9012   8.9057   8.9082   8.9145   8.9239   8.9266
     8.9377   8.9474   8.9647   8.9649   8.9663   8.9761   8.9779   8.9789
     8.9853   8.9882   8.9891   8.9990   9.0253   9.0318   9.0452   9.0477
     9.0577   9.0629   9.0765   9.0775   9.0829   9.0833   9.0852   9.0920
     9.0955   9.0987   9.1065   9.1097   9.1213   9.1271   9.1405   9.1553
     9.1606   9.1609   9.1626   9.1643   9.1694   9.1723   9.1776   9.1793
     9.1851   9.1934   9.1995   9.2017   9.2058   9.2104   9.2341   9.2437
     9.2491   9.2555   9.2581   9.2747   9.2839   9.2930   9.2987   9.3008
     9.3019   9.3050   9.3066   9.3085   9.3190   9.3198   9.3354   9.3413
     9.3456   9.3532   9.3610   9.3653   9.3950   9.3969   9.4182   9.4392
     9.4451   9.4548   9.4939   9.5002   9.5096   9.5136   9.5315   9.5519
     9.6444   9.6798   9.8873   9.9049  10.1220  10.2206  10.2235  10.3415
    10.3524  10.3926  10.4209  10.4414  10.4496  10.4667  10.4975  10.5280
    10.5294  10.5391  10.5815  10.6382  10.6396  10.6627

 ------ SPIN DOWN ----------

          k = 0.0000 0.0000 0.0000 ( 91909 PWs)   bands (ev):

   -80.4902 -80.4876 -80.4861 -80.4850 -80.4122 -80.4108 -80.4105 -80.4093
   -80.3987 -80.3982 -80.3962 -80.3960 -80.3914 -80.3906 -80.3896 -80.3889
   -80.3157 -80.3156 -80.3153 -80.3145 -80.3110 -80.3105 -80.3103 -80.3099
   -80.3088 -80.3085 -80.3034 -80.3019 -80.2967 -80.2952 -80.2944 -80.2940
   -79.9648 -79.9645 -79.7590 -79.7586 -79.7582 -79.7573 -79.7548 -79.7515
   -79.7513 -79.7505 -79.7497 -79.7497 -79.7496 -79.7484 -79.7219 -79.7212
   -79.7204 -79.7197 -79.5915 -79.5913 -79.5823 -79.5811 -79.5697 -79.5686
   -79.5389 -79.5379 -79.5060 -79.5051 -79.5046 -79.5011 -79.4071 -79.3973
   -78.8861 -78.6308 -78.6284 -78.4724 -78.4494 -78.4471 -78.4442 -78.4431
   -78.4430 -78.4405 -78.4322 -78.4309 -78.4230 -78.4107 -78.3960 -78.3935
   -78.3874 -78.3834 -78.3664 -78.3649 -78.3530 -78.3515 -78.3032 -78.3026
   -78.3014 -78.3013 -78.2984 -78.2923 -78.2910 -78.2897 -78.1587 -78.1403
   -77.8303 -77.8301 -77.8292 -77.8291 -77.8042 -77.8022 -77.7880 -77.7834
   -77.7799 -77.7795 -77.7792 -77.7711 -77.7706 -77.7687 -77.7685 -77.7683
   -77.7679 -77.7636 -77.7631 -77.7605 -77.7604 -77.7602 -77.7589 -77.7588
   -77.7585 -77.7584 -77.7518 -77.7507 -77.7503 -77.7502 -77.7497 -76.5516
   -46.6381 -46.6309 -46.6246 -46.6204 -46.5726 -46.5692 -46.5671 -46.5669
   -46.5665 -46.5660 -46.5655 -46.5646 -46.5521 -46.5507 -46.5479 -46.5474
   -46.5470 -46.5461 -46.5441 -46.5432 -46.4786 -46.4765 -46.4755 -46.4740
   -46.4699 -46.4686 -46.4677 -46.4668 -46.4663 -46.4650 -46.4648 -46.4642
   -46.4634 -46.4625 -46.4623 -46.4616 -46.4607 -46.4593 -46.4593 -46.4573
   -46.4547 -46.4536 -46.4524 -46.4519 -46.4505 -46.4504 -46.4495 -46.4480
   -46.4475 -46.4469 -46.4463 -46.4446 -46.3918 -46.3887 -46.3862 -46.3854
   -46.3852 -46.3841 -46.3837 -46.3827 -46.3816 -46.3807 -46.3792 -46.3786
   -46.3739 -46.3735 -46.3719 -46.3714 -46.3711 -46.3695 -46.3687 -46.3675
   -46.3667 -46.3660 -46.3654 -46.3640 -46.3623 -46.3623 -46.3611 -46.3607
   -46.3008 -46.2973 -46.2972 -46.2940 -46.2932 -46.2919 -46.2889 -46.2877
   -46.2856 -46.2852 -46.2827 -46.2824 -46.2795 -46.2775 -46.2762 -46.2736
   -46.0796 -46.0758 -46.0204 -46.0130 -46.0027 -45.9959 -45.8613 -45.8560
   -45.8554 -45.8516 -45.8499 -45.8496 -45.8493 -45.8490 -45.8476 -45.8473
   -45.8423 -45.8380 -45.8374 -45.8320 -45.8314 -45.8293 -45.8289 -45.8250
   -45.8239 -45.8233 -45.8224 -45.8214 -45.8209 -45.8200 -45.8194 -45.8191
   -45.8178 -45.8143 -45.7974 -45.7969 -45.7945 -45.7938 -45.7932 -45.7925
   -45.7922 -45.7914 -45.7907 -45.7905 -45.7901 -45.7896 -45.7884 -45.7881
   -45.7879 -45.7856 -45.7342 -45.7323 -45.7303 -45.7287 -45.6429 -45.6424
   -45.6398 -45.6391 -45.6370 -45.6358 -45.6344 -45.6338 -45.6286 -45.6265
   -45.6222 -45.6171 -45.6118 -45.6104 -45.6082 -45.6035 -45.6031 -45.5994
   -45.5917 -45.5895 -45.5866 -45.5855 -45.5823 -45.5817 -45.5797 -45.5782
   -45.5629 -45.5619 -45.5545 -45.5523 -45.5499 -45.5464 -45.5356 -45.5349
   -45.5344 -45.5314 -45.5074 -45.4989 -45.4503 -45.4417 -45.4402 -45.4300
   -45.0357 -44.9421 -44.9021 -44.7580 -44.7568 -44.7294 -44.7268 -44.6764
   -44.6725 -44.5944 -44.5897 -44.5774 -44.5766 -44.5760 -44.5757 -44.5699
   -44.5684 -44.5662 -44.5646 -44.5639 -44.5612 -44.5604 -44.5596 -44.5591
   -44.5578 -44.5566 -44.5554 -44.5550 -44.5537 -44.5520 -44.5500 -44.5470
   -44.5452 -44.5426 -44.5389 -44.5384 -44.5378 -44.5371 -44.5364 -44.5335
   -44.5290 -44.5287 -44.5248 -44.5243 -44.5228 -44.5109 -44.5072 -44.5034
   -44.5002 -44.4958 -44.4817 -44.4787 -44.4629 -44.4626 -44.4219 -44.4208
   -44.4169 -44.4152 -44.4130 -44.4124 -44.4117 -44.4106 -44.4094 -44.4071
   -44.4050 -44.4032 -44.4013 -44.4003 -44.3950 -44.3931 -44.3921 -44.3897
   -44.3862 -44.3848 -44.3832 -44.3810 -44.3808 -44.3784 -44.3776 -44.3773
   -44.3662 -44.3646 -44.3592 -44.3558 -44.3545 -44.3532 -44.3529 -44.3505
   -44.3410 -44.3401 -44.2691 -44.2602 -44.2513 -44.2492 -44.2325 -44.2008
   -44.0078 -44.0073 -44.0065 -44.0061 -43.9824 -43.9798 -43.9658 -43.9620
   -43.9584 -43.9383 -43.9377 -43.9365 -43.9361 -43.9326 -43.9304 -43.9298
   -43.9293 -43.9291 -43.9289 -43.9282 -43.9267 -43.9260 -43.9220 -43.9217
   -43.9215 -43.9215 -43.9209 -43.9206 -43.9199 -43.9196 -43.9161 -43.9143
   -43.9139 -43.9134 -43.9133 -43.8970 -43.8947 -43.8798 -43.8785 -43.8772
   -43.8699 -43.8637 -43.8604 -43.8597 -43.8591 -43.8590 -43.8578 -43.8573
   -43.8513 -43.8512 -43.8480 -43.8478 -43.8462 -43.8462 -43.8457 -43.8456
   -43.8454 -43.8424 -43.8359 -43.8355 -43.8352 -43.8348 -43.8279 -43.8278
[...]
     8.8151   8.8204   8.8307   8.8491   8.8493   8.8598   8.8628   8.8750
     8.8767   8.8847   8.8870   8.8926   8.8988   8.9032   8.9047   8.9052
     8.9109   8.9336   8.9381   8.9484   8.9487   8.9515   8.9654   8.9691
     8.9706   8.9711   8.9717   8.9787   8.9871   9.0009   9.0283   9.0417
     9.0472   9.0481   9.0486   9.0576   9.0666   9.0725   9.0726   9.0733
     9.0762   9.0772   9.0831   9.0937   9.0950   9.1238   9.1251   9.1346
     9.1414   9.1429   9.1502   9.1534   9.1553   9.1621   9.1654   9.1669
     9.1682   9.1712   9.1796   9.1871   9.1972   9.1979   9.2007   9.2284
     9.2328   9.2342   9.2425   9.2489   9.2649   9.2757   9.2790   9.2886
     9.2917   9.2932   9.2963   9.2978   9.3031   9.3139   9.3174   9.3175
     9.3213   9.3398   9.3483   9.3502   9.3689   9.3819   9.3958   9.4163
     9.4215   9.4413   9.4803   9.4908   9.4910   9.4996   9.5316   9.5402
     9.6135   9.6721   9.8761   9.8856  10.1130  10.2018  10.2040  10.3195
    10.3422  10.3829  10.4074  10.4350  10.4401  10.4411  10.4931  10.4992
    10.5276  10.5323  10.5660  10.6059  10.6257  10.6475

     the Fermi energy is     8.0824 ev

!    total energy              =  -42322.71167693 Ry

     total all-electron energy =   -333372.398054 Ry
     estimated scf accuracy    <          9.4E-09 Ry
     smearing contrib. (-TS)   =       0.01708325 Ry
     internal energy E=F+TS    =  -42322.72876018 Ry

     The total energy is F=E-TS. E is the sum of the following terms:
     one-electron contribution =  -98252.18555981 Ry
     hartree contribution      =   49628.56687020 Ry
     xc contribution           =   -3547.91861780 Ry
     ewald contribution        =   20618.82428838 Ry
     one-center paw contrib.   =  -10770.01574115 Ry

     total magnetization       =    -3.54 Bohr mag/cell
     absolute magnetization    =   228.32 Bohr mag/cell

     convergence has been achieved in  93 iterations

     negative rho (up, down):  1.203E-03 1.304E-03

     Forces acting on atoms (cartesian axes, Ry/au):

     atom    1 type  3   force =     0.02563122    0.01337192   -0.02405583
     atom    2 type  2   force =    -0.00378049   -0.00457794   -0.00029283
     atom    3 type  1   force =     0.00202051   -0.00012640   -0.00047154
     atom    4 type  2   force =    -0.00048318    0.00239103    0.00087266
     atom    5 type  1   force =     0.00019525    0.00004424    0.00073327
     atom    6 type  2   force =     0.00010967    0.00004978   -0.00043520
     atom    7 type  1   force =     0.00012705    0.00000002   -0.00058512
     atom    8 type  2   force =     0.00004289    0.00001482   -0.00050662
     atom    9 type  1   force =     0.00002496   -0.00008567    0.00012885
     atom   10 type  2   force =     0.00023308    0.00025903   -0.00021201
     atom   11 type  1   force =    -0.00084085   -0.00051769   -0.00048331
     atom   12 type  2   force =     0.00001303    0.00021893   -0.00012637
     atom   13 type  1   force =    -0.00001916   -0.00005004   -0.00026023
     atom   14 type  2   force =     0.00019179    0.00012206   -0.00012182
     atom   15 type  1   force =     0.00006980    0.00008709    0.00028299
     atom   16 type  2   force =     0.00002371    0.00000606    0.00007835
     atom   17 type  1   force =     0.00000398    0.00008267    0.00018362
     atom   18 type  2   force =     0.00025827   -0.00026094   -0.00022236
     atom   19 type  1   force =    -0.00002750    0.00001450    0.00002785
     atom   20 type  2   force =     0.00000739   -0.00007131   -0.00025708
     atom   21 type  1   force =     0.00001313   -0.00000284   -0.00020412
     atom   22 type  2   force =     0.00017970   -0.00013960   -0.00005693
     atom   23 type  1   force =    -0.00026080   -0.00001710    0.00022544
     atom   24 type  2   force =     0.00000904    0.00004311    0.00007874
     atom   25 type  1   force =     0.00004643    0.00012040   -0.00021107
     atom   26 type  2   force =     0.00038689    0.00194424    0.00023464
     atom   27 type  1   force =    -0.00069994    0.00030815   -0.00028187
     atom   28 type  2   force =    -0.00025507   -0.00621407    0.00593088
     atom   29 type  1   force =    -0.00003163   -0.00011833   -0.00016920
     atom   30 type  2   force =     0.00004118   -0.00007650   -0.00033388
     atom   31 type  1   force =     0.00008220   -0.00004863    0.00025122
     atom   32 type  2   force =     0.00002956   -0.00010727   -0.00053391
     atom   33 type  1   force =     0.00038968   -0.00011319    0.00063263
     atom   34 type  2   force =     0.00029991    0.00024982   -0.00031942
     atom   35 type  1   force =     0.00016680    0.00001154    0.00027431
     atom   36 type  2   force =    -0.00056801   -0.00052572   -0.00044570
     atom   37 type  1   force =    -0.00001105   -0.00001700   -0.00007090
     atom   38 type  2   force =    -0.00006163    0.00002497   -0.00011060
     atom   39 type  1   force =    -0.00006273    0.00003994    0.00040343
     atom   40 type  2   force =     0.00011680    0.00014247    0.00043535
     atom   41 type  1   force =    -0.00000833    0.00021259   -0.00011728
     atom   42 type  2   force =     0.00012918   -0.00021394    0.00004211
     atom   43 type  1   force =     0.00018311    0.00015478    0.00013679
     atom   44 type  2   force =     0.00012065    0.00009069    0.00010250
     atom   45 type  1   force =    -0.00011439    0.00010544   -0.00005187
     atom   46 type  2   force =    -0.00006844   -0.00013799    0.00032025
     atom   47 type  1   force =    -0.00001872   -0.00045330   -0.00003262
     atom   48 type  2   force =    -0.00029052   -0.00020483    0.00006803
     atom   49 type  1   force =     0.00031525   -0.00000281    0.00010671
     atom   50 type  2   force =     0.00016548    0.00015434    0.00000740
     atom   51 type  1   force =     0.00017453   -0.00000818    0.00043218
     atom   52 type  2   force =     0.00009067   -0.00010522    0.00010797
     atom   53 type  1   force =    -0.00008416    0.00001104    0.00024556
     atom   54 type  2   force =    -0.00004319    0.00013134    0.00032204
     atom   55 type  1   force =    -0.00041038   -0.00000406    0.00007556
     atom   56 type  2   force =    -0.00030199    0.00022687    0.00007312
     atom   57 type  1   force =     0.00006515   -0.00029249   -0.00023152
     atom   58 type  2   force =     0.00039379   -0.00021572   -0.00032953
     atom   59 type  1   force =     0.00013337   -0.00009709    0.00015919
     atom   60 type  2   force =    -0.00023113    0.00033404   -0.00030031
[...]
     atom  114 type  2   force =    -0.00028221   -0.00037064   -0.00017979
     atom  115 type  1   force =    -0.00015067    0.00001174    0.00001983
     atom  116 type  2   force =     0.00003282   -0.00007038    0.00016358
     atom  117 type  1   force =     0.00009320    0.00001157    0.00020281
     atom  118 type  2   force =    -0.00009937   -0.00023147    0.00001722
     atom  119 type  1   force =     0.00023356   -0.00003657    0.00022733
     atom  120 type  2   force =     0.00026469    0.00020573    0.00003322
     atom  121 type  1   force =    -0.00014314   -0.00043461   -0.00073216
     atom  122 type  2   force =    -0.00839312   -0.00962195    0.00178738
     atom  123 type  1   force =     0.00037848   -0.00016143    0.00026956
     atom  124 type  2   force =    -0.00104430   -0.00041930    0.00045949
     atom  125 type  1   force =     0.00009537   -0.00013761   -0.00010234
     atom  126 type  2   force =    -0.00034667   -0.00011772    0.00006471
     atom  127 type  1   force =    -0.00011358   -0.00006206    0.00023320
     atom  128 type  2   force =    -0.00003390   -0.00010988    0.00026729

     Total force =     0.044609     Total SCF correction =     0.000302

     Computing stress (Cartesian axis) and pressure

     negative rho (up, down):  1.203E-03 1.304E-03
          total   stress  (Ry/bohr**3)                   (kbar)     P=      -20.29
  -0.00014614   0.00000045  -0.00000262          -21.50        0.07       -0.39
   0.00000045  -0.00010266  -0.00000088            0.07      -15.10       -0.13
  -0.00000262  -0.00000088  -0.00016506           -0.39       -0.13      -24.28

     Writing output data file /scratch/bxp912/fepdslab02.save/

     General routines

     Parallel routines

   This run was terminated on:   3:10:37  22May2022

   JOB DONE.