     Program PWSCF v.6.7MaX starts on 11May2022 at 14:42:48

     R & G space division:  proc/nbgrp/npool/nimage =      72
     Reading input from fepdslab4.in
Warning: card &CELL ignored
Warning: card CELL_DYNAMICS = 'BFGS', ignored
Warning: card CELL_FACTOR = 2.0, ignored
Warning: card PRESS = 0.0, ignored
Warning: card / ignored

     Current dimensions of program PWSCF are:
     Max number of different atomic species (ntypx) = 10
     Max number of k-points (npk) =  40000
     Max angular momentum in pseudopotentials (lmaxx) =  3
     file Fe.pbe-spn-kjpaw_psl.1.0.0.UPF: wavefunction(s)  3P 3D renormalized
     file Fe.pbe-spn-kjpaw_psl.1.0.0.UPF: wavefunction(s)  3P 3D renormalized
     file Pd.pbe-spn-kjpaw_psl.1.0.0.UPF: wavefunction(s)  4S 5S 4D renormalized

     gamma-point specific algorithms are used

     Subspace diagonalization in iterative solution of the eigenvalue problem:
     one sub-group per band group will be used

     bravais-lattice index     =            0
     lattice parameter (alat)  =      25.8600  a.u.
     unit-cell volume          =   18186.5006 (a.u.)^3
     number of atoms/cell      =          129
     number of atomic types    =            3
     number of electrons       =      2066.00
     number of Kohn-Sham states=         1240
     kinetic-energy cutoff     =      71.0000  Ry
     charge density cutoff     =     430.0000  Ry
     scf convergence threshold =      1.0E-08
     mixing beta               =       0.3000
     number of iterations used =           10  local-TF  mixing
     energy convergence thresh.=      1.0E-04
     force convergence thresh. =      1.0E-03
     Exchange-correlation= SLA  PW   PBX  PBC
                           (   1   4   3   4   0   0   0)
     nstep                     =           40

     celldm(1)=  25.860000  celldm(2)=   0.000000  celldm(3)=   0.000000
     celldm(4)=   0.000000  celldm(5)=   0.000000  celldm(6)=   0.000000

     crystal axes: (cart. coord. in units of alat)
               a(1) = (   1.000000   0.000000   0.000000 )
               a(2) = (   0.000000   1.051631   0.000000 )
               a(3) = (   0.000000   0.000000   1.000000 )

     reciprocal axes: (cart. coord. in units 2 pi/alat)
               b(1) = (  1.000000  0.000000  0.000000 )
               b(2) = (  0.000000  0.950903  0.000000 )
               b(3) = (  0.000000  0.000000  1.000000 )

     PseudoPot. # 1 for Fe read from file:
     /rds/homes/b/bxp912/pp/Fe.pbe-spn-kjpaw_psl.1.0.0.UPF
     MD5 check sum: 42f43b795421b414b0dc916aa790dbcb
     Pseudo is Projector augmented-wave + core cor, Zval = 16.0
     Generated using &quot;atomic&quot; code by A. Dal Corso  v.6.3
     Shape of augmentation charge: PSQ
     Using radial grid of 1191 points,  6 beta functions with:
                l(1) =   0
                l(2) =   0
                l(3) =   1
                l(4) =   1
                l(5) =   2
                l(6) =   2
     Q(r) pseudized with 0 coefficients

     PseudoPot. # 2 for Fe read from file:
     /rds/homes/b/bxp912/pp/Fe.pbe-spn-kjpaw_psl.1.0.0.UPF
     MD5 check sum: 42f43b795421b414b0dc916aa790dbcb
     Pseudo is Projector augmented-wave + core cor, Zval = 16.0
     Generated using &quot;atomic&quot; code by A. Dal Corso  v.6.3
     Shape of augmentation charge: PSQ
     Using radial grid of 1191 points,  6 beta functions with:
                l(1) =   0
                l(2) =   0
                l(3) =   1
                l(4) =   1
                l(5) =   2
                l(6) =   2
     Q(r) pseudized with 0 coefficients

     PseudoPot. # 3 for Pd read from file:
     /rds/homes/b/bxp912/pp/Pd.pbe-spn-kjpaw_psl.1.0.0.UPF
     MD5 check sum: 790f2ebce206edfd9790dcb9844eca51
     Pseudo is Projector augmented-wave + core cor, Zval = 18.0
     Generated using &quot;atomic&quot; code by A. Dal Corso  v.6.3
     Shape of augmentation charge: PSQ
     Using radial grid of 1235 points,  6 beta functions with:
                l(1) =   0
                l(2) =   0
                l(3) =   1
                l(4) =   1
                l(5) =   2
                l(6) =   2
     Q(r) pseudized with 0 coefficients

     atomic species   valence    mass     pseudopotential
        Fe1           16.00    55.84500     Fe( 1.00)
        Fe2           16.00    55.84500     Fe( 1.00)
        Pd            18.00   106.42000     Pd( 1.00)

     Starting magnetic structure
     atomic species   magnetization
        Fe1          0.100
        Fe2         -0.100
        Pd           0.001

     No symmetry found

   Cartesian axes

     site n.     atom                  positions (alat units)
         1           Pd  tau(   1) = (   0.1254674   0.1319455   0.1762858  )
         2           Fe1 tau(   2) = (   0.0531143   0.0558567   0.3013434  )
         3           Fe2 tau(   3) = (   0.1970332   0.2072063   0.3018720  )
         4           Fe1 tau(   4) = (   0.1866132   0.0666037   0.4290144  )
         5           Fe2 tau(   5) = (   0.0633337   0.1962483   0.4290144  )
         6           Fe1 tau(   6) = (   0.0620689   0.0652736   0.5483968  )
         7           Fe2 tau(   7) = (   0.1877252   0.1974177   0.5483386  )
         8           Fe1 tau(   8) = (   0.1872011   0.0659047   0.6716753  )
         9           Fe2 tau(   9) = (   0.0626690   0.1968666   0.6716753  )
        10           Fe1 tau(  10) = (   0.0637787   0.3239310   0.3032640  )
        11           Fe2 tau(  11) = (   0.1864647   0.4586484   0.3142099  )
        12           Fe1 tau(  12) = (   0.1873914   0.3283760   0.4345852  )
        13           Fe2 tau(  13) = (   0.0630030   0.4590782   0.4396770  )
        14           Fe1 tau(  14) = (   0.0629934   0.3271613   0.5516054  )
        15           Fe2 tau(  15) = (   0.1884816   0.4599864   0.5565333  )
        16           Fe1 tau(  16) = (   0.1887577   0.3288993   0.6758354  )
        17           Fe2 tau(  17) = (   0.0622428   0.4595224   0.6793038  )
        18           Fe1 tau(  18) = (   0.0625446   0.5905528   0.3180071  )
        19           Fe2 tau(  19) = (   0.1873053   0.7238767   0.3180569  )
        20           Fe1 tau(  20) = (   0.1876829   0.5913171   0.4426991  )
        21           Fe2 tau(  21) = (   0.0621703   0.7231043   0.4428156  )
        22           Fe1 tau(  22) = (   0.0625247   0.5908214   0.5586540  )
        23           Fe2 tau(  23) = (   0.1873494   0.7236371   0.5586320  )
        24           Fe1 tau(  24) = (   0.1884406   0.5920546   0.6829757  )
        25           Fe2 tau(  25) = (   0.0613770   0.7224976   0.6830049  )
        26           Fe1 tau(  26) = (   0.0634590   0.8557881   0.3142569  )
        27           Fe2 tau(  27) = (   0.1862865   0.9904428   0.3034498  )
        28           Fe1 tau(  28) = (   0.1869265   0.8553434   0.4395837  )
        29           Fe2 tau(  29) = (   0.0625483   0.9864692   0.4343046  )
        30           Fe1 tau(  30) = (   0.0613634   0.8546334   0.5565138  )
        31           Fe2 tau(  31) = (   0.1867715   0.9872144   0.5515551  )
        32           Fe1 tau(  32) = (   0.1876569   0.8548761   0.6793068  )
        33           Fe2 tau(  33) = (   0.0611891   0.9855783   0.6759126  )
        34           Fe1 tau(  34) = (   0.3080271   0.0670717   0.3032640  )
        35           Fe2 tau(  35) = (   0.4361303   0.1960921   0.3142099  )
        36           Fe1 tau(  36) = (   0.4365390   0.0662559   0.4396770  )
        37           Fe2 tau(  37) = (   0.3122538   0.1970667   0.4345852  )
        38           Fe1 tau(  38) = (   0.3110988   0.0662458   0.5516054  )
        39           Fe2 tau(  39) = (   0.4374026   0.1982132   0.5565333  )
        40           Fe1 tau(  40) = (   0.4369615   0.0654565   0.6793038  )
        41           Fe2 tau(  41) = (   0.3127515   0.1985036   0.6758354  )
        42           Fe1 tau(  42) = (   0.3162848   0.3326151   0.3138299  )
        43           Fe2 tau(  43) = (   0.4386788   0.4613284   0.3230744  )
        44           Fe1 tau(  44) = (   0.4379227   0.3285598   0.4423538  )
        45           Fe2 tau(  45) = (   0.3124287   0.4605333   0.4423538  )
        46           Fe1 tau(  46) = (   0.3129161   0.3290724   0.5546004  )
        47           Fe2 tau(  47) = (   0.4379685   0.4605815   0.5625073  )
        48           Fe1 tau(  48) = (   0.4395519   0.3302656   0.6838264  )
        49           Fe2 tau(  49) = (   0.3140507   0.4622466   0.6838264  )
        50           Fe1 tau(  50) = (   0.3112196   0.5914648   0.3209756  )
        51           Fe2 tau(  51) = (   0.4362847   0.7243630   0.3251323  )
        52           Fe1 tau(  52) = (   0.4370962   0.5920082   0.4487023  )
        53           Fe2 tau(  53) = (   0.3121229   0.7240318   0.4447286  )
        54           Fe1 tau(  54) = (   0.3129777   0.5923038   0.5617630  )
        55           Fe2 tau(  55) = (   0.4371899   0.7239201   0.5652257  )
        56           Fe1 tau(  56) = (   0.4387185   0.5925072   0.6918459  )
        57           Fe2 tau(  57) = (   0.3132292   0.7241570   0.6865729  )
        58           Fe1 tau(  58) = (   0.3096316   0.8569797   0.3175276  )
        59           Fe2 tau(  59) = (   0.4349564   0.9887766   0.3174718  )
        60           Fe1 tau(  60) = (   0.4361203   0.8558173   0.4450804  )
[...]
       115           Fe2 tau( 115) = (   0.9386095   0.7229891   0.3211378  )
       116           Fe1 tau( 116) = (   0.9377301   0.5904045   0.4448950  )
       117           Fe2 tau( 117) = (   0.8128163   0.7225024   0.4488195  )
       118           Fe1 tau( 118) = (   0.8126677   0.5904429   0.5653068  )
       119           Fe2 tau( 119) = (   0.9369648   0.7221858   0.5618298  )
       120           Fe1 tau( 120) = (   0.9365893   0.5903063   0.6865802  )
       121           Fe2 tau( 121) = (   0.8110540   0.7218740   0.6920602  )
       122           Fe1 tau( 122) = (   0.8114527   0.8533492   0.3231574  )
       123           Fe2 tau( 123) = (   0.9339732   0.9821956   0.3137442  )
       124           Fe1 tau( 124) = (   0.9374635   0.8540616   0.4423839  )
       125           Fe2 tau( 125) = (   0.8121301   0.9858661   0.4423839  )
       126           Fe1 tau( 126) = (   0.8119327   0.8538540   0.5626243  )
       127           Fe2 tau( 127) = (   0.9370099   0.9853891   0.5546744  )
       128           Fe1 tau( 128) = (   0.9357902   0.8521765   0.6840047  )
       129           Fe2 tau( 129) = (   0.8103376   0.9841064   0.6840047  )

     number of k points=     1  Marzari-Vanderbilt smearing, width (Ry)=  0.0400
                       cart. coord. in units 2pi/alat
        k(    1) = (   0.0000000   0.0000000   0.0000000), wk =   1.0000000

     Check: negative core charge=   -0.000004
     Generating pointlists ...
     new r_m :   0.0674 (alat units)  1.7419 (a.u.) for type    1
     new r_m :   0.0672 (alat units)  1.7384 (a.u.) for type    2
     new r_m :   0.0672 (alat units)  1.7384 (a.u.) for type    3

     Initial potential from superposition of free atoms

     starting charge 2065.94361, renormalised to 2066.00000

     negative rho (up, down):  1.899E-04 1.899E-04
[...]
   -46.2279 -46.2237 -46.2214 -46.2207 -46.2200 -46.2157 -46.2133 -46.2124
   -46.2107 -46.2088 -46.2055 -46.2030 -46.1997 -46.1955 -46.1840 -46.1769
   -46.1703 -45.8156 -45.8074 -45.7718 -45.7582 -45.7556 -45.7521 -45.7467
   -45.7377 -45.7304 -45.7291 -45.7241 -45.7215 -45.7206 -45.7191 -45.7187
   -45.7173 -45.7124 -45.7112 -45.7105 -45.7097 -45.7070 -45.7045 -45.7033
   -45.7000 -45.6992 -45.6953 -45.6948 -45.6936 -45.6891 -45.6861 -45.6854
   -45.6850 -45.6835 -45.6799 -45.6756 -45.6712 -45.6709 -45.6679 -45.6658
   -45.6642 -45.6633 -45.6621 -45.6613 -45.6553 -45.6532 -45.6438 -45.6391
   -45.6275 -45.6230 -45.6213 -45.6178 -45.6125 -45.6088 -45.5972 -45.5948
   -45.5930 -45.5903 -45.5841 -45.5801 -45.5778 -45.5768 -45.5748 -45.5719
   -45.5679 -45.5643 -45.5564 -45.5559 -45.5538 -45.5515 -45.5501 -45.5485
   -45.5424 -45.5404 -45.5398 -45.5396 -45.5379 -45.5362 -45.5347 -45.5328
   -45.5325 -45.5310 -45.5303 -45.5245 -45.5235 -45.5200 -45.5162 -45.5106
   -45.5037 -45.4973 -45.4961 -45.4898 -45.4889 -45.4874 -45.4833 -45.4810
   -45.4579 -44.5269 -44.5208 -44.4949 -44.4887 -44.4857 -44.4838 -44.4836
   -44.4813 -44.4744 -44.4724 -44.4713 -44.4700 -44.4658 -44.4613 -44.4609
   -44.4601 -44.4585 -44.4576 -44.4568 -44.4554 -44.4534 -44.4528 -44.4514
   -44.4499 -44.4485 -44.4470 -44.4456 -44.4441 -44.4405 -44.4387 -44.4382
   -44.4351 -44.4299 -44.4284 -44.4267 -44.4239 -44.4217 -44.4194 -44.4180
   -44.4173 -44.4159 -44.4132 -44.4103 -44.4085 -44.4078 -44.4064 -44.4058
   -44.4037 -44.4003 -44.3992 -44.3907 -44.3877 -44.3838 -44.3779 -44.3719
   -44.3667 -44.3608 -44.3592 -44.3556 -44.3507 -44.3485 -44.3375 -44.3324
   -44.3317 -44.3267 -44.3223 -44.3198 -44.3180 -44.3166 -44.3163 -44.3112
   -44.3086 -44.3073 -44.3056 -44.3040 -44.3005 -44.2974 -44.2965 -44.2931
   -44.2914 -44.2910 -44.2891 -44.2884 -44.2854 -44.2846 -44.2832 -44.2825
   -44.2800 -44.2767 -44.2742 -44.2701 -44.2682 -44.2574 -44.2523 -44.2251
   -44.2104 -44.0258 -43.9594 -43.8753 -43.8693 -43.8669 -43.8642 -43.8547
   -43.8526 -43.8523 -43.8497 -43.8410 -43.8388 -43.8375 -43.8372 -43.8370
   -43.8358 -43.8343 -43.8324 -43.8284 -43.8280 -43.8273 -43.8261 -43.8260
   -43.8244 -43.8239 -43.8221 -43.8177 -43.8162 -43.8131 -43.8124 -43.8092
   -43.8057 -43.8056 -43.8024 -43.7843 -43.7819 -43.7811 -43.7744 -43.7712
   -43.7693 -43.7676 -43.7612 -43.7606 -43.7552 -43.7548 -43.7541 -43.7539
   -43.7537 -43.7531 -43.7529 -43.7522 -43.7517 -43.7512 -43.7507 -43.7503
   -43.7461 -43.7449 -43.7441 -43.7425 -43.7414 -43.7401 -43.7387 -43.7348
[...]
     8.9279   8.9324   8.9359   8.9401   8.9545   8.9733   8.9746   8.9757
     8.9784   8.9827   8.9839   8.9928   9.0079   9.0095   9.0143   9.0175
     9.0214   9.0514   9.0562   9.0590   9.0624   9.0654   9.0679   9.0705
     9.0731   9.0742   9.0753   9.0756   9.0853   9.1232   9.1296   9.1499
     9.1542   9.1590   9.1739   9.1750   9.1762   9.1782   9.1797   9.1825
     9.1841   9.1878   9.1941   9.1977   9.2019   9.2172   9.2271   9.2332
     9.2477   9.2544   9.2563   9.2574   9.2618   9.2681   9.2705   9.2714
     9.2752   9.2808   9.2818   9.2844   9.2865   9.3038   9.3076   9.3230
     9.3284   9.3391   9.3548   9.3640   9.3702   9.3747   9.3829   9.3923
     9.3993   9.4022   9.4045   9.4054   9.4091   9.4118   9.4176   9.4191
     9.4217   9.4267   9.4453   9.4551   9.4586   9.4764   9.4913   9.5058
     9.5242   9.5375   9.5620   9.5861   9.5897   9.6060   9.6299   9.6339
     9.6403   9.7461   9.7557   9.8928   9.9879  10.0681  10.3035  10.3082
    10.4254  10.4437  10.4740  10.5169  10.5196  10.5344  10.5549  10.5574
    10.5862  10.6270  10.6403  10.6581  10.7021  10.7384  10.7490  10.7561

     the Fermi energy is     8.1854 ev

!    total energy              =  -42651.90737824 Ry

     total all-electron energy =   -335917.890288 Ry
     estimated scf accuracy    <          2.7E-10 Ry
     smearing contrib. (-TS)   =       0.00925410 Ry
     internal energy E=F+TS    =  -42651.91663234 Ry

     The total energy is F=E-TS. E is the sum of the following terms:
     one-electron contribution =  -97974.68297487 Ry
     hartree contribution      =   49501.90148504 Ry
     xc contribution           =   -3575.59014271 Ry
     ewald contribution        =   20249.26554835 Ry
     one-center paw contrib.   =  -10852.81054814 Ry

     total magnetization       =    -0.05 Bohr mag/cell
     absolute magnetization    =   229.93 Bohr mag/cell

     convergence has been achieved in  50 iterations

     negative rho (up, down):  1.474E-03 1.377E-03

     Forces acting on atoms (cartesian axes, Ry/au):

     atom    1 type  3   force =     0.01101181   -0.01141019    0.00224427
     atom    2 type  1   force =    -0.00052620   -0.00057097    0.00109263
     atom    3 type  2   force =    -0.00068198    0.00223973    0.00204139
     atom    4 type  1   force =    -0.00007281    0.00243309   -0.00152441
     atom    5 type  2   force =    -0.00018799   -0.00176894   -0.00101669
     atom    6 type  1   force =     0.00091056   -0.00072434   -0.00003107
     atom    7 type  2   force =    -0.00085880    0.00073819   -0.00018389
     atom    8 type  1   force =     0.00144603   -0.00014514    0.00071813
     atom    9 type  2   force =    -0.00139163    0.00026244    0.00072271
     atom   10 type  1   force =    -0.00240710    0.00149787   -0.00178969
     atom   11 type  2   force =    -0.00258548    0.00056284   -0.00132798
     atom   12 type  1   force =     0.00012470   -0.00181524   -0.00138640
     atom   13 type  2   force =     0.00038629   -0.00005104   -0.00077710
     atom   14 type  1   force =    -0.00166875    0.00079588    0.00267808
     atom   15 type  2   force =    -0.00142203    0.00009212    0.00012832
     atom   16 type  1   force =     0.00009635    0.00014139    0.00047649
     atom   17 type  2   force =     0.00024918   -0.00029471   -0.00009784
     atom   18 type  1   force =    -0.00001269    0.00003785    0.00000052
     atom   19 type  2   force =    -0.00007390   -0.00007029   -0.00005756
     atom   20 type  1   force =     0.00174311    0.00135208    0.00183813
     atom   21 type  2   force =    -0.00176437   -0.00133631    0.00187207
     atom   22 type  1   force =     0.00079313   -0.00004543    0.00129378
     atom   23 type  2   force =    -0.00070356    0.00025369    0.00109616
     atom   24 type  1   force =    -0.00009021   -0.00053988   -0.00121480
     atom   25 type  2   force =     0.00003871    0.00074352   -0.00121979
     atom   26 type  1   force =     0.00241407   -0.00064887   -0.00137512
     atom   27 type  2   force =     0.00134400    0.00003831   -0.00462744
     atom   28 type  1   force =    -0.00081248    0.00039615   -0.00115554
     atom   29 type  2   force =     0.00003771    0.00165155   -0.00147322
     atom   30 type  1   force =     0.00156469    0.00022992   -0.00011032
     atom   31 type  2   force =     0.00162444   -0.00065779    0.00241378
     atom   32 type  1   force =    -0.00025115    0.00040883   -0.00013261
     atom   33 type  2   force =    -0.00007719   -0.00013177    0.00033805
     atom   34 type  1   force =    -0.00020556   -0.00154496   -0.00485756
     atom   35 type  2   force =    -0.00103120   -0.00265380   -0.00035937
     atom   36 type  1   force =     0.00106441    0.00099718   -0.00174339
     atom   37 type  2   force =    -0.00072036   -0.00062568   -0.00512445
     atom   38 type  1   force =     0.00012645   -0.00068333    0.00167521
     atom   39 type  2   force =     0.00083467    0.00012402   -0.00107158
     atom   40 type  1   force =     0.00287525   -0.00059731    0.00017918
     atom   41 type  2   force =    -0.00001578    0.00101803    0.00383817
     atom   42 type  1   force =    -0.00142939    0.00013711    0.00114881
     atom   43 type  2   force =    -0.00029000   -0.00078292   -0.00155460
     atom   44 type  1   force =    -0.00076526   -0.00198212   -0.00275459
     atom   45 type  2   force =    -0.00061813   -0.00174400    0.00150423
     atom   46 type  1   force =    -0.00273224    0.00128887   -0.00115901
     atom   47 type  2   force =    -0.00016238    0.00076723    0.00022680
     atom   48 type  1   force =     0.00050788    0.00124258    0.00331861
     atom   49 type  2   force =     0.00090266   -0.00119678    0.00117463
     atom   50 type  1   force =     0.00085023    0.00186055   -0.00183482
     atom   51 type  2   force =    -0.00004993    0.00125665   -0.00221998
     atom   52 type  1   force =     0.00170565   -0.00197982   -0.00031970
     atom   53 type  2   force =     0.00081055    0.00099665    0.00265247
     atom   54 type  1   force =    -0.00242453    0.00120044    0.00100950
     atom   55 type  2   force =    -0.00155173   -0.00056968    0.00211252
     atom   56 type  1   force =    -0.00049228    0.00004313   -0.00009758
     atom   57 type  2   force =     0.00014959    0.00001909   -0.00039323
     atom   58 type  1   force =     0.00090555    0.00235917   -0.00103757
     atom   59 type  2   force =    -0.00128657    0.00131987   -0.00044407
     atom   60 type  1   force =     0.00162211    0.00093498    0.00019870
[...]
     atom  115 type  2   force =    -0.00087191   -0.00194074   -0.00178785
     atom  116 type  1   force =    -0.00087590   -0.00075072    0.00287317
     atom  117 type  2   force =    -0.00176601    0.00213646   -0.00046239
     atom  118 type  1   force =     0.00149427    0.00061923    0.00221992
     atom  119 type  2   force =     0.00238064   -0.00096628    0.00106910
     atom  120 type  1   force =    -0.00022753    0.00012575   -0.00036810
     atom  121 type  2   force =     0.00048675    0.00005974   -0.00004274
     atom  122 type  1   force =     0.00040054    0.00105212   -0.00156883
     atom  123 type  2   force =     0.00137727   -0.00035425    0.00096683
     atom  124 type  1   force =     0.00079603    0.00166669    0.00142320
     atom  125 type  2   force =     0.00051767    0.00198994   -0.00270648
     atom  126 type  1   force =     0.00012782   -0.00064852    0.00026236
     atom  127 type  2   force =     0.00270949   -0.00120401   -0.00102406
     atom  128 type  1   force =    -0.00077550    0.00133894    0.00110416
     atom  129 type  2   force =    -0.00052593   -0.00126470    0.00331507

     Total force =     0.031430     Total SCF correction =     0.000061

     Computing stress (Cartesian axis) and pressure

     negative rho (up, down):  1.474E-03 1.377E-03
          total   stress  (Ry/bohr**3)                   (kbar)     P=      -20.13
  -0.00015184   0.00000476  -0.00000444          -22.34        0.70       -0.65
   0.00000476  -0.00010231   0.00000396            0.70      -15.05        0.58
  -0.00000444   0.00000396  -0.00015636           -0.65        0.58      -23.00

     Energy error            =      5.8E-04
     Gradient error          =      1.1E-02

     number of scf cycles    =  40
     number of bfgs steps    =  39

     energy   old            =  -42651.9068022686 Ry
     energy   new            =  -42651.9073782382 Ry

     CASE: energy  _new < energy  _old

     new trust radius        =       0.1923583454 bohr

     The maximum number of steps has been reached.

     End of BFGS Geometry Optimization

ATOMIC_POSITIONS (crystal)
Pd            0.1425366154        0.1096145635        0.1753094519
Fe1           0.0587514911        0.0621777727        0.3211198308
Fe2           0.1884264687        0.1904386672        0.3214447710
Fe1           0.1868213138        0.0623456146        0.4421275665
Fe2           0.0624952400        0.1883386881        0.4424469437
Fe1           0.0623234448        0.0623096119        0.5697271267
Fe2           0.1876609724        0.1878931384        0.5698145157
Fe1           0.1882185320        0.0618120664        0.6879008522
Fe2           0.0616631883        0.1883065308        0.6879419889
Fe1           0.0653596669        0.3105424728        0.3172267349
Fe2           0.1877412822        0.4354272079        0.3175394236
Fe1           0.1881226859        0.3134645987        0.4412224809
Fe2           0.0633903249        0.4369568125        0.4385687833
Fe1           0.0628268233        0.3134274384        0.5678640336
Fe2           0.1885536579        0.4388510216        0.5682187237
Fe1           0.1887325739        0.3143367445        0.6874595528
Fe2           0.0603308409        0.4392010136        0.6862420965
Fe1           0.0648518892        0.5617087603        0.3145092804
Fe2           0.1847510329        0.6882740889        0.3145456056
Fe1           0.1863681423        0.5619817670        0.4371267276
Fe2           0.0633681903        0.6880856457        0.4371463988
Fe1           0.0615848803        0.5628336885        0.5662034336
Fe2           0.1882585958        0.6872082802        0.5660552067
Fe1           0.1887996898        0.5634533907        0.6861715781
Fe2           0.0613274038        0.6865501218        0.6862124839
Fe1           0.0618356790        0.8140622483        0.3172000136
Fe2           0.1829530456        0.9409213239        0.3139428284
Fe1           0.1862919475        0.8135689288        0.4379183368
Fe2           0.0618572177        0.9371479153        0.4406165384
Fe1           0.0613875875        0.8112783132        0.5679771676
Fe2           0.1869233225        0.9367688034        0.5677119740
Fe1           0.1896322301        0.8108966735        0.6860337324
Fe2           0.0612834218        0.9356743865        0.6875206827
Fe1           0.3076371236        0.0662183475        0.3122286091
Fe2           0.4357117354        0.1883362366        0.3171939086
Fe1           0.4341488445        0.0624943539        0.4341950933
Fe2           0.3121648400        0.1881550914        0.4418602548
Fe1           0.3124072828        0.0621417779        0.5666112153
Fe2           0.4385533288        0.1872257735        0.5660486225
Fe1           0.4380091206        0.0625159791        0.6859902438
Fe2           0.3146723717        0.1876393775        0.6859047540
Fe1           0.3112556731        0.3114910230        0.3170910354
Fe2           0.4354885632        0.4372229373        0.3147106133
Fe1           0.4374791461        0.3131364694        0.4369892942
Fe2           0.3125363891        0.4378297536        0.4366548833
Fe1           0.3141731531        0.3131779301        0.5679258657
Fe2           0.4390386332        0.4377997828        0.5632767417
Fe1           0.4403086405        0.3131278321        0.6845898267
Fe2           0.3159177157        0.4398134664        0.6855272571
Fe1           0.3083586926        0.5613277573        0.3147276980
Fe2           0.4339294665        0.6877967378        0.3130230733
Fe1           0.4358847300        0.5633274179        0.4322182863
Fe2           0.3104159428        0.6874003269        0.4334435597
Fe1           0.3142966438        0.5627713035        0.5641360724
Fe2           0.4385179585        0.6879038477        0.5598951195
Fe1           0.4419190690        0.5633094291        0.6824907722
Fe2           0.3162140834        0.6868807243        0.6842750724
Fe1           0.3074023930        0.8129173465        0.3147789528
Fe2           0.4344513829        0.9384114681        0.3150402728
Fe1           0.4356335414        0.8127466709        0.4315209439
[...]
Fe2           0.9412609680        0.6887015661        0.3148148436
Fe1           0.9393583672        0.5627061763        0.4337111263
Fe2           0.8139347195        0.6867468970        0.4324709430
Fe1           0.8112425725        0.5622093005        0.5601287897
Fe2           0.9356265112        0.6872313419        0.5643327643
Fe1           0.9336550724        0.5632283829        0.6844350168
Fe2           0.8078634944        0.6867924313        0.6825758979
Fe1           0.8143702881        0.8128848553        0.3146769367
Fe2           0.9388846574        0.9385928697        0.3171989169
Fe1           0.9373427469        0.8122085878        0.4366751854
Fe2           0.8125994445        0.9369337281        0.4370551583
Fe1           0.8108362106        0.8122429814        0.5632912826
Fe2           0.9358746286        0.9368145910        0.5680011921
Fe1           0.9341018901        0.8101751017        0.6853792008
Fe2           0.8094919150        0.9367724814        0.6846363174

     Writing output data file /scratch/bxp912/fepdslab4.save/
     NEW-OLD atomic charge density approx. for the potential

     Check: negative core charge=   -0.000004

     negative rho (up, down):  1.802E-03 1.865E-03
     Generating pointlists ...

     Writing output data file /scratch/bxp912/fepdslab4.save/

     General routines

     Parallel routines

   This run was terminated on:   3:45:42  12May2022

   JOB DONE.