     Program PWSCF v.6.7MaX starts on 22May2022 at  3:11:13

     R & G space division:  proc/nbgrp/npool/nimage =      72
     Reading input from fepdslab07.in
Warning: card &CELL ignored
Warning: card CELL_DYNAMICS = 'BFGS', ignored
Warning: card CELL_FACTOR = 2.0, ignored
Warning: card PRESS = 0.0, ignored
Warning: card / ignored

     Current dimensions of program PWSCF are:
     Max number of different atomic species (ntypx) = 10
     Max number of k-points (npk) =  40000
     Max angular momentum in pseudopotentials (lmaxx) =  3
     file Fe.pbe-spn-kjpaw_psl.1.0.0.UPF: wavefunction(s)  3P 3D renormalized
     file Fe.pbe-spn-kjpaw_psl.1.0.0.UPF: wavefunction(s)  3P 3D renormalized
     file Pd.pbe-spn-kjpaw_psl.1.0.0.UPF: wavefunction(s)  4S 5S 4D renormalized

     gamma-point specific algorithms are used

     Subspace diagonalization in iterative solution of the eigenvalue problem:
     one sub-group per band group will be used

     bravais-lattice index     =            0
     lattice parameter (alat)  =      25.8600  a.u.
     unit-cell volume          =   18186.5006 (a.u.)^3
     number of atoms/cell      =          129
     number of atomic types    =            3
     number of electrons       =      2066.00
     number of Kohn-Sham states=         1240
     kinetic-energy cutoff     =      71.0000  Ry
     charge density cutoff     =     430.0000  Ry
     scf convergence threshold =      1.0E-08
     mixing beta               =       0.3000
     number of iterations used =           10  local-TF  mixing
     Exchange-correlation= SLA  PW   PBX  PBC
                           (   1   4   3   4   0   0   0)

     celldm(1)=  25.860000  celldm(2)=   0.000000  celldm(3)=   0.000000
     celldm(4)=   0.000000  celldm(5)=   0.000000  celldm(6)=   0.000000

     crystal axes: (cart. coord. in units of alat)
               a(1) = (   1.000000   0.000000   0.000000 )
               a(2) = (   0.000000   1.051631   0.000000 )
               a(3) = (   0.000000   0.000000   1.000000 )

     reciprocal axes: (cart. coord. in units 2 pi/alat)
               b(1) = (  1.000000  0.000000  0.000000 )
               b(2) = (  0.000000  0.950903  0.000000 )
               b(3) = (  0.000000  0.000000  1.000000 )

     PseudoPot. # 1 for Fe read from file:
     /rds/homes/b/bxp912/pp/Fe.pbe-spn-kjpaw_psl.1.0.0.UPF
     MD5 check sum: 42f43b795421b414b0dc916aa790dbcb
     Pseudo is Projector augmented-wave + core cor, Zval = 16.0
     Generated using &quot;atomic&quot; code by A. Dal Corso  v.6.3
     Shape of augmentation charge: PSQ
     Using radial grid of 1191 points,  6 beta functions with:
                l(1) =   0
                l(2) =   0
                l(3) =   1
                l(4) =   1
                l(5) =   2
                l(6) =   2
     Q(r) pseudized with 0 coefficients

     PseudoPot. # 2 for Fe read from file:
     /rds/homes/b/bxp912/pp/Fe.pbe-spn-kjpaw_psl.1.0.0.UPF
     MD5 check sum: 42f43b795421b414b0dc916aa790dbcb
     Pseudo is Projector augmented-wave + core cor, Zval = 16.0
     Generated using &quot;atomic&quot; code by A. Dal Corso  v.6.3
     Shape of augmentation charge: PSQ
     Using radial grid of 1191 points,  6 beta functions with:
                l(1) =   0
                l(2) =   0
                l(3) =   1
                l(4) =   1
                l(5) =   2
                l(6) =   2
     Q(r) pseudized with 0 coefficients

     PseudoPot. # 3 for Pd read from file:
     /rds/homes/b/bxp912/pp/Pd.pbe-spn-kjpaw_psl.1.0.0.UPF
     MD5 check sum: 790f2ebce206edfd9790dcb9844eca51
     Pseudo is Projector augmented-wave + core cor, Zval = 18.0
     Generated using &quot;atomic&quot; code by A. Dal Corso  v.6.3
     Shape of augmentation charge: PSQ
     Using radial grid of 1235 points,  6 beta functions with:
                l(1) =   0
                l(2) =   0
                l(3) =   1
                l(4) =   1
                l(5) =   2
                l(6) =   2
     Q(r) pseudized with 0 coefficients

     atomic species   valence    mass     pseudopotential
        Fe1           16.00    55.84500     Fe( 1.00)
        Fe2           16.00    55.84500     Fe( 1.00)
        Pd            18.00   106.42000     Pd( 1.00)

     Starting magnetic structure
     atomic species   magnetization
        Fe1          0.100
        Fe2         -0.100
        Pd           0.001

     No symmetry found

   Cartesian axes

     site n.     atom                  positions (alat units)
         1           Pd  tau(   1) = (   0.1422206   0.1153140   0.1748980  )
         2           Fe1 tau(   2) = (   0.0587515   0.0653881   0.3211198  )
         3           Fe2 tau(   3) = (   0.1884265   0.2002713   0.3214448  )
         4           Fe1 tau(   4) = (   0.1868213   0.0655646   0.4421276  )
         5           Fe2 tau(   5) = (   0.0624952   0.1980629   0.4424469  )
         6           Fe1 tau(   6) = (   0.0623234   0.0655267   0.5697271  )
         7           Fe2 tau(   7) = (   0.1876610   0.1975943   0.5698145  )
         8           Fe1 tau(   8) = (   0.1882185   0.0650035   0.6879009  )
         9           Fe2 tau(   9) = (   0.0616632   0.1980291   0.6879420  )
        10           Fe1 tau(  10) = (   0.0653597   0.3265762   0.3172267  )
        11           Fe2 tau(  11) = (   0.1877413   0.4579090   0.3175394  )
        12           Fe1 tau(  12) = (   0.1881227   0.3296492   0.4412225  )
        13           Fe2 tau(  13) = (   0.0633903   0.4595175   0.4385688  )
        14           Fe1 tau(  14) = (   0.0628268   0.3296102   0.5678640  )
        15           Fe2 tau(  15) = (   0.1885537   0.4615096   0.5682187  )
        16           Fe1 tau(  16) = (   0.1887326   0.3305664   0.6874596  )
        17           Fe2 tau(  17) = (   0.0603308   0.4618776   0.6862421  )
        18           Fe1 tau(  18) = (   0.0648519   0.5907106   0.3145093  )
        19           Fe2 tau(  19) = (   0.1847510   0.7238107   0.3145456  )
        20           Fe1 tau(  20) = (   0.1863681   0.5909977   0.4371267  )
        21           Fe2 tau(  21) = (   0.0633682   0.7236125   0.4371464  )
        22           Fe1 tau(  22) = (   0.0615849   0.5918936   0.5662034  )
        23           Fe2 tau(  23) = (   0.1882586   0.7226899   0.5660552  )
        24           Fe1 tau(  24) = (   0.1887997   0.5925453   0.6861716  )
        25           Fe2 tau(  25) = (   0.0613274   0.7219977   0.6862125  )
        26           Fe1 tau(  26) = (   0.0618357   0.8560935   0.3172000  )
        27           Fe2 tau(  27) = (   0.1829530   0.9895025   0.3139428  )
        28           Fe1 tau(  28) = (   0.1862919   0.8555747   0.4379183  )
        29           Fe2 tau(  29) = (   0.0618572   0.9855343   0.4406165  )
        30           Fe1 tau(  30) = (   0.0613876   0.8531658   0.5679772  )
        31           Fe2 tau(  31) = (   0.1869233   0.9851356   0.5677120  )
        32           Fe1 tau(  32) = (   0.1896322   0.8527645   0.6860337  )
        33           Fe2 tau(  33) = (   0.0612834   0.9839846   0.6875207  )
        34           Fe1 tau(  34) = (   0.3076371   0.0696373   0.3122286  )
        35           Fe2 tau(  35) = (   0.4357117   0.1980603   0.3171939  )
        36           Fe1 tau(  36) = (   0.4341488   0.0657210   0.4341951  )
        37           Fe2 tau(  37) = (   0.3121648   0.1978698   0.4418603  )
        38           Fe1 tau(  38) = (   0.3124073   0.0653502   0.5666112  )
        39           Fe2 tau(  39) = (   0.4385533   0.1968925   0.5660486  )
        40           Fe1 tau(  40) = (   0.4380091   0.0657438   0.6859902  )
        41           Fe2 tau(  41) = (   0.3146724   0.1973275   0.6859048  )
        42           Fe1 tau(  42) = (   0.3112557   0.3275738   0.3170910  )
        43           Fe2 tau(  43) = (   0.4354886   0.4597974   0.3147106  )
        44           Fe1 tau(  44) = (   0.4374791   0.3293042   0.4369893  )
        45           Fe2 tau(  45) = (   0.3125364   0.4604356   0.4366549  )
        46           Fe1 tau(  46) = (   0.3141732   0.3293478   0.5679259  )
        47           Fe2 tau(  47) = (   0.4390386   0.4604040   0.5632767  )
        48           Fe1 tau(  48) = (   0.4403086   0.3292951   0.6845898  )
        49           Fe2 tau(  49) = (   0.3159177   0.4625217   0.6855273  )
        50           Fe1 tau(  50) = (   0.3083587   0.5903099   0.3147277  )
        51           Fe2 tau(  51) = (   0.4339295   0.7233087   0.3130231  )
        52           Fe1 tau(  52) = (   0.4358847   0.5924128   0.4322183  )
        53           Fe2 tau(  53) = (   0.3104159   0.7228918   0.4334436  )
        54           Fe1 tau(  54) = (   0.3142966   0.5918280   0.5641361  )
        55           Fe2 tau(  55) = (   0.4385180   0.7234213   0.5598951  )
        56           Fe1 tau(  56) = (   0.4419191   0.5923939   0.6824908  )
        57           Fe2 tau(  57) = (   0.3162141   0.7223454   0.6842751  )
        58           Fe1 tau(  58) = (   0.3074024   0.8548895   0.3147790  )
        59           Fe2 tau(  59) = (   0.4344514   0.9868630   0.3150403  )
        60           Fe1 tau(  60) = (   0.4356335   0.8547100   0.4315209  )
[...]
       115           Fe2 tau( 115) = (   0.9412610   0.7242602   0.3148148  )
       116           Fe1 tau( 116) = (   0.9393584   0.5917595   0.4337111  )
       117           Fe2 tau( 117) = (   0.8139347   0.7222047   0.4324709  )
       118           Fe1 tau( 118) = (   0.8112426   0.5912370   0.5601288  )
       119           Fe2 tau( 119) = (   0.9356265   0.7227141   0.5643328  )
       120           Fe1 tau( 120) = (   0.9336551   0.5923087   0.6844350  )
       121           Fe2 tau( 121) = (   0.8078635   0.7222525   0.6825759  )
       122           Fe1 tau( 122) = (   0.8143703   0.8548553   0.3146769  )
       123           Fe2 tau( 123) = (   0.9388847   0.9870538   0.3171989  )
       124           Fe1 tau( 124) = (   0.9373427   0.8541441   0.4366752  )
       125           Fe2 tau( 125) = (   0.8125994   0.9853090   0.4370552  )
       126           Fe1 tau( 126) = (   0.8108362   0.8541803   0.5632913  )
       127           Fe2 tau( 127) = (   0.9358746   0.9851837   0.5680012  )
       128           Fe1 tau( 128) = (   0.9341019   0.8520056   0.6853792  )
       129           Fe2 tau( 129) = (   0.8094919   0.9851394   0.6846363  )

     number of k points=     1  Marzari-Vanderbilt smearing, width (Ry)=  0.0400
                       cart. coord. in units 2pi/alat
        k(    1) = (   0.0000000   0.0000000   0.0000000), wk =   1.0000000

     Check: negative core charge=   -0.000004
     Generating pointlists ...
     new r_m :   0.0707 (alat units)  1.8289 (a.u.) for type    1
     new r_m :   0.0709 (alat units)  1.8345 (a.u.) for type    2
     new r_m :   0.0724 (alat units)  1.8730 (a.u.) for type    3

     Initial potential from superposition of free atoms

     starting charge 2065.94361, renormalised to 2066.00000

     negative rho (up, down):  1.764E-04 1.764E-04
     Starting wfcs are 1290 randomized atomic wfcs
     Checking if some PAW data can be deallocated...

     Self-consistent Calculation

[...]
   -46.2402 -46.2385 -46.2374 -46.2367 -46.2363 -46.2341 -46.2315 -46.2286
   -46.2255 -46.2250 -46.2241 -46.2207 -46.2160 -46.2157 -46.2136 -46.2099
   -46.2077 -46.2040 -46.1921 -46.1894 -46.1873 -46.1824 -46.1666 -46.1648
   -46.1560 -45.8617 -45.8486 -45.8056 -45.7828 -45.7794 -45.7657 -45.7618
   -45.7521 -45.7493 -45.7439 -45.7414 -45.7370 -45.7348 -45.7339 -45.7273
   -45.7264 -45.7250 -45.7241 -45.7208 -45.7180 -45.7164 -45.7044 -45.7029
   -45.7009 -45.6978 -45.6969 -45.6953 -45.6946 -45.6930 -45.6914 -45.6898
   -45.6868 -45.6855 -45.6823 -45.6813 -45.6739 -45.6728 -45.6705 -45.6635
   -45.6625 -45.6622 -45.6565 -45.6545 -45.6530 -45.6484 -45.6411 -45.6373
   -45.6265 -45.6189 -45.6077 -45.6067 -45.6053 -45.5969 -45.5937 -45.5875
   -45.5841 -45.5790 -45.5787 -45.5758 -45.5695 -45.5686 -45.5680 -45.5674
   -45.5602 -45.5521 -45.5519 -45.5489 -45.5440 -45.5320 -45.5306 -45.5296
   -45.5273 -45.5235 -45.5223 -45.5219 -45.5215 -45.5196 -45.5186 -45.5176
   -45.5073 -45.5060 -45.5052 -45.5028 -45.4998 -45.4968 -45.4883 -45.4763
   -45.4760 -45.4681 -45.4632 -45.4601 -45.4597 -45.4548 -45.4410 -45.4146
   -45.3939 -44.5100 -44.5060 -44.5057 -44.5045 -44.4962 -44.4928 -44.4901
   -44.4871 -44.4866 -44.4852 -44.4820 -44.4816 -44.4796 -44.4783 -44.4759
   -44.4722 -44.4708 -44.4687 -44.4654 -44.4633 -44.4602 -44.4585 -44.4576
   -44.4568 -44.4550 -44.4547 -44.4520 -44.4514 -44.4484 -44.4476 -44.4446
   -44.4444 -44.4431 -44.4404 -44.4396 -44.4340 -44.4276 -44.4268 -44.4251
   -44.4246 -44.4213 -44.4193 -44.4183 -44.4158 -44.4105 -44.4104 -44.4099
   -44.4025 -44.3987 -44.3913 -44.3885 -44.3859 -44.3787 -44.3664 -44.3536
   -44.3533 -44.3505 -44.3479 -44.3414 -44.3384 -44.3308 -44.3297 -44.3268
   -44.3260 -44.3254 -44.3247 -44.3238 -44.3216 -44.3159 -44.3111 -44.3091
   -44.3056 -44.3033 -44.3025 -44.3005 -44.2980 -44.2956 -44.2919 -44.2912
   -44.2887 -44.2878 -44.2866 -44.2836 -44.2809 -44.2803 -44.2793 -44.2778
   -44.2772 -44.2748 -44.2744 -44.2617 -44.2616 -44.2597 -44.2574 -44.2466
   -44.2436 -44.0374 -43.9242 -43.8867 -43.8856 -43.8722 -43.8679 -43.8625
   -43.8526 -43.8506 -43.8500 -43.8485 -43.8453 -43.8421 -43.8416 -43.8395
   -43.8388 -43.8352 -43.8333 -43.8324 -43.8321 -43.8312 -43.8244 -43.8216
   -43.8212 -43.8201 -43.8134 -43.8125 -43.8087 -43.8071 -43.8059 -43.8047
   -43.7974 -43.7971 -43.7945 -43.7943 -43.7914 -43.7866 -43.7853 -43.7749
   -43.7727 -43.7663 -43.7644 -43.7616 -43.7611 -43.7598 -43.7590 -43.7565
   -43.7556 -43.7536 -43.7534 -43.7524 -43.7494 -43.7471 -43.7455 -43.7446
   -43.7439 -43.7422 -43.7421 -43.7386 -43.7361 -43.7358 -43.7319 -43.7294
[...]
     8.9280   8.9329   8.9347   8.9389   8.9580   8.9751   8.9762   8.9794
     8.9821   8.9842   8.9876   8.9942   9.0051   9.0144   9.0181   9.0189
     9.0241   9.0556   9.0570   9.0591   9.0637   9.0657   9.0702   9.0722
     9.0747   9.0756   9.0774   9.0788   9.0864   9.1234   9.1302   9.1508
     9.1589   9.1623   9.1754   9.1765   9.1785   9.1794   9.1815   9.1848
     9.1869   9.1943   9.1962   9.1998   9.2034   9.2169   9.2283   9.2351
     9.2508   9.2525   9.2576   9.2582   9.2638   9.2684   9.2699   9.2709
     9.2747   9.2811   9.2846   9.2867   9.2897   9.3042   9.3106   9.3249
     9.3313   9.3392   9.3572   9.3662   9.3714   9.3779   9.3888   9.3927
     9.4011   9.4037   9.4057   9.4075   9.4100   9.4146   9.4212   9.4241
     9.4264   9.4307   9.4443   9.4531   9.4579   9.4780   9.4897   9.5078
     9.5283   9.5424   9.5617   9.5834   9.5941   9.6040   9.6307   9.6349
     9.6425   9.7446   9.7616   9.8942   9.9878  10.0619  10.3077  10.3114
    10.4232  10.4467  10.4847  10.5181  10.5242  10.5472  10.5508  10.5629
    10.5781  10.6399  10.6422  10.6515  10.7158  10.7435  10.7491  10.7573

 ------ SPIN DOWN ----------

          k = 0.0000 0.0000 0.0000 ( 91909 PWs)   bands (ev):

   -80.3085 -80.3062 -80.3040 -80.2950 -80.2897 -80.2880 -80.2808 -80.2782
   -80.2767 -80.2760 -80.2755 -80.2670 -80.2639 -80.2626 -80.2578 -80.2484
   -80.2475 -80.2462 -80.2458 -80.2439 -80.2372 -80.2347 -80.2333 -80.2299
   -80.2255 -80.2158 -80.2152 -80.2143 -80.2061 -80.1815 -80.1790 -80.1719
   -79.7262 -79.6819 -79.6602 -79.6560 -79.6536 -79.6514 -79.6396 -79.6324
   -79.6236 -79.6211 -79.6076 -79.5998 -79.5871 -79.5789 -79.5684 -79.5674
   -79.5537 -79.5523 -79.5387 -79.5304 -79.5276 -79.5216 -79.5169 -79.5125
   -79.4995 -79.4950 -79.4683 -79.4668 -79.4542 -79.4476 -79.4355 -79.4295
   -78.4324 -78.3889 -78.3724 -78.3704 -78.3651 -78.3598 -78.3544 -78.3442
   -78.3256 -78.3198 -78.3139 -78.3079 -78.3077 -78.3050 -78.3031 -78.2937
   -78.2923 -78.2822 -78.2788 -78.2726 -78.2628 -78.2610 -78.2471 -78.2450
   -78.2435 -78.2412 -78.2352 -78.2289 -78.2132 -78.2058 -78.1996 -78.1420
   -77.8656 -77.7118 -77.7079 -77.6964 -77.6950 -77.6896 -77.6839 -77.6828
   -77.6759 -77.6754 -77.6735 -77.6729 -77.6681 -77.6672 -77.6671 -77.6658
   -77.6647 -77.6591 -77.6583 -77.6571 -77.6571 -77.6545 -77.6540 -77.6530
   -77.6511 -77.6484 -77.6472 -77.6451 -77.6451 -77.6363 -77.6361 -77.6340
   -75.4905 -46.4635 -46.4608 -46.4544 -46.4525 -46.4467 -46.4414 -46.4413
   -46.4382 -46.4381 -46.4319 -46.4269 -46.4230 -46.4213 -46.4194 -46.4132
   -46.4102 -46.4069 -46.4042 -46.4015 -46.4012 -46.3998 -46.3949 -46.3925
   -46.3912 -46.3880 -46.3857 -46.3729 -46.3718 -46.3700 -46.3668 -46.3650
   -46.3639 -46.3576 -46.3539 -46.3511 -46.3440 -46.3439 -46.3422 -46.3422
   -46.3395 -46.3384 -46.3325 -46.3325 -46.3271 -46.3262 -46.3238 -46.3238
   -46.3168 -46.3142 -46.3108 -46.3064 -46.3039 -46.3006 -46.2994 -46.2979
   -46.2979 -46.2862 -46.2838 -46.2814 -46.2777 -46.2774 -46.2750 -46.2710
   -46.2660 -46.2635 -46.2608 -46.2581 -46.2552 -46.2548 -46.2486 -46.2484
   -46.2461 -46.2422 -46.2421 -46.2409 -46.2398 -46.2392 -46.2390 -46.2307
   -46.2249 -46.2230 -46.2226 -46.2220 -46.2189 -46.2135 -46.2117 -46.2097
   -46.2057 -46.2026 -46.1979 -46.1971 -46.1945 -46.1863 -46.1686 -46.1664
   -46.1578 -45.8136 -45.8036 -45.7743 -45.7726 -45.7661 -45.7651 -45.7615
   -45.7581 -45.7528 -45.7507 -45.7398 -45.7347 -45.7308 -45.7302 -45.7257
   -45.7247 -45.7242 -45.7239 -45.7235 -45.7218 -45.7207 -45.7193 -45.7181
   -45.7155 -45.7132 -45.7065 -45.7019 -45.6994 -45.6973 -45.6945 -45.6913
   -45.6904 -45.6881 -45.6872 -45.6845 -45.6829 -45.6734 -45.6670 -45.6653
   -45.6636 -45.6611 -45.6553 -45.6528 -45.6511 -45.6455 -45.6443 -45.6323
   -45.6297 -45.6170 -45.6134 -45.6012 -45.5990 -45.5932 -45.5914 -45.5893
   -45.5806 -45.5801 -45.5759 -45.5746 -45.5728 -45.5687 -45.5666 -45.5606
   -45.5586 -45.5539 -45.5508 -45.5495 -45.5486 -45.5433 -45.5316 -45.5289
   -45.5280 -45.5273 -45.5238 -45.5236 -45.5233 -45.5207 -45.5204 -45.5173
   -45.5160 -45.5114 -45.5093 -45.5080 -45.5069 -45.5007 -45.4974 -45.4865
   -45.4858 -45.4849 -45.4770 -45.4749 -45.4737 -45.4614 -45.4585 -45.4478
   -45.4424 -44.5520 -44.5391 -44.5117 -44.5110 -44.5101 -44.4980 -44.4944
   -44.4934 -44.4916 -44.4884 -44.4874 -44.4870 -44.4863 -44.4811 -44.4753
   -44.4737 -44.4728 -44.4721 -44.4693 -44.4644 -44.4639 -44.4608 -44.4606
   -44.4593 -44.4582 -44.4571 -44.4553 -44.4499 -44.4474 -44.4460 -44.4411
   -44.4378 -44.4367 -44.4339 -44.4310 -44.4291 -44.4271 -44.4263 -44.4256
   -44.4247 -44.4242 -44.4224 -44.4183 -44.4165 -44.4133 -44.4112 -44.4095
   -44.4031 -44.3964 -44.3948 -44.3924 -44.3826 -44.3789 -44.3784 -44.3574
   -44.3547 -44.3543 -44.3521 -44.3467 -44.3455 -44.3392 -44.3310 -44.3284
   -44.3266 -44.3237 -44.3215 -44.3207 -44.3193 -44.3149 -44.3135 -44.3101
   -44.3098 -44.3078 -44.3073 -44.3033 -44.3001 -44.2931 -44.2927 -44.2925
   -44.2901 -44.2844 -44.2830 -44.2817 -44.2810 -44.2802 -44.2755 -44.2747
   -44.2736 -44.2717 -44.2681 -44.2603 -44.2558 -44.2493 -44.2454 -44.2180
   -44.2011 -44.0198 -43.9598 -43.8926 -43.8868 -43.8716 -43.8679 -43.8639
   -43.8601 -43.8554 -43.8544 -43.8458 -43.8454 -43.8453 -43.8404 -43.8377
   -43.8356 -43.8353 -43.8308 -43.8302 -43.8261 -43.8243 -43.8218 -43.8195
   -43.8193 -43.8151 -43.8142 -43.8114 -43.8108 -43.8085 -43.8078 -43.8065
   -43.7956 -43.7947 -43.7945 -43.7941 -43.7936 -43.7855 -43.7768 -43.7766
   -43.7737 -43.7735 -43.7684 -43.7626 -43.7597 -43.7573 -43.7569 -43.7567
   -43.7552 -43.7535 -43.7532 -43.7522 -43.7506 -43.7472 -43.7463 -43.7457
   -43.7446 -43.7429 -43.7417 -43.7382 -43.7368 -43.7366 -43.7352 -43.7269
[...]
     8.9271   8.9323   8.9342   8.9402   8.9560   8.9736   8.9760   8.9767
     8.9800   8.9847   8.9852   8.9939   9.0094   9.0114   9.0157   9.0185
     9.0215   9.0520   9.0564   9.0603   9.0630   9.0672   9.0682   9.0713
     9.0746   9.0753   9.0759   9.0774   9.0867   9.1229   9.1297   9.1515
     9.1570   9.1621   9.1734   9.1753   9.1773   9.1792   9.1808   9.1849
     9.1875   9.1880   9.1964   9.1993   9.2027   9.2158   9.2249   9.2326
     9.2462   9.2547   9.2568   9.2578   9.2627   9.2671   9.2694   9.2709
     9.2745   9.2816   9.2826   9.2862   9.2882   9.3042   9.3094   9.3250
     9.3286   9.3387   9.3554   9.3652   9.3715   9.3764   9.3841   9.3942
     9.3984   9.4021   9.4052   9.4071   9.4105   9.4147   9.4207   9.4215
     9.4246   9.4303   9.4454   9.4579   9.4590   9.4766   9.4916   9.5076
     9.5251   9.5401   9.5625   9.5857   9.5894   9.6083   9.6313   9.6346
     9.6417   9.7471   9.7558   9.8887   9.9910  10.0767  10.3080  10.3140
    10.4290  10.4468  10.4797  10.5169  10.5208  10.5343  10.5557  10.5571
    10.5903  10.6289  10.6428  10.6606  10.7051  10.7440  10.7517  10.7847

     the Fermi energy is     8.1864 ev

!    total energy              =  -42651.90791345 Ry

     total all-electron energy =   -335917.890823 Ry
     estimated scf accuracy    <          8.5E-09 Ry
     smearing contrib. (-TS)   =       0.00976060 Ry
     internal energy E=F+TS    =  -42651.91767404 Ry

     The total energy is F=E-TS. E is the sum of the following terms:
     one-electron contribution =  -98076.93849151 Ry
     hartree contribution      =   49553.07074115 Ry
     xc contribution           =   -3575.63824289 Ry
     ewald contribution        =   20300.39870188 Ry
     one-center paw contrib.   =  -10852.81038268 Ry

     total magnetization       =    -0.06 Bohr mag/cell
     absolute magnetization    =   229.51 Bohr mag/cell

     convergence has been achieved in  66 iterations

     negative rho (up, down):  1.710E-03 1.866E-03

     Forces acting on atoms (cartesian axes, Ry/au):

     atom    1 type  3   force =     0.01426224   -0.01460420    0.00946776
     atom    2 type  1   force =     0.00092144    0.00040879   -0.00135630
     atom    3 type  2   force =    -0.00219160    0.00109722   -0.00060297
     atom    4 type  1   force =     0.00002147    0.00334136   -0.00213222
     atom    5 type  2   force =    -0.00029583   -0.00256959   -0.00126897
     atom    6 type  1   force =     0.00131050   -0.00115485    0.00005550
     atom    7 type  2   force =    -0.00122203    0.00111480   -0.00013417
     atom    8 type  1   force =     0.00205404   -0.00021386    0.00114966
     atom    9 type  2   force =    -0.00195978    0.00036435    0.00113139
     atom   10 type  1   force =    -0.00366358    0.00219514   -0.00281413
     atom   11 type  2   force =    -0.00379873    0.00092657   -0.00213585
     atom   12 type  1   force =     0.00000299   -0.00242996   -0.00167035
     atom   13 type  2   force =     0.00036064   -0.00037859   -0.00136633
     atom   14 type  1   force =    -0.00237678    0.00106096    0.00382905
     atom   15 type  2   force =    -0.00225644    0.00014872   -0.00044445
     atom   16 type  1   force =     0.00011077    0.00021052    0.00061648
     atom   17 type  2   force =     0.00062647   -0.00066359   -0.00033918
     atom   18 type  1   force =    -0.00013707   -0.00005971    0.00007066
     atom   19 type  2   force =     0.00005857    0.00000644   -0.00001200
     atom   20 type  1   force =     0.00264126    0.00186747    0.00272395
     atom   21 type  2   force =    -0.00265806   -0.00186488    0.00278856
     atom   22 type  1   force =     0.00119510   -0.00008884    0.00117496
     atom   23 type  2   force =    -0.00105272    0.00042563    0.00093077
     atom   24 type  1   force =    -0.00008973   -0.00079817   -0.00204314
     atom   25 type  2   force =    -0.00000982    0.00110730   -0.00207347
     atom   26 type  1   force =     0.00362083   -0.00095276   -0.00208485
     atom   27 type  2   force =     0.00254469   -0.00003613   -0.00674661
     atom   28 type  1   force =    -0.00100907    0.00082467   -0.00176827
     atom   29 type  2   force =     0.00024784    0.00204400   -0.00185085
     atom   30 type  1   force =     0.00243688    0.00029366   -0.00085642
     atom   31 type  2   force =     0.00233520   -0.00084228    0.00337230
     atom   32 type  1   force =    -0.00064509    0.00082115   -0.00034732
     atom   33 type  2   force =    -0.00009407   -0.00017423    0.00041294
     atom   34 type  1   force =    -0.00017035   -0.00248225   -0.00671663
     atom   35 type  2   force =    -0.00165513   -0.00386878   -0.00036506
     atom   36 type  1   force =     0.00168691    0.00154650   -0.00209614
     atom   37 type  2   force =    -0.00068972   -0.00096198   -0.00689628
     atom   38 type  1   force =     0.00011050   -0.00080865    0.00246041
     atom   39 type  2   force =     0.00112022    0.00041801   -0.00165812
     atom   40 type  1   force =     0.00424056   -0.00081600    0.00022220
     atom   41 type  2   force =     0.00003195    0.00154195    0.00582860
     atom   42 type  1   force =    -0.00169788    0.00048885    0.00176969
     atom   43 type  2   force =    -0.00035267   -0.00104306   -0.00225505
     atom   44 type  1   force =    -0.00092906   -0.00293716   -0.00383808
     atom   45 type  2   force =    -0.00088039   -0.00240005    0.00218600
     atom   46 type  1   force =    -0.00396456    0.00196457   -0.00177362
     atom   47 type  2   force =    -0.00035126    0.00119393    0.00029503
     atom   48 type  1   force =     0.00072983    0.00191305    0.00492706
     atom   49 type  2   force =     0.00118221   -0.00184325    0.00169441
     atom   50 type  1   force =     0.00103936    0.00265471   -0.00259632
     atom   51 type  2   force =     0.00017827    0.00183501   -0.00333459
     atom   52 type  1   force =     0.00246943   -0.00278210   -0.00045607
     atom   53 type  2   force =     0.00140865    0.00151602    0.00379179
     atom   54 type  1   force =    -0.00354075    0.00172261    0.00118443
     atom   55 type  2   force =    -0.00240447   -0.00092182    0.00290390
     atom   56 type  1   force =    -0.00074940    0.00000997   -0.00014832
     atom   57 type  2   force =    -0.00008136    0.00015506   -0.00072451
     atom   58 type  1   force =     0.00135988    0.00360381   -0.00150968
     atom   59 type  2   force =    -0.00178031    0.00189326   -0.00065139
     atom   60 type  1   force =     0.00225189    0.00148954    0.00029373
[...]
     atom  115 type  2   force =    -0.00114816   -0.00279683   -0.00250763
     atom  116 type  1   force =    -0.00153727   -0.00116023    0.00411311
     atom  117 type  2   force =    -0.00256022    0.00302597   -0.00065214
     atom  118 type  1   force =     0.00231378    0.00098427    0.00310807
     atom  119 type  2   force =     0.00346389   -0.00139707    0.00126853
     atom  120 type  1   force =    -0.00000872    0.00007285   -0.00068142
     atom  121 type  2   force =     0.00071751    0.00013992   -0.00010037
     atom  122 type  1   force =     0.00051618    0.00143068   -0.00225054
     atom  123 type  2   force =     0.00161911   -0.00083741    0.00147685
     atom  124 type  1   force =     0.00115508    0.00230220    0.00206931
     atom  125 type  2   force =     0.00056937    0.00293327   -0.00380113
     atom  126 type  1   force =     0.00029780   -0.00102797    0.00035640
     atom  127 type  2   force =     0.00392279   -0.00187628   -0.00162228
     atom  128 type  1   force =    -0.00099706    0.00205577    0.00161122
     atom  129 type  2   force =    -0.00077847   -0.00195064    0.00489325

     Total force =     0.044904     Total SCF correction =     0.000394

     Computing stress (Cartesian axis) and pressure

     negative rho (up, down):  1.710E-03 1.866E-03
          total   stress  (Ry/bohr**3)                   (kbar)     P=      -19.48
  -0.00014715   0.00000414  -0.00000605          -21.65        0.61       -0.89
   0.00000414  -0.00009866   0.00000526            0.61      -14.51        0.77
  -0.00000605   0.00000526  -0.00015156           -0.89        0.77      -22.30

     Writing output data file /scratch/bxp912/fepdslab07.save/

     General routines

     Parallel routines

   This run was terminated on:   3:38:27  22May2022

   JOB DONE.