     Program PWSCF v.6.7MaX starts on 22May2022 at  9:40:58

     R & G space division:  proc/nbgrp/npool/nimage =      72
     Reading input from fepdslabrelax.in
Warning: card &CELL ignored
Warning: card CELL_DYNAMICS = 'BFGS', ignored
Warning: card CELL_FACTOR = 2.0, ignored
Warning: card PRESS = 0.0, ignored
Warning: card / ignored

     Current dimensions of program PWSCF are:
     Max number of different atomic species (ntypx) = 10
     Max number of k-points (npk) =  40000
     Max angular momentum in pseudopotentials (lmaxx) =  3
     file Fe.pbe-spn-kjpaw_psl.1.0.0.UPF: wavefunction(s)  3P 3D renormalized
     file Fe.pbe-spn-kjpaw_psl.1.0.0.UPF: wavefunction(s)  3P 3D renormalized
     file Pd.pbe-spn-kjpaw_psl.1.0.0.UPF: wavefunction(s)  4S 5S 4D renormalized

     gamma-point specific algorithms are used

     Subspace diagonalization in iterative solution of the eigenvalue problem:
     one sub-group per band group will be used

     bravais-lattice index     =            0
     lattice parameter (alat)  =      25.8600  a.u.
     unit-cell volume          =   18186.5006 (a.u.)^3
     number of atoms/cell      =          129
     number of atomic types    =            3
     number of electrons       =      2066.00
     number of Kohn-Sham states=         1240
     kinetic-energy cutoff     =      71.0000  Ry
     charge density cutoff     =     430.0000  Ry
     scf convergence threshold =      1.0E-07
     mixing beta               =       0.3000
     number of iterations used =           10  local-TF  mixing
     energy convergence thresh.=      1.0E-05
     force convergence thresh. =      1.0E-04
     Exchange-correlation= SLA  PW   PBX  PBC
                           (   1   4   3   4   0   0   0)
     nstep                     =           40

     celldm(1)=  25.860000  celldm(2)=   0.000000  celldm(3)=   0.000000
     celldm(4)=   0.000000  celldm(5)=   0.000000  celldm(6)=   0.000000

     crystal axes: (cart. coord. in units of alat)
               a(1) = (   1.000000   0.000000   0.000000 )
               a(2) = (   0.000000   1.051631   0.000000 )
               a(3) = (   0.000000   0.000000   1.000000 )

     reciprocal axes: (cart. coord. in units 2 pi/alat)
               b(1) = (  1.000000  0.000000  0.000000 )
               b(2) = (  0.000000  0.950903  0.000000 )
               b(3) = (  0.000000  0.000000  1.000000 )

     PseudoPot. # 1 for Fe read from file:
     /rds/homes/b/bxp912/pp/Fe.pbe-spn-kjpaw_psl.1.0.0.UPF
     MD5 check sum: 42f43b795421b414b0dc916aa790dbcb
     Pseudo is Projector augmented-wave + core cor, Zval = 16.0
     Generated using &quot;atomic&quot; code by A. Dal Corso  v.6.3
     Shape of augmentation charge: PSQ
     Using radial grid of 1191 points,  6 beta functions with:
                l(1) =   0
                l(2) =   0
                l(3) =   1
                l(4) =   1
                l(5) =   2
                l(6) =   2
     Q(r) pseudized with 0 coefficients

     PseudoPot. # 2 for Fe read from file:
     /rds/homes/b/bxp912/pp/Fe.pbe-spn-kjpaw_psl.1.0.0.UPF
     MD5 check sum: 42f43b795421b414b0dc916aa790dbcb
     Pseudo is Projector augmented-wave + core cor, Zval = 16.0
     Generated using &quot;atomic&quot; code by A. Dal Corso  v.6.3
     Shape of augmentation charge: PSQ
     Using radial grid of 1191 points,  6 beta functions with:
                l(1) =   0
                l(2) =   0
                l(3) =   1
                l(4) =   1
                l(5) =   2
                l(6) =   2
     Q(r) pseudized with 0 coefficients

     PseudoPot. # 3 for Pd read from file:
     /rds/homes/b/bxp912/pp/Pd.pbe-spn-kjpaw_psl.1.0.0.UPF
     MD5 check sum: 790f2ebce206edfd9790dcb9844eca51
     Pseudo is Projector augmented-wave + core cor, Zval = 18.0
     Generated using &quot;atomic&quot; code by A. Dal Corso  v.6.3
     Shape of augmentation charge: PSQ
     Using radial grid of 1235 points,  6 beta functions with:
                l(1) =   0
                l(2) =   0
                l(3) =   1
                l(4) =   1
                l(5) =   2
                l(6) =   2
     Q(r) pseudized with 0 coefficients

     atomic species   valence    mass     pseudopotential
        Fe1           16.00    55.84500     Fe( 1.00)
        Fe2           16.00    55.84500     Fe( 1.00)
        Pd            18.00   106.42000     Pd( 1.00)

     Starting magnetic structure
     atomic species   magnetization
        Fe1          0.100
        Fe2         -0.100
        Pd           0.001

     No symmetry found

   Cartesian axes

     site n.     atom                  positions (alat units)
         1           Pd  tau(   1) = (   0.1425366   0.1152741   0.1753095  )
         2           Fe1 tau(   2) = (   0.0587515   0.0653881   0.3211198  )
         3           Fe2 tau(   3) = (   0.1884265   0.2002713   0.3214448  )
         4           Fe1 tau(   4) = (   0.1868213   0.0655646   0.4421276  )
         5           Fe2 tau(   5) = (   0.0624952   0.1980629   0.4424469  )
         6           Fe1 tau(   6) = (   0.0623234   0.0655267   0.5697271  )
         7           Fe2 tau(   7) = (   0.1876610   0.1975943   0.5698145  )
         8           Fe1 tau(   8) = (   0.1882185   0.0650035   0.6879009  )
         9           Fe2 tau(   9) = (   0.0616632   0.1980291   0.6879420  )
        10           Fe1 tau(  10) = (   0.0653597   0.3265762   0.3172267  )
        11           Fe2 tau(  11) = (   0.1877413   0.4579090   0.3175394  )
        12           Fe1 tau(  12) = (   0.1881227   0.3296492   0.4412225  )
        13           Fe2 tau(  13) = (   0.0633903   0.4595175   0.4385688  )
        14           Fe1 tau(  14) = (   0.0628268   0.3296102   0.5678640  )
        15           Fe2 tau(  15) = (   0.1885537   0.4615096   0.5682187  )
        16           Fe1 tau(  16) = (   0.1887326   0.3305664   0.6874596  )
        17           Fe2 tau(  17) = (   0.0603308   0.4618776   0.6862421  )
        18           Fe1 tau(  18) = (   0.0648519   0.5907106   0.3145093  )
        19           Fe2 tau(  19) = (   0.1847510   0.7238107   0.3145456  )
        20           Fe1 tau(  20) = (   0.1863681   0.5909977   0.4371267  )
        21           Fe2 tau(  21) = (   0.0633682   0.7236125   0.4371464  )
        22           Fe1 tau(  22) = (   0.0615849   0.5918936   0.5662034  )
        23           Fe2 tau(  23) = (   0.1882586   0.7226899   0.5660552  )
        24           Fe1 tau(  24) = (   0.1887997   0.5925453   0.6861716  )
        25           Fe2 tau(  25) = (   0.0613274   0.7219977   0.6862125  )
        26           Fe1 tau(  26) = (   0.0618357   0.8560935   0.3172000  )
        27           Fe2 tau(  27) = (   0.1829530   0.9895025   0.3139428  )
        28           Fe1 tau(  28) = (   0.1862919   0.8555747   0.4379183  )
        29           Fe2 tau(  29) = (   0.0618572   0.9855343   0.4406165  )
        30           Fe1 tau(  30) = (   0.0613876   0.8531658   0.5679772  )
        31           Fe2 tau(  31) = (   0.1869233   0.9851356   0.5677120  )
        32           Fe1 tau(  32) = (   0.1896322   0.8527645   0.6860337  )
        33           Fe2 tau(  33) = (   0.0612834   0.9839846   0.6875207  )
        34           Fe1 tau(  34) = (   0.3076371   0.0696373   0.3122286  )
        35           Fe2 tau(  35) = (   0.4357117   0.1980603   0.3171939  )
        36           Fe1 tau(  36) = (   0.4341488   0.0657210   0.4341951  )
        37           Fe2 tau(  37) = (   0.3121648   0.1978698   0.4418603  )
        38           Fe1 tau(  38) = (   0.3124073   0.0653502   0.5666112  )
        39           Fe2 tau(  39) = (   0.4385533   0.1968925   0.5660486  )
        40           Fe1 tau(  40) = (   0.4380091   0.0657438   0.6859902  )
        41           Fe2 tau(  41) = (   0.3146724   0.1973275   0.6859048  )
        42           Fe1 tau(  42) = (   0.3112557   0.3275738   0.3170910  )
        43           Fe2 tau(  43) = (   0.4354886   0.4597974   0.3147106  )
        44           Fe1 tau(  44) = (   0.4374791   0.3293042   0.4369893  )
        45           Fe2 tau(  45) = (   0.3125364   0.4604356   0.4366549  )
        46           Fe1 tau(  46) = (   0.3141732   0.3293478   0.5679259  )
        47           Fe2 tau(  47) = (   0.4390386   0.4604040   0.5632767  )
        48           Fe1 tau(  48) = (   0.4403086   0.3292951   0.6845898  )
        49           Fe2 tau(  49) = (   0.3159177   0.4625217   0.6855273  )
        50           Fe1 tau(  50) = (   0.3083587   0.5903099   0.3147277  )
        51           Fe2 tau(  51) = (   0.4339295   0.7233087   0.3130231  )
        52           Fe1 tau(  52) = (   0.4358847   0.5924128   0.4322183  )
        53           Fe2 tau(  53) = (   0.3104159   0.7228918   0.4334436  )
        54           Fe1 tau(  54) = (   0.3142966   0.5918280   0.5641361  )
        55           Fe2 tau(  55) = (   0.4385180   0.7234213   0.5598951  )
        56           Fe1 tau(  56) = (   0.4419191   0.5923939   0.6824908  )
        57           Fe2 tau(  57) = (   0.3162141   0.7223454   0.6842751  )
        58           Fe1 tau(  58) = (   0.3074024   0.8548895   0.3147790  )
        59           Fe2 tau(  59) = (   0.4344514   0.9868630   0.3150403  )
        60           Fe1 tau(  60) = (   0.4356335   0.8547100   0.4315209  )
[...]
       115           Fe2 tau( 115) = (   0.9412610   0.7242602   0.3148148  )
       116           Fe1 tau( 116) = (   0.9393584   0.5917595   0.4337111  )
       117           Fe2 tau( 117) = (   0.8139347   0.7222047   0.4324709  )
       118           Fe1 tau( 118) = (   0.8112426   0.5912370   0.5601288  )
       119           Fe2 tau( 119) = (   0.9356265   0.7227141   0.5643328  )
       120           Fe1 tau( 120) = (   0.9336551   0.5923087   0.6844350  )
       121           Fe2 tau( 121) = (   0.8078635   0.7222525   0.6825759  )
       122           Fe1 tau( 122) = (   0.8143703   0.8548553   0.3146769  )
       123           Fe2 tau( 123) = (   0.9388847   0.9870538   0.3171989  )
       124           Fe1 tau( 124) = (   0.9373427   0.8541441   0.4366752  )
       125           Fe2 tau( 125) = (   0.8125994   0.9853090   0.4370552  )
       126           Fe1 tau( 126) = (   0.8108362   0.8541803   0.5632913  )
       127           Fe2 tau( 127) = (   0.9358746   0.9851837   0.5680012  )
       128           Fe1 tau( 128) = (   0.9341019   0.8520056   0.6853792  )
       129           Fe2 tau( 129) = (   0.8094919   0.9851394   0.6846363  )

     number of k points=     1  Marzari-Vanderbilt smearing, width (Ry)=  0.0400
                       cart. coord. in units 2pi/alat
        k(    1) = (   0.0000000   0.0000000   0.0000000), wk =   1.0000000

     Check: negative core charge=   -0.000004
     Generating pointlists ...
     new r_m :   0.0707 (alat units)  1.8289 (a.u.) for type    1
     new r_m :   0.0709 (alat units)  1.8345 (a.u.) for type    2
     new r_m :   0.0723 (alat units)  1.8686 (a.u.) for type    3

     Initial potential from superposition of free atoms

     starting charge 2065.94361, renormalised to 2066.00000

     negative rho (up, down):  1.765E-04 1.765E-04
[...]
   -46.2245 -46.2228 -46.2223 -46.2216 -46.2212 -46.2208 -46.2188 -46.1955
   -46.1945 -46.1930 -46.1904 -46.1899 -46.1893 -46.1870 -46.1849 -46.1830
   -46.1820 -45.7848 -45.7827 -45.7705 -45.7670 -45.7575 -45.7563 -45.7398
   -45.7392 -45.7377 -45.7366 -45.7334 -45.7299 -45.7270 -45.7252 -45.7239
   -45.7226 -45.7213 -45.7206 -45.7177 -45.7167 -45.7068 -45.7055 -45.7022
   -45.7014 -45.7004 -45.6989 -45.6963 -45.6955 -45.6891 -45.6866 -45.6864
   -45.6839 -45.6797 -45.6759 -45.6726 -45.6715 -45.6709 -45.6705 -45.6686
   -45.6683 -45.6665 -45.6642 -45.6637 -45.6596 -45.6527 -45.6478 -45.6471
   -45.6393 -45.6383 -45.6316 -45.6311 -45.6232 -45.5945 -45.5925 -45.5905
   -45.5897 -45.5878 -45.5855 -45.5833 -45.5808 -45.5754 -45.5739 -45.5734
   -45.5718 -45.5656 -45.5630 -45.5578 -45.5572 -45.5567 -45.5557 -45.5506
   -45.5505 -45.5490 -45.5431 -45.5386 -45.5378 -45.5375 -45.5371 -45.5365
   -45.5337 -45.5222 -45.5187 -45.5184 -45.5163 -45.5155 -45.5151 -45.5021
   -45.5015 -45.4979 -45.4977 -45.4959 -45.4940 -45.4928 -45.4912 -45.4583
   -45.4511 -44.4853 -44.4799 -44.4775 -44.4732 -44.4722 -44.4712 -44.4660
   -44.4654 -44.4634 -44.4620 -44.4592 -44.4586 -44.4579 -44.4573 -44.4546
   -44.4540 -44.4527 -44.4522 -44.4501 -44.4490 -44.4481 -44.4460 -44.4452
   -44.4439 -44.4398 -44.4393 -44.4377 -44.4369 -44.4344 -44.4340 -44.4321
   -44.4311 -44.4298 -44.4285 -44.4261 -44.4251 -44.4225 -44.4215 -44.4191
   -44.4137 -44.4131 -44.4125 -44.4098 -44.4082 -44.4039 -44.4023 -44.3928
   -44.3910 -44.3887 -44.3868 -44.3856 -44.3831 -44.3803 -44.3785 -44.3651
   -44.3614 -44.3570 -44.3495 -44.3490 -44.3478 -44.3375 -44.3273 -44.3214
   -44.3161 -44.3142 -44.3127 -44.3110 -44.3097 -44.3070 -44.3045 -44.3037
   -44.3027 -44.3017 -44.2943 -44.2932 -44.2926 -44.2921 -44.2912 -44.2857
   -44.2853 -44.2845 -44.2833 -44.2818 -44.2797 -44.2772 -44.2747 -44.2731
   -44.2718 -44.2696 -44.2671 -44.2663 -44.2620 -44.2511 -44.1800 -44.1502
   -44.1488 -43.8922 -43.8769 -43.8751 -43.8666 -43.8664 -43.8523 -43.8510
   -43.8505 -43.8502 -43.8493 -43.8486 -43.8481 -43.8475 -43.8468 -43.8451
   -43.8438 -43.8406 -43.8277 -43.8268 -43.8252 -43.8199 -43.8196 -43.8194
   -43.8182 -43.8177 -43.8160 -43.8138 -43.8106 -43.8099 -43.8095 -43.8094
   -43.8080 -43.8027 -43.8026 -43.7869 -43.7851 -43.7687 -43.7678 -43.7670
   -43.7667 -43.7661 -43.7646 -43.7635 -43.7623 -43.7601 -43.7577 -43.7506
   -43.7488 -43.7481 -43.7474 -43.7451 -43.7443 -43.7442 -43.7435 -43.7432
   -43.7422 -43.7405 -43.7395 -43.7385 -43.7373 -43.7365 -43.7361 -43.7353
[...]
     8.9310   8.9363   8.9406   8.9412   8.9636   8.9676   8.9748   8.9781
     8.9815   8.9836   8.9879   8.9938   9.0109   9.0117   9.0152   9.0197
     9.0223   9.0503   9.0529   9.0605   9.0653   9.0687   9.0699   9.0724
     9.0748   9.0756   9.0768   9.0822   9.0846   9.1258   9.1276   9.1561
     9.1563   9.1577   9.1737   9.1761   9.1780   9.1818   9.1830   9.1853
     9.1862   9.1880   9.1939   9.1954   9.2036   9.2226   9.2237   9.2346
     9.2462   9.2533   9.2582   9.2624   9.2643   9.2720   9.2726   9.2733
     9.2758   9.2811   9.2845   9.2853   9.2923   9.3045   9.3074   9.3289
     9.3291   9.3403   9.3583   9.3606   9.3727   9.3765   9.3775   9.3980
     9.4027   9.4047   9.4059   9.4076   9.4088   9.4131   9.4178   9.4206
     9.4225   9.4233   9.4445   9.4534   9.4631   9.4791   9.4933   9.5101
     9.5273   9.5295   9.5641   9.5825   9.6020   9.6025   9.6310   9.6368
     9.6397   9.7463   9.7527   9.8932   9.9865  10.0861  10.2853  10.2987
    10.4166  10.4474  10.4791  10.4930  10.5217  10.5248  10.5563  10.5610
    10.5911  10.6142  10.6411  10.6614  10.6930  10.7453  10.7461  10.7572

     the Fermi energy is     8.1888 ev

!    total energy              =  -42651.95001024 Ry

     total all-electron energy =   -335917.932920 Ry
     estimated scf accuracy    <          6.4E-10 Ry
     smearing contrib. (-TS)   =       0.00672571 Ry
     internal energy E=F+TS    =  -42651.95673595 Ry

     The total energy is F=E-TS. E is the sum of the following terms:
     one-electron contribution =  -97754.57312668 Ry
     hartree contribution      =   49391.98165548 Ry
     xc contribution           =   -3575.50372526 Ry
     ewald contribution        =   20138.95354175 Ry
     one-center paw contrib.   =  -10852.81508125 Ry

     total magnetization       =    -0.18 Bohr mag/cell
     absolute magnetization    =   230.68 Bohr mag/cell

     convergence has been achieved in  23 iterations

     negative rho (up, down):  1.916E-03 9.543E-04

     Forces acting on atoms (cartesian axes, Ry/au):

     atom    1 type  3   force =    -0.00003341   -0.00011374   -0.00026944
     atom    2 type  1   force =    -0.00035320   -0.00015250    0.00027505
     atom    3 type  2   force =    -0.00001250    0.00016375    0.00007974
     atom    4 type  1   force =    -0.00012086    0.00006013    0.00000813
     atom    5 type  2   force =     0.00004129    0.00005673   -0.00001236
     atom    6 type  1   force =     0.00002195    0.00006577   -0.00003812
     atom    7 type  2   force =     0.00001797    0.00000508   -0.00011370
     atom    8 type  1   force =     0.00001921    0.00013914    0.00006503
     atom    9 type  2   force =     0.00003296   -0.00001316    0.00008553
     atom   10 type  1   force =    -0.00009754   -0.00011335   -0.00011526
     atom   11 type  2   force =    -0.00002808   -0.00010001   -0.00009809
     atom   12 type  1   force =     0.00000657   -0.00014581   -0.00012386
     atom   13 type  2   force =     0.00010394    0.00013005   -0.00018547
     atom   14 type  1   force =    -0.00012329    0.00011962   -0.00006389
     atom   15 type  2   force =    -0.00006676   -0.00004127   -0.00008666
     atom   16 type  1   force =     0.00007599   -0.00009347   -0.00002152
     atom   17 type  2   force =    -0.00007429   -0.00000393    0.00004432
     atom   18 type  1   force =     0.00002463    0.00000814   -0.00017846
     atom   19 type  2   force =     0.00008787   -0.00007199   -0.00016722
     atom   20 type  1   force =     0.00014478   -0.00012306   -0.00016658
     atom   21 type  2   force =    -0.00002121    0.00005027   -0.00015245
     atom   22 type  1   force =    -0.00008194    0.00000842   -0.00002793
     atom   23 type  2   force =     0.00001343   -0.00008837   -0.00003277
     atom   24 type  1   force =    -0.00016215   -0.00008178   -0.00004993
     atom   25 type  2   force =     0.00008495   -0.00005711   -0.00001694
     atom   26 type  1   force =     0.00000431    0.00006433   -0.00009890
     atom   27 type  2   force =     0.00011809    0.00006297    0.00005980
     atom   28 type  1   force =    -0.00004201   -0.00013959   -0.00019354
     atom   29 type  2   force =    -0.00004664    0.00005928    0.00002257
     atom   30 type  1   force =     0.00011392   -0.00005614   -0.00006205
     atom   31 type  2   force =     0.00013098   -0.00012556    0.00003702
     atom   32 type  1   force =     0.00002520   -0.00009032    0.00005187
     atom   33 type  2   force =     0.00002874    0.00002623    0.00010546
     atom   34 type  1   force =    -0.00010975   -0.00003866    0.00012089
     atom   35 type  2   force =     0.00003058    0.00009205   -0.00013176
     atom   36 type  1   force =     0.00009779   -0.00005402    0.00008700
     atom   37 type  2   force =    -0.00017801    0.00017432   -0.00006884
     atom   38 type  1   force =     0.00022577   -0.00011959   -0.00001327
     atom   39 type  2   force =     0.00012202   -0.00014800    0.00006705
     atom   40 type  1   force =    -0.00006973    0.00002378   -0.00010020
     atom   41 type  2   force =    -0.00001865   -0.00003785   -0.00005707
     atom   42 type  1   force =     0.00013002    0.00002190    0.00010321
     atom   43 type  2   force =     0.00015600   -0.00006714    0.00003132
     atom   44 type  1   force =    -0.00021852    0.00009897    0.00005756
     atom   45 type  2   force =     0.00007900   -0.00003577   -0.00007359
     atom   46 type  1   force =     0.00012423    0.00011860   -0.00010760
     atom   47 type  2   force =     0.00011299    0.00013292    0.00000994
     atom   48 type  1   force =     0.00000997    0.00003158    0.00003454
     atom   49 type  2   force =    -0.00004238   -0.00001152    0.00005651
     atom   50 type  1   force =     0.00007772   -0.00007748   -0.00005845
     atom   51 type  2   force =    -0.00004177    0.00012178   -0.00013220
     atom   52 type  1   force =     0.00014330   -0.00012948   -0.00009822
     atom   53 type  2   force =    -0.00009627   -0.00007885   -0.00002015
     atom   54 type  1   force =    -0.00010093   -0.00004837    0.00001359
     atom   55 type  2   force =    -0.00009978   -0.00008441    0.00010716
     atom   56 type  1   force =    -0.00014879    0.00012782    0.00001745
     atom   57 type  2   force =    -0.00009192   -0.00020740    0.00001699
     atom   58 type  1   force =     0.00005137   -0.00006133    0.00003691
     atom   59 type  2   force =    -0.00001498   -0.00000925    0.00020165
     atom   60 type  1   force =    -0.00009655    0.00013536    0.00013718
[...]
     atom  115 type  2   force =    -0.00010174   -0.00003578    0.00001918
     atom  116 type  1   force =    -0.00001039    0.00010074    0.00011945
     atom  117 type  2   force =    -0.00008803    0.00011148   -0.00002036
     atom  118 type  1   force =     0.00009172    0.00011243    0.00005342
     atom  119 type  2   force =     0.00013780    0.00002487   -0.00002118
     atom  120 type  1   force =     0.00000531    0.00013038   -0.00006949
     atom  121 type  2   force =     0.00015684    0.00008194   -0.00011698
     atom  122 type  1   force =    -0.00008316   -0.00008866    0.00003699
     atom  123 type  2   force =    -0.00007801   -0.00005303    0.00014658
     atom  124 type  1   force =     0.00002867    0.00002420   -0.00004066
     atom  125 type  2   force =     0.00018908   -0.00009763    0.00014609
     atom  126 type  1   force =    -0.00003614   -0.00005663   -0.00003110
     atom  127 type  2   force =    -0.00002518   -0.00009363   -0.00002177
     atom  128 type  1   force =     0.00014652    0.00002478    0.00000615
     atom  129 type  2   force =     0.00013329   -0.00002891    0.00001543

     Total force =     0.001989     Total SCF correction =     0.000118

     Computing stress (Cartesian axis) and pressure

     negative rho (up, down):  1.916E-03 9.543E-04
          total   stress  (Ry/bohr**3)                   (kbar)     P=      -21.44
  -0.00015978  -0.00000001  -0.00000008          -23.50       -0.00       -0.01
  -0.00000001  -0.00010678   0.00000033           -0.00      -15.71        0.05
  -0.00000008   0.00000033  -0.00017059           -0.01        0.05      -25.10

     Energy error            =      8.0E-06
     Gradient error          =      3.5E-04

     number of scf cycles    =  40
     number of bfgs steps    =  39

     energy   old            =  -42651.9500022251 Ry
     energy   new            =  -42651.9500102413 Ry

     CASE: energy  _new < energy  _old

     new trust radius        =       0.0019314933 bohr

     The maximum number of steps has been reached.

     End of BFGS Geometry Optimization

ATOMIC_POSITIONS (crystal)
Pd            0.1849169796        0.0631115980        0.1799859343
Fe1           0.0580269363        0.0629739822        0.3130382636
Fe2           0.1854575748        0.1886549000        0.3118308376
Fe1           0.1865412374        0.0628501611        0.4387050774
Fe2           0.0625520066        0.1878639980        0.4384450553
Fe1           0.0624550848        0.0628716568        0.5673654870
Fe2           0.1875846692        0.1879826268        0.5670847443
Fe1           0.1885427150        0.0627755410        0.6868556800
Fe2           0.0616740339        0.1879153443        0.6869870829
Fe1           0.0617869922        0.3131689973        0.3164065651
Fe2           0.1853050655        0.4376293416        0.3162748561
Fe1           0.1865813851        0.3122138701        0.4369985641
Fe2           0.0621274881        0.4377899554        0.4384036081
Fe1           0.0622634982        0.3128594458        0.5671230910
Fe2           0.1876393707        0.4380630696        0.5667616580
Fe1           0.1885872302        0.3127774553        0.6866012909
Fe2           0.0621164964        0.4379928500        0.6868360497
Fe1           0.0622328444        0.5629972024        0.3164640225
Fe2           0.1851868707        0.6885210415        0.3164523811
Fe1           0.1864993779        0.5630353982        0.4376512248
Fe2           0.0619902773        0.6881960336        0.4384775832
Fe1           0.0619825244        0.5629631102        0.5674618416
Fe2           0.1875756240        0.6880346050        0.5668035459
Fe1           0.1886612984        0.5630486109        0.6864999867
Fe2           0.0619011998        0.6880387229        0.6868714796
Fe1           0.0615647583        0.8126573311        0.3165330636
Fe2           0.1853697969        0.9371512106        0.3117638810
Fe1           0.1865457710        0.8137688286        0.4370986526
Fe2           0.0624335830        0.9380521237        0.4384541471
Fe1           0.0620204112        0.8129782603        0.5671848343
Fe2           0.1875418415        0.9378823910        0.5670614946
Fe1           0.1885354224        0.8131350007        0.6865132740
Fe2           0.0615634069        0.9379580579        0.6869592225
Fe1           0.3137067230        0.0628326851        0.3114561266
Fe2           0.4355668124        0.1885688055        0.3146548428
Fe1           0.4357097089        0.0628835471        0.4341011669
Fe2           0.3108104166        0.1878208226        0.4359252585
Fe1           0.3121231969        0.0628911215        0.5649950777
Fe2           0.4371089129        0.1879296182        0.5626085554
Fe1           0.4389845992        0.0628911636        0.6840498045
Fe2           0.3146287575        0.1879084328        0.6858183938
Fe1           0.3099300153        0.3132780280        0.3147897110
Fe2           0.4350677735        0.4380885838        0.3140349659
Fe1           0.4363494237        0.3131069054        0.4336031810
Fe2           0.3111323245        0.4378549847        0.4355866654
Fe1           0.3124264793        0.3128710410        0.5646388304
Fe2           0.4373160409        0.4379343985        0.5628391300
Fe1           0.4385201294        0.3129716089        0.6840650622
Fe2           0.3143075951        0.4379740190        0.6855939268
Fe1           0.3093022520        0.5631274326        0.3148924839
Fe2           0.4352923174        0.6879153399        0.3141650791
Fe1           0.4361904362        0.5629702972        0.4337654651
Fe2           0.3112016430        0.6882302261        0.4356437559
Fe1           0.3127367086        0.5630144946        0.5649120588
Fe2           0.4375079366        0.6879624238        0.5628979815
Fe1           0.4388161003        0.5628722707        0.6843348043
Fe2           0.3144317257        0.6880910730        0.6856068739
Fe1           0.3100315541        0.8125880095        0.3149199949
Fe2           0.4356871373        0.9372104069        0.3145946337
Fe1           0.4365068101        0.8127433278        0.4336788499
[...]
Fe2           0.9387990343        0.6879220827        0.3162155883
Fe1           0.9376953053        0.5628745417        0.4375449355
Fe2           0.8127498934        0.6879023843        0.4355891186
Fe1           0.8113018304        0.5628020610        0.5646951858
Fe2           0.9364013945        0.6878996327        0.5667733650
Fe1           0.9353071727        0.5628080179        0.6863851198
Fe2           0.8095135103        0.6878707158        0.6855078471
Fe1           0.8143478434        0.8128440659        0.3147231148
Fe2           0.9383335395        0.9373141643        0.3166568589
Fe1           0.9374060874        0.8128153274        0.4375011865
Fe2           0.8127093982        0.9380177965        0.4354324297
Fe1           0.8112492831        0.8129444431        0.5647769764
Fe2           0.9366721254        0.9380054333        0.5663716996
Fe1           0.9352848311        0.8129120137        0.6861453053
Fe2           0.8097371659        0.9378791261        0.6854398519

     Writing output data file /scratch/bxp912/fepdslabrelax.save/
     NEW-OLD atomic charge density approx. for the potential

     Check: negative core charge=   -0.000004

     negative rho (up, down):  1.911E-03 9.549E-04
     Generating pointlists ...

     Writing output data file /scratch/bxp912/fepdslabrelax.save/

     General routines

     Parallel routines

   This run was terminated on:  18: 5:25  22May2022

   JOB DONE.