     Program PWSCF v.6.7MaX starts on 22May2022 at  3: 8:20

     R & G space division:  proc/nbgrp/npool/nimage =      72
     Reading input from fepdslab05.in
Warning: card &CELL ignored
Warning: card CELL_DYNAMICS = 'BFGS', ignored
Warning: card CELL_FACTOR = 2.0, ignored
Warning: card PRESS = 0.0, ignored
Warning: card / ignored

     Current dimensions of program PWSCF are:
     Max number of different atomic species (ntypx) = 10
     Max number of k-points (npk) =  40000
     Max angular momentum in pseudopotentials (lmaxx) =  3
     file Fe.pbe-spn-kjpaw_psl.1.0.0.UPF: wavefunction(s)  3P 3D renormalized
     file Fe.pbe-spn-kjpaw_psl.1.0.0.UPF: wavefunction(s)  3P 3D renormalized
     file Pd.pbe-spn-kjpaw_psl.1.0.0.UPF: wavefunction(s)  4S 5S 4D renormalized

     gamma-point specific algorithms are used

     Subspace diagonalization in iterative solution of the eigenvalue problem:
     one sub-group per band group will be used

     bravais-lattice index     =            0
     lattice parameter (alat)  =      25.8600  a.u.
     unit-cell volume          =   18186.5006 (a.u.)^3
     number of atoms/cell      =          129
     number of atomic types    =            3
     number of electrons       =      2066.00
     number of Kohn-Sham states=         1240
     kinetic-energy cutoff     =      71.0000  Ry
     charge density cutoff     =     430.0000  Ry
     scf convergence threshold =      1.0E-08
     mixing beta               =       0.3000
     number of iterations used =           10  local-TF  mixing
     Exchange-correlation= SLA  PW   PBX  PBC
                           (   1   4   3   4   0   0   0)

     celldm(1)=  25.860000  celldm(2)=   0.000000  celldm(3)=   0.000000
     celldm(4)=   0.000000  celldm(5)=   0.000000  celldm(6)=   0.000000

     crystal axes: (cart. coord. in units of alat)
               a(1) = (   1.000000   0.000000   0.000000 )
               a(2) = (   0.000000   1.051631   0.000000 )
               a(3) = (   0.000000   0.000000   1.000000 )

     reciprocal axes: (cart. coord. in units 2 pi/alat)
               b(1) = (  1.000000  0.000000  0.000000 )
               b(2) = (  0.000000  0.950903  0.000000 )
               b(3) = (  0.000000  0.000000  1.000000 )

     PseudoPot. # 1 for Fe read from file:
     /rds/homes/b/bxp912/pp/Fe.pbe-spn-kjpaw_psl.1.0.0.UPF
     MD5 check sum: 42f43b795421b414b0dc916aa790dbcb
     Pseudo is Projector augmented-wave + core cor, Zval = 16.0
     Generated using &quot;atomic&quot; code by A. Dal Corso  v.6.3
     Shape of augmentation charge: PSQ
     Using radial grid of 1191 points,  6 beta functions with:
                l(1) =   0
                l(2) =   0
                l(3) =   1
                l(4) =   1
                l(5) =   2
                l(6) =   2
     Q(r) pseudized with 0 coefficients

     PseudoPot. # 2 for Fe read from file:
     /rds/homes/b/bxp912/pp/Fe.pbe-spn-kjpaw_psl.1.0.0.UPF
     MD5 check sum: 42f43b795421b414b0dc916aa790dbcb
     Pseudo is Projector augmented-wave + core cor, Zval = 16.0
     Generated using &quot;atomic&quot; code by A. Dal Corso  v.6.3
     Shape of augmentation charge: PSQ
     Using radial grid of 1191 points,  6 beta functions with:
                l(1) =   0
                l(2) =   0
                l(3) =   1
                l(4) =   1
                l(5) =   2
                l(6) =   2
     Q(r) pseudized with 0 coefficients

     PseudoPot. # 3 for Pd read from file:
     /rds/homes/b/bxp912/pp/Pd.pbe-spn-kjpaw_psl.1.0.0.UPF
     MD5 check sum: 790f2ebce206edfd9790dcb9844eca51
     Pseudo is Projector augmented-wave + core cor, Zval = 18.0
     Generated using &quot;atomic&quot; code by A. Dal Corso  v.6.3
     Shape of augmentation charge: PSQ
     Using radial grid of 1235 points,  6 beta functions with:
                l(1) =   0
                l(2) =   0
                l(3) =   1
                l(4) =   1
                l(5) =   2
                l(6) =   2
     Q(r) pseudized with 0 coefficients

     atomic species   valence    mass     pseudopotential
        Fe1           16.00    55.84500     Fe( 1.00)
        Fe2           16.00    55.84500     Fe( 1.00)
        Pd            18.00   106.42000     Pd( 1.00)

     Starting magnetic structure
     atomic species   magnetization
        Fe1          0.100
        Fe2         -0.100
        Pd           0.001

     No symmetry found

   Cartesian axes

     site n.     atom                  positions (alat units)
         1           Pd  tau(   1) = (   0.1425366   0.1152741   0.1753095  )
         2           Fe1 tau(   2) = (   0.0587515   0.0653881   0.3211198  )
         3           Fe2 tau(   3) = (   0.1884265   0.2002713   0.3214448  )
         4           Fe1 tau(   4) = (   0.1868213   0.0655646   0.4421276  )
         5           Fe2 tau(   5) = (   0.0624952   0.1980629   0.4424469  )
         6           Fe1 tau(   6) = (   0.0623234   0.0655267   0.5697271  )
         7           Fe2 tau(   7) = (   0.1876610   0.1975943   0.5698145  )
         8           Fe1 tau(   8) = (   0.1882185   0.0650035   0.6879009  )
         9           Fe2 tau(   9) = (   0.0616632   0.1980291   0.6879420  )
        10           Fe1 tau(  10) = (   0.0653597   0.3265762   0.3172267  )
        11           Fe2 tau(  11) = (   0.1877413   0.4579090   0.3175394  )
        12           Fe1 tau(  12) = (   0.1881227   0.3296492   0.4412225  )
        13           Fe2 tau(  13) = (   0.0633903   0.4595175   0.4385688  )
        14           Fe1 tau(  14) = (   0.0628268   0.3296102   0.5678640  )
        15           Fe2 tau(  15) = (   0.1885537   0.4615096   0.5682187  )
        16           Fe1 tau(  16) = (   0.1887326   0.3305664   0.6874596  )
        17           Fe2 tau(  17) = (   0.0603308   0.4618776   0.6862421  )
        18           Fe1 tau(  18) = (   0.0648519   0.5907106   0.3145093  )
        19           Fe2 tau(  19) = (   0.1847510   0.7238107   0.3145456  )
        20           Fe1 tau(  20) = (   0.1863681   0.5909977   0.4371267  )
        21           Fe2 tau(  21) = (   0.0633682   0.7236125   0.4371464  )
        22           Fe1 tau(  22) = (   0.0615849   0.5918936   0.5662034  )
        23           Fe2 tau(  23) = (   0.1882586   0.7226899   0.5660552  )
        24           Fe1 tau(  24) = (   0.1887997   0.5925453   0.6861716  )
        25           Fe2 tau(  25) = (   0.0613274   0.7219977   0.6862125  )
        26           Fe1 tau(  26) = (   0.0618357   0.8560935   0.3172000  )
        27           Fe2 tau(  27) = (   0.1829530   0.9895025   0.3139428  )
        28           Fe1 tau(  28) = (   0.1862919   0.8555747   0.4379183  )
        29           Fe2 tau(  29) = (   0.0618572   0.9855343   0.4406165  )
        30           Fe1 tau(  30) = (   0.0613876   0.8531658   0.5679772  )
        31           Fe2 tau(  31) = (   0.1869233   0.9851356   0.5677120  )
        32           Fe1 tau(  32) = (   0.1896322   0.8527645   0.6860337  )
        33           Fe2 tau(  33) = (   0.0612834   0.9839846   0.6875207  )
        34           Fe1 tau(  34) = (   0.3076371   0.0696373   0.3122286  )
        35           Fe2 tau(  35) = (   0.4357117   0.1980603   0.3171939  )
        36           Fe1 tau(  36) = (   0.4341488   0.0657210   0.4341951  )
        37           Fe2 tau(  37) = (   0.3121648   0.1978698   0.4418603  )
        38           Fe1 tau(  38) = (   0.3124073   0.0653502   0.5666112  )
        39           Fe2 tau(  39) = (   0.4385533   0.1968925   0.5660486  )
        40           Fe1 tau(  40) = (   0.4380091   0.0657438   0.6859902  )
        41           Fe2 tau(  41) = (   0.3146724   0.1973275   0.6859048  )
        42           Fe1 tau(  42) = (   0.3112557   0.3275738   0.3170910  )
        43           Fe2 tau(  43) = (   0.4354886   0.4597974   0.3147106  )
        44           Fe1 tau(  44) = (   0.4374791   0.3293042   0.4369893  )
        45           Fe2 tau(  45) = (   0.3125364   0.4604356   0.4366549  )
        46           Fe1 tau(  46) = (   0.3141732   0.3293478   0.5679259  )
        47           Fe2 tau(  47) = (   0.4390386   0.4604040   0.5632767  )
        48           Fe1 tau(  48) = (   0.4403086   0.3292951   0.6845898  )
        49           Fe2 tau(  49) = (   0.3159177   0.4625217   0.6855273  )
        50           Fe1 tau(  50) = (   0.3083587   0.5903099   0.3147277  )
        51           Fe2 tau(  51) = (   0.4339295   0.7233087   0.3130231  )
        52           Fe1 tau(  52) = (   0.4358847   0.5924128   0.4322183  )
        53           Fe2 tau(  53) = (   0.3104159   0.7228918   0.4334436  )
        54           Fe1 tau(  54) = (   0.3142966   0.5918280   0.5641361  )
        55           Fe2 tau(  55) = (   0.4385180   0.7234213   0.5598951  )
        56           Fe1 tau(  56) = (   0.4419191   0.5923939   0.6824908  )
        57           Fe2 tau(  57) = (   0.3162141   0.7223454   0.6842751  )
        58           Fe1 tau(  58) = (   0.3074024   0.8548895   0.3147790  )
        59           Fe2 tau(  59) = (   0.4344514   0.9868630   0.3150403  )
        60           Fe1 tau(  60) = (   0.4356335   0.8547100   0.4315209  )
[...]
       115           Fe2 tau( 115) = (   0.9412610   0.7242602   0.3148148  )
       116           Fe1 tau( 116) = (   0.9393584   0.5917595   0.4337111  )
       117           Fe2 tau( 117) = (   0.8139347   0.7222047   0.4324709  )
       118           Fe1 tau( 118) = (   0.8112426   0.5912370   0.5601288  )
       119           Fe2 tau( 119) = (   0.9356265   0.7227141   0.5643328  )
       120           Fe1 tau( 120) = (   0.9336551   0.5923087   0.6844350  )
       121           Fe2 tau( 121) = (   0.8078635   0.7222525   0.6825759  )
       122           Fe1 tau( 122) = (   0.8143703   0.8548553   0.3146769  )
       123           Fe2 tau( 123) = (   0.9388847   0.9870538   0.3171989  )
       124           Fe1 tau( 124) = (   0.9373427   0.8541441   0.4366752  )
       125           Fe2 tau( 125) = (   0.8125994   0.9853090   0.4370552  )
       126           Fe1 tau( 126) = (   0.8108362   0.8541803   0.5632913  )
       127           Fe2 tau( 127) = (   0.9358746   0.9851837   0.5680012  )
       128           Fe1 tau( 128) = (   0.9341019   0.8520056   0.6853792  )
       129           Fe2 tau( 129) = (   0.8094919   0.9851394   0.6846363  )

     number of k points=     1  Marzari-Vanderbilt smearing, width (Ry)=  0.0400
                       cart. coord. in units 2pi/alat
        k(    1) = (   0.0000000   0.0000000   0.0000000), wk =   1.0000000

     Check: negative core charge=   -0.000004
     Generating pointlists ...
     new r_m :   0.0707 (alat units)  1.8289 (a.u.) for type    1
     new r_m :   0.0709 (alat units)  1.8345 (a.u.) for type    2
     new r_m :   0.0723 (alat units)  1.8686 (a.u.) for type    3

     Initial potential from superposition of free atoms

     starting charge 2065.94361, renormalised to 2066.00000

     negative rho (up, down):  1.765E-04 1.765E-04
     Starting wfcs are 1290 randomized atomic wfcs
     Checking if some PAW data can be deallocated...

     Self-consistent Calculation

[...]
   -46.2400 -46.2383 -46.2373 -46.2365 -46.2361 -46.2334 -46.2312 -46.2285
   -46.2253 -46.2248 -46.2239 -46.2206 -46.2159 -46.2155 -46.2134 -46.2097
   -46.2075 -46.2038 -46.1920 -46.1892 -46.1871 -46.1822 -46.1659 -46.1646
   -46.1558 -45.8621 -45.8489 -45.8058 -45.7826 -45.7793 -45.7655 -45.7616
   -45.7520 -45.7491 -45.7437 -45.7412 -45.7368 -45.7346 -45.7337 -45.7272
   -45.7263 -45.7249 -45.7240 -45.7207 -45.7178 -45.7162 -45.7042 -45.7027
   -45.7008 -45.6976 -45.6968 -45.6949 -45.6944 -45.6929 -45.6913 -45.6896
   -45.6867 -45.6854 -45.6821 -45.6811 -45.6738 -45.6726 -45.6705 -45.6633
   -45.6623 -45.6620 -45.6564 -45.6544 -45.6528 -45.6482 -45.6409 -45.6366
   -45.6263 -45.6187 -45.6075 -45.6065 -45.6051 -45.5967 -45.5936 -45.5872
   -45.5839 -45.5789 -45.5785 -45.5756 -45.5693 -45.5684 -45.5679 -45.5673
   -45.5600 -45.5520 -45.5518 -45.5488 -45.5438 -45.5319 -45.5305 -45.5294
   -45.5271 -45.5234 -45.5221 -45.5217 -45.5213 -45.5194 -45.5184 -45.5174
   -45.5071 -45.5058 -45.5050 -45.5026 -45.4996 -45.4967 -45.4882 -45.4761
   -45.4758 -45.4680 -45.4631 -45.4600 -45.4595 -45.4545 -45.4409 -45.4142
   -45.3934 -44.5099 -44.5059 -44.5055 -44.5043 -44.4960 -44.4925 -44.4899
   -44.4868 -44.4863 -44.4850 -44.4818 -44.4814 -44.4794 -44.4782 -44.4757
   -44.4720 -44.4705 -44.4684 -44.4652 -44.4631 -44.4600 -44.4583 -44.4574
   -44.4566 -44.4548 -44.4545 -44.4518 -44.4512 -44.4482 -44.4474 -44.4444
   -44.4441 -44.4428 -44.4401 -44.4394 -44.4338 -44.4274 -44.4266 -44.4249
   -44.4244 -44.4210 -44.4191 -44.4181 -44.4156 -44.4103 -44.4102 -44.4097
   -44.4023 -44.3985 -44.3911 -44.3884 -44.3857 -44.3785 -44.3662 -44.3534
   -44.3531 -44.3503 -44.3478 -44.3412 -44.3381 -44.3305 -44.3295 -44.3266
   -44.3258 -44.3252 -44.3245 -44.3236 -44.3214 -44.3157 -44.3109 -44.3089
   -44.3054 -44.3031 -44.3023 -44.3004 -44.2978 -44.2954 -44.2917 -44.2909
   -44.2884 -44.2876 -44.2864 -44.2834 -44.2807 -44.2801 -44.2792 -44.2776
   -44.2770 -44.2746 -44.2742 -44.2615 -44.2614 -44.2595 -44.2572 -44.2463
   -44.2434 -44.0394 -43.9254 -43.8865 -43.8855 -43.8721 -43.8693 -43.8623
   -43.8524 -43.8504 -43.8498 -43.8483 -43.8452 -43.8419 -43.8415 -43.8394
   -43.8386 -43.8349 -43.8331 -43.8323 -43.8319 -43.8310 -43.8242 -43.8214
   -43.8210 -43.8199 -43.8133 -43.8123 -43.8085 -43.8069 -43.8057 -43.8045
   -43.7972 -43.7969 -43.7943 -43.7942 -43.7913 -43.7865 -43.7851 -43.7747
   -43.7725 -43.7660 -43.7642 -43.7614 -43.7609 -43.7596 -43.7589 -43.7563
   -43.7554 -43.7534 -43.7532 -43.7522 -43.7492 -43.7469 -43.7453 -43.7444
   -43.7437 -43.7421 -43.7420 -43.7385 -43.7359 -43.7356 -43.7318 -43.7292
[...]
     8.9282   8.9331   8.9349   8.9391   8.9582   8.9753   8.9764   8.9796
     8.9823   8.9844   8.9877   8.9944   9.0053   9.0145   9.0183   9.0191
     9.0243   9.0558   9.0572   9.0593   9.0639   9.0659   9.0704   9.0724
     9.0749   9.0758   9.0776   9.0790   9.0866   9.1236   9.1304   9.1509
     9.1591   9.1624   9.1755   9.1767   9.1787   9.1796   9.1817   9.1850
     9.1871   9.1945   9.1964   9.2000   9.2036   9.2171   9.2285   9.2352
     9.2510   9.2527   9.2578   9.2584   9.2640   9.2686   9.2701   9.2711
     9.2749   9.2812   9.2848   9.2869   9.2899   9.3044   9.3108   9.3251
     9.3315   9.3394   9.3574   9.3663   9.3715   9.3781   9.3890   9.3929
     9.4012   9.4038   9.4058   9.4076   9.4102   9.4148   9.4213   9.4243
     9.4266   9.4309   9.4445   9.4532   9.4581   9.4782   9.4898   9.5080
     9.5284   9.5426   9.5619   9.5836   9.5943   9.6043   9.6309   9.6351
     9.6427   9.7448   9.7618   9.8948   9.9879  10.0623  10.3078  10.3116
    10.4233  10.4469  10.4849  10.5182  10.5244  10.5474  10.5509  10.5631
    10.5781  10.6402  10.6425  10.6517  10.7167  10.7443  10.7519  10.7929

 ------ SPIN DOWN ----------

          k = 0.0000 0.0000 0.0000 ( 91909 PWs)   bands (ev):

   -80.3082 -80.3060 -80.3038 -80.2949 -80.2895 -80.2878 -80.2806 -80.2780
   -80.2765 -80.2758 -80.2755 -80.2668 -80.2637 -80.2624 -80.2576 -80.2482
   -80.2473 -80.2461 -80.2457 -80.2437 -80.2370 -80.2345 -80.2331 -80.2298
   -80.2254 -80.2156 -80.2150 -80.2142 -80.2059 -80.1813 -80.1787 -80.1717
   -79.7262 -79.6817 -79.6600 -79.6558 -79.6535 -79.6511 -79.6395 -79.6322
   -79.6235 -79.6210 -79.6074 -79.5997 -79.5870 -79.5787 -79.5682 -79.5672
   -79.5536 -79.5521 -79.5385 -79.5302 -79.5275 -79.5214 -79.5168 -79.5124
   -79.4995 -79.4948 -79.4682 -79.4666 -79.4540 -79.4476 -79.4353 -79.4292
   -78.4324 -78.3887 -78.3723 -78.3702 -78.3649 -78.3596 -78.3541 -78.3440
   -78.3254 -78.3196 -78.3137 -78.3077 -78.3074 -78.3048 -78.3029 -78.2935
   -78.2921 -78.2821 -78.2784 -78.2724 -78.2626 -78.2608 -78.2468 -78.2448
   -78.2433 -78.2410 -78.2350 -78.2286 -78.2130 -78.2056 -78.1994 -78.1416
   -77.8662 -77.7116 -77.7077 -77.6962 -77.6949 -77.6895 -77.6837 -77.6826
   -77.6757 -77.6752 -77.6733 -77.6727 -77.6679 -77.6670 -77.6669 -77.6657
   -77.6645 -77.6589 -77.6582 -77.6572 -77.6569 -77.6543 -77.6539 -77.6528
   -77.6509 -77.6482 -77.6471 -77.6449 -77.6449 -77.6362 -77.6359 -77.6338
   -75.5049 -46.4633 -46.4606 -46.4541 -46.4523 -46.4465 -46.4412 -46.4411
   -46.4381 -46.4379 -46.4317 -46.4267 -46.4228 -46.4211 -46.4192 -46.4130
   -46.4100 -46.4068 -46.4040 -46.4013 -46.4010 -46.3996 -46.3947 -46.3923
   -46.3911 -46.3878 -46.3856 -46.3727 -46.3716 -46.3699 -46.3666 -46.3648
   -46.3637 -46.3574 -46.3537 -46.3509 -46.3439 -46.3437 -46.3420 -46.3420
   -46.3395 -46.3392 -46.3323 -46.3323 -46.3269 -46.3260 -46.3236 -46.3236
   -46.3167 -46.3140 -46.3105 -46.3062 -46.3037 -46.3004 -46.2993 -46.2978
   -46.2977 -46.2860 -46.2836 -46.2812 -46.2775 -46.2772 -46.2748 -46.2708
   -46.2659 -46.2634 -46.2606 -46.2579 -46.2550 -46.2545 -46.2483 -46.2481
   -46.2458 -46.2419 -46.2414 -46.2407 -46.2396 -46.2391 -46.2388 -46.2305
   -46.2247 -46.2227 -46.2224 -46.2218 -46.2189 -46.2133 -46.2115 -46.2095
   -46.2055 -46.2025 -46.1977 -46.1969 -46.1944 -46.1861 -46.1684 -46.1659
   -46.1576 -45.8136 -45.8037 -45.7741 -45.7726 -45.7659 -45.7649 -45.7614
   -45.7579 -45.7526 -45.7505 -45.7396 -45.7345 -45.7306 -45.7300 -45.7256
   -45.7246 -45.7240 -45.7237 -45.7233 -45.7216 -45.7205 -45.7191 -45.7179
   -45.7154 -45.7131 -45.7063 -45.7018 -45.6992 -45.6971 -45.6944 -45.6912
   -45.6902 -45.6880 -45.6870 -45.6843 -45.6827 -45.6732 -45.6669 -45.6652
   -45.6634 -45.6609 -45.6552 -45.6527 -45.6510 -45.6453 -45.6441 -45.6321
   -45.6295 -45.6168 -45.6133 -45.6011 -45.5988 -45.5930 -45.5912 -45.5892
   -45.5804 -45.5799 -45.5758 -45.5744 -45.5727 -45.5685 -45.5665 -45.5605
   -45.5585 -45.5539 -45.5507 -45.5493 -45.5484 -45.5431 -45.5314 -45.5287
   -45.5279 -45.5271 -45.5236 -45.5234 -45.5232 -45.5205 -45.5202 -45.5173
   -45.5159 -45.5112 -45.5092 -45.5079 -45.5068 -45.5007 -45.4972 -45.4863
   -45.4858 -45.4847 -45.4767 -45.4747 -45.4735 -45.4613 -45.4585 -45.4476
   -45.4422 -44.5520 -44.5391 -44.5115 -44.5109 -44.5099 -44.4978 -44.4941
   -44.4932 -44.4915 -44.4882 -44.4872 -44.4868 -44.4861 -44.4809 -44.4751
   -44.4735 -44.4726 -44.4719 -44.4691 -44.4642 -44.4638 -44.4605 -44.4603
   -44.4591 -44.4580 -44.4569 -44.4551 -44.4497 -44.4472 -44.4457 -44.4409
   -44.4376 -44.4365 -44.4337 -44.4308 -44.4289 -44.4269 -44.4261 -44.4254
   -44.4245 -44.4240 -44.4222 -44.4181 -44.4163 -44.4131 -44.4110 -44.4093
   -44.4029 -44.3962 -44.3944 -44.3923 -44.3825 -44.3786 -44.3782 -44.3571
   -44.3545 -44.3541 -44.3519 -44.3465 -44.3454 -44.3389 -44.3308 -44.3282
   -44.3264 -44.3235 -44.3213 -44.3204 -44.3190 -44.3147 -44.3134 -44.3099
   -44.3097 -44.3075 -44.3071 -44.3031 -44.2999 -44.2929 -44.2925 -44.2923
   -44.2899 -44.2842 -44.2828 -44.2815 -44.2808 -44.2800 -44.2753 -44.2745
   -44.2734 -44.2715 -44.2679 -44.2601 -44.2556 -44.2488 -44.2452 -44.2176
   -44.2007 -44.0204 -43.9611 -43.8924 -43.8866 -43.8714 -43.8677 -43.8637
   -43.8604 -43.8552 -43.8543 -43.8456 -43.8452 -43.8451 -43.8402 -43.8375
   -43.8354 -43.8351 -43.8306 -43.8301 -43.8260 -43.8241 -43.8216 -43.8193
   -43.8191 -43.8149 -43.8140 -43.8114 -43.8106 -43.8083 -43.8076 -43.8063
   -43.7954 -43.7945 -43.7943 -43.7939 -43.7934 -43.7854 -43.7767 -43.7764
   -43.7735 -43.7733 -43.7682 -43.7625 -43.7595 -43.7572 -43.7569 -43.7566
   -43.7551 -43.7534 -43.7530 -43.7521 -43.7504 -43.7470 -43.7461 -43.7456
   -43.7444 -43.7427 -43.7415 -43.7380 -43.7366 -43.7364 -43.7350 -43.7267
[...]
     8.9273   8.9324   8.9344   8.9404   8.9563   8.9737   8.9762   8.9769
     8.9802   8.9848   8.9853   8.9940   9.0096   9.0116   9.0159   9.0187
     9.0217   9.0522   9.0566   9.0605   9.0632   9.0674   9.0684   9.0714
     9.0748   9.0755   9.0761   9.0776   9.0868   9.1230   9.1299   9.1517
     9.1572   9.1623   9.1735   9.1754   9.1775   9.1794   9.1810   9.1851
     9.1876   9.1882   9.1966   9.1995   9.2028   9.2160   9.2251   9.2327
     9.2463   9.2549   9.2570   9.2580   9.2629   9.2673   9.2696   9.2711
     9.2747   9.2817   9.2828   9.2864   9.2884   9.3044   9.3096   9.3252
     9.3288   9.3389   9.3556   9.3654   9.3717   9.3766   9.3842   9.3944
     9.3986   9.4022   9.4054   9.4072   9.4107   9.4149   9.4209   9.4217
     9.4247   9.4304   9.4456   9.4581   9.4593   9.4767   9.4918   9.5078
     9.5252   9.5402   9.5627   9.5858   9.5895   9.6085   9.6314   9.6348
     9.6419   9.7473   9.7560   9.8891   9.9913  10.0773  10.3081  10.3142
    10.4291  10.4469  10.4800  10.5170  10.5210  10.5344  10.5558  10.5572
    10.5904  10.6289  10.6430  10.6607  10.7050  10.7424  10.7517  10.7577

     the Fermi energy is     8.1865 ev

!    total energy              =  -42651.90813504 Ry

     total all-electron energy =   -335917.891045 Ry
     estimated scf accuracy    <          6.9E-09 Ry
     smearing contrib. (-TS)   =       0.00968741 Ry
     internal energy E=F+TS    =  -42651.91782245 Ry

     The total energy is F=E-TS. E is the sum of the following terms:
     one-electron contribution =  -98081.71575239 Ry
     hartree contribution      =   49555.45382476 Ry
     xc contribution           =   -3575.64020778 Ry
     ewald contribution        =   20302.79484555 Ry
     one-center paw contrib.   =  -10852.81053258 Ry

     total magnetization       =    -0.06 Bohr mag/cell
     absolute magnetization    =   229.51 Bohr mag/cell

     convergence has been achieved in  69 iterations

     negative rho (up, down):  1.712E-03 1.868E-03

     Forces acting on atoms (cartesian axes, Ry/au):

     atom    1 type  3   force =     0.01435512   -0.01511704    0.00730034
     atom    2 type  1   force =     0.00043829    0.00013674   -0.00063291
     atom    3 type  2   force =    -0.00182527    0.00182527    0.00056780
     atom    4 type  1   force =     0.00002166    0.00333981   -0.00208110
     atom    5 type  2   force =    -0.00031322   -0.00254282   -0.00123418
     atom    6 type  1   force =     0.00130924   -0.00115413    0.00005723
     atom    7 type  2   force =    -0.00122137    0.00111705   -0.00013180
     atom    8 type  1   force =     0.00205429   -0.00021336    0.00114553
     atom    9 type  2   force =    -0.00195953    0.00036320    0.00112836
     atom   10 type  1   force =    -0.00366156    0.00219726   -0.00278632
     atom   11 type  2   force =    -0.00380293    0.00091599   -0.00212876
     atom   12 type  1   force =     0.00000677   -0.00240484   -0.00165047
     atom   13 type  2   force =     0.00036040   -0.00037458   -0.00136329
     atom   14 type  1   force =    -0.00237673    0.00105461    0.00381946
     atom   15 type  2   force =    -0.00225783    0.00015102   -0.00044508
     atom   16 type  1   force =     0.00011133    0.00020702    0.00061652
     atom   17 type  2   force =     0.00062721   -0.00066178   -0.00033945
     atom   18 type  1   force =    -0.00013793   -0.00005995    0.00007155
     atom   19 type  2   force =     0.00005772    0.00000914   -0.00000994
     atom   20 type  1   force =     0.00264078    0.00186891    0.00272298
     atom   21 type  2   force =    -0.00265738   -0.00186387    0.00278999
     atom   22 type  1   force =     0.00119390   -0.00008957    0.00117463
     atom   23 type  2   force =    -0.00105369    0.00042510    0.00093149
     atom   24 type  1   force =    -0.00008927   -0.00079712   -0.00204502
     atom   25 type  2   force =    -0.00000958    0.00110668   -0.00207508
     atom   26 type  1   force =     0.00362160   -0.00095457   -0.00208268
     atom   27 type  2   force =     0.00255833   -0.00003968   -0.00673520
     atom   28 type  1   force =    -0.00100931    0.00083125   -0.00177125
     atom   29 type  2   force =     0.00024404    0.00203759   -0.00185413
     atom   30 type  1   force =     0.00243767    0.00029632   -0.00086099
     atom   31 type  2   force =     0.00233316   -0.00084344    0.00337236
     atom   32 type  1   force =    -0.00064499    0.00082154   -0.00034659
     atom   33 type  2   force =    -0.00009404   -0.00017457    0.00041037
     atom   34 type  1   force =    -0.00012391   -0.00248336   -0.00671483
     atom   35 type  2   force =    -0.00164738   -0.00387393   -0.00036576
     atom   36 type  1   force =     0.00168295    0.00154633   -0.00208829
     atom   37 type  2   force =    -0.00067889   -0.00094889   -0.00686483
     atom   38 type  1   force =     0.00010591   -0.00080666    0.00246065
     atom   39 type  2   force =     0.00111893    0.00041669   -0.00166115
     atom   40 type  1   force =     0.00424144   -0.00081549    0.00022284
     atom   41 type  2   force =     0.00003243    0.00154186    0.00582640
     atom   42 type  1   force =    -0.00171972    0.00047141    0.00177202
     atom   43 type  2   force =    -0.00034897   -0.00104107   -0.00225077
     atom   44 type  1   force =    -0.00092712   -0.00293423   -0.00383975
     atom   45 type  2   force =    -0.00088257   -0.00240193    0.00218675
     atom   46 type  1   force =    -0.00396563    0.00196294   -0.00177985
     atom   47 type  2   force =    -0.00035181    0.00119343    0.00029388
     atom   48 type  1   force =     0.00072958    0.00191208    0.00492680
     atom   49 type  2   force =     0.00118354   -0.00184225    0.00169563
     atom   50 type  1   force =     0.00104048    0.00265374   -0.00259777
     atom   51 type  2   force =     0.00017955    0.00183447   -0.00333293
     atom   52 type  1   force =     0.00247042   -0.00278287   -0.00045462
     atom   53 type  2   force =     0.00140647    0.00151797    0.00379355
     atom   54 type  1   force =    -0.00353901    0.00172391    0.00118424
     atom   55 type  2   force =    -0.00240501   -0.00092202    0.00290328
     atom   56 type  1   force =    -0.00074981    0.00000984   -0.00014872
     atom   57 type  2   force =    -0.00008194    0.00015454   -0.00072531
     atom   58 type  1   force =     0.00135820    0.00359663   -0.00150881
     atom   59 type  2   force =    -0.00178250    0.00190246   -0.00064795
     atom   60 type  1   force =     0.00225166    0.00148892    0.00029510
[...]
     atom  115 type  2   force =    -0.00114569   -0.00279642   -0.00250580
     atom  116 type  1   force =    -0.00153703   -0.00115948    0.00411640
     atom  117 type  2   force =    -0.00255928    0.00302645   -0.00065063
     atom  118 type  1   force =     0.00231372    0.00098426    0.00310714
     atom  119 type  2   force =     0.00346387   -0.00139684    0.00126797
     atom  120 type  1   force =    -0.00000874    0.00007238   -0.00068219
     atom  121 type  2   force =     0.00071738    0.00013997   -0.00010122
     atom  122 type  1   force =     0.00051560    0.00142969   -0.00224974
     atom  123 type  2   force =     0.00163568   -0.00081697    0.00149181
     atom  124 type  1   force =     0.00115570    0.00230000    0.00207161
     atom  125 type  2   force =     0.00056793    0.00293248   -0.00379791
     atom  126 type  1   force =     0.00029830   -0.00102724    0.00035555
     atom  127 type  2   force =     0.00392449   -0.00187526   -0.00162445
     atom  128 type  1   force =    -0.00099711    0.00205594    0.00160968
     atom  129 type  2   force =    -0.00077803   -0.00195233    0.00489366

     Total force =     0.044661     Total SCF correction =     0.000254

     Computing stress (Cartesian axis) and pressure

     negative rho (up, down):  1.712E-03 1.868E-03
          total   stress  (Ry/bohr**3)                   (kbar)     P=      -19.51
  -0.00014747   0.00000420  -0.00000606          -21.69        0.62       -0.89
   0.00000420  -0.00009897   0.00000536            0.62      -14.56        0.79
  -0.00000606   0.00000536  -0.00015153           -0.89        0.79      -22.29

     Writing output data file /scratch/bxp912/fepdslab05.save/

     General routines

     Parallel routines

   This run was terminated on:   3:36:41  22May2022

   JOB DONE.