     Program PWSCF v.6.7MaX starts on  2May2022 at  2:50: 3

     R & G space division:  proc/nbgrp/npool/nimage =      72
     Reading input from fepdslab2.in
Warning: card &CELL ignored
Warning: card CELL_DYNAMICS = 'BFGS', ignored
Warning: card CELL_FACTOR = 2.0, ignored
Warning: card PRESS = 0.0, ignored
Warning: card / ignored

     Current dimensions of program PWSCF are:
     Max number of different atomic species (ntypx) = 10
     Max number of k-points (npk) =  40000
     Max angular momentum in pseudopotentials (lmaxx) =  3
     file Fe.pbe-spn-kjpaw_psl.1.0.0.UPF: wavefunction(s)  3P 3D renormalized
     file Fe.pbe-spn-kjpaw_psl.1.0.0.UPF: wavefunction(s)  3P 3D renormalized
     file Pd.pbe-spn-kjpaw_psl.1.0.0.UPF: wavefunction(s)  4S 5S 4D renormalized

     gamma-point specific algorithms are used

     Subspace diagonalization in iterative solution of the eigenvalue problem:
     one sub-group per band group will be used

     bravais-lattice index     =            0
     lattice parameter (alat)  =      25.8600  a.u.
     unit-cell volume          =   18186.5006 (a.u.)^3
     number of atoms/cell      =          128
     number of atomic types    =            3
     number of electrons       =      2050.00
     number of Kohn-Sham states=         1230
     kinetic-energy cutoff     =      71.0000  Ry
     charge density cutoff     =     430.0000  Ry
     scf convergence threshold =      1.0E-08
     mixing beta               =       0.3000
     number of iterations used =           10  local-TF  mixing
     energy convergence thresh.=      1.0E-04
     force convergence thresh. =      1.0E-03
     Exchange-correlation= SLA  PW   PBX  PBC
                           (   1   4   3   4   0   0   0)
     nstep                     =           40

     celldm(1)=  25.860000  celldm(2)=   0.000000  celldm(3)=   0.000000
     celldm(4)=   0.000000  celldm(5)=   0.000000  celldm(6)=   0.000000

     crystal axes: (cart. coord. in units of alat)
               a(1) = (   1.000000   0.000000   0.000000 )
               a(2) = (   0.000000   1.051631   0.000000 )
               a(3) = (   0.000000   0.000000   1.000000 )

     reciprocal axes: (cart. coord. in units 2 pi/alat)
               b(1) = (  1.000000  0.000000  0.000000 )
               b(2) = (  0.000000  0.950903  0.000000 )
               b(3) = (  0.000000  0.000000  1.000000 )

     PseudoPot. # 1 for Fe read from file:
     /rds/homes/b/bxp912/pp/Fe.pbe-spn-kjpaw_psl.1.0.0.UPF
     MD5 check sum: 42f43b795421b414b0dc916aa790dbcb
     Pseudo is Projector augmented-wave + core cor, Zval = 16.0
     Generated using &quot;atomic&quot; code by A. Dal Corso  v.6.3
     Shape of augmentation charge: PSQ
     Using radial grid of 1191 points,  6 beta functions with:
                l(1) =   0
                l(2) =   0
                l(3) =   1
                l(4) =   1
                l(5) =   2
                l(6) =   2
     Q(r) pseudized with 0 coefficients

     PseudoPot. # 2 for Fe read from file:
     /rds/homes/b/bxp912/pp/Fe.pbe-spn-kjpaw_psl.1.0.0.UPF
     MD5 check sum: 42f43b795421b414b0dc916aa790dbcb
     Pseudo is Projector augmented-wave + core cor, Zval = 16.0
     Generated using &quot;atomic&quot; code by A. Dal Corso  v.6.3
     Shape of augmentation charge: PSQ
     Using radial grid of 1191 points,  6 beta functions with:
                l(1) =   0
                l(2) =   0
                l(3) =   1
                l(4) =   1
                l(5) =   2
                l(6) =   2
     Q(r) pseudized with 0 coefficients

     PseudoPot. # 3 for Pd read from file:
     /rds/homes/b/bxp912/pp/Pd.pbe-spn-kjpaw_psl.1.0.0.UPF
     MD5 check sum: 790f2ebce206edfd9790dcb9844eca51
     Pseudo is Projector augmented-wave + core cor, Zval = 18.0
     Generated using &quot;atomic&quot; code by A. Dal Corso  v.6.3
     Shape of augmentation charge: PSQ
     Using radial grid of 1235 points,  6 beta functions with:
                l(1) =   0
                l(2) =   0
                l(3) =   1
                l(4) =   1
                l(5) =   2
                l(6) =   2
     Q(r) pseudized with 0 coefficients

     atomic species   valence    mass     pseudopotential
        Fe1           16.00    55.84500     Fe( 1.00)
        Fe2           16.00    55.84500     Fe( 1.00)
        Pd            18.00   106.42000     Pd( 1.00)

     Starting magnetic structure
     atomic species   magnetization
        Fe1          0.100
        Fe2         -0.100
        Pd           0.001

     No symmetry found

   Cartesian axes

     site n.     atom                  positions (alat units)
         1           Pd  tau(   1) = (   0.0624897   0.0657141   0.3147556  )
         2           Fe2 tau(   2) = (   0.1875103   0.1971938   0.3147557  )
         3           Fe1 tau(   3) = (   0.1875128   0.0657131   0.4353662  )
         4           Fe2 tau(   4) = (   0.0624871   0.1971948   0.4353663  )
         5           Fe1 tau(   5) = (   0.0624872   0.0657131   0.5646338  )
         6           Fe2 tau(   6) = (   0.1875128   0.1971948   0.5646337  )
         7           Fe1 tau(   7) = (   0.1875103   0.0657141   0.6852444  )
         8           Fe2 tau(   8) = (   0.0624897   0.1971939   0.6852443  )
         9           Fe1 tau(   9) = (   0.0624897   0.3286219   0.3147556  )
        10           Fe2 tau(  10) = (   0.1875103   0.4601017   0.3147556  )
        11           Fe1 tau(  11) = (   0.1875128   0.3286210   0.4353662  )
        12           Fe2 tau(  12) = (   0.0624872   0.4601026   0.4353662  )
        13           Fe1 tau(  13) = (   0.0624871   0.3286210   0.5646338  )
        14           Fe2 tau(  14) = (   0.1875128   0.4601026   0.5646338  )
        15           Fe1 tau(  15) = (   0.1875103   0.3286219   0.6852444  )
        16           Fe2 tau(  16) = (   0.0624897   0.4601017   0.6852444  )
        17           Fe1 tau(  17) = (   0.0624897   0.5915298   0.3147557  )
        18           Fe2 tau(  18) = (   0.1875103   0.7230095   0.3147557  )
        19           Fe1 tau(  19) = (   0.1875128   0.5915288   0.4353662  )
        20           Fe2 tau(  20) = (   0.0624871   0.7230105   0.4353662  )
        21           Fe1 tau(  21) = (   0.0624872   0.5915289   0.5646337  )
        22           Fe2 tau(  22) = (   0.1875128   0.7230105   0.5646337  )
        23           Fe1 tau(  23) = (   0.1875103   0.5915298   0.6852444  )
        24           Fe2 tau(  24) = (   0.0624898   0.7230096   0.6852444  )
        25           Fe1 tau(  25) = (   0.0624897   0.8544376   0.3147556  )
        26           Fe2 tau(  26) = (   0.1875103   0.9859174   0.3147556  )
        27           Fe1 tau(  27) = (   0.1875128   0.8544367   0.4353662  )
        28           Fe2 tau(  28) = (   0.0624872   0.9859184   0.4353662  )
        29           Fe1 tau(  29) = (   0.0624871   0.8544367   0.5646338  )
        30           Fe2 tau(  30) = (   0.1875128   0.9859184   0.5646338  )
        31           Fe1 tau(  31) = (   0.1875103   0.8544376   0.6852444  )
        32           Fe2 tau(  32) = (   0.0624897   0.9859174   0.6852444  )
        33           Fe1 tau(  33) = (   0.3124897   0.0657141   0.3147556  )
        34           Fe2 tau(  34) = (   0.4375103   0.1971938   0.3147557  )
        35           Fe1 tau(  35) = (   0.4375128   0.0657131   0.4353662  )
        36           Fe2 tau(  36) = (   0.3124872   0.1971948   0.4353662  )
        37           Fe1 tau(  37) = (   0.3124871   0.0657131   0.5646337  )
        38           Fe2 tau(  38) = (   0.4375129   0.1971948   0.5646337  )
        39           Fe1 tau(  39) = (   0.4375103   0.0657140   0.6852443  )
        40           Fe2 tau(  40) = (   0.3124897   0.1971938   0.6852443  )
        41           Fe1 tau(  41) = (   0.3124897   0.3286219   0.3147556  )
        42           Fe2 tau(  42) = (   0.4375103   0.4601017   0.3147556  )
        43           Fe1 tau(  43) = (   0.4375128   0.3286210   0.4353662  )
        44           Fe2 tau(  44) = (   0.3124871   0.4601026   0.4353662  )
        45           Fe1 tau(  45) = (   0.3124872   0.3286210   0.5646337  )
        46           Fe2 tau(  46) = (   0.4375129   0.4601026   0.5646338  )
        47           Fe1 tau(  47) = (   0.4375103   0.3286219   0.6852444  )
        48           Fe2 tau(  48) = (   0.3124897   0.4601017   0.6852444  )
        49           Fe1 tau(  49) = (   0.3124897   0.5915298   0.3147556  )
        50           Fe2 tau(  50) = (   0.4375102   0.7230096   0.3147557  )
        51           Fe1 tau(  51) = (   0.4375128   0.5915288   0.4353662  )
        52           Fe2 tau(  52) = (   0.3124872   0.7230105   0.4353663  )
        53           Fe1 tau(  53) = (   0.3124871   0.5915288   0.5646338  )
        54           Fe2 tau(  54) = (   0.4375129   0.7230105   0.5646338  )
        55           Fe1 tau(  55) = (   0.4375103   0.5915298   0.6852444  )
        56           Fe2 tau(  56) = (   0.3124897   0.7230096   0.6852443  )
        57           Fe1 tau(  57) = (   0.3124897   0.8544376   0.3147557  )
        58           Fe2 tau(  58) = (   0.4375103   0.9859174   0.3147556  )
        59           Fe1 tau(  59) = (   0.4375128   0.8544367   0.4353662  )
        60           Fe2 tau(  60) = (   0.3124871   0.9859184   0.4353662  )
[...]
       114           Fe2 tau( 114) = (   0.9375102   0.7230096   0.3147556  )
       115           Fe1 tau( 115) = (   0.9375128   0.5915289   0.4353663  )
       116           Fe2 tau( 116) = (   0.8124872   0.7230105   0.4353663  )
       117           Fe1 tau( 117) = (   0.8124872   0.5915288   0.5646338  )
       118           Fe2 tau( 118) = (   0.9375129   0.7230105   0.5646338  )
       119           Fe1 tau( 119) = (   0.9375103   0.5915298   0.6852443  )
       120           Fe2 tau( 120) = (   0.8124897   0.7230095   0.6852443  )
       121           Fe1 tau( 121) = (   0.8124897   0.8544376   0.3147556  )
       122           Fe2 tau( 122) = (   0.9375103   0.9859174   0.3147556  )
       123           Fe1 tau( 123) = (   0.9375129   0.8544367   0.4353662  )
       124           Fe2 tau( 124) = (   0.8124872   0.9859184   0.4353662  )
       125           Fe1 tau( 125) = (   0.8124872   0.8544367   0.5646338  )
       126           Fe2 tau( 126) = (   0.9375128   0.9859184   0.5646338  )
       127           Fe1 tau( 127) = (   0.9375103   0.8544376   0.6852444  )
       128           Fe2 tau( 128) = (   0.8124897   0.9859174   0.6852444  )

     number of k points=     1  Marzari-Vanderbilt smearing, width (Ry)=  0.0400
                       cart. coord. in units 2pi/alat
        k(    1) = (   0.0000000   0.0000000   0.0000000), wk =   1.0000000

     Check: negative core charge=   -0.000004
     Generating pointlists ...
     new r_m :   0.0716 (alat units)  1.8527 (a.u.) for type    1
     new r_m :   0.0716 (alat units)  1.8527 (a.u.) for type    2
     new r_m :   0.0716 (alat units)  1.8527 (a.u.) for type    3

     Initial potential from superposition of free atoms

     starting charge 2049.94405, renormalised to 2050.00000

     negative rho (up, down):  2.265E-04 2.259E-04
[...]
   -46.4491 -46.4476 -46.4469 -46.4448 -46.3915 -46.3885 -46.3866 -46.3856
   -46.3854 -46.3841 -46.3841 -46.3831 -46.3819 -46.3811 -46.3795 -46.3789
   -46.3749 -46.3737 -46.3724 -46.3717 -46.3711 -46.3695 -46.3683 -46.3674
   -46.3666 -46.3657 -46.3650 -46.3644 -46.3624 -46.3620 -46.3615 -46.3606
   -46.3012 -46.2978 -46.2977 -46.2943 -46.2934 -46.2922 -46.2891 -46.2880
   -46.2857 -46.2855 -46.2829 -46.2825 -46.2798 -46.2786 -46.2766 -46.2742
   -46.0845 -46.0817 -46.0257 -46.0248 -46.0061 -46.0040 -45.8613 -45.8560
   -45.8554 -45.8518 -45.8503 -45.8493 -45.8491 -45.8487 -45.8477 -45.8473
   -45.8420 -45.8379 -45.8369 -45.8313 -45.8311 -45.8290 -45.8285 -45.8238
   -45.8232 -45.8229 -45.8224 -45.8215 -45.8207 -45.8191 -45.8187 -45.8182
   -45.8175 -45.8145 -45.7967 -45.7949 -45.7941 -45.7937 -45.7935 -45.7924
   -45.7922 -45.7911 -45.7907 -45.7902 -45.7895 -45.7886 -45.7881 -45.7879
   -45.7858 -45.7832 -45.7328 -45.7306 -45.7285 -45.7275 -45.6403 -45.6397
   -45.6372 -45.6368 -45.6362 -45.6354 -45.6340 -45.6329 -45.6280 -45.6266
   -45.6221 -45.6170 -45.6112 -45.6097 -45.6079 -45.6042 -45.6026 -45.6004
   -45.5945 -45.5910 -45.5875 -45.5871 -45.5831 -45.5818 -45.5797 -45.5795
   -45.5652 -45.5641 -45.5552 -45.5534 -45.5493 -45.5488 -45.5364 -45.5345
   -45.5339 -45.5337 -45.5083 -45.5019 -45.4512 -45.4447 -45.4412 -45.4325
   -45.0331 -44.9395 -44.8999 -44.7686 -44.7657 -44.7379 -44.7356 -44.6830
   -44.6807 -44.5967 -44.5914 -44.5778 -44.5772 -44.5765 -44.5759 -44.5700
   -44.5691 -44.5663 -44.5650 -44.5647 -44.5616 -44.5600 -44.5598 -44.5581
   -44.5571 -44.5563 -44.5554 -44.5551 -44.5547 -44.5525 -44.5508 -44.5469
   -44.5453 -44.5431 -44.5390 -44.5385 -44.5382 -44.5377 -44.5365 -44.5336
   -44.5291 -44.5289 -44.5256 -44.5241 -44.5234 -44.5108 -44.5072 -44.5067
   -44.5041 -44.5035 -44.4787 -44.4784 -44.4631 -44.4629 -44.4228 -44.4222
   -44.4183 -44.4176 -44.4125 -44.4121 -44.4112 -44.4105 -44.4094 -44.4053
   -44.4051 -44.4038 -44.4022 -44.4014 -44.3956 -44.3937 -44.3924 -44.3902
   -44.3865 -44.3851 -44.3817 -44.3809 -44.3801 -44.3791 -44.3776 -44.3775
   -44.3665 -44.3650 -44.3575 -44.3555 -44.3541 -44.3533 -44.3531 -44.3511
   -44.3414 -44.3409 -44.2502 -44.2494 -44.2455 -44.2447 -44.1963 -44.1947
   -44.0096 -44.0087 -44.0085 -44.0076 -43.9837 -43.9822 -43.9659 -43.9649
   -43.9583 -43.9384 -43.9378 -43.9364 -43.9362 -43.9331 -43.9302 -43.9302
   -43.9295 -43.9291 -43.9290 -43.9284 -43.9271 -43.9264 -43.9228 -43.9221
   -43.9221 -43.9218 -43.9216 -43.9211 -43.9210 -43.9207 -43.9169 -43.9145
   -43.9141 -43.9136 -43.9134 -43.8985 -43.8968 -43.8798 -43.8784 -43.8772
   -43.8668 -43.8661 -43.8605 -43.8599 -43.8598 -43.8596 -43.8579 -43.8576
   -43.8514 -43.8514 -43.8482 -43.8480 -43.8464 -43.8463 -43.8459 -43.8458
   -43.8456 -43.8427 -43.8360 -43.8356 -43.8353 -43.8350 -43.8293 -43.8288
[...]
     8.8145   8.8189   8.8296   8.8480   8.8490   8.8592   8.8629   8.8746
     8.8766   8.8842   8.8864   8.8907   8.8978   8.9029   8.9048   8.9050
     8.9100   8.9334   8.9366   8.9475   8.9483   8.9497   8.9647   8.9686
     8.9704   8.9707   8.9715   8.9781   8.9844   8.9991   9.0280   9.0416
     9.0460   9.0472   9.0481   9.0570   9.0656   9.0721   9.0731   9.0734
     9.0756   9.0770   9.0834   9.0935   9.0944   9.1237   9.1239   9.1341
     9.1408   9.1426   9.1497   9.1524   9.1548   9.1614   9.1651   9.1662
     9.1678   9.1708   9.1794   9.1865   9.1973   9.1988   9.2003   9.2269
     9.2328   9.2345   9.2417   9.2490   9.2646   9.2755   9.2782   9.2869
     9.2910   9.2923   9.2960   9.2977   9.3028   9.3147   9.3172   9.3172
     9.3211   9.3390   9.3477   9.3498   9.3688   9.3815   9.3955   9.4141
     9.4205   9.4411   9.4800   9.4904   9.4909   9.4984   9.5311   9.5398
     9.6128   9.6722   9.8757   9.8848  10.1079  10.1990  10.1997  10.3152
    10.3422  10.3816  10.4073  10.4350  10.4364  10.4395  10.4933  10.4967
    10.5273  10.5319  10.5634  10.6037  10.6248  10.6432

     the Fermi energy is     8.0822 ev

!    total energy              =  -42322.71583146 Ry

     total all-electron energy =   -333372.402208 Ry
     estimated scf accuracy    <          9.2E-11 Ry
     smearing contrib. (-TS)   =       0.01604193 Ry
     internal energy E=F+TS    =  -42322.73187339 Ry

     The total energy is F=E-TS. E is the sum of the following terms:
     one-electron contribution =  -98174.54853562 Ry
     hartree contribution      =   49589.79682767 Ry
     xc contribution           =   -3547.88459431 Ry
     ewald contribution        =   20579.91825393 Ry
     one-center paw contrib.   =  -10770.01382506 Ry

     total magnetization       =    -3.59 Bohr mag/cell
     absolute magnetization    =   228.38 Bohr mag/cell

     convergence has been achieved in  48 iterations

     negative rho (up, down):  1.204E-03 1.299E-03

     Forces acting on atoms (cartesian axes, Ry/au):

     atom    1 type  3   force =    -0.00000005    0.00003043   -0.00021376
     atom    2 type  2   force =    -0.00004164    0.00016537    0.00028406
     atom    3 type  1   force =     0.00087722   -0.00000291   -0.00048913
     atom    4 type  2   force =     0.00000792    0.00060075   -0.00069224
     atom    5 type  1   force =    -0.00003220   -0.00001158    0.00020799
     atom    6 type  2   force =     0.00018596   -0.00000437   -0.00033297
     atom    7 type  1   force =     0.00003212   -0.00000328   -0.00049797
     atom    8 type  2   force =     0.00001850    0.00002948   -0.00036629
     atom    9 type  1   force =     0.00000387   -0.00029975    0.00006369
     atom   10 type  2   force =     0.00027471    0.00030595   -0.00015550
     atom   11 type  1   force =    -0.00056117   -0.00024105   -0.00030293
     atom   12 type  2   force =     0.00000791    0.00016396   -0.00032209
     atom   13 type  1   force =     0.00000371   -0.00021767   -0.00036353
     atom   14 type  2   force =     0.00015134    0.00014308   -0.00008450
     atom   15 type  1   force =     0.00006430    0.00010454    0.00028654
     atom   16 type  2   force =     0.00001776    0.00005303    0.00013499
     atom   17 type  1   force =    -0.00000346    0.00001083    0.00018959
     atom   18 type  2   force =     0.00030316   -0.00029671   -0.00015710
     atom   19 type  1   force =     0.00003535   -0.00000186    0.00003984
     atom   20 type  2   force =     0.00000217   -0.00013565   -0.00033676
     atom   21 type  1   force =     0.00000456    0.00000484   -0.00019314
     atom   22 type  2   force =     0.00014652   -0.00014884   -0.00007804
     atom   23 type  1   force =    -0.00024894   -0.00000286    0.00019205
     atom   24 type  2   force =     0.00000633   -0.00005015    0.00015980
     atom   25 type  1   force =    -0.00001046    0.00029278    0.00005913
     atom   26 type  2   force =    -0.00005424   -0.00013020    0.00031639
     atom   27 type  1   force =    -0.00054698    0.00024931   -0.00032196
     atom   28 type  2   force =    -0.00000444   -0.00058281   -0.00066065
     atom   29 type  1   force =    -0.00001828    0.00014877   -0.00035801
     atom   30 type  2   force =     0.00020415    0.00004094   -0.00034833
     atom   31 type  1   force =     0.00006792   -0.00008174    0.00026735
     atom   32 type  2   force =     0.00001587   -0.00007920   -0.00043039
     atom   33 type  1   force =     0.00005434    0.00000490    0.00015102
     atom   34 type  2   force =     0.00042541    0.00026421   -0.00025502
     atom   35 type  1   force =    -0.00008429    0.00000735   -0.00006780
     atom   36 type  2   force =    -0.00005846   -0.00012821   -0.00008318
     atom   37 type  1   force =    -0.00037238    0.00000148   -0.00020584
     atom   38 type  2   force =    -0.00006404   -0.00001355   -0.00014097
     atom   39 type  1   force =     0.00003203    0.00001599    0.00046967
     atom   40 type  2   force =     0.00010977    0.00006604    0.00032023
     atom   41 type  1   force =     0.00000687    0.00023998   -0.00028852
     atom   42 type  2   force =     0.00022961   -0.00016132    0.00006456
     atom   43 type  1   force =     0.00006813    0.00008973    0.00016718
     atom   44 type  2   force =     0.00003349    0.00006782    0.00010915
     atom   45 type  1   force =    -0.00012365    0.00013899   -0.00010250
     atom   46 type  2   force =    -0.00006821   -0.00014223    0.00030250
     atom   47 type  1   force =    -0.00001546   -0.00043102   -0.00000671
     atom   48 type  2   force =    -0.00027863   -0.00020784    0.00006682
     atom   49 type  1   force =     0.00032532   -0.00002310    0.00021086
     atom   50 type  2   force =     0.00022371    0.00018352    0.00004374
     atom   51 type  1   force =     0.00016755   -0.00000734    0.00044865
     atom   52 type  2   force =     0.00004248   -0.00008615    0.00012632
     atom   53 type  1   force =    -0.00006846   -0.00000998    0.00022537
     atom   54 type  2   force =    -0.00005956    0.00013209    0.00031313
     atom   55 type  1   force =    -0.00040546   -0.00000806    0.00009031
     atom   56 type  2   force =    -0.00028808    0.00021499    0.00007611
     atom   57 type  1   force =     0.00002724   -0.00022950   -0.00030019
     atom   58 type  2   force =     0.00042588   -0.00023241   -0.00024215
     atom   59 type  1   force =     0.00008511   -0.00009896    0.00016175
     atom   60 type  2   force =    -0.00000731    0.00008698   -0.00006312
[...]
     atom  114 type  2   force =    -0.00031010   -0.00031251   -0.00012933
     atom  115 type  1   force =    -0.00003903   -0.00000195    0.00005024
     atom  116 type  2   force =    -0.00003346   -0.00007447    0.00012454
     atom  117 type  1   force =     0.00007279   -0.00001175    0.00022619
     atom  118 type  2   force =    -0.00015277   -0.00016449   -0.00006661
     atom  119 type  1   force =     0.00025587   -0.00002169    0.00021938
     atom  120 type  2   force =     0.00027301    0.00018545    0.00005052
     atom  121 type  1   force =     0.00004255   -0.00017193   -0.00034938
     atom  122 type  2   force =     0.00013328   -0.00006288    0.00042283
     atom  123 type  1   force =     0.00056003    0.00023156   -0.00030473
     atom  124 type  2   force =    -0.00000129    0.00004681   -0.00008164
     atom  125 type  1   force =     0.00010016   -0.00015469   -0.00011785
     atom  126 type  2   force =    -0.00018517    0.00002243   -0.00037667
     atom  127 type  1   force =    -0.00011759   -0.00009024    0.00026734
     atom  128 type  2   force =    -0.00013353   -0.00005719    0.00027553

     Total force =     0.004370     Total SCF correction =     0.000027

     Computing stress (Cartesian axis) and pressure

     negative rho (up, down):  1.204E-03 1.299E-03
          total   stress  (Ry/bohr**3)                   (kbar)     P=      -20.90
  -0.00015002  -0.00000000   0.00000005          -22.07       -0.00        0.01
  -0.00000000  -0.00010607   0.00000028           -0.00      -15.60        0.04
   0.00000005   0.00000028  -0.00017007            0.01        0.04      -25.02

     Energy error            =      3.7E-05
     Gradient error          =      8.8E-04

     bfgs converged in  17 scf cycles and  16 bfgs steps
     (criteria: energy <  1.0E-04 Ry, force <  1.0E-03 Ry/Bohr)

     End of BFGS Geometry Optimization

     Final energy   =  -42322.7158314641 Ry

     File /scratch/bxp912/fepdslab2.bfgs deleted, as requested
Begin final coordinates

ATOMIC_POSITIONS (crystal)
Pd            0.0625059153        0.0625483889        0.2910259858
Fe2           0.1918897058        0.1915283134        0.3118918478
Fe1           0.1882328297        0.0624618855        0.4358378635
Fe2           0.0624775429        0.1873963873        0.4359470564
Fe1           0.0624548738        0.0624360198        0.5661003365
Fe2           0.1871429590        0.1868954499        0.5642272832
Fe1           0.1889127331        0.0624100779        0.6868723485
Fe2           0.0625044268        0.1858009444        0.6845946164
Fe1           0.0624492315        0.3128550457        0.3162930506
Fe2           0.1878214372        0.4366783757        0.3140372195
Fe1           0.1883842644        0.3131885294        0.4358220253
Fe2           0.0624759641        0.4370711592        0.4342727945
Fe1           0.0624919598        0.3121505871        0.5642399116
Fe2           0.1874818178        0.4374227545        0.5644807331
Fe1           0.1868969998        0.3120501992        0.6858747927
Fe2           0.0624936383        0.4379112266        0.6849403582
Fe1           0.0625024484        0.5625274680        0.3157342920
Fe2           0.1879141517        0.6883893082        0.3139751800
Fe1           0.1872819863        0.5625039837        0.4358293204
Fe2           0.0624834638        0.6879917339        0.4342323209
Fe1           0.0624907017        0.5624881475        0.5645538456
Fe2           0.1874918926        0.6876175313        0.5644792932
Fe1           0.1874063488        0.5624858900        0.6856542439
Fe2           0.0625142487        0.6871173339        0.6849283292
Fe1           0.0624543069        0.8120703329        0.3163316482
Fe2           0.1918142464        0.9334265054        0.3118943462
Fe1           0.1884013377        0.8117787354        0.4358344520
Fe2           0.0624648761        0.9376337677        0.4359181941
Fe1           0.0624984820        0.8128146044        0.5642263577
Fe2           0.1871331703        0.9380786076        0.5642305185
Fe1           0.1869002113        0.8129062626        0.6858783034
Fe2           0.0624557733        0.9391171854        0.6846415213
Fe1           0.3125283210        0.0624521724        0.3153241495
Fe2           0.4366043043        0.1874895648        0.3142071563
Fe1           0.4374422095        0.0624867840        0.4355768564
Fe2           0.3125894028        0.1878770701        0.4358271009
Fe1           0.3120224749        0.0624579257        0.5647659197
Fe2           0.4378242469        0.1872896848        0.5645464590
Fe1           0.4382669951        0.0624274120        0.6865253419
Fe2           0.3128280345        0.1871878767        0.6838987635
Fe1           0.3143565706        0.3138787290        0.3168880579
Fe2           0.4380141928        0.4381440966        0.3143143428
Fe1           0.4381801400        0.3126695448        0.4365575940
Fe2           0.3127565798        0.4378726591        0.4354135949
Fe1           0.3125128739        0.3126473387        0.5653540961
Fe2           0.4375258237        0.4375974564        0.5648720934
Fe1           0.4372526730        0.3125494042        0.6863402645
Fe2           0.3121638584        0.4377008037        0.6850825333
Fe1           0.3122460638        0.5624775747        0.3156420036
Fe2           0.4379748895        0.6869118080        0.3143453965
Fe1           0.4374234877        0.5624873297        0.4359554884
Fe2           0.3127686907        0.6871842094        0.4354241731
Fe1           0.3124200014        0.5624803531        0.5650305547
Fe2           0.4375285793        0.6874443152        0.5648767867
Fe1           0.4377002353        0.5624729891        0.6861049666
Fe2           0.3121736074        0.6873235181        0.6850813644
Fe1           0.3144102608        0.8112222437        0.3169355179
Fe2           0.4366715120        0.9375571919        0.3142090746
Fe1           0.4382062826        0.8123104797        0.4365852953
Fe2           0.3125895054        0.9371698497        0.4358131312
[...]
Fe2           0.9371598339        0.6883566773        0.3139998832
Fe1           0.9377645641        0.5625029634        0.4358419238
Fe2           0.8122153248        0.6871758175        0.4354428079
Fe1           0.8125579713        0.5624846135        0.5650413362
Fe2           0.9375704509        0.6876195912        0.5644911395
Fe1           0.9376433085        0.5624975982        0.6856562482
Fe2           0.8128215444        0.6873199357        0.6850820074
Fe1           0.8106770089        0.8111702625        0.3170120749
Fe2           0.9331250833        0.9334453315        0.3118906622
Fe1           0.9366253266        0.8117887660        0.4358875499
Fe2           0.8123693817        0.9371797245        0.4358402505
Fe1           0.8124209461        0.8122954705        0.5653886354
Fe2           0.9378693278        0.9380849485        0.5642632359
Fe1           0.9381364061        0.8128734431        0.6858883024
Fe2           0.8121442934        0.9377862592        0.6839158563
End final coordinates

     Writing output data file /scratch/bxp912/fepdslab2.save/

     General routines

     Parallel routines

   This run was terminated on:   9:46:19   2May2022

   JOB DONE.