     Program PWSCF v.6.7MaX starts on 12May2022 at 14:15:41

     R & G space division:  proc/nbgrp/npool/nimage =      72
     Reading input from fepdslab4.in
Warning: card &CELL ignored
Warning: card CELL_DYNAMICS = 'BFGS', ignored
Warning: card CELL_FACTOR = 2.0, ignored
Warning: card PRESS = 0.0, ignored
Warning: card / ignored

     Current dimensions of program PWSCF are:
     Max number of different atomic species (ntypx) = 10
     Max number of k-points (npk) =  40000
     Max angular momentum in pseudopotentials (lmaxx) =  3
     file Fe.pbe-spn-kjpaw_psl.1.0.0.UPF: wavefunction(s)  3P 3D renormalized
     file Fe.pbe-spn-kjpaw_psl.1.0.0.UPF: wavefunction(s)  3P 3D renormalized
     file Pd.pbe-spn-kjpaw_psl.1.0.0.UPF: wavefunction(s)  4S 5S 4D renormalized

     gamma-point specific algorithms are used

     Subspace diagonalization in iterative solution of the eigenvalue problem:
     one sub-group per band group will be used

     bravais-lattice index     =            0
     lattice parameter (alat)  =      25.8600  a.u.
     unit-cell volume          =   18186.5006 (a.u.)^3
     number of atoms/cell      =          129
     number of atomic types    =            3
     number of electrons       =      2066.00
     number of Kohn-Sham states=         1240
     kinetic-energy cutoff     =      71.0000  Ry
     charge density cutoff     =     430.0000  Ry
     scf convergence threshold =      1.0E-06
     mixing beta               =       0.3000
     number of iterations used =           10  local-TF  mixing
     Exchange-correlation= SLA  PW   PBX  PBC
                           (   1   4   3   4   0   0   0)

     celldm(1)=  25.860000  celldm(2)=   0.000000  celldm(3)=   0.000000
     celldm(4)=   0.000000  celldm(5)=   0.000000  celldm(6)=   0.000000

     crystal axes: (cart. coord. in units of alat)
               a(1) = (   1.000000   0.000000   0.000000 )
               a(2) = (   0.000000   1.051631   0.000000 )
               a(3) = (   0.000000   0.000000   1.000000 )

     reciprocal axes: (cart. coord. in units 2 pi/alat)
               b(1) = (  1.000000  0.000000  0.000000 )
               b(2) = (  0.000000  0.950903  0.000000 )
               b(3) = (  0.000000  0.000000  1.000000 )

     PseudoPot. # 1 for Fe read from file:
     /rds/homes/b/bxp912/pp/Fe.pbe-spn-kjpaw_psl.1.0.0.UPF
     MD5 check sum: 42f43b795421b414b0dc916aa790dbcb
     Pseudo is Projector augmented-wave + core cor, Zval = 16.0
     Generated using &quot;atomic&quot; code by A. Dal Corso  v.6.3
     Shape of augmentation charge: PSQ
     Using radial grid of 1191 points,  6 beta functions with:
                l(1) =   0
                l(2) =   0
                l(3) =   1
                l(4) =   1
                l(5) =   2
                l(6) =   2
     Q(r) pseudized with 0 coefficients

     PseudoPot. # 2 for Fe read from file:
     /rds/homes/b/bxp912/pp/Fe.pbe-spn-kjpaw_psl.1.0.0.UPF
     MD5 check sum: 42f43b795421b414b0dc916aa790dbcb
     Pseudo is Projector augmented-wave + core cor, Zval = 16.0
     Generated using &quot;atomic&quot; code by A. Dal Corso  v.6.3
     Shape of augmentation charge: PSQ
     Using radial grid of 1191 points,  6 beta functions with:
                l(1) =   0
                l(2) =   0
                l(3) =   1
                l(4) =   1
                l(5) =   2
                l(6) =   2
     Q(r) pseudized with 0 coefficients

     PseudoPot. # 3 for Pd read from file:
     /rds/homes/b/bxp912/pp/Pd.pbe-spn-kjpaw_psl.1.0.0.UPF
     MD5 check sum: 790f2ebce206edfd9790dcb9844eca51
     Pseudo is Projector augmented-wave + core cor, Zval = 18.0
     Generated using &quot;atomic&quot; code by A. Dal Corso  v.6.3
     Shape of augmentation charge: PSQ
     Using radial grid of 1235 points,  6 beta functions with:
                l(1) =   0
                l(2) =   0
                l(3) =   1
                l(4) =   1
                l(5) =   2
                l(6) =   2
     Q(r) pseudized with 0 coefficients

     atomic species   valence    mass     pseudopotential
        Fe1           16.00    55.84500     Fe( 1.00)
        Fe2           16.00    55.84500     Fe( 1.00)
        Pd            18.00   106.42000     Pd( 1.00)

     Starting magnetic structure
     atomic species   magnetization
        Fe1          0.100
        Fe2         -0.100
        Pd           0.001

     No symmetry found

   Cartesian axes

     site n.     atom                  positions (alat units)
         1           Pd  tau(   1) = (   0.1425366   0.1152741   0.1753095  )
         2           Fe1 tau(   2) = (   0.0587515   0.0653881   0.3211198  )
         3           Fe2 tau(   3) = (   0.1884265   0.2002713   0.3214448  )
         4           Fe1 tau(   4) = (   0.1868213   0.0655646   0.4421276  )
         5           Fe2 tau(   5) = (   0.0624952   0.1980629   0.4424469  )
         6           Fe1 tau(   6) = (   0.0623234   0.0655267   0.5697271  )
         7           Fe2 tau(   7) = (   0.1876610   0.1975943   0.5698145  )
         8           Fe1 tau(   8) = (   0.1882185   0.0650035   0.6879009  )
         9           Fe2 tau(   9) = (   0.0616632   0.1980291   0.6879420  )
        10           Fe1 tau(  10) = (   0.0653597   0.3265762   0.3172267  )
        11           Fe2 tau(  11) = (   0.1877413   0.4579090   0.3175394  )
        12           Fe1 tau(  12) = (   0.1881227   0.3296492   0.4412225  )
        13           Fe2 tau(  13) = (   0.0633903   0.4595175   0.4385688  )
        14           Fe1 tau(  14) = (   0.0628268   0.3296102   0.5678640  )
        15           Fe2 tau(  15) = (   0.1885537   0.4615096   0.5682187  )
        16           Fe1 tau(  16) = (   0.1887326   0.3305664   0.6874596  )
        17           Fe2 tau(  17) = (   0.0603308   0.4618776   0.6862421  )
        18           Fe1 tau(  18) = (   0.0648519   0.5907106   0.3145093  )
        19           Fe2 tau(  19) = (   0.1847510   0.7238107   0.3145456  )
        20           Fe1 tau(  20) = (   0.1863681   0.5909977   0.4371267  )
        21           Fe2 tau(  21) = (   0.0633682   0.7236125   0.4371464  )
        22           Fe1 tau(  22) = (   0.0615849   0.5918936   0.5662034  )
        23           Fe2 tau(  23) = (   0.1882586   0.7226899   0.5660552  )
        24           Fe1 tau(  24) = (   0.1887997   0.5925453   0.6861716  )
        25           Fe2 tau(  25) = (   0.0613274   0.7219977   0.6862125  )
        26           Fe1 tau(  26) = (   0.0618357   0.8560935   0.3172000  )
        27           Fe2 tau(  27) = (   0.1829530   0.9895025   0.3139428  )
        28           Fe1 tau(  28) = (   0.1862919   0.8555747   0.4379183  )
        29           Fe2 tau(  29) = (   0.0618572   0.9855343   0.4406165  )
        30           Fe1 tau(  30) = (   0.0613876   0.8531658   0.5679772  )
        31           Fe2 tau(  31) = (   0.1869233   0.9851356   0.5677120  )
        32           Fe1 tau(  32) = (   0.1896322   0.8527645   0.6860337  )
        33           Fe2 tau(  33) = (   0.0612834   0.9839846   0.6875207  )
        34           Fe1 tau(  34) = (   0.3076371   0.0696373   0.3122286  )
        35           Fe2 tau(  35) = (   0.4357117   0.1980603   0.3171939  )
        36           Fe1 tau(  36) = (   0.4341488   0.0657210   0.4341951  )
        37           Fe2 tau(  37) = (   0.3121648   0.1978698   0.4418603  )
        38           Fe1 tau(  38) = (   0.3124073   0.0653502   0.5666112  )
        39           Fe2 tau(  39) = (   0.4385533   0.1968925   0.5660486  )
        40           Fe1 tau(  40) = (   0.4380091   0.0657438   0.6859902  )
        41           Fe2 tau(  41) = (   0.3146724   0.1973275   0.6859048  )
        42           Fe1 tau(  42) = (   0.3112557   0.3275738   0.3170910  )
        43           Fe2 tau(  43) = (   0.4354886   0.4597974   0.3147106  )
        44           Fe1 tau(  44) = (   0.4374791   0.3293042   0.4369893  )
        45           Fe2 tau(  45) = (   0.3125364   0.4604356   0.4366549  )
        46           Fe1 tau(  46) = (   0.3141732   0.3293478   0.5679259  )
        47           Fe2 tau(  47) = (   0.4390386   0.4604040   0.5632767  )
        48           Fe1 tau(  48) = (   0.4403086   0.3292951   0.6845898  )
        49           Fe2 tau(  49) = (   0.3159177   0.4625217   0.6855273  )
        50           Fe1 tau(  50) = (   0.3083587   0.5903099   0.3147277  )
        51           Fe2 tau(  51) = (   0.4339295   0.7233087   0.3130231  )
        52           Fe1 tau(  52) = (   0.4358847   0.5924128   0.4322183  )
        53           Fe2 tau(  53) = (   0.3104159   0.7228918   0.4334436  )
        54           Fe1 tau(  54) = (   0.3142966   0.5918280   0.5641361  )
        55           Fe2 tau(  55) = (   0.4385180   0.7234213   0.5598951  )
        56           Fe1 tau(  56) = (   0.4419191   0.5923939   0.6824908  )
        57           Fe2 tau(  57) = (   0.3162141   0.7223454   0.6842751  )
        58           Fe1 tau(  58) = (   0.3074024   0.8548895   0.3147790  )
        59           Fe2 tau(  59) = (   0.4344514   0.9868630   0.3150403  )
        60           Fe1 tau(  60) = (   0.4356335   0.8547100   0.4315209  )
[...]
       115           Fe2 tau( 115) = (   0.9412610   0.7242602   0.3148148  )
       116           Fe1 tau( 116) = (   0.9393584   0.5917595   0.4337111  )
       117           Fe2 tau( 117) = (   0.8139347   0.7222047   0.4324709  )
       118           Fe1 tau( 118) = (   0.8112426   0.5912370   0.5601288  )
       119           Fe2 tau( 119) = (   0.9356265   0.7227141   0.5643328  )
       120           Fe1 tau( 120) = (   0.9336551   0.5923087   0.6844350  )
       121           Fe2 tau( 121) = (   0.8078635   0.7222525   0.6825759  )
       122           Fe1 tau( 122) = (   0.8143703   0.8548553   0.3146769  )
       123           Fe2 tau( 123) = (   0.9388847   0.9870538   0.3171989  )
       124           Fe1 tau( 124) = (   0.9373427   0.8541441   0.4366752  )
       125           Fe2 tau( 125) = (   0.8125994   0.9853090   0.4370552  )
       126           Fe1 tau( 126) = (   0.8108362   0.8541803   0.5632913  )
       127           Fe2 tau( 127) = (   0.9358746   0.9851837   0.5680012  )
       128           Fe1 tau( 128) = (   0.9341019   0.8520056   0.6853792  )
       129           Fe2 tau( 129) = (   0.8094919   0.9851394   0.6846363  )

     number of k points=     1  Marzari-Vanderbilt smearing, width (Ry)=  0.0400
                       cart. coord. in units 2pi/alat
        k(    1) = (   0.0000000   0.0000000   0.0000000), wk =   1.0000000

     Check: negative core charge=   -0.000004
     Generating pointlists ...
     new r_m :   0.0707 (alat units)  1.8289 (a.u.) for type    1
     new r_m :   0.0709 (alat units)  1.8345 (a.u.) for type    2
     new r_m :   0.0723 (alat units)  1.8686 (a.u.) for type    3

     Initial potential from superposition of free atoms

     starting charge 2065.94361, renormalised to 2066.00000

     negative rho (up, down):  1.765E-04 1.765E-04
     Starting wfcs are 1290 randomized atomic wfcs
     Checking if some PAW data can be deallocated...

     Self-consistent Calculation

[...]
   -46.2400 -46.2383 -46.2373 -46.2364 -46.2361 -46.2331 -46.2309 -46.2282
   -46.2249 -46.2244 -46.2238 -46.2202 -46.2156 -46.2154 -46.2130 -46.2097
   -46.2074 -46.2034 -46.1920 -46.1892 -46.1871 -46.1823 -46.1656 -46.1642
   -46.1558 -45.8618 -45.8487 -45.8055 -45.7823 -45.7793 -45.7651 -45.7613
   -45.7521 -45.7490 -45.7439 -45.7417 -45.7366 -45.7340 -45.7337 -45.7270
   -45.7262 -45.7249 -45.7239 -45.7207 -45.7177 -45.7162 -45.7044 -45.7031
   -45.7012 -45.6976 -45.6962 -45.6951 -45.6942 -45.6925 -45.6910 -45.6896
   -45.6866 -45.6854 -45.6815 -45.6811 -45.6748 -45.6727 -45.6701 -45.6633
   -45.6624 -45.6620 -45.6563 -45.6544 -45.6526 -45.6480 -45.6404 -45.6370
   -45.6263 -45.6179 -45.6068 -45.6060 -45.6048 -45.5971 -45.5940 -45.5883
   -45.5840 -45.5793 -45.5789 -45.5757 -45.5691 -45.5683 -45.5674 -45.5671
   -45.5601 -45.5520 -45.5518 -45.5487 -45.5437 -45.5320 -45.5308 -45.5297
   -45.5266 -45.5235 -45.5222 -45.5218 -45.5207 -45.5200 -45.5185 -45.5179
   -45.5073 -45.5069 -45.5038 -45.5029 -45.4988 -45.4966 -45.4882 -45.4765
   -45.4762 -45.4681 -45.4637 -45.4595 -45.4589 -45.4554 -45.4411 -45.4159
   -45.3946 -44.5087 -44.5057 -44.5049 -44.5045 -44.4953 -44.4923 -44.4891
   -44.4866 -44.4861 -44.4847 -44.4813 -44.4805 -44.4787 -44.4774 -44.4755
   -44.4717 -44.4703 -44.4683 -44.4647 -44.4628 -44.4598 -44.4580 -44.4569
   -44.4563 -44.4546 -44.4539 -44.4516 -44.4509 -44.4479 -44.4472 -44.4441
   -44.4439 -44.4427 -44.4398 -44.4391 -44.4335 -44.4268 -44.4263 -44.4246
   -44.4241 -44.4207 -44.4187 -44.4179 -44.4153 -44.4102 -44.4099 -44.4095
   -44.4022 -44.3984 -44.3907 -44.3875 -44.3849 -44.3781 -44.3659 -44.3533
   -44.3524 -44.3498 -44.3479 -44.3410 -44.3378 -44.3305 -44.3292 -44.3263
   -44.3254 -44.3250 -44.3243 -44.3232 -44.3211 -44.3153 -44.3106 -44.3084
   -44.3051 -44.3029 -44.3019 -44.3002 -44.2975 -44.2952 -44.2915 -44.2908
   -44.2883 -44.2873 -44.2863 -44.2830 -44.2805 -44.2799 -44.2791 -44.2774
   -44.2768 -44.2744 -44.2740 -44.2612 -44.2611 -44.2592 -44.2571 -44.2462
   -44.2433 -44.0393 -43.9253 -43.8863 -43.8853 -43.8719 -43.8692 -43.8622
   -43.8523 -43.8503 -43.8497 -43.8482 -43.8450 -43.8418 -43.8413 -43.8392
   -43.8384 -43.8348 -43.8330 -43.8321 -43.8317 -43.8308 -43.8241 -43.8212
   -43.8209 -43.8198 -43.8131 -43.8121 -43.8084 -43.8068 -43.8056 -43.8044
   -43.7970 -43.7967 -43.7941 -43.7940 -43.7911 -43.7863 -43.7850 -43.7746
   -43.7723 -43.7659 -43.7640 -43.7612 -43.7608 -43.7594 -43.7587 -43.7561
   -43.7552 -43.7532 -43.7530 -43.7521 -43.7491 -43.7467 -43.7451 -43.7442
   -43.7436 -43.7419 -43.7419 -43.7383 -43.7357 -43.7354 -43.7316 -43.7290
[...]
     8.9284   8.9332   8.9351   8.9393   8.9584   8.9754   8.9765   8.9798
     8.9824   8.9845   8.9879   8.9946   9.0055   9.0147   9.0185   9.0193
     9.0245   9.0559   9.0573   9.0595   9.0640   9.0661   9.0706   9.0726
     9.0751   9.0760   9.0778   9.0791   9.0868   9.1238   9.1305   9.1511
     9.1593   9.1626   9.1757   9.1769   9.1788   9.1798   9.1819   9.1852
     9.1873   9.1947   9.1965   9.2002   9.2038   9.2174   9.2288   9.2354
     9.2511   9.2529   9.2579   9.2586   9.2642   9.2688   9.2703   9.2713
     9.2751   9.2815   9.2850   9.2870   9.2901   9.3045   9.3110   9.3252
     9.3317   9.3396   9.3577   9.3665   9.3716   9.3782   9.3892   9.3930
     9.4014   9.4041   9.4060   9.4078   9.4104   9.4150   9.4215   9.4245
     9.4268   9.4310   9.4447   9.4535   9.4583   9.4783   9.4901   9.5081
     9.5286   9.5428   9.5621   9.5838   9.5944   9.6044   9.6311   9.6353
     9.6429   9.7449   9.7620   9.8950   9.9880  10.0624  10.3079  10.3119
    10.4235  10.4470  10.4851  10.5186  10.5244  10.5476  10.5512  10.5632
    10.5783  10.6404  10.6427  10.6520  10.7171  10.7450  10.7527  10.7935

 ------ SPIN DOWN ----------

          k = 0.0000 0.0000 0.0000 ( 91909 PWs)   bands (ev):

   -80.3083 -80.3055 -80.3034 -80.2948 -80.2896 -80.2875 -80.2806 -80.2776
   -80.2765 -80.2759 -80.2755 -80.2664 -80.2634 -80.2620 -80.2577 -80.2481
   -80.2469 -80.2461 -80.2451 -80.2431 -80.2369 -80.2345 -80.2326 -80.2298
   -80.2249 -80.2153 -80.2147 -80.2141 -80.2057 -80.1812 -80.1788 -80.1713
   -79.7256 -79.6820 -79.6602 -79.6553 -79.6533 -79.6509 -79.6393 -79.6319
   -79.6241 -79.6211 -79.6075 -79.5999 -79.5874 -79.5793 -79.5681 -79.5678
   -79.5537 -79.5521 -79.5380 -79.5305 -79.5280 -79.5213 -79.5171 -79.5123
   -79.4993 -79.4947 -79.4679 -79.4677 -79.4551 -79.4475 -79.4346 -79.4304
   -78.4310 -78.3883 -78.3725 -78.3692 -78.3655 -78.3593 -78.3535 -78.3438
   -78.3253 -78.3187 -78.3131 -78.3080 -78.3070 -78.3044 -78.3029 -78.2935
   -78.2918 -78.2816 -78.2786 -78.2720 -78.2618 -78.2606 -78.2471 -78.2449
   -78.2432 -78.2409 -78.2345 -78.2281 -78.2131 -78.2051 -78.1994 -78.1415
   -77.8661 -77.7115 -77.7075 -77.6961 -77.6947 -77.6893 -77.6835 -77.6824
   -77.6755 -77.6751 -77.6732 -77.6725 -77.6677 -77.6669 -77.6668 -77.6655
   -77.6644 -77.6588 -77.6580 -77.6570 -77.6568 -77.6541 -77.6537 -77.6527
   -77.6507 -77.6481 -77.6469 -77.6448 -77.6447 -77.6360 -77.6358 -77.6336
   -75.5047 -46.4628 -46.4602 -46.4541 -46.4523 -46.4466 -46.4412 -46.4408
   -46.4381 -46.4379 -46.4313 -46.4267 -46.4225 -46.4207 -46.4188 -46.4130
   -46.4099 -46.4063 -46.4035 -46.4011 -46.4009 -46.3995 -46.3947 -46.3923
   -46.3911 -46.3874 -46.3851 -46.3724 -46.3713 -46.3698 -46.3663 -46.3644
   -46.3635 -46.3574 -46.3534 -46.3510 -46.3439 -46.3433 -46.3420 -46.3419
   -46.3396 -46.3393 -46.3324 -46.3319 -46.3266 -46.3257 -46.3236 -46.3234
   -46.3168 -46.3137 -46.3104 -46.3057 -46.3032 -46.3004 -46.2993 -46.2977
   -46.2973 -46.2856 -46.2833 -46.2809 -46.2772 -46.2770 -46.2744 -46.2705
   -46.2658 -46.2634 -46.2606 -46.2576 -46.2550 -46.2545 -46.2482 -46.2480
   -46.2458 -46.2416 -46.2414 -46.2404 -46.2395 -46.2388 -46.2385 -46.2305
   -46.2242 -46.2226 -46.2219 -46.2214 -46.2189 -46.2133 -46.2114 -46.2090
   -46.2050 -46.2025 -46.1976 -46.1967 -46.1941 -46.1858 -46.1682 -46.1660
   -46.1573 -45.8131 -45.8031 -45.7743 -45.7722 -45.7658 -45.7648 -45.7613
   -45.7579 -45.7529 -45.7501 -45.7394 -45.7345 -45.7307 -45.7302 -45.7254
   -45.7246 -45.7242 -45.7237 -45.7231 -45.7214 -45.7204 -45.7189 -45.7179
   -45.7154 -45.7127 -45.7066 -45.7017 -45.6990 -45.6968 -45.6951 -45.6913
   -45.6903 -45.6882 -45.6873 -45.6844 -45.6827 -45.6733 -45.6670 -45.6654
   -45.6634 -45.6609 -45.6553 -45.6528 -45.6514 -45.6455 -45.6449 -45.6324
   -45.6296 -45.6170 -45.6133 -45.6009 -45.5984 -45.5934 -45.5914 -45.5896
   -45.5802 -45.5801 -45.5760 -45.5745 -45.5728 -45.5684 -45.5665 -45.5608
   -45.5585 -45.5536 -45.5505 -45.5495 -45.5488 -45.5431 -45.5314 -45.5287
   -45.5277 -45.5276 -45.5236 -45.5233 -45.5231 -45.5214 -45.5209 -45.5172
   -45.5161 -45.5120 -45.5091 -45.5087 -45.5067 -45.5007 -45.4973 -45.4858
   -45.4855 -45.4848 -45.4780 -45.4745 -45.4742 -45.4620 -45.4584 -45.4471
   -45.4431 -44.5505 -44.5380 -44.5110 -44.5100 -44.5095 -44.4975 -44.4934
   -44.4932 -44.4916 -44.4879 -44.4870 -44.4867 -44.4854 -44.4815 -44.4748
   -44.4731 -44.4721 -44.4715 -44.4688 -44.4640 -44.4634 -44.4604 -44.4599
   -44.4588 -44.4576 -44.4568 -44.4547 -44.4494 -44.4469 -44.4455 -44.4407
   -44.4374 -44.4363 -44.4338 -44.4305 -44.4281 -44.4265 -44.4258 -44.4253
   -44.4240 -44.4238 -44.4218 -44.4177 -44.4163 -44.4127 -44.4107 -44.4095
   -44.4026 -44.3960 -44.3947 -44.3918 -44.3820 -44.3780 -44.3778 -44.3573
   -44.3544 -44.3541 -44.3520 -44.3460 -44.3453 -44.3384 -44.3305 -44.3280
   -44.3261 -44.3236 -44.3210 -44.3202 -44.3189 -44.3142 -44.3130 -44.3097
   -44.3093 -44.3074 -44.3069 -44.3029 -44.2997 -44.2927 -44.2922 -44.2920
   -44.2897 -44.2839 -44.2826 -44.2813 -44.2806 -44.2798 -44.2750 -44.2742
   -44.2732 -44.2712 -44.2677 -44.2601 -44.2556 -44.2488 -44.2449 -44.2176
   -44.2007 -44.0203 -43.9610 -43.8923 -43.8864 -43.8712 -43.8676 -43.8635
   -43.8603 -43.8551 -43.8541 -43.8455 -43.8450 -43.8450 -43.8401 -43.8374
   -43.8352 -43.8350 -43.8305 -43.8299 -43.8258 -43.8240 -43.8214 -43.8192
   -43.8189 -43.8147 -43.8138 -43.8113 -43.8105 -43.8081 -43.8074 -43.8061
   -43.7952 -43.7944 -43.7941 -43.7938 -43.7932 -43.7852 -43.7765 -43.7762
   -43.7734 -43.7731 -43.7681 -43.7623 -43.7594 -43.7570 -43.7567 -43.7564
   -43.7550 -43.7532 -43.7528 -43.7519 -43.7503 -43.7469 -43.7459 -43.7454
   -43.7442 -43.7425 -43.7413 -43.7378 -43.7365 -43.7363 -43.7349 -43.7265
[...]
     8.9275   8.9326   8.9346   8.9406   8.9565   8.9739   8.9763   8.9770
     8.9803   8.9850   8.9855   8.9942   9.0098   9.0118   9.0161   9.0188
     9.0219   9.0525   9.0567   9.0607   9.0633   9.0675   9.0685   9.0716
     9.0749   9.0757   9.0762   9.0778   9.0870   9.1232   9.1300   9.1519
     9.1574   9.1625   9.1737   9.1756   9.1776   9.1795   9.1812   9.1852
     9.1878   9.1883   9.1967   9.1996   9.2030   9.2161   9.2252   9.2329
     9.2465   9.2551   9.2572   9.2582   9.2631   9.2675   9.2698   9.2713
     9.2749   9.2818   9.2829   9.2866   9.2885   9.3046   9.3097   9.3253
     9.3289   9.3390   9.3558   9.3656   9.3718   9.3767   9.3844   9.3946
     9.3988   9.4024   9.4056   9.4074   9.4109   9.4151   9.4211   9.4219
     9.4249   9.4306   9.4458   9.4583   9.4594   9.4769   9.4920   9.5079
     9.5253   9.5404   9.5629   9.5860   9.5897   9.6086   9.6317   9.6350
     9.6420   9.7474   9.7562   9.8893   9.9914  10.0775  10.3083  10.3144
    10.4293  10.4471  10.4802  10.5172  10.5210  10.5345  10.5559  10.5575
    10.5906  10.6291  10.6432  10.6609  10.7051  10.7426  10.7518  10.7580

     the Fermi energy is     8.1867 ev

!    total energy              =  -42651.90813454 Ry

     total all-electron energy =   -335917.891045 Ry
     estimated scf accuracy    <       0.00000076 Ry
     smearing contrib. (-TS)   =       0.00966758 Ry
     internal energy E=F+TS    =  -42651.91780211 Ry

     The total energy is F=E-TS. E is the sum of the following terms:
     one-electron contribution =  -98081.72387499 Ry
     hartree contribution      =   49555.46308185 Ry
     xc contribution           =   -3575.64126310 Ry
     ewald contribution        =   20302.79484555 Ry
     one-center paw contrib.   =  -10852.81059142 Ry

     total magnetization       =    -0.06 Bohr mag/cell
     absolute magnetization    =   229.53 Bohr mag/cell

     convergence has been achieved in  55 iterations

     negative rho (up, down):  1.714E-03 1.870E-03

     Forces acting on atoms (cartesian axes, Ry/au):

     atom    1 type  3   force =     0.01435075   -0.01510773    0.00742093
     atom    2 type  1   force =     0.00044581    0.00014119   -0.00063550
     atom    3 type  2   force =    -0.00181192    0.00181775    0.00055286
     atom    4 type  1   force =     0.00002179    0.00333600   -0.00209694
     atom    5 type  2   force =    -0.00030352   -0.00255593   -0.00123606
     atom    6 type  1   force =     0.00131372   -0.00115080    0.00007536
     atom    7 type  2   force =    -0.00121908    0.00110591   -0.00013183
     atom    8 type  1   force =     0.00205438   -0.00021014    0.00119182
     atom    9 type  2   force =    -0.00194843    0.00035447    0.00114369
     atom   10 type  1   force =    -0.00366096    0.00219401   -0.00278329
     atom   11 type  2   force =    -0.00380061    0.00091480   -0.00213688
     atom   12 type  1   force =     0.00000425   -0.00239950   -0.00165231
     atom   13 type  2   force =     0.00035764   -0.00037546   -0.00137146
     atom   14 type  1   force =    -0.00237596    0.00105379    0.00382527
     atom   15 type  2   force =    -0.00225253    0.00014843   -0.00043560
     atom   16 type  1   force =     0.00011049    0.00021044    0.00064267
     atom   17 type  2   force =     0.00062382   -0.00066290   -0.00034090
     atom   18 type  1   force =    -0.00014582   -0.00005919    0.00007952
     atom   19 type  2   force =     0.00006627    0.00001025   -0.00001476
     atom   20 type  1   force =     0.00264134    0.00186948    0.00272044
     atom   21 type  2   force =    -0.00265745   -0.00185988    0.00278746
     atom   22 type  1   force =     0.00119361   -0.00009347    0.00118336
     atom   23 type  2   force =    -0.00105272    0.00042622    0.00093167
     atom   24 type  1   force =    -0.00008803   -0.00080470   -0.00204363
     atom   25 type  2   force =    -0.00001319    0.00111395   -0.00209547
     atom   26 type  1   force =     0.00361970   -0.00094990   -0.00207716
     atom   27 type  2   force =     0.00256419   -0.00003153   -0.00674696
     atom   28 type  1   force =    -0.00100918    0.00083484   -0.00177370
     atom   29 type  2   force =     0.00025395    0.00204040   -0.00185246
     atom   30 type  1   force =     0.00243645    0.00029561   -0.00084259
     atom   31 type  2   force =     0.00232997   -0.00083733    0.00336338
     atom   32 type  1   force =    -0.00064393    0.00082735   -0.00034189
     atom   33 type  2   force =    -0.00009041   -0.00017047    0.00040296
     atom   34 type  1   force =    -0.00012709   -0.00249421   -0.00671701
     atom   35 type  2   force =    -0.00165649   -0.00385799   -0.00037920
     atom   36 type  1   force =     0.00167930    0.00154174   -0.00207410
     atom   37 type  2   force =    -0.00068621   -0.00094269   -0.00685716
     atom   38 type  1   force =     0.00010711   -0.00080635    0.00247314
     atom   39 type  2   force =     0.00111520    0.00041585   -0.00166170
     atom   40 type  1   force =     0.00423220   -0.00081812    0.00022490
     atom   41 type  2   force =     0.00001996    0.00153492    0.00582723
     atom   42 type  1   force =    -0.00172303    0.00046783    0.00176973
     atom   43 type  2   force =    -0.00035377   -0.00105031   -0.00228409
     atom   44 type  1   force =    -0.00092365   -0.00293546   -0.00384669
     atom   45 type  2   force =    -0.00087769   -0.00240330    0.00218052
     atom   46 type  1   force =    -0.00396652    0.00196535   -0.00178118
     atom   47 type  2   force =    -0.00034837    0.00119560    0.00029893
     atom   48 type  1   force =     0.00072740    0.00191846    0.00493356
     atom   49 type  2   force =     0.00118786   -0.00184012    0.00169244
     atom   50 type  1   force =     0.00105165    0.00265857   -0.00259557
     atom   51 type  2   force =     0.00018463    0.00183266   -0.00336649
     atom   52 type  1   force =     0.00247760   -0.00277868   -0.00045903
     atom   53 type  2   force =     0.00141032    0.00151653    0.00378246
     atom   54 type  1   force =    -0.00353511    0.00172339    0.00119146
     atom   55 type  2   force =    -0.00240470   -0.00091915    0.00290444
     atom   56 type  1   force =    -0.00074549    0.00000543   -0.00012797
     atom   57 type  2   force =    -0.00007630    0.00015599   -0.00073710
     atom   58 type  1   force =     0.00136632    0.00359695   -0.00149986
     atom   59 type  2   force =    -0.00178806    0.00189773   -0.00067384
     atom   60 type  1   force =     0.00225571    0.00149168    0.00029933
[...]
     atom  115 type  2   force =    -0.00118488   -0.00279819   -0.00252566
     atom  116 type  1   force =    -0.00154067   -0.00116296    0.00410994
     atom  117 type  2   force =    -0.00257000    0.00302475   -0.00066376
     atom  118 type  1   force =     0.00230984    0.00098041    0.00311403
     atom  119 type  2   force =     0.00346045   -0.00139192    0.00126682
     atom  120 type  1   force =    -0.00001574    0.00006705   -0.00066933
     atom  121 type  2   force =     0.00070968    0.00014320   -0.00010006
     atom  122 type  1   force =     0.00051313    0.00142161   -0.00225243
     atom  123 type  2   force =     0.00164085   -0.00081297    0.00147674
     atom  124 type  1   force =     0.00115327    0.00229890    0.00207330
     atom  125 type  2   force =     0.00056864    0.00292867   -0.00380171
     atom  126 type  1   force =     0.00029438   -0.00103164    0.00036553
     atom  127 type  2   force =     0.00392801   -0.00187447   -0.00162880
     atom  128 type  1   force =    -0.00100119    0.00205459    0.00162514
     atom  129 type  2   force =    -0.00077289   -0.00195612    0.00487207

     Total force =     0.044693     Total SCF correction =     0.002466

     Computing stress (Cartesian axis) and pressure

     negative rho (up, down):  1.714E-03 1.870E-03
          total   stress  (Ry/bohr**3)                   (kbar)     P=      -19.51
  -0.00014742   0.00000420  -0.00000606          -21.69        0.62       -0.89
   0.00000420  -0.00009888   0.00000536            0.62      -14.55        0.79
  -0.00000606   0.00000536  -0.00015151           -0.89        0.79      -22.29

     Writing output data file /scratch/bxp912/fepdslab4b.save/

     General routines

     Parallel routines

   This run was terminated on:  14:37:46  12May2022

   JOB DONE.