     Program PWSCF v.6.7MaX starts on 22May2022 at  9:41:58

     R & G space division:  proc/nbgrp/npool/nimage =      72
     Reading input from fepdslabrelax.in
Warning: card &CELL ignored
Warning: card CELL_DYNAMICS = 'BFGS', ignored
Warning: card CELL_FACTOR = 2.0, ignored
Warning: card PRESS = 0.0, ignored
Warning: card / ignored

     Current dimensions of program PWSCF are:
     Max number of different atomic species (ntypx) = 10
     Max number of k-points (npk) =  40000
     Max angular momentum in pseudopotentials (lmaxx) =  3
     file Fe.pbe-spn-kjpaw_psl.1.0.0.UPF: wavefunction(s)  3P 3D renormalized
     file Fe.pbe-spn-kjpaw_psl.1.0.0.UPF: wavefunction(s)  3P 3D renormalized
     file Pd.pbe-spn-kjpaw_psl.1.0.0.UPF: wavefunction(s)  4S 5S 4D renormalized

     gamma-point specific algorithms are used

     Subspace diagonalization in iterative solution of the eigenvalue problem:
     one sub-group per band group will be used

     bravais-lattice index     =            0
     lattice parameter (alat)  =      25.8600  a.u.
     unit-cell volume          =   18186.5006 (a.u.)^3
     number of atoms/cell      =          129
     number of atomic types    =            3
     number of electrons       =      2066.00
     number of Kohn-Sham states=         1240
     kinetic-energy cutoff     =      71.0000  Ry
     charge density cutoff     =     430.0000  Ry
     scf convergence threshold =      1.0E-08
     mixing beta               =       0.3000
     number of iterations used =           10  local-TF  mixing
     energy convergence thresh.=      1.0E-05
     force convergence thresh. =      1.0E-04
     Exchange-correlation= SLA  PW   PBX  PBC
                           (   1   4   3   4   0   0   0)
     nstep                     =           40

     celldm(1)=  25.860000  celldm(2)=   0.000000  celldm(3)=   0.000000
     celldm(4)=   0.000000  celldm(5)=   0.000000  celldm(6)=   0.000000

     crystal axes: (cart. coord. in units of alat)
               a(1) = (   1.000000   0.000000   0.000000 )
               a(2) = (   0.000000   1.051631   0.000000 )
               a(3) = (   0.000000   0.000000   1.000000 )

     reciprocal axes: (cart. coord. in units 2 pi/alat)
               b(1) = (  1.000000  0.000000  0.000000 )
               b(2) = (  0.000000  0.950903  0.000000 )
               b(3) = (  0.000000  0.000000  1.000000 )

     PseudoPot. # 1 for Fe read from file:
     /rds/homes/b/bxp912/pp/Fe.pbe-spn-kjpaw_psl.1.0.0.UPF
     MD5 check sum: 42f43b795421b414b0dc916aa790dbcb
     Pseudo is Projector augmented-wave + core cor, Zval = 16.0
     Generated using &quot;atomic&quot; code by A. Dal Corso  v.6.3
     Shape of augmentation charge: PSQ
     Using radial grid of 1191 points,  6 beta functions with:
                l(1) =   0
                l(2) =   0
                l(3) =   1
                l(4) =   1
                l(5) =   2
                l(6) =   2
     Q(r) pseudized with 0 coefficients

     PseudoPot. # 2 for Fe read from file:
     /rds/homes/b/bxp912/pp/Fe.pbe-spn-kjpaw_psl.1.0.0.UPF
     MD5 check sum: 42f43b795421b414b0dc916aa790dbcb
     Pseudo is Projector augmented-wave + core cor, Zval = 16.0
     Generated using &quot;atomic&quot; code by A. Dal Corso  v.6.3
     Shape of augmentation charge: PSQ
     Using radial grid of 1191 points,  6 beta functions with:
                l(1) =   0
                l(2) =   0
                l(3) =   1
                l(4) =   1
                l(5) =   2
                l(6) =   2
     Q(r) pseudized with 0 coefficients

     PseudoPot. # 3 for Pd read from file:
     /rds/homes/b/bxp912/pp/Pd.pbe-spn-kjpaw_psl.1.0.0.UPF
     MD5 check sum: 790f2ebce206edfd9790dcb9844eca51
     Pseudo is Projector augmented-wave + core cor, Zval = 18.0
     Generated using &quot;atomic&quot; code by A. Dal Corso  v.6.3
     Shape of augmentation charge: PSQ
     Using radial grid of 1235 points,  6 beta functions with:
                l(1) =   0
                l(2) =   0
                l(3) =   1
                l(4) =   1
                l(5) =   2
                l(6) =   2
     Q(r) pseudized with 0 coefficients

     atomic species   valence    mass     pseudopotential
        Fe1           16.00    55.84500     Fe( 1.00)
        Fe2           16.00    55.84500     Fe( 1.00)
        Pd            18.00   106.42000     Pd( 1.00)

     Starting magnetic structure
     atomic species   magnetization
        Fe1          0.100
        Fe2         -0.100
        Pd           0.001

     No symmetry found

   Cartesian axes

     site n.     atom                  positions (alat units)
         1           Pd  tau(   1) = (   0.5025366   0.5359267   0.7053095  )
         2           Fe1 tau(   2) = (   0.4187515   0.4860407   0.8511198  )
         3           Fe2 tau(   3) = (   0.5484265   0.6209239   0.8514448  )
         4           Fe1 tau(   4) = (   0.5468213   0.4862172   0.9721276  )
         5           Fe2 tau(   5) = (   0.4224952   0.6187155   0.9724469  )
         6           Fe1 tau(   6) = (   0.4223234   0.4861793   0.0997271  )
         7           Fe2 tau(   7) = (   0.5476610   0.6182469   0.0998145  )
         8           Fe1 tau(   8) = (   0.5482185   0.4856561   0.2179009  )
         9           Fe2 tau(   9) = (   0.4216632   0.6186817   0.2179420  )
        10           Fe1 tau(  10) = (   0.4253597   0.7472288   0.8472267  )
        11           Fe2 tau(  11) = (   0.5477413   0.8785616   0.8475394  )
        12           Fe1 tau(  12) = (   0.5481227   0.7503018   0.9712225  )
        13           Fe2 tau(  13) = (   0.4233903   0.8801701   0.9685688  )
        14           Fe1 tau(  14) = (   0.4228268   0.7502628   0.0978640  )
        15           Fe2 tau(  15) = (   0.5485537   0.8821621   0.0982187  )
        16           Fe1 tau(  16) = (   0.5487326   0.7512190   0.2174596  )
        17           Fe2 tau(  17) = (   0.4203308   0.8825302   0.2162421  )
        18           Fe1 tau(  18) = (   0.4248519   1.0113632   0.8445093  )
        19           Fe2 tau(  19) = (   0.5447510   0.0928318   0.8445456  )
        20           Fe1 tau(  20) = (   0.5463681   1.0116503   0.9671267  )
        21           Fe2 tau(  21) = (   0.4233682   0.0926336   0.9671464  )
        22           Fe1 tau(  22) = (   0.4215849   1.0125462   0.0962034  )
        23           Fe2 tau(  23) = (   0.5482586   0.0917110   0.0960552  )
        24           Fe1 tau(  24) = (   0.5487997   1.0131979   0.2161716  )
        25           Fe2 tau(  25) = (   0.4213274   0.0910188   0.2162125  )
        26           Fe1 tau(  26) = (   0.4218357   0.2251146   0.8472000  )
        27           Fe2 tau(  27) = (   0.5429530   0.3585236   0.8439428  )
        28           Fe1 tau(  28) = (   0.5462919   0.2245958   0.9679183  )
        29           Fe2 tau(  29) = (   0.4218572   0.3545554   0.9706165  )
        30           Fe1 tau(  30) = (   0.4213876   0.2221869   0.0979772  )
        31           Fe2 tau(  31) = (   0.5469233   0.3541567   0.0977120  )
        32           Fe1 tau(  32) = (   0.5496322   0.2217856   0.2160337  )
        33           Fe2 tau(  33) = (   0.4212834   0.3530058   0.2175207  )
        34           Fe1 tau(  34) = (   0.6676371   0.4902899   0.8422286  )
        35           Fe2 tau(  35) = (   0.7957117   0.6187129   0.8471939  )
        36           Fe1 tau(  36) = (   0.7941488   0.4863736   0.9641951  )
        37           Fe2 tau(  37) = (   0.6721648   0.6185224   0.9718603  )
        38           Fe1 tau(  38) = (   0.6724073   0.4860028   0.0966112  )
        39           Fe2 tau(  39) = (   0.7985533   0.6175451   0.0960486  )
        40           Fe1 tau(  40) = (   0.7980091   0.4863964   0.2159902  )
        41           Fe2 tau(  41) = (   0.6746724   0.6179801   0.2159048  )
        42           Fe1 tau(  42) = (   0.6712557   0.7482264   0.8470910  )
        43           Fe2 tau(  43) = (   0.7954886   0.8804500   0.8447106  )
        44           Fe1 tau(  44) = (   0.7974791   0.7499568   0.9669893  )
        45           Fe2 tau(  45) = (   0.6725364   0.8810881   0.9666549  )
        46           Fe1 tau(  46) = (   0.6741732   0.7500004   0.0979259  )
        47           Fe2 tau(  47) = (   0.7990386   0.8810566   0.0932767  )
        48           Fe1 tau(  48) = (   0.8003086   0.7499477   0.2145898  )
        49           Fe2 tau(  49) = (   0.6759177   0.8831743   0.2155273  )
        50           Fe1 tau(  50) = (   0.6683587   1.0109625   0.8447277  )
        51           Fe2 tau(  51) = (   0.7939295   0.0923298   0.8430231  )
        52           Fe1 tau(  52) = (   0.7958847   1.0130654   0.9622183  )
        53           Fe2 tau(  53) = (   0.6704159   0.0919129   0.9634436  )
        54           Fe1 tau(  54) = (   0.6742966   1.0124806   0.0941361  )
        55           Fe2 tau(  55) = (   0.7985180   0.0924425   0.0898951  )
        56           Fe1 tau(  56) = (   0.8019191   1.0130465   0.2124908  )
        57           Fe2 tau(  57) = (   0.6762141   0.0913665   0.2142751  )
        58           Fe1 tau(  58) = (   0.6674024   0.2239106   0.8447790  )
        59           Fe2 tau(  59) = (   0.7944514   0.3558842   0.8450403  )
        60           Fe1 tau(  60) = (   0.7956335   0.2237311   0.9615209  )
[...]
       115           Fe2 tau( 115) = (   0.3012610   0.0932814   0.8448148  )
       116           Fe1 tau( 116) = (   0.2993584   1.0124121   0.9637111  )
       117           Fe2 tau( 117) = (   0.1739347   0.0912258   0.9624709  )
       118           Fe1 tau( 118) = (   0.1712426   1.0118896   0.0901288  )
       119           Fe2 tau( 119) = (   0.2956265   0.0917352   0.0943328  )
       120           Fe1 tau( 120) = (   0.2936551   1.0129613   0.2144350  )
       121           Fe2 tau( 121) = (   0.1678635   0.0912737   0.2125759  )
       122           Fe1 tau( 122) = (   0.1743703   0.2238764   0.8446769  )
       123           Fe2 tau( 123) = (   0.2988847   0.3560749   0.8471989  )
       124           Fe1 tau( 124) = (   0.2973427   0.2231652   0.9666752  )
       125           Fe2 tau( 125) = (   0.1725994   0.3543301   0.9670552  )
       126           Fe1 tau( 126) = (   0.1708362   0.2232014   0.0932913  )
       127           Fe2 tau( 127) = (   0.2958746   0.3542048   0.0980012  )
       128           Fe1 tau( 128) = (   0.2941019   0.2210268   0.2153792  )
       129           Fe2 tau( 129) = (   0.1694919   0.3541605   0.2146363  )

     number of k points=     1  Marzari-Vanderbilt smearing, width (Ry)=  0.0400
                       cart. coord. in units 2pi/alat
        k(    1) = (   0.0000000   0.0000000   0.0000000), wk =   1.0000000

     Check: negative core charge=   -0.000004
     Generating pointlists ...
     new r_m :   0.0707 (alat units)  1.8289 (a.u.) for type    1
     new r_m :   0.0709 (alat units)  1.8345 (a.u.) for type    2
     new r_m :   0.0723 (alat units)  1.8686 (a.u.) for type    3

     Initial potential from superposition of free atoms

     starting charge 2065.94361, renormalised to 2066.00000

     negative rho (up, down):  1.789E-04 1.786E-04
[...]
   -46.2217 -46.2204 -46.2190 -46.2173 -46.2168 -46.2149 -46.2140 -46.2046
   -46.2035 -46.2031 -46.2010 -46.1990 -46.1979 -46.1960 -46.1947 -46.1903
   -46.1872 -45.7720 -45.7699 -45.7565 -45.7539 -45.7524 -45.7482 -45.7300
   -45.7297 -45.7277 -45.7267 -45.7253 -45.7239 -45.7226 -45.7216 -45.7201
   -45.7174 -45.7165 -45.7160 -45.7136 -45.7125 -45.7074 -45.7068 -45.7028
   -45.7005 -45.6999 -45.6967 -45.6882 -45.6844 -45.6829 -45.6806 -45.6769
   -45.6748 -45.6745 -45.6729 -45.6705 -45.6691 -45.6661 -45.6653 -45.6630
   -45.6609 -45.6600 -45.6591 -45.6574 -45.6545 -45.6475 -45.6451 -45.6425
   -45.6351 -45.6342 -45.6337 -45.6211 -45.6198 -45.6157 -45.6100 -45.6022
   -45.6010 -45.5914 -45.5912 -45.5886 -45.5872 -45.5847 -45.5786 -45.5749
   -45.5730 -45.5727 -45.5711 -45.5705 -45.5698 -45.5661 -45.5629 -45.5609
   -45.5569 -45.5531 -45.5511 -45.5404 -45.5393 -45.5381 -45.5380 -45.5355
   -45.5355 -45.5347 -45.5300 -45.5292 -45.5281 -45.5257 -45.5226 -45.5218
   -45.5150 -45.5091 -45.5085 -45.5083 -45.5069 -45.5022 -45.4992 -45.4800
   -45.4649 -44.4795 -44.4722 -44.4703 -44.4693 -44.4668 -44.4650 -44.4615
   -44.4611 -44.4588 -44.4573 -44.4553 -44.4534 -44.4533 -44.4517 -44.4511
   -44.4503 -44.4489 -44.4478 -44.4473 -44.4455 -44.4450 -44.4442 -44.4418
   -44.4370 -44.4360 -44.4341 -44.4312 -44.4301 -44.4287 -44.4275 -44.4261
   -44.4251 -44.4240 -44.4230 -44.4215 -44.4198 -44.4190 -44.4183 -44.4158
   -44.4144 -44.4130 -44.4113 -44.4101 -44.4095 -44.4073 -44.4029 -44.3996
   -44.3959 -44.3923 -44.3911 -44.3896 -44.3853 -44.3846 -44.3828 -44.3826
   -44.3699 -44.3666 -44.3642 -44.3626 -44.3612 -44.3472 -44.3331 -44.3217
   -44.3188 -44.3173 -44.3149 -44.3140 -44.3109 -44.3102 -44.3083 -44.3064
   -44.3053 -44.3033 -44.2986 -44.2970 -44.2962 -44.2937 -44.2926 -44.2905
   -44.2892 -44.2881 -44.2874 -44.2867 -44.2832 -44.2824 -44.2802 -44.2787
   -44.2774 -44.2744 -44.2729 -44.2711 -44.2672 -44.2585 -44.1818 -44.1523
   -44.1503 -43.8829 -43.8719 -43.8650 -43.8616 -43.8593 -43.8520 -43.8496
   -43.8458 -43.8451 -43.8447 -43.8432 -43.8426 -43.8390 -43.8380 -43.8372
   -43.8367 -43.8351 -43.8332 -43.8308 -43.8294 -43.8264 -43.8249 -43.8239
   -43.8228 -43.8214 -43.8210 -43.8196 -43.8187 -43.8178 -43.8163 -43.8157
   -43.8143 -43.8127 -43.8084 -43.7847 -43.7768 -43.7715 -43.7669 -43.7644
   -43.7633 -43.7618 -43.7615 -43.7562 -43.7558 -43.7541 -43.7534 -43.7521
   -43.7516 -43.7506 -43.7500 -43.7496 -43.7471 -43.7460 -43.7458 -43.7450
   -43.7448 -43.7441 -43.7437 -43.7426 -43.7417 -43.7409 -43.7401 -43.7390
[...]
     8.9308   8.9361   8.9407   8.9422   8.9628   8.9666   8.9748   8.9782
     8.9806   8.9832   8.9877   8.9929   9.0105   9.0108   9.0142   9.0192
     9.0220   9.0502   9.0529   9.0608   9.0652   9.0683   9.0697   9.0717
     9.0738   9.0752   9.0763   9.0821   9.0850   9.1271   9.1280   9.1559
     9.1562   9.1575   9.1733   9.1759   9.1777   9.1816   9.1826   9.1845
     9.1854   9.1876   9.1939   9.1951   9.2041   9.2225   9.2259   9.2346
     9.2462   9.2531   9.2575   9.2612   9.2638   9.2719   9.2732   9.2741
     9.2759   9.2800   9.2846   9.2854   9.2921   9.3052   9.3069   9.3274
     9.3299   9.3412   9.3579   9.3611   9.3718   9.3764   9.3775   9.3978
     9.4031   9.4047   9.4058   9.4075   9.4082   9.4122   9.4170   9.4203
     9.4217   9.4227   9.4446   9.4531   9.4640   9.4788   9.4938   9.5090
     9.5278   9.5288   9.5648   9.5819   9.6012   9.6048   9.6311   9.6371
     9.6399   9.7463   9.7519   9.8961   9.9863  10.0815  10.2854  10.2992
    10.4168  10.4476  10.4780  10.4882  10.5218  10.5246  10.5565  10.5604
    10.5919  10.6145  10.6418  10.6620  10.6929  10.7445  10.7465  10.7583

     the Fermi energy is     8.1882 ev

!    total energy              =  -42651.95034245 Ry

     total all-electron energy =   -335917.933252 Ry
     estimated scf accuracy    <          4.0E-10 Ry
     smearing contrib. (-TS)   =       0.00664683 Ry
     internal energy E=F+TS    =  -42651.95698928 Ry

     The total energy is F=E-TS. E is the sum of the following terms:
     one-electron contribution =  -97787.13869033 Ry
     hartree contribution      =   49408.22891567 Ry
     xc contribution           =   -3575.51743622 Ry
     ewald contribution        =   20155.28556570 Ry
     one-center paw contrib.   =  -10852.81534410 Ry

     total magnetization       =    -0.20 Bohr mag/cell
     absolute magnetization    =   230.67 Bohr mag/cell

     convergence has been achieved in  30 iterations

     negative rho (up, down):  2.841E-03 1.149E-03

     Forces acting on atoms (cartesian axes, Ry/au):

     atom    1 type  3   force =     0.00020590   -0.00008624   -0.00026302
     atom    2 type  1   force =    -0.00089033   -0.00017370    0.00056796
     atom    3 type  2   force =     0.00018379    0.00039121    0.00041064
     atom    4 type  1   force =    -0.00029814    0.00009062    0.00019097
     atom    5 type  2   force =     0.00024109    0.00003819   -0.00003454
     atom    6 type  1   force =    -0.00005160    0.00003617   -0.00020090
     atom    7 type  2   force =     0.00006288    0.00004049   -0.00019612
     atom    8 type  1   force =    -0.00001699    0.00024473    0.00032464
     atom    9 type  2   force =     0.00004225   -0.00003442    0.00018956
     atom   10 type  1   force =    -0.00016034   -0.00045669   -0.00017599
     atom   11 type  2   force =    -0.00003205   -0.00034627   -0.00016731
     atom   12 type  1   force =     0.00011438   -0.00035042   -0.00019591
     atom   13 type  2   force =     0.00023255    0.00032423   -0.00029754
     atom   14 type  1   force =    -0.00021152    0.00036204   -0.00014178
     atom   15 type  2   force =    -0.00014395   -0.00008570   -0.00026373
     atom   16 type  1   force =     0.00007069   -0.00005909    0.00013068
     atom   17 type  2   force =    -0.00022039    0.00012737    0.00016246
     atom   18 type  1   force =     0.00014722   -0.00009724   -0.00041415
     atom   19 type  2   force =     0.00018694   -0.00021681   -0.00041151
     atom   20 type  1   force =     0.00024697   -0.00032108   -0.00040763
     atom   21 type  2   force =    -0.00011876    0.00011019   -0.00040833
     atom   22 type  1   force =    -0.00018655    0.00001258   -0.00030859
     atom   23 type  2   force =     0.00000392   -0.00013011   -0.00016963
     atom   24 type  1   force =    -0.00056042   -0.00012748   -0.00002044
     atom   25 type  2   force =     0.00017423   -0.00013102   -0.00005239
     atom   26 type  1   force =     0.00001781    0.00007445   -0.00041161
     atom   27 type  2   force =     0.00033241    0.00034843   -0.00011379
     atom   28 type  1   force =    -0.00010170   -0.00034145   -0.00038922
     atom   29 type  2   force =    -0.00011977    0.00018421    0.00003094
     atom   30 type  1   force =     0.00029440   -0.00005666   -0.00024737
     atom   31 type  2   force =     0.00016641   -0.00049266   -0.00019224
     atom   32 type  1   force =    -0.00005144   -0.00015071    0.00014554
     atom   33 type  2   force =     0.00000276   -0.00010024    0.00024894
     atom   34 type  1   force =    -0.00016125   -0.00005475    0.00022482
     atom   35 type  2   force =     0.00015589    0.00017279   -0.00023549
     atom   36 type  1   force =     0.00021052   -0.00013900    0.00042052
     atom   37 type  2   force =    -0.00033006    0.00043026    0.00002539
     atom   38 type  1   force =     0.00069521   -0.00016901   -0.00003459
     atom   39 type  2   force =     0.00012371   -0.00034471    0.00036639
     atom   40 type  1   force =    -0.00023195   -0.00012611   -0.00004947
     atom   41 type  2   force =    -0.00007586   -0.00009915   -0.00004622
     atom   42 type  1   force =     0.00033404    0.00011757    0.00035774
     atom   43 type  2   force =     0.00037658   -0.00022564    0.00012161
     atom   44 type  1   force =    -0.00058197    0.00031594    0.00042542
     atom   45 type  2   force =     0.00018722   -0.00018788   -0.00023110
     atom   46 type  1   force =     0.00030187    0.00018610   -0.00018317
     atom   47 type  2   force =     0.00029350    0.00032094    0.00010371
     atom   48 type  1   force =     0.00007663    0.00011775    0.00021627
     atom   49 type  2   force =    -0.00011434    0.00002546    0.00017472
     atom   50 type  1   force =     0.00011702   -0.00021339   -0.00010651
     atom   51 type  2   force =    -0.00003113    0.00016295   -0.00036022
     atom   52 type  1   force =     0.00020766   -0.00035571   -0.00011307
     atom   53 type  2   force =    -0.00032751   -0.00012732   -0.00018032
     atom   54 type  1   force =    -0.00029214   -0.00020430    0.00009463
     atom   55 type  2   force =    -0.00027387   -0.00023685    0.00028027
     atom   56 type  1   force =    -0.00031442    0.00034247    0.00008594
     atom   57 type  2   force =    -0.00028848   -0.00037005    0.00007977
     atom   58 type  1   force =     0.00006041   -0.00017573    0.00018242
     atom   59 type  2   force =     0.00023705    0.00002670    0.00052233
     atom   60 type  1   force =    -0.00035776    0.00033547    0.00045964
[...]
     atom  115 type  2   force =    -0.00014587   -0.00004019   -0.00015633
     atom  116 type  1   force =    -0.00001391    0.00005827    0.00008339
     atom  117 type  2   force =     0.00003114    0.00022339   -0.00044224
     atom  118 type  1   force =     0.00021620    0.00035655   -0.00004876
     atom  119 type  2   force =     0.00018153    0.00008131   -0.00017849
     atom  120 type  1   force =     0.00015207    0.00037628   -0.00014835
     atom  121 type  2   force =     0.00029744    0.00020674   -0.00036106
     atom  122 type  1   force =    -0.00026240   -0.00009348   -0.00005502
     atom  123 type  2   force =    -0.00029019   -0.00013577    0.00009710
     atom  124 type  1   force =     0.00005066    0.00002834   -0.00039932
     atom  125 type  2   force =     0.00058845   -0.00019867    0.00021881
     atom  126 type  1   force =     0.00002131   -0.00022772   -0.00025405
     atom  127 type  2   force =    -0.00010311   -0.00012438   -0.00034565
     atom  128 type  1   force =     0.00033988   -0.00002411    0.00005106
     atom  129 type  2   force =     0.00038347   -0.00009485   -0.00018297

     Total force =     0.004836     Total SCF correction =     0.000119

     Computing stress (Cartesian axis) and pressure

     negative rho (up, down):  2.841E-03 1.149E-03
          total   stress  (Ry/bohr**3)                   (kbar)     P=      -21.24
  -0.00015830   0.00000000   0.00000016          -23.29        0.00        0.02
   0.00000000  -0.00010633   0.00000090            0.00      -15.64        0.13
   0.00000016   0.00000090  -0.00016846            0.02        0.13      -24.78

     Energy error            =      4.6E-05
     Gradient error          =      8.9E-04

     number of scf cycles    =  40
     number of bfgs steps    =  39

     energy   old            =  -42651.9502963664 Ry
     energy   new            =  -42651.9503424526 Ry

     CASE: energy  _new < energy  _old

     new trust radius        =       0.0069769463 bohr

     The maximum number of steps has been reached.

     End of BFGS Geometry Optimization

ATOMIC_POSITIONS (crystal)
Pd            0.5453521722        0.4626003187        0.7093658495
Fe1           0.4180999038        0.4627259618        0.8421103856
Fe2           0.5457859921        0.5886781133        0.8407102262
Fe1           0.5467165964        0.4626982571        0.9674170190
Fe2           0.4224984796        0.5878427787        0.9668273979
Fe1           0.4225642889        0.4628402370        0.0959058095
Fe2           0.5473013469        0.5879099336        0.0955748660
Fe1           0.5480370427        0.4628502628        0.2159927387
Fe2           0.4220039193        0.5878463223        0.2159730678
Fe1           0.4216834299        0.7134558338        0.8454081639
Fe2           0.5459343335        0.8381315872        0.8455951086
Fe1           0.5466194416        0.7123105487        0.9656048761
Fe2           0.4221110112        0.8379002405        0.9670790363
Fe1           0.4224533736        0.7127755144        0.0956001424
Fe2           0.5474500551        0.8380815524        0.0955829967
Fe1           0.5480756816        0.7126375166        0.2156855481
Fe2           0.4225548895        0.8378048892        0.2160387052
Fe1           0.4219209028        0.9633748242        0.8460038484
Fe2           0.5457963939        0.0887190600        0.8462544363
Fe1           0.5466007091        0.9632561836        0.9668163947
Fe2           0.4219102888        0.0882788486        0.9676320576
Fe1           0.4221197837        0.9629915818        0.0965528637
Fe2           0.5473837242        0.0881051387        0.0960725692
Fe1           0.5483315868        0.9630251794        0.2160057594
Fe2           0.4221284578        0.0880440587        0.2164254575
Fe1           0.4212137832        0.2124259898        0.8461732160
Fe2           0.5458633590        0.3365591043        0.8411420244
Fe1           0.5467425091        0.2137932431        0.9664266926
Fe2           0.4223785478        0.3379358134        0.9673126369
Fe1           0.4220257258        0.2130207930        0.0963309774
Fe2           0.5473919259        0.3379367562        0.0960055081
Fe1           0.5480855398        0.2133397165        0.2160164620
Fe2           0.4218590587        0.3381684399        0.2161668744
Fe1           0.6744345817        0.4626448469        0.8407794942
Fe2           0.7963344439        0.5884805031        0.8447791503
Fe1           0.7957880661        0.4628425413        0.9642841810
Fe2           0.6710263499        0.5877426582        0.9652765845
Fe1           0.6718125217        0.4629299071        0.0944158710
Fe2           0.7966335669        0.5879876070        0.0928110877
Fe1           0.7980889323        0.4632133425        0.2143405270
Fe2           0.6733913205        0.5879293518        0.2152712015
Fe1           0.6707492219        0.7133688995        0.8443672863
Fe2           0.7956830182        0.8383915184        0.8444409697
Fe1           0.7965516956        0.7131228985        0.9638247794
Fe2           0.6713892062        0.8380009124        0.9653288981
Fe1           0.6720426466        0.7127619502        0.0939650732
Fe2           0.7968994814        0.8377468067        0.0934131806
Fe1           0.7973674175        0.7127422994        0.2142176755
Fe2           0.6731256699        0.8377762163        0.2152545356
Fe1           0.6704166206        0.9635669024        0.8450811194
Fe2           0.7963122452        0.0879615107        0.8450151108
Fe1           0.7965243814        0.9630793856        0.9647390327
Fe2           0.6716751217        0.0883583291        0.9658611939
Fe1           0.6725734048        0.9630358901        0.0947469562
Fe2           0.7974644215        0.0879661939        0.0939869820
Fe1           0.7978897276        0.9625382185        0.2148997153
Fe2           0.6734775581        0.0881833217        0.2155880529
Fe1           0.6712284185        0.2124153578        0.8451279588
Fe2           0.7965244062        0.3370608268        0.8448832171
Fe1           0.7969459371        0.2127385251        0.9646214431
[...]
Fe2           0.2976943338        0.0880052085        0.8462065981
Fe1           0.2974273380        0.9629525052        0.9671194273
Fe2           0.1723951844        0.0878880689        0.9665357964
Fe1           0.1715374737        0.9625833778        0.0952048867
Fe2           0.2965387673        0.0878748907        0.0965608525
Fe1           0.2961646721        0.9624733873        0.2161251914
Fe2           0.1704478976        0.0877042586        0.2159492954
Fe1           0.1732731055        0.2127725997        0.8453301030
Fe2           0.2974135488        0.3371968372        0.8462722624
Fe1           0.2970173710        0.2128352135        0.9672439165
Fe2           0.1723615881        0.3380522581        0.9658945917
Fe1           0.1714398460        0.2130326355        0.0954063829
Fe2           0.2968513095        0.3380983836        0.0957917850
Fe1           0.2960134544        0.2131099130        0.2159461611
Fe2           0.1705722429        0.3382461500        0.2155807383

     Writing output data file /scratch/bxp912/fepdslabrelax2.save/
     NEW-OLD atomic charge density approx. for the potential

     Check: negative core charge=   -0.000004

     negative rho (up, down):  2.917E-03 1.186E-03
     Generating pointlists ...

     Writing output data file /scratch/bxp912/fepdslabrelax2.save/

     General routines

     Parallel routines

   This run was terminated on:  20:55:53  22May2022

   JOB DONE.