     Program PWSCF v.6.7MaX starts on  5Jan2022 at 14:58:27

     R & G space division:  proc/nbgrp/npool/nimage =      72
     Reading input from fe_octa_1.in
Warning: card &CELL ignored
Warning: card CELL_DYNAMICS = 'BFGS', ignored
Warning: card CELL_FACTOR = 2.0, ignored
Warning: card PRESS = 0.0, ignored
Warning: card / ignored

     Current dimensions of program PWSCF are:
     Max number of different atomic species (ntypx) = 10
     Max number of k-points (npk) =  40000
     Max angular momentum in pseudopotentials (lmaxx) =  3
     file Fe.pbe-spn-kjpaw_psl.1.0.0.UPF: wavefunction(s)  3P 3D renormalized
     file Fe.pbe-spn-kjpaw_psl.1.0.0.UPF: wavefunction(s)  3P 3D renormalized
     file Fe.pbe-spn-kjpaw_psl.1.0.0.UPF: wavefunction(s)  3P 3D renormalized
     file Fe.pbe-spn-kjpaw_psl.1.0.0.UPF: wavefunction(s)  3P 3D renormalized
     file Fe.pbe-spn-kjpaw_psl.1.0.0.UPF: wavefunction(s)  3P 3D renormalized

     Subspace diagonalization in iterative solution of the eigenvalue problem:
     one sub-group per band group will be used

     Message from routine setup:
     using ibrav=0 with symmetry is DISCOURAGED, use correct ibrav instead

     bravais-lattice index     =            0
     lattice parameter (alat)  =      12.9382  a.u.
     unit-cell volume          =    2283.7811 (a.u.)^3
     number of atoms/cell      =           33
     number of atomic types    =            5
     number of electrons       =       528.00
     number of Kohn-Sham states=          317
     kinetic-energy cutoff     =      71.0000  Ry
     charge density cutoff     =     430.0000  Ry
     scf convergence threshold =      1.0E-06
     mixing beta               =       0.3000
     number of iterations used =            8  local-TF  mixing
     Exchange-correlation= SLA  PW   PBX  PBC
                           (   1   4   3   4   0   0   0)

     celldm(1)=  12.938187  celldm(2)=   0.000000  celldm(3)=   0.000000
     celldm(4)=   0.000000  celldm(5)=   0.000000  celldm(6)=   0.000000

     crystal axes: (cart. coord. in units of alat)
               a(1) = (   1.000000   0.000000   0.000000 )
               a(2) = (   0.000000   1.054470   0.000000 )
               a(3) = (   0.000000   0.000000   1.000000 )

     reciprocal axes: (cart. coord. in units 2 pi/alat)
               b(1) = (  1.000000  0.000000  0.000000 )
               b(2) = (  0.000000  0.948344  0.000000 )
               b(3) = (  0.000000  0.000000  1.000000 )

     PseudoPot. # 1 for Fe read from file:
     /rds/homes/b/bxp912/pp/Fe.pbe-spn-kjpaw_psl.1.0.0.UPF
     MD5 check sum: 42f43b795421b414b0dc916aa790dbcb
     Pseudo is Projector augmented-wave + core cor, Zval = 16.0
     Generated using &quot;atomic&quot; code by A. Dal Corso  v.6.3
     Shape of augmentation charge: PSQ
     Using radial grid of 1191 points,  6 beta functions with:
                l(1) =   0
                l(2) =   0
                l(3) =   1
                l(4) =   1
                l(5) =   2
                l(6) =   2
     Q(r) pseudized with 0 coefficients

[...]

     PseudoPot. # 5 for Fe read from file:
     /rds/homes/b/bxp912/pp/Fe.pbe-spn-kjpaw_psl.1.0.0.UPF
     MD5 check sum: 42f43b795421b414b0dc916aa790dbcb
     Pseudo is Projector augmented-wave + core cor, Zval = 16.0
     Generated using &quot;atomic&quot; code by A. Dal Corso  v.6.3
     Shape of augmentation charge: PSQ
     Using radial grid of 1191 points,  6 beta functions with:
                l(1) =   0
                l(2) =   0
                l(3) =   1
                l(4) =   1
                l(5) =   2
                l(6) =   2
     Q(r) pseudized with 0 coefficients

     atomic species   valence    mass     pseudopotential
        Fe1           16.00    55.84500     Fe( 1.00)
        Fe2           16.00    55.84500     Fe( 1.00)
        Fe3           16.00    55.84500     Fe( 1.00)
        Fe4           16.00    55.84500     Fe( 1.00)
        Fe5           16.00    55.84500     Fe( 1.00)

     Starting magnetic structure
     atomic species   magnetization
        Fe1          0.100
        Fe2         -0.100
        Fe3          0.100
        Fe4         -0.100
        Fe5         -0.010

      8 Sym. Ops., with inversion, found ( 7 have fractional translation)

   Cartesian axes

     site n.     atom                  positions (alat units)
         1           Fe5 tau(   1) = (   0.2500000   0.2636175   0.2500000  )
         2           Fe1 tau(   2) = (   0.0000000   0.0000000   0.0000000  )
         3           Fe2 tau(   3) = (   0.2500000   0.2636175   0.0000000  )
         4           Fe3 tau(   4) = (   0.2500000   0.0000000   0.2500000  )
         5           Fe4 tau(   5) = (   0.0000000   0.2636175   0.2500000  )
         6           Fe1 tau(   6) = (   0.0000000   0.0000000   0.5000000  )
         7           Fe2 tau(   7) = (   0.2500000   0.2636175   0.5000000  )
         8           Fe3 tau(   8) = (   0.2500000   0.0000000   0.7500000  )
         9           Fe4 tau(   9) = (   0.0000000   0.2636175   0.7500000  )
        10           Fe1 tau(  10) = (   0.0000000   0.5272350   0.0000000  )
        11           Fe2 tau(  11) = (   0.2500000   0.7908525   0.0000000  )
        12           Fe3 tau(  12) = (   0.2500000   0.5272350   0.2500000  )
        13           Fe4 tau(  13) = (   0.0000000   0.7908525   0.2500000  )
        14           Fe1 tau(  14) = (   0.0000000   0.5272350   0.5000000  )
        15           Fe2 tau(  15) = (   0.2500000   0.7908525   0.5000000  )
        16           Fe3 tau(  16) = (   0.2500000   0.5272350   0.7500000  )
        17           Fe4 tau(  17) = (   0.0000000   0.7908525   0.7500000  )
        18           Fe1 tau(  18) = (   0.5000000   0.0000000   0.0000000  )
        19           Fe2 tau(  19) = (   0.7500000   0.2636175   0.0000000  )
        20           Fe3 tau(  20) = (   0.7500000   0.0000000   0.2500000  )
        21           Fe4 tau(  21) = (   0.5000000   0.2636175   0.2500000  )
        22           Fe1 tau(  22) = (   0.5000000   0.0000000   0.5000000  )
        23           Fe2 tau(  23) = (   0.7500000   0.2636175   0.5000000  )
        24           Fe3 tau(  24) = (   0.7500000   0.0000000   0.7500000  )
        25           Fe4 tau(  25) = (   0.5000000   0.2636175   0.7500000  )
        26           Fe1 tau(  26) = (   0.5000000   0.5272350   0.0000000  )
        27           Fe2 tau(  27) = (   0.7500000   0.7908525   0.0000000  )
        28           Fe3 tau(  28) = (   0.7500000   0.5272350   0.2500000  )
        29           Fe4 tau(  29) = (   0.5000000   0.7908525   0.2500000  )
        30           Fe1 tau(  30) = (   0.5000000   0.5272350   0.5000000  )
        31           Fe2 tau(  31) = (   0.7500000   0.7908525   0.5000000  )
        32           Fe3 tau(  32) = (   0.7500000   0.5272350   0.7500000  )
        33           Fe4 tau(  33) = (   0.5000000   0.7908525   0.7500000  )

     number of k points=   125  Marzari-Vanderbilt smearing, width (Ry)=  0.0400

     Number of k-points >= 100: set verbosity='high' to print them.

     Check: negative core charge=   -0.000006
     Generating pointlists ...
     new r_m :   0.1458 (alat units)  1.8869 (a.u.) for type    1
     new r_m :   0.1031 (alat units)  1.3343 (a.u.) for type    2
     new r_m :   0.1087 (alat units)  1.4069 (a.u.) for type    3
     new r_m :   0.1031 (alat units)  1.3343 (a.u.) for type    4
     new r_m :   0.1031 (alat units)  1.3343 (a.u.) for type    5

     Initial potential from superposition of free atoms

     starting charge  527.98556, renormalised to  528.00000
     Starting wfcs are  330 randomized atomic wfcs
     Checking if some PAW data can be deallocated...

     Self-consistent Calculation

     iteration #  1     ecut=    71.00 Ry     beta= 0.30
     Davidson diagonalization with overlap
     ethr =  1.00E-02,  avg # of iterations =  3.3

     total energy              =  -10862.57232558 Ry
     estimated scf accuracy    <      25.82313638 Ry

     total magnetization       =     1.70 Bohr mag/cell
     absolute magnetization    =    42.58 Bohr mag/cell

[...]

     iteration #  5     ecut=    71.00 Ry     beta= 0.30
     Davidson diagonalization with overlap
     c_bands:  1 eigenvalues not converged
     ethr =  6.11E-05,  avg # of iterations =  4.3

[...]

     iteration # 15     ecut=    71.00 Ry     beta= 0.30
     Davidson diagonalization with overlap
     c_bands:  1 eigenvalues not converged
     ethr =  3.40E-07,  avg # of iterations =  5.2

[...]

     total energy              =  -10864.23208872 Ry
     estimated scf accuracy    <       0.00000115 Ry

[...]

     iteration # 32     ecut=    71.00 Ry     beta= 0.30
     Davidson diagonalization with overlap
     ethr =  2.18E-10,  avg # of iterations =  2.5

     Magnetic moment per site:
     atom:    1    charge:   12.8148    magn:    0.0469    constr:    0.0000
     atom:    2    charge:   14.3931    magn:    1.6943    constr:    0.0000
     atom:    3    charge:   12.4811    magn:    0.1929    constr:    0.0000
     atom:    4    charge:   12.8020    magn:    0.7850    constr:    0.0000
     atom:    5    charge:   12.4811    magn:    0.1927    constr:    0.0000
     atom:    6    charge:   14.3931    magn:    1.6943    constr:    0.0000
     atom:    7    charge:   12.4811    magn:    0.1929    constr:    0.0000
     atom:    8    charge:   12.6798    magn:    1.2302    constr:    0.0000
     atom:    9    charge:   12.3385    magn:   -1.3224    constr:    0.0000
     atom:   10    charge:   14.3931    magn:    1.6943    constr:    0.0000
     atom:   11    charge:   12.3400    magn:   -1.2474    constr:    0.0000
     atom:   12    charge:   12.8020    magn:    0.7850    constr:    0.0000
     atom:   13    charge:   12.3401    magn:   -1.2473    constr:    0.0000
     atom:   14    charge:   14.3931    magn:    1.6943    constr:    0.0000
     atom:   15    charge:   12.3400    magn:   -1.2474    constr:    0.0000
     atom:   16    charge:   12.6798    magn:    1.2302    constr:    0.0000
     atom:   17    charge:   12.3371    magn:   -1.3064    constr:    0.0000
     atom:   18    charge:   14.3931    magn:    1.6943    constr:    0.0000
     atom:   19    charge:   12.3384    magn:   -1.3223    constr:    0.0000
     atom:   20    charge:   12.6798    magn:    1.2301    constr:    0.0000
     atom:   21    charge:   12.4811    magn:    0.1927    constr:    0.0000
     atom:   22    charge:   14.3931    magn:    1.6943    constr:    0.0000
     atom:   23    charge:   12.3384    magn:   -1.3223    constr:    0.0000
     atom:   24    charge:   12.6770    magn:    1.1319    constr:    0.0000
     atom:   25    charge:   12.3385    magn:   -1.3224    constr:    0.0000
     atom:   26    charge:   14.3931    magn:    1.6943    constr:    0.0000
     atom:   27    charge:   12.3369    magn:   -1.3065    constr:    0.0000
     atom:   28    charge:   12.6798    magn:    1.2301    constr:    0.0000
     atom:   29    charge:   12.3401    magn:   -1.2473    constr:    0.0000
     atom:   30    charge:   14.3931    magn:    1.6943    constr:    0.0000
     atom:   31    charge:   12.3369    magn:   -1.3065    constr:    0.0000
     atom:   32    charge:   12.6770    magn:    1.1319    constr:    0.0000
     atom:   33    charge:   12.3371    magn:   -1.3064    constr:    0.0000

     End of self-consistent calculation

     Number of k-points >= 100: set verbosity='high' to print the bands.

     the Fermi energy is    20.8994 ev

!    total energy              =  -10864.23208929 Ry

     total all-electron energy =    -84002.017680 Ry
     estimated scf accuracy    <       0.00000083 Ry
     smearing contrib. (-TS)   =       0.00400242 Ry
     internal energy E=F+TS    =  -10864.23609171 Ry

     The total energy is F=E-TS. E is the sum of the following terms:
     one-electron contribution =   -3492.94178074 Ry
     hartree contribution      =    2121.08363207 Ry
     xc contribution           =    -916.86495186 Ry
     ewald contribution        =   -5843.30604005 Ry
     one-center paw contrib.   =   -2732.20695113 Ry

     total magnetization       =     5.99 Bohr mag/cell
     absolute magnetization    =    44.37 Bohr mag/cell

     convergence has been achieved in  32 iterations

     Forces acting on atoms (cartesian axes, Ry/au):

     atom    1 type  5   force =     0.00000000    0.00000000    0.00000000
     atom    2 type  1   force =    -0.01138732   -0.00482012   -0.01139030
     atom    3 type  2   force =     0.00000000    0.00000000   -0.58634479
     atom    4 type  3   force =     0.00000000   -0.46681477    0.00000000
     atom    5 type  4   force =    -0.58628661   -0.00000000   -0.00000000
     atom    6 type  1   force =    -0.01138732   -0.00482012    0.01139030
     atom    7 type  2   force =     0.00000000    0.00000000    0.58634479
     atom    8 type  3   force =     0.00000000   -0.00936323    0.00000000
     atom    9 type  4   force =    -0.01645109    0.00000000    0.00000000
     atom   10 type  1   force =    -0.01138732    0.00482012   -0.01139030
     atom   11 type  2   force =     0.00000000    0.00000000   -0.00440611
     atom   12 type  3   force =     0.00000000    0.46681477    0.00000000
     atom   13 type  4   force =    -0.00444294    0.00000000    0.00000000
     atom   14 type  1   force =    -0.01138732    0.00482012    0.01139030
     atom   15 type  2   force =     0.00000000    0.00000000    0.00440611
     atom   16 type  3   force =     0.00000000    0.00936323    0.00000000
     atom   17 type  4   force =    -0.00321943    0.00000000    0.00000000
     atom   18 type  1   force =     0.01138732   -0.00482012   -0.01139030
     atom   19 type  2   force =     0.00000000    0.00000000   -0.01648719
     atom   20 type  3   force =     0.00000000   -0.00935330   -0.00000000
     atom   21 type  4   force =     0.58628661    0.00000000   -0.00000000
     atom   22 type  1   force =     0.01138732   -0.00482012    0.01139030
     atom   23 type  2   force =     0.00000000    0.00000000    0.01648719
     atom   24 type  3   force =     0.00000000    0.00242456    0.00000000
     atom   25 type  4   force =     0.01645109    0.00000000    0.00000000
     atom   26 type  1   force =     0.01138732    0.00482012   -0.01139030
     atom   27 type  2   force =     0.00000000    0.00000000   -0.00325712
     atom   28 type  3   force =     0.00000000    0.00935330   -0.00000000
     atom   29 type  4   force =     0.00444294    0.00000000    0.00000000
     atom   30 type  1   force =     0.01138732    0.00482012    0.01139030
     atom   31 type  2   force =     0.00000000    0.00000000    0.00325712
     atom   32 type  3   force =     0.00000000   -0.00242456    0.00000000
     atom   33 type  4   force =     0.00321943    0.00000000    0.00000000

     Total force =     1.347117     Total SCF correction =     0.003016

     Computing stress (Cartesian axis) and pressure

          total   stress  (Ry/bohr**3)                   (kbar)     P=      262.74
   0.00192251   0.00000000   0.00000000          282.81        0.00        0.00
   0.00000000   0.00151341   0.00000000            0.00      222.63        0.00
   0.00000000   0.00000000   0.00192233            0.00        0.00      282.78

     Writing output data file /scratch/bxp912/feocta1.save/

     General routines

     Parallel routines

   This run was terminated on:  16:47: 9   5Jan2022

   JOB DONE.