     Program PWSCF v.6.7MaX starts on  4Jan2022 at  8: 0:42

     R & G space division:  proc/nbgrp/npool/nimage =      72
     Reading input from pd_crowdion_2.in

     Current dimensions of program PWSCF are:
     Max number of different atomic species (ntypx) = 10
     Max number of k-points (npk) =  40000
     Max angular momentum in pseudopotentials (lmaxx) =  3
     file Pd.pbe-spn-kjpaw_psl.1.0.0.UPF: wavefunction(s)  4S 5S 4D renormalized

     Subspace diagonalization in iterative solution of the eigenvalue problem:
     one sub-group per band group will be used

     Message from routine setup:
     using ibrav=0 with symmetry is DISCOURAGED, use correct ibrav instead

     bravais-lattice index     =            0
     lattice parameter (alat)  =      14.4007  a.u.
     unit-cell volume          =    2986.4454 (a.u.)^3
     number of atoms/cell      =           33
     number of atomic types    =            1
     number of electrons       =       594.00
     number of Kohn-Sham states=          356
     kinetic-energy cutoff     =      71.0000  Ry
     charge density cutoff     =     430.0000  Ry
     scf convergence threshold =      1.0E-06
     mixing beta               =       0.1000
     number of iterations used =           10  TF        mixing
     energy convergence thresh.=      1.0E-04
     force convergence thresh. =      1.0E-03
     press convergence thresh. =      5.0E-01
     Exchange-correlation= SLA  PW   PBX  PBC
                           (   1   4   3   4   0   0   0)
     nstep                     =           40

     celldm(1)=  14.400742  celldm(2)=   0.000000  celldm(3)=   0.000000
     celldm(4)=   0.000000  celldm(5)=   0.000000  celldm(6)=   0.000000

     crystal axes: (cart. coord. in units of alat)
               a(1) = (   1.000000   0.000000   0.000000 )
               a(2) = (   0.000000   1.000000   0.000000 )
               a(3) = (   0.000000   0.000000   1.000000 )

     reciprocal axes: (cart. coord. in units 2 pi/alat)
               b(1) = (  1.000000  0.000000  0.000000 )
               b(2) = (  0.000000  1.000000  0.000000 )
               b(3) = (  0.000000  0.000000  1.000000 )

     PseudoPot. # 1 for Pd read from file:
     /rds/homes/b/bxp912/pp/Pd.pbe-spn-kjpaw_psl.1.0.0.UPF
     MD5 check sum: 790f2ebce206edfd9790dcb9844eca51
     Pseudo is Projector augmented-wave + core cor, Zval = 18.0
     Generated using &quot;atomic&quot; code by A. Dal Corso  v.6.3
     Shape of augmentation charge: PSQ
     Using radial grid of 1235 points,  6 beta functions with:
                l(1) =   0
                l(2) =   0
                l(3) =   1
                l(4) =   1
                l(5) =   2
                l(6) =   2
     Q(r) pseudized with 0 coefficients

     atomic species   valence    mass     pseudopotential
        Pd            18.00   106.42000     Pd( 1.00)

      8 Sym. Ops., with inversion, found ( 6 have fractional translation)

   Cartesian axes

     site n.     atom                  positions (alat units)
         1           Pd  tau(   1) = (   0.0000000   0.3750000   0.1250000  )
         2           Pd  tau(   2) = (   0.0000000   0.0000000   0.0000000  )
         3           Pd  tau(   3) = (   0.2500000   0.2500000   0.0000000  )
         4           Pd  tau(   4) = (   0.2500000   0.0000000   0.2500000  )
         5           Pd  tau(   5) = (   0.0000000   0.2500000   0.2500000  )
         6           Pd  tau(   6) = (   0.0000000   0.0000000   0.5000000  )
         7           Pd  tau(   7) = (   0.2500000   0.2500000   0.5000000  )
         8           Pd  tau(   8) = (   0.2500000   0.0000000   0.7500000  )
         9           Pd  tau(   9) = (   0.0000000   0.2500000   0.7500000  )
        10           Pd  tau(  10) = (   0.0000000   0.5000000   0.0000000  )
        11           Pd  tau(  11) = (   0.2500000   0.7500000   0.0000000  )
        12           Pd  tau(  12) = (   0.2500000   0.5000000   0.2500000  )
        13           Pd  tau(  13) = (   0.0000000   0.7500000   0.2500000  )
        14           Pd  tau(  14) = (   0.0000000   0.5000000   0.5000000  )
        15           Pd  tau(  15) = (   0.2500000   0.7500000   0.5000000  )
        16           Pd  tau(  16) = (   0.2500000   0.5000000   0.7500000  )
        17           Pd  tau(  17) = (   0.0000000   0.7500000   0.7500000  )
        18           Pd  tau(  18) = (   0.5000000   0.0000000   0.0000000  )
        19           Pd  tau(  19) = (   0.7500000   0.2500000   0.0000000  )
        20           Pd  tau(  20) = (   0.7500000   0.0000000   0.2500000  )
        21           Pd  tau(  21) = (   0.5000000   0.2500000   0.2500000  )
        22           Pd  tau(  22) = (   0.5000000   0.0000000   0.5000000  )
        23           Pd  tau(  23) = (   0.7500000   0.2500000   0.5000000  )
        24           Pd  tau(  24) = (   0.7500000   0.0000000   0.7500000  )
        25           Pd  tau(  25) = (   0.5000000   0.2500000   0.7500000  )
        26           Pd  tau(  26) = (   0.5000000   0.5000000   0.0000000  )
        27           Pd  tau(  27) = (   0.7500000   0.7500000   0.0000000  )
        28           Pd  tau(  28) = (   0.7500000   0.5000000   0.2500000  )
        29           Pd  tau(  29) = (   0.5000000   0.7500000   0.2500000  )
        30           Pd  tau(  30) = (   0.5000000   0.5000000   0.5000000  )
        31           Pd  tau(  31) = (   0.7500000   0.7500000   0.5000000  )
        32           Pd  tau(  32) = (   0.7500000   0.5000000   0.7500000  )
        33           Pd  tau(  33) = (   0.5000000   0.7500000   0.7500000  )

     number of k points=   125  Marzari-Vanderbilt smearing, width (Ry)=  0.0400

     Number of k-points >= 100: set verbosity='high' to print them.

     Check: negative core charge=   -0.000001

     Initial potential from superposition of free atoms

     starting charge  593.98738, renormalised to  594.00000
     Starting wfcs are  330 randomized atomic wfcs +   26 random wfcs
     Checking if some PAW data can be deallocated...

     Self-consistent Calculation

     iteration #  1     ecut=    71.00 Ry     beta= 0.10
     Davidson diagonalization with overlap
     ethr =  1.00E-02,  avg # of iterations =  3.0

     Threshold (ethr) on eigenvalues was too large:
     Diagonalizing with lowered threshold

     Davidson diagonalization with overlap
     ethr =  1.98E-04,  avg # of iterations =  2.1

     total energy              =  -16889.71119417 Ry
     estimated scf accuracy    <       1.14157781 Ry

[...]

     iteration #  4     ecut=    71.00 Ry     beta= 0.10
     Davidson diagonalization with overlap
     c_bands:  1 eigenvalues not converged
     c_bands:  1 eigenvalues not converged
     ethr =  3.22E-05,  avg # of iterations =  7.7

[...]

     End of self-consistent calculation

     Number of k-points >= 100: set verbosity='high' to print the bands.

     the Fermi energy is    22.8668 ev

!    total energy              =  -16889.47186985 Ry

     total all-electron energy =   -333030.352255 Ry
     estimated scf accuracy    <       0.00000071 Ry
     smearing contrib. (-TS)   =       0.05867442 Ry
     internal energy E=F+TS    =  -16889.53054426 Ry

     The total energy is F=E-TS. E is the sum of the following terms:
     one-electron contribution =   -2426.72080424 Ry
     hartree contribution      =    1702.18341446 Ry
     xc contribution           =   -1023.85753057 Ry
     ewald contribution        =   -6718.12153546 Ry
     one-center paw contrib.   =   -8423.01408846 Ry

     convergence has been achieved in  15 iterations

     Forces acting on atoms (cartesian axes, Ry/au):

     atom    1 type  1   force =     0.00000000    0.00000000    0.00000000
     atom    2 type  1   force =     0.00000000   -0.02682956   -0.01277654
     atom    3 type  1   force =     0.17454369   -0.08839474   -0.08839474
     atom    4 type  1   force =     0.00654044   -0.00794220    0.00140352
     atom    5 type  1   force =     0.00000000   -5.70891254    5.70891254
     atom    6 type  1   force =     0.00000000   -0.00502917    0.00502917
     atom    7 type  1   force =     0.00654044   -0.00140352    0.00794220
     atom    8 type  1   force =     0.00049256   -0.00134804   -0.00134804
     atom    9 type  1   force =     0.00000000   -0.01277654   -0.02682956
     atom   10 type  1   force =     0.00000000    5.70891254   -5.70891254
     atom   11 type  1   force =     0.00654044    0.00794220   -0.00140352
     atom   12 type  1   force =     0.17454369    0.08839474    0.08839474
     atom   13 type  1   force =     0.00000000    0.02682956    0.01277654
     atom   14 type  1   force =     0.00000000    0.01277654    0.02682956
     atom   15 type  1   force =     0.00049256    0.00134804    0.00134804
     atom   16 type  1   force =     0.00654044    0.00140352   -0.00794220
     atom   17 type  1   force =     0.00000000    0.00502917   -0.00502917
     atom   18 type  1   force =     0.00000000   -0.00396450   -0.00127124
     atom   19 type  1   force =    -0.17454369   -0.08839474   -0.08839474
     atom   20 type  1   force =    -0.00654044   -0.00794220    0.00140352
     atom   21 type  1   force =     0.00000000   -0.00215794    0.00215794
     atom   22 type  1   force =     0.00000000    0.00022620   -0.00022620
     atom   23 type  1   force =    -0.00654044   -0.00140352    0.00794220
     atom   24 type  1   force =    -0.00049256   -0.00134804   -0.00134804
     atom   25 type  1   force =     0.00000000   -0.00127124   -0.00396450
     atom   26 type  1   force =     0.00000000    0.00215794   -0.00215794
     atom   27 type  1   force =    -0.00654044    0.00794220   -0.00140352
     atom   28 type  1   force =    -0.17454369    0.08839474    0.08839474
     atom   29 type  1   force =     0.00000000    0.00396450    0.00127124
     atom   30 type  1   force =     0.00000000    0.00127124    0.00396450
     atom   31 type  1   force =    -0.00049256    0.00134804    0.00134804
     atom   32 type  1   force =    -0.00654044    0.00140352   -0.00794220
     atom   33 type  1   force =     0.00000000   -0.00022620    0.00022620

     Total force =    11.426097     Total SCF correction =     0.003877

     Computing stress (Cartesian axis) and pressure

          total   stress  (Ry/bohr**3)                   (kbar)     P=      992.77
   0.00252632   0.00000000   0.00000000          371.63        0.00        0.00
   0.00000000   0.00885992  -0.00661817            0.00     1303.34     -973.57
   0.00000000  -0.00661817   0.00885992            0.00     -973.57     1303.34

     BFGS Geometry Optimization
     Energy error            =      0.0E+00
     Gradient error          =      5.7E+00
     Cell gradient error     =      8.9E-03

     number of scf cycles    =   1
     number of bfgs steps    =   0

     enthalpy new            =  -16889.4718698475 Ry

     new trust radius        =       0.5000000000 bohr
     new conv_thr            =       0.0000010000 Ry

     new unit-cell volume =   3080.62879 a.u.^3 (   456.50209 Ang^3 )
     density =     12.77449 g/cm^3

CELL_PARAMETERS (alat= 14.40074160)
   1.003911376   0.000000000   0.000000000
[...]
Pd            0.5000000000        0.4960322728        0.5015139464
Pd            0.7454965214        0.7462397871        0.4962397871
Pd            0.7420813841        0.5076523785        0.7362288471
Pd            0.5000000000        0.7565444167        0.7434555833

     Writing output data file /scratch/pdcrowdion2.save/
     NEW-OLD atomic charge density approx. for the potential

     Check: negative core charge=   -0.000005
     extrapolated charge  594.04282, renormalised to  594.00000

[...]

     Threshold (ethr) on eigenvalues was too large:
     Diagonalizing with lowered threshold

     Davidson diagonalization with overlap
     ethr =  9.49E-09,  avg # of iterations =  4.0

[...]

     Energy error            =      3.5E-05
     Gradient error          =      6.6E-04
     Cell gradient error     =      3.1E-06

     bfgs converged in  25 scf cycles and  24 bfgs steps
     (criteria: energy <  1.0E-04 Ry, force <  1.0E-03Ry/Bohr, cell <  5.0E-01kbar)

     End of BFGS Geometry Optimization

     Final enthalpy =  -16896.5674533161 Ry

     File /scratch/pdcrowdion2.bfgs deleted, as requested
Begin final coordinates
     new unit-cell volume =   3474.56230 a.u.^3 (   514.87701 Ang^3 )
     density =     11.32616 g/cm^3

CELL_PARAMETERS (alat= 14.40074160)
   1.018979215   0.000000000   0.000000000
   0.000000000   1.069736143  -0.050608986
   0.000000000  -0.050608986   1.069736143

ATOMIC_POSITIONS (crystal)
Pd            0.0000000000        0.3750000000        0.1250000000
Pd            0.0000000000        0.0102800646        0.0057175637
Pd            0.2759939343        0.2484831475       -0.0015168525
Pd            0.2579186159       -0.0137711529        0.2576523785
Pd            0.0000000000        0.1825622569        0.3174377431
Pd           -0.0000000000       -0.0204658206        0.5204658206
Pd            0.2579186159        0.2423476215        0.5137711529
Pd            0.2545034786        0.0037602129        0.7537602129
Pd           -0.0000000000        0.2557175637        0.7602800646
Pd            0.0000000000        0.5674377431       -0.0674377431
Pd            0.2579186159        0.7637711529       -0.0076523785
Pd            0.2759939343        0.5015168525        0.2515168525
Pd            0.0000000000        0.7397199354        0.2442824363
Pd           -0.0000000000        0.4942824363        0.4897199354
Pd            0.2545034786        0.7462397871        0.4962397871
Pd            0.2579186159        0.5076523785        0.7362288471
Pd           -0.0000000000        0.7704658206        0.7295341794
Pd            0.5000000000       -0.0015139464        0.0039677272
Pd            0.7240060657        0.2484831475       -0.0015168525
Pd            0.7420813841       -0.0137711529        0.2576523785
Pd            0.5000000000        0.2375973076        0.2624026924
Pd            0.5000000000       -0.0065444167        0.5065444167
Pd            0.7420813841        0.2423476215        0.5137711529
Pd            0.7454965214        0.0037602129        0.7537602129
Pd            0.5000000000        0.2539677272        0.7484860536
Pd            0.5000000000        0.5124026924       -0.0124026924
Pd            0.7420813841        0.7637711529       -0.0076523785
Pd            0.7240060657        0.5015168525        0.2515168525
Pd            0.5000000000        0.7515139464        0.2460322728
Pd            0.5000000000        0.4960322728        0.5015139464
Pd            0.7454965214        0.7462397871        0.4962397871
Pd            0.7420813841        0.5076523785        0.7362288471
Pd            0.5000000000        0.7565444167        0.7434555833
End final coordinates

     Writing output data file /scratch/pdcrowdion2.save/

     Final scf calculation at the relaxed structure.
     The G-vectors are recalculated for the final unit cell
     Results may differ from those at the preceding step.

     bravais-lattice index     =            0
     lattice parameter (alat)  =      14.4007  a.u.
     unit-cell volume          =    3474.5623 (a.u.)^3
     number of atoms/cell      =           33
     number of atomic types    =            1
     number of electrons       =       594.00
     number of Kohn-Sham states=          356
     kinetic-energy cutoff     =      71.0000  Ry
     charge density cutoff     =     430.0000  Ry
     scf convergence threshold =      1.0E-08
     mixing beta               =       0.1000
     number of iterations used =           10  TF        mixing
     press convergence thresh. =      5.0E-01
     Exchange-correlation= SLA  PW   PBX  PBC
                           (   1   4   3   4   0   0   0)

     celldm(1)=  14.400742  celldm(2)=   0.000000  celldm(3)=   0.000000
     celldm(4)=   0.000000  celldm(5)=   0.000000  celldm(6)=   0.000000

     crystal axes: (cart. coord. in units of alat)
               a(1) = (   1.018979   0.000000   0.000000 )
               a(2) = (   0.000000   1.069736  -0.050609 )
               a(3) = (   0.000000  -0.050609   1.069736 )

     reciprocal axes: (cart. coord. in units 2 pi/alat)
               b(1) = (  0.981374  0.000000  0.000000 )
               b(2) = (  0.000000  0.936907  0.044325 )
               b(3) = (  0.000000  0.044325  0.936907 )

     PseudoPot. # 1 for Pd read from file:
     /rds/homes/b/bxp912/pp/Pd.pbe-spn-kjpaw_psl.1.0.0.UPF
     MD5 check sum: 790f2ebce206edfd9790dcb9844eca51
     Pseudo is Projector augmented-wave + core cor, Zval = 18.0
     Generated using &quot;atomic&quot; code by A. Dal Corso  v.6.3
     Shape of augmentation charge: PSQ
     Using radial grid of 1235 points,  6 beta functions with:
                l(1) =   0
                l(2) =   0
                l(3) =   1
                l(4) =   1
                l(5) =   2
                l(6) =   2
     Q(r) pseudized with 0 coefficients

     atomic species   valence    mass     pseudopotential
        Pd            18.00   106.42000     Pd( 1.00)

      8 Sym. Ops., with inversion, found ( 6 have fractional translation)

   Cartesian axes

     site n.     atom                  positions (alat units)
         1           Pd  tau(   1) = (   0.0000000   0.3948249   0.1147386  )
         2           Pd  tau(   2) = (   0.0000000   0.0107076   0.0055960  )
         3           Pd  tau(   3) = (   0.2812321   0.2658882  -0.0141981  )
         4           Pd  tau(   4) = (   0.2628137  -0.0277710   0.2763170  )
         5           Pd  tau(   5) = (   0.0000000   0.1792282   0.3303353  )
         6           Pd  tau(   6) = (  -0.0000000  -0.0482333   0.5577969  )
         7           Pd  tau(   7) = (   0.2628137   0.2332466   0.5373346  )
         8           Pd  tau(   8) = (   0.2593338  -0.0341246   0.8061342  )
         9           Pd  tau(   9) = (  -0.0000000   0.2350733   0.8003575  )
        10           Pd  tau(  10) = (   0.0000000   0.6104216  -0.1008580  )
        11           Pd  tau(  11) = (   0.2628137   0.8174209  -0.0468397  )
        12           Pd  tau(  12) = (   0.2812321   0.5237617   0.2436754  )
        13           Pd  tau(  13) = (   0.0000000   0.7789423   0.2238813  )
        14           Pd  tau(  14) = (  -0.0000000   0.5039676   0.4988560  )
        15           Pd  tau(  15) = (   0.2593338   0.7731655   0.4930792  )
        16           Pd  tau(  16) = (   0.2628137   0.5057943   0.7618788  )
        17           Pd  tau(  17) = (  -0.0000000   0.7872742   0.7414166  )
        18           Pd  tau(  18) = (   0.5094896  -0.0018203   0.0043210  )
        19           Pd  tau(  19) = (   0.7377471   0.2658882  -0.0141981  )
        20           Pd  tau(  20) = (   0.7561655  -0.0277710   0.2763170  )
        21           Pd  tau(  21) = (   0.5094896   0.2408865   0.2686771  )
        22           Pd  tau(  22) = (   0.5094896  -0.0326365   0.5422001  )
        23           Pd  tau(  23) = (   0.7561655   0.2332466   0.5373346  )
        24           Pd  tau(  24) = (   0.7596455  -0.0341246   0.8061342  )
        25           Pd  tau(  25) = (   0.5094896   0.2337983   0.7878295  )
        26           Pd  tau(  26) = (   0.5094896   0.5487634  -0.0391998  )
        27           Pd  tau(  27) = (   0.7561655   0.8174209  -0.0468397  )
        28           Pd  tau(  28) = (   0.7377471   0.5237617   0.2436754  )
        29           Pd  tau(  29) = (   0.5094896   0.7914702   0.2251563  )
        30           Pd  tau(  30) = (   0.5094896   0.5052425   0.5113839  )
        31           Pd  tau(  31) = (   0.7596455   0.7731655   0.4930792  )
        32           Pd  tau(  32) = (   0.7561655   0.5057943   0.7618788  )
        33           Pd  tau(  33) = (   0.5094896   0.7716774   0.7570134  )

     number of k points=   125  Marzari-Vanderbilt smearing, width (Ry)=  0.0400

     Number of k-points >= 100: set verbosity='high' to print them.

     Check: negative core charge=   -0.000002

     Initial potential from superposition of free atoms

     starting charge  593.98738, renormalised to  594.00000
     Starting wfcs are  330 randomized atomic wfcs +   26 random wfcs
     Checking if some PAW data can be deallocated...

     Self-consistent Calculation

     iteration #  1     ecut=    71.00 Ry     beta= 0.10
     Davidson diagonalization with overlap
     c_bands:  1 eigenvalues not converged
     c_bands:  1 eigenvalues not converged
     c_bands:  3 eigenvalues not converged
     c_bands:  2 eigenvalues not converged
     c_bands:  1 eigenvalues not converged
     c_bands:  5 eigenvalues not converged
     c_bands:  1 eigenvalues not converged
     c_bands:  2 eigenvalues not converged
     c_bands:  2 eigenvalues not converged
     c_bands:  2 eigenvalues not converged
     c_bands:  5 eigenvalues not converged
     c_bands:  1 eigenvalues not converged
     c_bands:  1 eigenvalues not converged
     c_bands:  2 eigenvalues not converged
     c_bands:  1 eigenvalues not converged
     c_bands:  1 eigenvalues not converged
     c_bands:  3 eigenvalues not converged
     c_bands:  1 eigenvalues not converged
     c_bands:  2 eigenvalues not converged
     c_bands:  2 eigenvalues not converged
     c_bands:  1 eigenvalues not converged
     c_bands:  1 eigenvalues not converged
     c_bands:  1 eigenvalues not converged
     c_bands:  1 eigenvalues not converged
     c_bands:  2 eigenvalues not converged
     c_bands:  1 eigenvalues not converged
     c_bands:  3 eigenvalues not converged
     c_bands:  1 eigenvalues not converged
     c_bands:  1 eigenvalues not converged
     c_bands:  2 eigenvalues not converged
     c_bands:  2 eigenvalues not converged
     c_bands:  2 eigenvalues not converged
     c_bands:  4 eigenvalues not converged
     c_bands:  2 eigenvalues not converged
     c_bands:  2 eigenvalues not converged
     c_bands:  1 eigenvalues not converged
     c_bands:  2 eigenvalues not converged
     c_bands:  1 eigenvalues not converged
     c_bands:  1 eigenvalues not converged
     c_bands:  1 eigenvalues not converged
     c_bands:  2 eigenvalues not converged
     c_bands:  2 eigenvalues not converged
     c_bands:  1 eigenvalues not converged
     c_bands:  2 eigenvalues not converged
     c_bands:  1 eigenvalues not converged
     c_bands:  1 eigenvalues not converged
     c_bands:  1 eigenvalues not converged
     c_bands:  3 eigenvalues not converged
     c_bands:  2 eigenvalues not converged
     c_bands:  1 eigenvalues not converged
     c_bands:  3 eigenvalues not converged
     c_bands:  1 eigenvalues not converged
     c_bands:  2 eigenvalues not converged
     c_bands:  2 eigenvalues not converged
     c_bands:  1 eigenvalues not converged
     c_bands:  2 eigenvalues not converged
     c_bands:  1 eigenvalues not converged
     c_bands:  1 eigenvalues not converged
     c_bands:  1 eigenvalues not converged
     c_bands:  1 eigenvalues not converged
     c_bands:  2 eigenvalues not converged
     c_bands:  2 eigenvalues not converged
     c_bands:  2 eigenvalues not converged
     c_bands:  2 eigenvalues not converged
     c_bands:  1 eigenvalues not converged
     c_bands:  1 eigenvalues not converged
     c_bands:  1 eigenvalues not converged
     c_bands:  1 eigenvalues not converged
     c_bands:  1 eigenvalues not converged
     c_bands:  1 eigenvalues not converged
     c_bands:  1 eigenvalues not converged
     c_bands:  1 eigenvalues not converged
     c_bands:  1 eigenvalues not converged
     c_bands:  1 eigenvalues not converged
     ethr =  1.00E-06,  avg # of iterations = 18.8

[...]

     total energy              =  -16896.63029849 Ry
     estimated scf accuracy    <       0.00000002 Ry

     iteration # 20     ecut=    71.00 Ry     beta= 0.10
     Davidson diagonalization with overlap
     ethr =  2.69E-12,  avg # of iterations =  2.0

     End of self-consistent calculation

     Number of k-points >= 100: set verbosity='high' to print the bands.

     the Fermi energy is    18.5264 ev

!    total energy              =  -16896.63030020 Ry

     total all-electron energy =   -333037.510686 Ry
     estimated scf accuracy    <          3.3E-09 Ry
     smearing contrib. (-TS)   =       0.10275986 Ry
     internal energy E=F+TS    =  -16896.73306006 Ry

     The total energy is F=E-TS. E is the sum of the following terms:
     one-electron contribution =   -2724.80119603 Ry
     hartree contribution      =    1778.00955822 Ry
     xc contribution           =   -1017.25106716 Ry
     ewald contribution        =   -6510.05345436 Ry
     one-center paw contrib.   =   -8422.63690072 Ry

     convergence has been achieved in  20 iterations

     Forces acting on atoms (cartesian axes, Ry/au):

     atom    1 type  1   force =     0.00000000    0.00000000    0.00000000
     atom    2 type  1   force =     0.00000000    0.00038135   -0.00029259
     atom    3 type  1   force =    -0.00021465    0.00020774    0.00020774
     atom    4 type  1   force =    -0.00032739    0.00012425    0.00047911
     atom    5 type  1   force =     0.00000000   -0.00012162    0.00012162
     atom    6 type  1   force =     0.00000000    0.00002458   -0.00002458
     atom    7 type  1   force =    -0.00032739   -0.00047911   -0.00012425
     atom    8 type  1   force =     0.00056474   -0.00059621   -0.00059621
     atom    9 type  1   force =     0.00000000   -0.00029259    0.00038135
     atom   10 type  1   force =     0.00000000    0.00012162   -0.00012162
     atom   11 type  1   force =    -0.00032739   -0.00012425   -0.00047911
     atom   12 type  1   force =    -0.00021465   -0.00020774   -0.00020774
     atom   13 type  1   force =     0.00000000   -0.00038135    0.00029259
     atom   14 type  1   force =     0.00000000    0.00029259   -0.00038135
     atom   15 type  1   force =     0.00056474    0.00059621    0.00059621
     atom   16 type  1   force =    -0.00032739    0.00047911    0.00012425
     atom   17 type  1   force =     0.00000000   -0.00002458    0.00002458
     atom   18 type  1   force =     0.00000000   -0.00014507    0.00022310
     atom   19 type  1   force =     0.00021465    0.00020774    0.00020774
     atom   20 type  1   force =     0.00032739    0.00012425    0.00047911
     atom   21 type  1   force =     0.00000000    0.00027604   -0.00027604
     atom   22 type  1   force =     0.00000000    0.00002460   -0.00002460
     atom   23 type  1   force =     0.00032739   -0.00047911   -0.00012425
     atom   24 type  1   force =    -0.00056474   -0.00059621   -0.00059621
     atom   25 type  1   force =     0.00000000    0.00022310   -0.00014507
     atom   26 type  1   force =     0.00000000   -0.00027604    0.00027604
     atom   27 type  1   force =     0.00032739   -0.00012425   -0.00047911
     atom   28 type  1   force =     0.00021465   -0.00020774   -0.00020774
     atom   29 type  1   force =     0.00000000    0.00014507   -0.00022310
     atom   30 type  1   force =     0.00000000   -0.00022310    0.00014507
     atom   31 type  1   force =    -0.00056474    0.00059621    0.00059621
     atom   32 type  1   force =     0.00032739    0.00047911    0.00012425
     atom   33 type  1   force =     0.00000000   -0.00002460    0.00002460

     Total force =     0.003007     Total SCF correction =     0.000228

     Computing stress (Cartesian axis) and pressure

          total   stress  (Ry/bohr**3)                   (kbar)     P=        4.22
   0.00002278   0.00000000   0.00000000            3.35        0.00        0.00
   0.00000000   0.00003160  -0.00001053            0.00        4.65       -1.55
   0.00000000  -0.00001053   0.00003160            0.00       -1.55        4.65

     Writing output data file /scratch/pdcrowdion2.save/

     General routines

     Parallel routines

   This run was terminated on:  23:51:19   4Jan2022

   JOB DONE.