     Program PWSCF v.6.7MaX starts on  4Jan2022 at  0:37:21

     R & G space division:  proc/nbgrp/npool/nimage =      72
     Reading input from pd_octa_1.in
Warning: card &CELL ignored
Warning: card CELL_DYNAMICS = 'BFGS', ignored
Warning: card CELL_FACTOR = 2.0, ignored
Warning: card PRESS = 0.0, ignored
Warning: card / ignored

     Current dimensions of program PWSCF are:
     Max number of different atomic species (ntypx) = 10
     Max number of k-points (npk) =  40000
     Max angular momentum in pseudopotentials (lmaxx) =  3
     file Pd.pbe-spn-kjpaw_psl.1.0.0.UPF: wavefunction(s)  4S 5S 4D renormalized

     Subspace diagonalization in iterative solution of the eigenvalue problem:
     one sub-group per band group will be used

     Message from routine setup:
     using ibrav=0 with symmetry is DISCOURAGED, use correct ibrav instead

     bravais-lattice index     =            0
     lattice parameter (alat)  =      14.8394  a.u.
     unit-cell volume          =    3267.7646 (a.u.)^3
     number of atoms/cell      =           33
     number of atomic types    =            1
     number of electrons       =       594.00
     number of Kohn-Sham states=          356
     kinetic-energy cutoff     =      71.0000  Ry
     charge density cutoff     =     430.0000  Ry
     scf convergence threshold =      1.0E-06
     mixing beta               =       0.1000
     number of iterations used =           10  TF        mixing
     Exchange-correlation= SLA  PW   PBX  PBC
                           (   1   4   3   4   0   0   0)

     celldm(1)=  14.839420  celldm(2)=   0.000000  celldm(3)=   0.000000
     celldm(4)=   0.000000  celldm(5)=   0.000000  celldm(6)=   0.000000

     crystal axes: (cart. coord. in units of alat)
               a(1) = (   1.000000   0.000000   0.000000 )
               a(2) = (   0.000000   1.000000   0.000000 )
               a(3) = (   0.000000   0.000000   1.000000 )

     reciprocal axes: (cart. coord. in units 2 pi/alat)
               b(1) = (  1.000000  0.000000  0.000000 )
               b(2) = (  0.000000  1.000000  0.000000 )
               b(3) = (  0.000000  0.000000  1.000000 )

     PseudoPot. # 1 for Pd read from file:
     /rds/homes/b/bxp912/pp/Pd.pbe-spn-kjpaw_psl.1.0.0.UPF
     MD5 check sum: 790f2ebce206edfd9790dcb9844eca51
     Pseudo is Projector augmented-wave + core cor, Zval = 18.0
     Generated using &quot;atomic&quot; code by A. Dal Corso  v.6.3
     Shape of augmentation charge: PSQ
     Using radial grid of 1235 points,  6 beta functions with:
                l(1) =   0
                l(2) =   0
                l(3) =   1
                l(4) =   1
                l(5) =   2
                l(6) =   2
     Q(r) pseudized with 0 coefficients

     atomic species   valence    mass     pseudopotential
        Pd            18.00   106.42000     Pd( 1.00)

     48 Sym. Ops., with inversion, found (42 have fractional translation)

   Cartesian axes

     site n.     atom                  positions (alat units)
         1           Pd  tau(   1) = (   0.2500000   0.2500000   0.2500000  )
         2           Pd  tau(   2) = (   0.0000000   0.0000000   0.0000000  )
         3           Pd  tau(   3) = (   0.2500000   0.2500000   0.0000000  )
         4           Pd  tau(   4) = (   0.2500000   0.0000000   0.2500000  )
         5           Pd  tau(   5) = (   0.0000000   0.2500000   0.2500000  )
         6           Pd  tau(   6) = (   0.0000000   0.0000000   0.5000000  )
         7           Pd  tau(   7) = (   0.2500000   0.2500000   0.5000000  )
         8           Pd  tau(   8) = (   0.2500000   0.0000000   0.7500000  )
         9           Pd  tau(   9) = (   0.0000000   0.2500000   0.7500000  )
        10           Pd  tau(  10) = (   0.0000000   0.5000000   0.0000000  )
        11           Pd  tau(  11) = (   0.2500000   0.7500000   0.0000000  )
        12           Pd  tau(  12) = (   0.2500000   0.5000000   0.2500000  )
        13           Pd  tau(  13) = (   0.0000000   0.7500000   0.2500000  )
        14           Pd  tau(  14) = (   0.0000000   0.5000000   0.5000000  )
        15           Pd  tau(  15) = (   0.2500000   0.7500000   0.5000000  )
        16           Pd  tau(  16) = (   0.2500000   0.5000000   0.7500000  )
        17           Pd  tau(  17) = (   0.0000000   0.7500000   0.7500000  )
        18           Pd  tau(  18) = (   0.5000000   0.0000000   0.0000000  )
        19           Pd  tau(  19) = (   0.7500000   0.2500000   0.0000000  )
        20           Pd  tau(  20) = (   0.7500000   0.0000000   0.2500000  )
        21           Pd  tau(  21) = (   0.5000000   0.2500000   0.2500000  )
        22           Pd  tau(  22) = (   0.5000000   0.0000000   0.5000000  )
        23           Pd  tau(  23) = (   0.7500000   0.2500000   0.5000000  )
        24           Pd  tau(  24) = (   0.7500000   0.0000000   0.7500000  )
        25           Pd  tau(  25) = (   0.5000000   0.2500000   0.7500000  )
        26           Pd  tau(  26) = (   0.5000000   0.5000000   0.0000000  )
        27           Pd  tau(  27) = (   0.7500000   0.7500000   0.0000000  )
        28           Pd  tau(  28) = (   0.7500000   0.5000000   0.2500000  )
        29           Pd  tau(  29) = (   0.5000000   0.7500000   0.2500000  )
        30           Pd  tau(  30) = (   0.5000000   0.5000000   0.5000000  )
        31           Pd  tau(  31) = (   0.7500000   0.7500000   0.5000000  )
        32           Pd  tau(  32) = (   0.7500000   0.5000000   0.7500000  )
        33           Pd  tau(  33) = (   0.5000000   0.7500000   0.7500000  )

     number of k points=    35  Marzari-Vanderbilt smearing, width (Ry)=  0.0400
                       cart. coord. in units 2pi/alat
        k(    1) = (   0.0555556   0.0555556   0.0555556), wk =   0.0219479
        k(    2) = (   0.0555556   0.0555556   0.1666667), wk =   0.0658436
        k(    3) = (   0.0555556   0.0555556   0.2777778), wk =   0.0658436
        k(    4) = (   0.0555556   0.0555556   0.3888889), wk =   0.0658436
        k(    5) = (   0.0555556   0.0555556  -0.5000000), wk =   0.0329218
        k(    6) = (   0.0555556   0.1666667   0.1666667), wk =   0.0658436
        k(    7) = (   0.0555556   0.1666667   0.2777778), wk =   0.1316872
        k(    8) = (   0.0555556   0.1666667   0.3888889), wk =   0.1316872
        k(    9) = (   0.0555556   0.1666667  -0.5000000), wk =   0.0658436
        k(   10) = (   0.0555556   0.2777778   0.2777778), wk =   0.0658436
        k(   11) = (   0.0555556   0.2777778   0.3888889), wk =   0.1316872
        k(   12) = (   0.0555556   0.2777778  -0.5000000), wk =   0.0658436
        k(   13) = (   0.0555556   0.3888889   0.3888889), wk =   0.0658436
        k(   14) = (   0.0555556   0.3888889  -0.5000000), wk =   0.0658436
        k(   15) = (   0.0555556  -0.5000000  -0.5000000), wk =   0.0164609
        k(   16) = (   0.1666667   0.1666667   0.1666667), wk =   0.0219479
        k(   17) = (   0.1666667   0.1666667   0.2777778), wk =   0.0658436
        k(   18) = (   0.1666667   0.1666667   0.3888889), wk =   0.0658436
        k(   19) = (   0.1666667   0.1666667  -0.5000000), wk =   0.0329218
        k(   20) = (   0.1666667   0.2777778   0.2777778), wk =   0.0658436
        k(   21) = (   0.1666667   0.2777778   0.3888889), wk =   0.1316872
        k(   22) = (   0.1666667   0.2777778  -0.5000000), wk =   0.0658436
        k(   23) = (   0.1666667   0.3888889   0.3888889), wk =   0.0658436
        k(   24) = (   0.1666667   0.3888889  -0.5000000), wk =   0.0658436
        k(   25) = (   0.1666667  -0.5000000  -0.5000000), wk =   0.0164609
        k(   26) = (   0.2777778   0.2777778   0.2777778), wk =   0.0219479
        k(   27) = (   0.2777778   0.2777778   0.3888889), wk =   0.0658436
        k(   28) = (   0.2777778   0.2777778  -0.5000000), wk =   0.0329218
        k(   29) = (   0.2777778   0.3888889   0.3888889), wk =   0.0658436
        k(   30) = (   0.2777778   0.3888889  -0.5000000), wk =   0.0658436
        k(   31) = (   0.2777778  -0.5000000  -0.5000000), wk =   0.0164609
        k(   32) = (   0.3888889   0.3888889   0.3888889), wk =   0.0219479
        k(   33) = (   0.3888889   0.3888889  -0.5000000), wk =   0.0329218
        k(   34) = (   0.3888889  -0.5000000  -0.5000000), wk =   0.0164609
        k(   35) = (  -0.5000000  -0.5000000  -0.5000000), wk =   0.0027435

     Check: negative core charge=   -0.000002

     Initial potential from superposition of free atoms

     starting charge  593.98738, renormalised to  594.00000
     Starting wfcs are  330 randomized atomic wfcs +   26 random wfcs
     Checking if some PAW data can be deallocated...

     Self-consistent Calculation

     iteration #  1     ecut=    71.00 Ry     beta= 0.10
     Davidson diagonalization with overlap
     ethr =  1.00E-02,  avg # of iterations =  3.0

     Threshold (ethr) on eigenvalues was too large:
     Diagonalizing with lowered threshold

     Davidson diagonalization with overlap
     ethr =  1.33E-04,  avg # of iterations =  4.5

     total energy              =  -16895.48039584 Ry
     estimated scf accuracy    <       0.76989943 Ry

[...]

     iteration #  4     ecut=    71.00 Ry     beta= 0.10
     Davidson diagonalization with overlap
     c_bands:  1 eigenvalues not converged
     ethr =  9.51E-06,  avg # of iterations =  7.2

[...]

     total energy              =  -16895.33597349 Ry
     estimated scf accuracy    <       0.00000110 Ry

     iteration # 14     ecut=    71.00 Ry     beta= 0.10
     Davidson diagonalization with overlap
     ethr =  1.86E-10,  avg # of iterations =  2.4

     End of self-consistent calculation

          k = 0.0556 0.0556 0.0556 ( 32996 PWs)   bands (ev):

   -68.4395 -64.7614 -64.7614 -64.7614 -64.7461 -64.7461 -64.6775 -63.9236
   -63.8984 -63.8984 -63.8976 -63.8922 -63.8922 -63.8879 -63.8854 -63.8854
   -63.8853 -63.8847 -63.8830 -63.8830 -63.8827 -63.8788 -63.8788 -63.8787
   -63.8750 -63.8750 -63.8690 -63.8685 -63.8685 -63.8685 -63.8661 -63.8661
   -63.8628 -35.0005 -35.0005 -35.0005 -31.1433 -31.1076 -31.1076 -30.3920
   -30.3920 -30.3920 -30.3616 -30.3616 -30.3616 -30.2769 -30.2769 -30.2769
   -30.2433 -30.2433 -30.2433 -30.2258 -30.2258 -30.2258 -29.7965 -29.7877
   -29.7877 -29.7869 -29.7720 -29.7715 -29.7715 -29.7069 -29.7069 -29.7046
   -29.7044 -29.7044 -29.6971 -29.6959 -29.6959 -29.6946 -29.6946 -29.6937
   -29.6835 -29.6771 -29.6771 -29.6645 -29.6645 -29.6631 -29.6588 -29.6476
   -29.6476 -29.6412 -29.6386 -29.6386 -29.6327 -29.6177 -29.6177 -29.6079
   -29.6079 -29.6069 -29.6033 -29.5982 -29.5982 -29.5981 -29.5759 -29.5759
   -29.5755 -29.5755 -29.5752 -29.5712 -29.5708 -29.5708 -29.5624 -29.5580
   -29.5580 -29.5387 -29.5387 -29.5364 -29.5341 -29.5323 -29.5323 -29.5127
   -29.5127 -29.5106 -29.5096 -29.5092 -29.5092 -29.5063 -29.5063 -29.5052
   -29.5052 -29.5039 -29.5039 -29.5018 -29.5018 -29.5005 -29.4964 -29.4964
   -29.4951 -29.4641 -29.4622 -29.4622  10.4053  10.4053  10.4053  10.4734
    10.4734  12.7698  14.1428  14.4703  14.4728  14.4728  14.7598  14.7598
    14.7846  14.8608  15.1112  15.1112  15.1635  15.3347  15.3347  15.3756
    15.3756  15.3779  15.6340  15.7376  15.7390  15.7390  15.7950  15.7950
    15.8046  15.9245  15.9245  15.9433  15.9632  15.9715  15.9715  16.0963
    16.0963  16.1071  16.1232  16.1232  16.1794  16.2897  16.2897  16.3810
    16.3997  16.4465  16.4465  16.4672  16.4672  16.5515  16.5525  16.5525
    16.6012  16.6119  16.6119  16.6587  16.6759  16.6759  16.7375  16.7440
    16.7591  16.7591  16.7739  16.7739  16.8080  16.8516  16.8516  16.9196
    16.9196  16.9368  16.9745  16.9805  17.0106  17.0106  17.0717  17.1022
    17.1022  17.1809  17.1884  17.1884  17.2217  17.2217  17.2584  17.2619
    17.2619  17.2660  17.2954  17.2954  17.4116  17.4116  17.7745  17.8152
    17.8152  17.9995  17.9995  18.0367  18.0493  18.0493  18.0693  18.0937
    18.1940  18.1940  18.2025  18.2532  18.2692  18.2692  18.2988  18.2988
    18.3185  18.3187  18.3187  18.3303  18.3829  18.3829  18.4268  18.4268
    18.4491  18.5743  18.5989  18.5989  18.6348  18.6348  18.6680  18.7300
    18.7628  18.7628  18.7946  18.7986  18.7986  18.8120  18.8120  18.8191
    18.8237  18.8237  18.8743  18.9376  18.9376  19.0082  19.0742  19.0742
    19.3798  19.4239  19.4239  19.4853  19.5252  19.5252  19.6162  19.7569
    19.8369  19.8369  19.8931  19.8931  19.9015  19.9015  19.9070  19.9330
    19.9513  19.9513  19.9702  19.9967  19.9967  20.2782  20.3183  20.3213
    20.3213  20.3500  20.3500  20.3857  20.3857  20.4029  20.9512  20.9512
    20.9856  21.2993  21.4125  21.4125  21.6704  21.7941  21.7941  22.1382
    22.1382  22.2080  22.2408  22.3546  22.3546  22.7110  22.7843  22.7843
    23.2596  23.2596  23.2600  27.0106  27.0106  27.0860  27.2433  28.1197
    28.1759  28.1759  28.2349  28.2349  28.2603  28.8702  28.8702  28.9023
    28.9166  28.9311  28.9311  30.3328  30.3454  30.3454  30.4334  30.5233
    30.5730  30.5730  30.7826  30.7826  31.4442  31.4814  31.4814  31.5129
    31.5388  31.5389  31.6816  31.7135

[...]

          k = 0.3889-0.5000-0.5000 ( 33008 PWs)   bands (ev):

[...]

          k =-0.5000-0.5000-0.5000 ( 32968 PWs)   bands (ev):

   -68.4395 -64.7615 -64.7615 -64.7615 -64.7459 -64.7459 -64.6773 -63.9094
   -63.9064 -63.9064 -63.9064 -63.8971 -63.8971 -63.8971 -63.8845 -63.8773
   -63.8773 -63.8770 -63.8770 -63.8770 -63.8769 -63.8744 -63.8744 -63.8744
   -63.8736 -63.8736 -63.8736 -63.8708 -63.8708 -63.8708 -63.8707 -63.8707
   -63.8707 -35.0006 -35.0006 -35.0006 -31.1410 -31.1054 -31.1054 -30.3948
   -30.3948 -30.3948 -30.3597 -30.3597 -30.3597 -30.2788 -30.2788 -30.2788
   -30.2446 -30.2446 -30.2446 -30.2251 -30.2251 -30.2251 -29.7671 -29.7615
   -29.7615 -29.7615 -29.7614 -29.7614 -29.7474 -29.7474 -29.7474 -29.7428
   -29.7428 -29.7428 -29.7410 -29.7410 -29.7139 -29.7139 -29.7139 -29.6799
   -29.6799 -29.6799 -29.6577 -29.6577 -29.6577 -29.6539 -29.6393 -29.6191
   -29.6191 -29.6191 -29.6135 -29.6135 -29.6135 -29.6050 -29.6032 -29.6032
   -29.6031 -29.6031 -29.6031 -29.6004 -29.5740 -29.5740 -29.5740 -29.5733
   -29.5733 -29.5733 -29.5631 -29.5631 -29.5631 -29.5616 -29.5616 -29.5616
   -29.5589 -29.5589 -29.5504 -29.5504 -29.5442 -29.5441 -29.5441 -29.5441
   -29.5383 -29.5383 -29.5383 -29.5304 -29.5304 -29.5304 -29.5256 -29.4963
   -29.4963 -29.4963 -29.4870 -29.4870 -29.4845 -29.4845 -29.4845 -29.4778
   -29.4778 -29.4690 -29.4690 -29.4690  10.4024  10.4024  10.4024  10.5376
    10.5376  13.6671  14.3383  14.3383  14.3383  14.7144  14.7808  14.7808
    14.7808  14.8801  15.1995  15.1995  15.1995  15.3561  15.3655  15.3655
    15.3655  15.3774  15.3774  15.3774  15.3984  15.3984  15.6239  15.6239
    15.6239  15.6243  15.6243  15.6721  15.6721  15.6721  15.9557  15.9557
    15.9557  16.0349  16.0688  16.0688  16.0688  16.1904  16.1904  16.1990
    16.1990  16.1990  16.3133  16.3133  16.3133  16.3338  16.4017  16.4017
    16.4017  16.4107  16.4107  16.4107  16.4274  16.4274  16.6734  16.6734
    16.6734  16.9623  16.9623  16.9623  17.1570  17.1570  17.1570  17.1811
    17.2104  17.3586  17.3586  17.3586  17.4380  17.4380  17.4380  17.4733
    17.4733  17.4857  17.4857  17.4857  17.5402  17.5402  17.5402  17.6044
    17.6044  17.6044  17.6871  17.6871  17.6871  17.7338  17.7338  17.7401
    17.7738  17.7738  17.7738  17.7980  17.7980  17.8034  17.8415  17.8415
    17.8415  17.8490  17.8490  17.8490  17.8718  17.8718  18.1681  18.2360
    18.2360  18.2360  18.3634  18.3634  18.3634  18.4408  18.4408  18.4408
    18.5220  18.5220  18.5389  18.5389  18.5389  18.5860  18.5860  18.5860
    18.5879  18.5879  18.5879  18.6090  18.6533  18.6533  18.7553  18.7553
    18.7553  18.8698  18.8698  18.8698  18.8725  18.8725  18.8725  19.0664
    19.0664  19.1006  19.1006  19.1006  19.6880  19.6880  19.7367  19.7367
    19.7367  19.8793  19.8793  19.8793  19.8973  19.8973  19.8973  19.9549
    19.9549  19.9549  20.0240  20.0688  20.0688  20.1300  20.1300  20.1300
    20.1990  20.1990  20.1990  20.2004  20.2004  20.2004  20.2052  21.1437
    21.1437  23.2257  23.2557  23.2557  23.2557  23.5716  23.5716  23.5716
    23.6051  23.6051  23.6051  23.6703  23.6703  23.6703  23.6846  23.7203
    23.7203  23.7203  23.7272  23.7272  23.7736  23.7736  23.7736  23.7960
    23.7960  28.6688  28.6688  28.6688  28.9621  28.9621  28.9621  28.9658
    28.9658  28.9658  29.0405  29.1113  29.1113  29.1113  29.1675  29.1675
    29.1700  29.1700  29.1700  29.1846  29.1846  29.1846  29.1992  29.1992
    29.2455  33.7870  33.7870  33.7870

     the Fermi energy is    20.1849 ev

!    total energy              =  -16895.33597954 Ry

     total all-electron energy =   -333036.216365 Ry
     estimated scf accuracy    <       0.00000069 Ry
     smearing contrib. (-TS)   =       0.08043927 Ry
     internal energy E=F+TS    =  -16895.41641881 Ry

     The total energy is F=E-TS. E is the sum of the following terms:
     one-electron contribution =   -2669.49818511 Ry
     hartree contribution      =    1780.39080036 Ry
     xc contribution           =   -1019.75223150 Ry
     ewald contribution        =   -6563.81983479 Ry
     one-center paw contrib.   =   -8422.73696776 Ry

     convergence has been achieved in  14 iterations

     Forces acting on atoms (cartesian axes, Ry/au):

     atom    1 type  1   force =     0.00000000    0.00000000    0.00000000
     atom    2 type  1   force =    -0.00345054   -0.00345054   -0.00345054
     atom    3 type  1   force =     0.00000000    0.00000000   -0.69856708
     atom    4 type  1   force =     0.00000000   -0.69856708    0.00000000
     atom    5 type  1   force =    -0.69856708    0.00000000    0.00000000
     atom    6 type  1   force =    -0.00345054   -0.00345054    0.00345054
     atom    7 type  1   force =     0.00000000    0.00000000    0.69856708
     atom    8 type  1   force =     0.00000000   -0.00597978    0.00000000
     atom    9 type  1   force =    -0.00597978   -0.00000000   -0.00000000
     atom   10 type  1   force =    -0.00345054    0.00345054   -0.00345054
     atom   11 type  1   force =     0.00000000    0.00000000   -0.00597978
     atom   12 type  1   force =     0.00000000    0.69856708   -0.00000000
     atom   13 type  1   force =    -0.00597978    0.00000000    0.00000000
     atom   14 type  1   force =    -0.00345054    0.00345054    0.00345054
     atom   15 type  1   force =     0.00000000    0.00000000    0.00597978
     atom   16 type  1   force =     0.00000000    0.00597978    0.00000000
     atom   17 type  1   force =    -0.00166037    0.00000000   -0.00000000
     atom   18 type  1   force =     0.00345054   -0.00345054   -0.00345054
     atom   19 type  1   force =    -0.00000000    0.00000000   -0.00597978
     atom   20 type  1   force =     0.00000000   -0.00597978    0.00000000
     atom   21 type  1   force =     0.69856708    0.00000000    0.00000000
     atom   22 type  1   force =     0.00345054   -0.00345054    0.00345054
     atom   23 type  1   force =     0.00000000    0.00000000    0.00597978
     atom   24 type  1   force =     0.00000000   -0.00166037    0.00000000
     atom   25 type  1   force =     0.00597978    0.00000000   -0.00000000
     atom   26 type  1   force =     0.00345054    0.00345054   -0.00345054
     atom   27 type  1   force =     0.00000000    0.00000000   -0.00166037
     atom   28 type  1   force =     0.00000000    0.00597978    0.00000000
     atom   29 type  1   force =     0.00597978    0.00000000    0.00000000
     atom   30 type  1   force =     0.00345054    0.00345054    0.00345054
     atom   31 type  1   force =     0.00000000    0.00000000    0.00166037
     atom   32 type  1   force =     0.00000000    0.00166037    0.00000000
     atom   33 type  1   force =     0.00166037    0.00000000    0.00000000

     Total force =     1.711347     Total SCF correction =     0.003539

     Computing stress (Cartesian axis) and pressure

          total   stress  (Ry/bohr**3)                   (kbar)     P=      259.05
   0.00176100   0.00000000   0.00000000          259.05        0.00        0.00
   0.00000000   0.00176100   0.00000000            0.00      259.05        0.00
   0.00000000   0.00000000   0.00176100            0.00        0.00      259.05

     Writing output data file /scratch/pdocta1.save/

     General routines

     Parallel routines

   This run was terminated on:   0:47:20   4Jan2022

   JOB DONE.