     Program PWSCF v.6.7MaX starts on  4Jan2022 at  0:47:25

     R & G space division:  proc/nbgrp/npool/nimage =      72
     Reading input from pd_octa_2.in

     Current dimensions of program PWSCF are:
     Max number of different atomic species (ntypx) = 10
     Max number of k-points (npk) =  40000
     Max angular momentum in pseudopotentials (lmaxx) =  3
     file Pd.pbe-spn-kjpaw_psl.1.0.0.UPF: wavefunction(s)  4S 5S 4D renormalized

     Subspace diagonalization in iterative solution of the eigenvalue problem:
     one sub-group per band group will be used

     Message from routine setup:
     using ibrav=0 with symmetry is DISCOURAGED, use correct ibrav instead

     bravais-lattice index     =            0
     lattice parameter (alat)  =      14.8394  a.u.
     unit-cell volume          =    3267.7646 (a.u.)^3
     number of atoms/cell      =           33
     number of atomic types    =            1
     number of electrons       =       594.00
     number of Kohn-Sham states=          356
     kinetic-energy cutoff     =      71.0000  Ry
     charge density cutoff     =     430.0000  Ry
     scf convergence threshold =      1.0E-06
     mixing beta               =       0.1000
     number of iterations used =           10  TF        mixing
     energy convergence thresh.=      1.0E-04
     force convergence thresh. =      1.0E-03
     press convergence thresh. =      5.0E-01
     Exchange-correlation= SLA  PW   PBX  PBC
                           (   1   4   3   4   0   0   0)
     nstep                     =           40

     celldm(1)=  14.839420  celldm(2)=   0.000000  celldm(3)=   0.000000
     celldm(4)=   0.000000  celldm(5)=   0.000000  celldm(6)=   0.000000

     crystal axes: (cart. coord. in units of alat)
               a(1) = (   1.000000   0.000000   0.000000 )
               a(2) = (   0.000000   1.000000   0.000000 )
               a(3) = (   0.000000   0.000000   1.000000 )

     reciprocal axes: (cart. coord. in units 2 pi/alat)
               b(1) = (  1.000000  0.000000  0.000000 )
               b(2) = (  0.000000  1.000000  0.000000 )
               b(3) = (  0.000000  0.000000  1.000000 )

     PseudoPot. # 1 for Pd read from file:
     /rds/homes/b/bxp912/pp/Pd.pbe-spn-kjpaw_psl.1.0.0.UPF
     MD5 check sum: 790f2ebce206edfd9790dcb9844eca51
     Pseudo is Projector augmented-wave + core cor, Zval = 18.0
     Generated using &quot;atomic&quot; code by A. Dal Corso  v.6.3
     Shape of augmentation charge: PSQ
     Using radial grid of 1235 points,  6 beta functions with:
                l(1) =   0
                l(2) =   0
                l(3) =   1
                l(4) =   1
                l(5) =   2
                l(6) =   2
     Q(r) pseudized with 0 coefficients

     atomic species   valence    mass     pseudopotential
        Pd            18.00   106.42000     Pd( 1.00)

     48 Sym. Ops., with inversion, found (42 have fractional translation)

   Cartesian axes

     site n.     atom                  positions (alat units)
         1           Pd  tau(   1) = (   0.2500000   0.2500000   0.2500000  )
         2           Pd  tau(   2) = (   0.0000000   0.0000000   0.0000000  )
         3           Pd  tau(   3) = (   0.2500000   0.2500000   0.0000000  )
         4           Pd  tau(   4) = (   0.2500000   0.0000000   0.2500000  )
         5           Pd  tau(   5) = (   0.0000000   0.2500000   0.2500000  )
         6           Pd  tau(   6) = (   0.0000000   0.0000000   0.5000000  )
         7           Pd  tau(   7) = (   0.2500000   0.2500000   0.5000000  )
         8           Pd  tau(   8) = (   0.2500000   0.0000000   0.7500000  )
         9           Pd  tau(   9) = (   0.0000000   0.2500000   0.7500000  )
        10           Pd  tau(  10) = (   0.0000000   0.5000000   0.0000000  )
        11           Pd  tau(  11) = (   0.2500000   0.7500000   0.0000000  )
        12           Pd  tau(  12) = (   0.2500000   0.5000000   0.2500000  )
        13           Pd  tau(  13) = (   0.0000000   0.7500000   0.2500000  )
        14           Pd  tau(  14) = (   0.0000000   0.5000000   0.5000000  )
        15           Pd  tau(  15) = (   0.2500000   0.7500000   0.5000000  )
        16           Pd  tau(  16) = (   0.2500000   0.5000000   0.7500000  )
        17           Pd  tau(  17) = (   0.0000000   0.7500000   0.7500000  )
        18           Pd  tau(  18) = (   0.5000000   0.0000000   0.0000000  )
        19           Pd  tau(  19) = (   0.7500000   0.2500000   0.0000000  )
        20           Pd  tau(  20) = (   0.7500000   0.0000000   0.2500000  )
        21           Pd  tau(  21) = (   0.5000000   0.2500000   0.2500000  )
        22           Pd  tau(  22) = (   0.5000000   0.0000000   0.5000000  )
        23           Pd  tau(  23) = (   0.7500000   0.2500000   0.5000000  )
        24           Pd  tau(  24) = (   0.7500000   0.0000000   0.7500000  )
        25           Pd  tau(  25) = (   0.5000000   0.2500000   0.7500000  )
        26           Pd  tau(  26) = (   0.5000000   0.5000000   0.0000000  )
        27           Pd  tau(  27) = (   0.7500000   0.7500000   0.0000000  )
        28           Pd  tau(  28) = (   0.7500000   0.5000000   0.2500000  )
        29           Pd  tau(  29) = (   0.5000000   0.7500000   0.2500000  )
        30           Pd  tau(  30) = (   0.5000000   0.5000000   0.5000000  )
        31           Pd  tau(  31) = (   0.7500000   0.7500000   0.5000000  )
        32           Pd  tau(  32) = (   0.7500000   0.5000000   0.7500000  )
        33           Pd  tau(  33) = (   0.5000000   0.7500000   0.7500000  )

     number of k points=    35  Marzari-Vanderbilt smearing, width (Ry)=  0.0400
                       cart. coord. in units 2pi/alat
        k(    1) = (   0.0555556   0.0555556   0.0555556), wk =   0.0219479
        k(    2) = (   0.0555556   0.0555556   0.1666667), wk =   0.0658436
        k(    3) = (   0.0555556   0.0555556   0.2777778), wk =   0.0658436
        k(    4) = (   0.0555556   0.0555556   0.3888889), wk =   0.0658436
        k(    5) = (   0.0555556   0.0555556  -0.5000000), wk =   0.0329218
        k(    6) = (   0.0555556   0.1666667   0.1666667), wk =   0.0658436
        k(    7) = (   0.0555556   0.1666667   0.2777778), wk =   0.1316872
        k(    8) = (   0.0555556   0.1666667   0.3888889), wk =   0.1316872
        k(    9) = (   0.0555556   0.1666667  -0.5000000), wk =   0.0658436
        k(   10) = (   0.0555556   0.2777778   0.2777778), wk =   0.0658436
        k(   11) = (   0.0555556   0.2777778   0.3888889), wk =   0.1316872
        k(   12) = (   0.0555556   0.2777778  -0.5000000), wk =   0.0658436
        k(   13) = (   0.0555556   0.3888889   0.3888889), wk =   0.0658436
        k(   14) = (   0.0555556   0.3888889  -0.5000000), wk =   0.0658436
        k(   15) = (   0.0555556  -0.5000000  -0.5000000), wk =   0.0164609
        k(   16) = (   0.1666667   0.1666667   0.1666667), wk =   0.0219479
        k(   17) = (   0.1666667   0.1666667   0.2777778), wk =   0.0658436
        k(   18) = (   0.1666667   0.1666667   0.3888889), wk =   0.0658436
        k(   19) = (   0.1666667   0.1666667  -0.5000000), wk =   0.0329218
        k(   20) = (   0.1666667   0.2777778   0.2777778), wk =   0.0658436
        k(   21) = (   0.1666667   0.2777778   0.3888889), wk =   0.1316872
        k(   22) = (   0.1666667   0.2777778  -0.5000000), wk =   0.0658436
        k(   23) = (   0.1666667   0.3888889   0.3888889), wk =   0.0658436
        k(   24) = (   0.1666667   0.3888889  -0.5000000), wk =   0.0658436
        k(   25) = (   0.1666667  -0.5000000  -0.5000000), wk =   0.0164609
        k(   26) = (   0.2777778   0.2777778   0.2777778), wk =   0.0219479
        k(   27) = (   0.2777778   0.2777778   0.3888889), wk =   0.0658436
        k(   28) = (   0.2777778   0.2777778  -0.5000000), wk =   0.0329218
        k(   29) = (   0.2777778   0.3888889   0.3888889), wk =   0.0658436
        k(   30) = (   0.2777778   0.3888889  -0.5000000), wk =   0.0658436
        k(   31) = (   0.2777778  -0.5000000  -0.5000000), wk =   0.0164609
        k(   32) = (   0.3888889   0.3888889   0.3888889), wk =   0.0219479
        k(   33) = (   0.3888889   0.3888889  -0.5000000), wk =   0.0329218
        k(   34) = (   0.3888889  -0.5000000  -0.5000000), wk =   0.0164609
        k(   35) = (  -0.5000000  -0.5000000  -0.5000000), wk =   0.0027435

     Check: negative core charge=   -0.000002

     Initial potential from superposition of free atoms

     starting charge  593.98738, renormalised to  594.00000
     Starting wfcs are  330 randomized atomic wfcs +   26 random wfcs
     Checking if some PAW data can be deallocated...

     Self-consistent Calculation

     iteration #  1     ecut=    71.00 Ry     beta= 0.10
     Davidson diagonalization with overlap
     ethr =  1.00E-02,  avg # of iterations =  3.0

     Threshold (ethr) on eigenvalues was too large:
     Diagonalizing with lowered threshold

     Davidson diagonalization with overlap
     ethr =  1.33E-04,  avg # of iterations =  4.5

     total energy              =  -16895.48039584 Ry
     estimated scf accuracy    <       0.76989943 Ry

[...]

     iteration #  4     ecut=    71.00 Ry     beta= 0.10
     Davidson diagonalization with overlap
     c_bands:  1 eigenvalues not converged
     ethr =  9.51E-06,  avg # of iterations =  7.2

[...]

     End of self-consistent calculation

          k = 0.0556 0.0556 0.0556 ( 32996 PWs)   bands (ev):

   -68.4395 -64.7614 -64.7614 -64.7614 -64.7461 -64.7461 -64.6775 -63.9236
   -63.8984 -63.8984 -63.8976 -63.8922 -63.8922 -63.8879 -63.8854 -63.8854
   -63.8853 -63.8847 -63.8830 -63.8830 -63.8827 -63.8788 -63.8788 -63.8787
   -63.8750 -63.8750 -63.8690 -63.8685 -63.8685 -63.8685 -63.8661 -63.8661
   -63.8628 -35.0005 -35.0005 -35.0005 -31.1433 -31.1076 -31.1076 -30.3920
   -30.3920 -30.3920 -30.3616 -30.3616 -30.3616 -30.2769 -30.2769 -30.2769
   -30.2433 -30.2433 -30.2433 -30.2258 -30.2258 -30.2258 -29.7965 -29.7877
   -29.7877 -29.7869 -29.7720 -29.7715 -29.7715 -29.7069 -29.7069 -29.7046
   -29.7044 -29.7044 -29.6971 -29.6959 -29.6959 -29.6946 -29.6946 -29.6937
   -29.6835 -29.6771 -29.6771 -29.6645 -29.6645 -29.6631 -29.6588 -29.6476
   -29.6476 -29.6412 -29.6386 -29.6386 -29.6327 -29.6177 -29.6177 -29.6079
   -29.6079 -29.6069 -29.6033 -29.5982 -29.5982 -29.5981 -29.5759 -29.5759
   -29.5755 -29.5755 -29.5752 -29.5712 -29.5708 -29.5708 -29.5624 -29.5580
   -29.5580 -29.5387 -29.5387 -29.5364 -29.5341 -29.5323 -29.5323 -29.5127
   -29.5127 -29.5106 -29.5096 -29.5092 -29.5092 -29.5063 -29.5063 -29.5052
   -29.5052 -29.5039 -29.5039 -29.5018 -29.5018 -29.5005 -29.4964 -29.4964
   -29.4951 -29.4641 -29.4622 -29.4622  10.4053  10.4053  10.4053  10.4734
    10.4734  12.7698  14.1428  14.4703  14.4728  14.4728  14.7598  14.7598
    14.7846  14.8608  15.1112  15.1112  15.1635  15.3347  15.3347  15.3756
    15.3756  15.3779  15.6340  15.7376  15.7390  15.7390  15.7950  15.7950
    15.8046  15.9245  15.9245  15.9433  15.9632  15.9715  15.9715  16.0963
    16.0963  16.1071  16.1232  16.1232  16.1794  16.2897  16.2897  16.3810
[...]
Pd            0.4958590254        0.4958590254        0.4958590254
Pd            0.7500000000        0.7500000000        0.5067141247
Pd            0.7500000000        0.5067141247        0.7500000000
Pd            0.5067141247        0.7500000000        0.7500000000
End final coordinates

     Writing output data file /scratch/pdocta2.save/

     Final scf calculation at the relaxed structure.
     The G-vectors are recalculated for the final unit cell
     Results may differ from those at the preceding step.

     bravais-lattice index     =            0
     lattice parameter (alat)  =      14.8394  a.u.
     unit-cell volume          =    3460.6328 (a.u.)^3
     number of atoms/cell      =           33
     number of atomic types    =            1
     number of electrons       =       594.00
     number of Kohn-Sham states=          356
     kinetic-energy cutoff     =      71.0000  Ry
     charge density cutoff     =     430.0000  Ry
     scf convergence threshold =      1.0E-08
     mixing beta               =       0.1000
     number of iterations used =           10  TF        mixing
     press convergence thresh. =      5.0E-01
     Exchange-correlation= SLA  PW   PBX  PBC
                           (   1   4   3   4   0   0   0)

     celldm(1)=  14.839420  celldm(2)=   0.000000  celldm(3)=   0.000000
     celldm(4)=   0.000000  celldm(5)=   0.000000  celldm(6)=   0.000000

     crystal axes: (cart. coord. in units of alat)
               a(1) = (   1.019299   0.000000   0.000000 )
               a(2) = (   0.000000   1.019299   0.000000 )
               a(3) = (   0.000000   0.000000   1.019299 )

     reciprocal axes: (cart. coord. in units 2 pi/alat)
               b(1) = (  0.981066  0.000000  0.000000 )
               b(2) = (  0.000000  0.981066  0.000000 )
               b(3) = (  0.000000  0.000000  0.981066 )

     PseudoPot. # 1 for Pd read from file:
     /rds/homes/b/bxp912/pp/Pd.pbe-spn-kjpaw_psl.1.0.0.UPF
     MD5 check sum: 790f2ebce206edfd9790dcb9844eca51
     Pseudo is Projector augmented-wave + core cor, Zval = 18.0
     Generated using &quot;atomic&quot; code by A. Dal Corso  v.6.3
     Shape of augmentation charge: PSQ
     Using radial grid of 1235 points,  6 beta functions with:
                l(1) =   0
                l(2) =   0
                l(3) =   1
                l(4) =   1
                l(5) =   2
                l(6) =   2
     Q(r) pseudized with 0 coefficients

     atomic species   valence    mass     pseudopotential
        Pd            18.00   106.42000     Pd( 1.00)

     48 Sym. Ops., with inversion, found (42 have fractional translation)

   Cartesian axes

     site n.     atom                  positions (alat units)
         1           Pd  tau(   1) = (   0.2548247   0.2548247   0.2548247  )
         2           Pd  tau(   2) = (   0.0042209   0.0042209   0.0042209  )
         3           Pd  tau(   3) = (   0.2548247   0.2548247  -0.0569548  )
         4           Pd  tau(   4) = (   0.2548247  -0.0569548   0.2548247  )
         5           Pd  tau(   5) = (  -0.0569548   0.2548247   0.2548247  )
         6           Pd  tau(   6) = (   0.0042209   0.0042209   0.5054286  )
         7           Pd  tau(   7) = (   0.2548247   0.2548247   0.5666042  )
         8           Pd  tau(   8) = (   0.2548247  -0.0160422   0.7644742  )
         9           Pd  tau(   9) = (  -0.0160422   0.2548247   0.7644742  )
        10           Pd  tau(  10) = (   0.0042209   0.5054286   0.0042209  )
        11           Pd  tau(  11) = (   0.2548247   0.7644742  -0.0160422  )
        12           Pd  tau(  12) = (   0.2548247   0.5666042   0.2548247  )
        13           Pd  tau(  13) = (  -0.0160422   0.7644742   0.2548247  )
        14           Pd  tau(  14) = (   0.0042209   0.5054286   0.5054286  )
        15           Pd  tau(  15) = (   0.2548247   0.7644742   0.5256916  )
        16           Pd  tau(  16) = (   0.2548247   0.5256916   0.7644742  )
        17           Pd  tau(  17) = (  -0.0068437   0.7644742   0.7644742  )
        18           Pd  tau(  18) = (   0.5054286   0.0042209   0.0042209  )
        19           Pd  tau(  19) = (   0.7644742   0.2548247  -0.0160422  )
        20           Pd  tau(  20) = (   0.7644742  -0.0160422   0.2548247  )
        21           Pd  tau(  21) = (   0.5666042   0.2548247   0.2548247  )
        22           Pd  tau(  22) = (   0.5054286   0.0042209   0.5054286  )
        23           Pd  tau(  23) = (   0.7644742   0.2548247   0.5256916  )
        24           Pd  tau(  24) = (   0.7644742  -0.0068437   0.7644742  )
        25           Pd  tau(  25) = (   0.5256916   0.2548247   0.7644742  )
        26           Pd  tau(  26) = (   0.5054286   0.5054286   0.0042209  )
        27           Pd  tau(  27) = (   0.7644742   0.7644742  -0.0068437  )
        28           Pd  tau(  28) = (   0.7644742   0.5256916   0.2548247  )
        29           Pd  tau(  29) = (   0.5256916   0.7644742   0.2548247  )
        30           Pd  tau(  30) = (   0.5054286   0.5054286   0.5054286  )
        31           Pd  tau(  31) = (   0.7644742   0.7644742   0.5164932  )
        32           Pd  tau(  32) = (   0.7644742   0.5164932   0.7644742  )
        33           Pd  tau(  33) = (   0.5164932   0.7644742   0.7644742  )

     number of k points=    35  Marzari-Vanderbilt smearing, width (Ry)=  0.0400
                       cart. coord. in units 2pi/alat
        k(    1) = (   0.0545037   0.0545037   0.0545037), wk =   0.0219479
        k(    2) = (   0.0545037   0.0545037   0.1635111), wk =   0.0658436
        k(    3) = (   0.0545037   0.0545037   0.2725185), wk =   0.0658436
        k(    4) = (   0.0545037   0.0545037   0.3815258), wk =   0.0658436
        k(    5) = (   0.0545037   0.0545037  -0.4905332), wk =   0.0329218
        k(    6) = (   0.0545037   0.1635111   0.1635111), wk =   0.0658436
        k(    7) = (   0.0545037   0.1635111   0.2725185), wk =   0.1316872
        k(    8) = (   0.0545037   0.1635111   0.3815258), wk =   0.1316872
        k(    9) = (   0.0545037   0.1635111  -0.4905332), wk =   0.0658436
        k(   10) = (   0.0545037   0.2725185   0.2725185), wk =   0.0658436
        k(   11) = (   0.0545037   0.2725185   0.3815258), wk =   0.1316872
        k(   12) = (   0.0545037   0.2725185  -0.4905332), wk =   0.0658436
        k(   13) = (   0.0545037   0.3815258   0.3815258), wk =   0.0658436
        k(   14) = (   0.0545037   0.3815258  -0.4905332), wk =   0.0658436
        k(   15) = (   0.0545037  -0.4905332  -0.4905332), wk =   0.0164609
        k(   16) = (   0.1635111   0.1635111   0.1635111), wk =   0.0219479
        k(   17) = (   0.1635111   0.1635111   0.2725185), wk =   0.0658436
        k(   18) = (   0.1635111   0.1635111   0.3815258), wk =   0.0658436
        k(   19) = (   0.1635111   0.1635111  -0.4905332), wk =   0.0329218
        k(   20) = (   0.1635111   0.2725185   0.2725185), wk =   0.0658436
        k(   21) = (   0.1635111   0.2725185   0.3815258), wk =   0.1316872
        k(   22) = (   0.1635111   0.2725185  -0.4905332), wk =   0.0658436
        k(   23) = (   0.1635111   0.3815258   0.3815258), wk =   0.0658436
        k(   24) = (   0.1635111   0.3815258  -0.4905332), wk =   0.0658436
        k(   25) = (   0.1635111  -0.4905332  -0.4905332), wk =   0.0164609
        k(   26) = (   0.2725185   0.2725185   0.2725185), wk =   0.0219479
        k(   27) = (   0.2725185   0.2725185   0.3815258), wk =   0.0658436
        k(   28) = (   0.2725185   0.2725185  -0.4905332), wk =   0.0329218
        k(   29) = (   0.2725185   0.3815258   0.3815258), wk =   0.0658436
        k(   30) = (   0.2725185   0.3815258  -0.4905332), wk =   0.0658436
        k(   31) = (   0.2725185  -0.4905332  -0.4905332), wk =   0.0164609
        k(   32) = (   0.3815258   0.3815258   0.3815258), wk =   0.0219479
        k(   33) = (   0.3815258   0.3815258  -0.4905332), wk =   0.0329218
        k(   34) = (   0.3815258  -0.4905332  -0.4905332), wk =   0.0164609
        k(   35) = (  -0.4905332  -0.4905332  -0.4905332), wk =   0.0027435

     Check: negative core charge=   -0.000002

     Initial potential from superposition of free atoms

     starting charge  593.98738, renormalised to  594.00000
     Starting wfcs are  330 randomized atomic wfcs +   26 random wfcs
     Checking if some PAW data can be deallocated...

     Self-consistent Calculation

     iteration #  1     ecut=    71.00 Ry     beta= 0.10
     Davidson diagonalization with overlap
     c_bands:  1 eigenvalues not converged
     c_bands:  1 eigenvalues not converged
     c_bands:  1 eigenvalues not converged
     c_bands:  1 eigenvalues not converged
     c_bands:  1 eigenvalues not converged
     c_bands:  1 eigenvalues not converged
     c_bands:  1 eigenvalues not converged
     c_bands:  1 eigenvalues not converged
     c_bands:  2 eigenvalues not converged
     c_bands:  2 eigenvalues not converged
     ethr =  1.00E-06,  avg # of iterations = 16.1

[...]

     total energy              =  -16896.70810821 Ry
     estimated scf accuracy    <       0.00000001 Ry

     iteration # 27     ecut=    71.00 Ry     beta= 0.10
     Davidson diagonalization with overlap
     ethr =  2.25E-12,  avg # of iterations =  2.0

     End of self-consistent calculation

[...]

          k = 0.3815-0.4905-0.4905 ( 34936 PWs)   bands (ev):

[...]

          k =-0.4905-0.4905-0.4905 ( 35016 PWs)   bands (ev):

   -65.9454 -65.5704 -65.5704 -65.5704 -65.5625 -65.5625 -65.5571 -65.4925
   -65.4925 -65.4925 -65.4734 -65.4734 -65.4734 -65.4730 -65.4730 -65.4730
   -65.4612 -65.4612 -65.4612 -65.4073 -65.3878 -65.3878 -65.3878 -65.3799
   -65.3799 -65.2511 -65.2510 -65.2510 -65.2510 -65.2510 -65.2510 -65.2510
   -65.2510 -31.8381 -31.8381 -31.8381 -31.4403 -31.4403 -31.4403 -31.4249
   -31.4042 -31.4042 -31.4023 -31.4023 -31.4023 -31.3635 -31.3635 -31.3635
   -31.3328 -31.3328 -31.3328 -31.3207 -31.3207 -31.3207 -31.3057 -31.3057
   -31.3050 -31.2644 -31.2518 -31.2518 -31.2518 -31.2351 -31.2351 -31.2351
   -31.2080 -31.2080 -31.1966 -31.1966 -31.1966 -31.1734 -31.1734 -31.1734
   -31.1728 -31.1728 -31.1728 -31.1338 -31.1338 -31.1338 -31.1220 -31.1219
   -31.1219 -31.1203 -31.1203 -31.1203 -31.1199 -31.1170 -31.1170 -31.1170
   -31.1163 -31.1163 -31.1108 -31.1108 -31.1108 -31.1050 -31.1050 -31.1050
   -31.0750 -31.0488 -31.0488 -31.0355 -31.0355 -31.0355 -31.0321 -31.0321
   -31.0321 -31.0253 -31.0253 -31.0253 -30.9791 -30.9791 -30.9791 -30.9779
   -30.9779 -30.9779 -30.9493 -30.9493 -30.9455 -30.9449 -30.9448 -30.9448
   -30.9448 -30.9414 -30.9414 -30.9414 -30.9347 -30.9347 -30.9204 -30.9204
   -30.9204 -30.9153 -30.9153 -30.9153  13.3288  13.3288  13.3288  13.3479
    13.3479  13.3479  13.4615  13.5277  13.7310  13.7310  13.7310  14.0980
    14.0980  14.1536  14.1536  14.1536  14.1767  14.2050  14.2050  14.2050
    14.2263  14.2263  14.2313  14.2313  14.3098  14.3098  14.3098  14.3427
    14.3427  14.3427  14.4224  14.5274  14.5274  14.5274  14.6833  14.6833
    14.6833  14.6956  14.6956  14.6956  14.8709  14.8709  14.8709  14.9212
    14.9689  15.0302  15.0302  15.1449  15.1449  15.1449  15.1567  15.1567
    15.1567  15.2137  15.2137  15.2349  15.2349  15.2349  15.4704  15.4704
    15.4704  15.5559  15.5559  15.5559  15.7496  15.7496  15.7496  15.8477
    15.8477  15.8716  15.8716  15.8977  15.9113  15.9113  15.9113  15.9493
    16.0828  16.0828  16.0828  16.1507  16.1507  16.1507  16.2724  16.2724
    16.2724  16.2969  16.2969  16.2969  16.3303  16.3303  16.3303  16.3425
    16.3425  16.3425  16.4248  16.5138  16.5138  16.5138  16.5206  16.5206
    16.5254  16.5254  16.6040  16.6040  16.6040  16.7198  16.8849  16.8849
    16.8849  16.9564  16.9564  16.9564  16.9735  16.9735  16.9735  17.0039
    17.0827  17.0827  17.1693  17.1693  17.1693  17.2074  17.2550  17.2550
    17.2550  17.3499  17.3499  17.3499  17.4678  17.4678  17.4678  17.4877
    17.4877  17.4877  17.5452  17.5452  17.5732  17.5732  17.5732  17.6019
    17.6019  17.6019  17.7096  17.7096  17.9799  17.9799  17.9799  18.3163
    18.3163  18.3402  18.3402  18.3402  18.4401  18.4519  18.4519  18.4519
    18.4780  18.4780  18.5052  18.5052  18.5052  18.5211  18.5211  18.5211
    18.5216  18.5216  18.5216  18.5850  18.5850  18.5850  18.8989  18.8989
    18.9573  21.6452  21.6452  21.6452  21.6614  21.6614  21.6614  21.8089
    21.8298  21.8298  21.8298  21.8715  21.8715  21.8715  22.0464  22.0464
    22.0464  22.1056  22.1056  22.1056  22.1249  22.1249  22.4161  22.4161
    22.5279  25.9746  25.9746  25.9746  26.7758  26.8531  26.8531  26.8531
    27.1686  27.1686  27.1686  27.3504  27.3504  27.3504  27.3607  27.3607
    27.3607  27.4283  27.4283  27.7034  27.7034  27.9618  27.9743  27.9743
    27.9743  31.4974  31.7159  31.7162

     the Fermi energy is    18.6467 ev

!    total energy              =  -16896.70810861 Ry

     total all-electron energy =   -333037.588494 Ry
     estimated scf accuracy    <          2.3E-09 Ry
     smearing contrib. (-TS)   =       0.07701921 Ry
     internal energy E=F+TS    =  -16896.78512782 Ry

     The total energy is F=E-TS. E is the sum of the following terms:
     one-electron contribution =   -2701.09456117 Ry
     hartree contribution      =    1768.08811165 Ry
     xc contribution           =   -1017.22068779 Ry
     ewald contribution        =   -6523.91544472 Ry
     one-center paw contrib.   =   -8422.64254578 Ry

     convergence has been achieved in  27 iterations

     Forces acting on atoms (cartesian axes, Ry/au):

     atom    1 type  1   force =     0.00000000    0.00000000    0.00000000
     atom    2 type  1   force =     0.00000250    0.00000250    0.00000250
     atom    3 type  1   force =    -0.00000000    0.00000000   -0.00024275
     atom    4 type  1   force =    -0.00000000   -0.00024275   -0.00000000
     atom    5 type  1   force =    -0.00024275   -0.00000000    0.00000000
     atom    6 type  1   force =     0.00000250    0.00000250   -0.00000250
     atom    7 type  1   force =    -0.00000000    0.00000000    0.00024275
     atom    8 type  1   force =     0.00000000    0.00009625    0.00000000
     atom    9 type  1   force =     0.00009625    0.00000000    0.00000000
     atom   10 type  1   force =     0.00000250   -0.00000250    0.00000250
     atom   11 type  1   force =     0.00000000   -0.00000000    0.00009625
     atom   12 type  1   force =     0.00000000    0.00024275    0.00000000
     atom   13 type  1   force =     0.00009625    0.00000000   -0.00000000
     atom   14 type  1   force =     0.00000250   -0.00000250   -0.00000250
     atom   15 type  1   force =     0.00000000   -0.00000000   -0.00009625
     atom   16 type  1   force =     0.00000000   -0.00009625    0.00000000
     atom   17 type  1   force =    -0.00001395    0.00000000    0.00000000
     atom   18 type  1   force =    -0.00000250    0.00000250    0.00000250
     atom   19 type  1   force =    -0.00000000   -0.00000000    0.00009625
     atom   20 type  1   force =     0.00000000    0.00009625   -0.00000000
     atom   21 type  1   force =     0.00024275   -0.00000000    0.00000000
     atom   22 type  1   force =    -0.00000250    0.00000250   -0.00000250
     atom   23 type  1   force =    -0.00000000    0.00000000   -0.00009625
     atom   24 type  1   force =    -0.00000000   -0.00001395   -0.00000000
     atom   25 type  1   force =    -0.00009625    0.00000000   -0.00000000
     atom   26 type  1   force =    -0.00000250   -0.00000250    0.00000250
     atom   27 type  1   force =     0.00000000    0.00000000   -0.00001395
     atom   28 type  1   force =     0.00000000   -0.00009625    0.00000000
     atom   29 type  1   force =    -0.00009625    0.00000000    0.00000000
     atom   30 type  1   force =    -0.00000250   -0.00000250   -0.00000250
     atom   31 type  1   force =     0.00000000    0.00000000    0.00001395
     atom   32 type  1   force =    -0.00000000    0.00001395   -0.00000000
     atom   33 type  1   force =     0.00001395    0.00000000    0.00000000

     Total force =     0.000683     Total SCF correction =     0.000182
     SCF correction compared to forces is large: reduce conv_thr to get better values

     Computing stress (Cartesian axis) and pressure

          total   stress  (Ry/bohr**3)                   (kbar)     P=        2.66
   0.00001807   0.00000000   0.00000000            2.66        0.00        0.00
   0.00000000   0.00001807   0.00000000            0.00        2.66        0.00
   0.00000000   0.00000000   0.00001807            0.00        0.00        2.66

     Writing output data file /scratch/pdocta2.save/

     General routines

     Parallel routines

   This run was terminated on:   3:27:44   4Jan2022

   JOB DONE.