     Program PWSCF v.6.7MaX starts on  4Jan2022 at  3:38:22

     R & G space division:  proc/nbgrp/npool/nimage =      72
     Reading input from pd_tetra_2.in

     Current dimensions of program PWSCF are:
     Max number of different atomic species (ntypx) = 10
     Max number of k-points (npk) =  40000
     Max angular momentum in pseudopotentials (lmaxx) =  3
     file Pd.pbe-spn-kjpaw_psl.1.0.0.UPF: wavefunction(s)  4S 5S 4D renormalized

     Subspace diagonalization in iterative solution of the eigenvalue problem:
     one sub-group per band group will be used

     Message from routine setup:
     using ibrav=0 with symmetry is DISCOURAGED, use correct ibrav instead

     bravais-lattice index     =            0
     lattice parameter (alat)  =      14.8394  a.u.
     unit-cell volume          =    3267.7646 (a.u.)^3
     number of atoms/cell      =           33
     number of atomic types    =            1
     number of electrons       =       594.00
     number of Kohn-Sham states=          356
     kinetic-energy cutoff     =      71.0000  Ry
     charge density cutoff     =     430.0000  Ry
     scf convergence threshold =      1.0E-06
     mixing beta               =       0.1000
     number of iterations used =           10  TF        mixing
     energy convergence thresh.=      1.0E-04
     force convergence thresh. =      1.0E-03
     press convergence thresh. =      5.0E-01
     Exchange-correlation= SLA  PW   PBX  PBC
                           (   1   4   3   4   0   0   0)
     nstep                     =           40

     celldm(1)=  14.839420  celldm(2)=   0.000000  celldm(3)=   0.000000
     celldm(4)=   0.000000  celldm(5)=   0.000000  celldm(6)=   0.000000

     crystal axes: (cart. coord. in units of alat)
               a(1) = (   1.000000   0.000000   0.000000 )
               a(2) = (   0.000000   1.000000   0.000000 )
               a(3) = (   0.000000   0.000000   1.000000 )

     reciprocal axes: (cart. coord. in units 2 pi/alat)
               b(1) = (  1.000000  0.000000  0.000000 )
               b(2) = (  0.000000  1.000000  0.000000 )
               b(3) = (  0.000000  0.000000  1.000000 )

     PseudoPot. # 1 for Pd read from file:
     /rds/homes/b/bxp912/pp/Pd.pbe-spn-kjpaw_psl.1.0.0.UPF
     MD5 check sum: 790f2ebce206edfd9790dcb9844eca51
     Pseudo is Projector augmented-wave + core cor, Zval = 18.0
     Generated using &quot;atomic&quot; code by A. Dal Corso  v.6.3
     Shape of augmentation charge: PSQ
     Using radial grid of 1235 points,  6 beta functions with:
                l(1) =   0
                l(2) =   0
                l(3) =   1
                l(4) =   1
                l(5) =   2
                l(6) =   2
     Q(r) pseudized with 0 coefficients

     atomic species   valence    mass     pseudopotential
        Pd            18.00   106.42000     Pd( 1.00)

     24 Sym. Ops. (no inversion) found (18 have fractional translation)

   Cartesian axes

     site n.     atom                  positions (alat units)
         1           Pd  tau(   1) = (   0.1250000   0.1250000   0.1250000  )
         2           Pd  tau(   2) = (   0.0000000   0.0000000   0.0000000  )
         3           Pd  tau(   3) = (   0.2500000   0.2500000   0.0000000  )
         4           Pd  tau(   4) = (   0.2500000   0.0000000   0.2500000  )
         5           Pd  tau(   5) = (   0.0000000   0.2500000   0.2500000  )
         6           Pd  tau(   6) = (   0.0000000   0.0000000   0.5000000  )
         7           Pd  tau(   7) = (   0.2500000   0.2500000   0.5000000  )
         8           Pd  tau(   8) = (   0.2500000   0.0000000   0.7500000  )
         9           Pd  tau(   9) = (   0.0000000   0.2500000   0.7500000  )
        10           Pd  tau(  10) = (   0.0000000   0.5000000   0.0000000  )
        11           Pd  tau(  11) = (   0.2500000   0.7500000   0.0000000  )
        12           Pd  tau(  12) = (   0.2500000   0.5000000   0.2500000  )
        13           Pd  tau(  13) = (   0.0000000   0.7500000   0.2500000  )
        14           Pd  tau(  14) = (   0.0000000   0.5000000   0.5000000  )
        15           Pd  tau(  15) = (   0.2500000   0.7500000   0.5000000  )
        16           Pd  tau(  16) = (   0.2500000   0.5000000   0.7500000  )
        17           Pd  tau(  17) = (   0.0000000   0.7500000   0.7500000  )
        18           Pd  tau(  18) = (   0.5000000   0.0000000   0.0000000  )
        19           Pd  tau(  19) = (   0.7500000   0.2500000   0.0000000  )
        20           Pd  tau(  20) = (   0.7500000   0.0000000   0.2500000  )
        21           Pd  tau(  21) = (   0.5000000   0.2500000   0.2500000  )
        22           Pd  tau(  22) = (   0.5000000   0.0000000   0.5000000  )
        23           Pd  tau(  23) = (   0.7500000   0.2500000   0.5000000  )
        24           Pd  tau(  24) = (   0.7500000   0.0000000   0.7500000  )
        25           Pd  tau(  25) = (   0.5000000   0.2500000   0.7500000  )
        26           Pd  tau(  26) = (   0.5000000   0.5000000   0.0000000  )
        27           Pd  tau(  27) = (   0.7500000   0.7500000   0.0000000  )
        28           Pd  tau(  28) = (   0.7500000   0.5000000   0.2500000  )
        29           Pd  tau(  29) = (   0.5000000   0.7500000   0.2500000  )
        30           Pd  tau(  30) = (   0.5000000   0.5000000   0.5000000  )
        31           Pd  tau(  31) = (   0.7500000   0.7500000   0.5000000  )
        32           Pd  tau(  32) = (   0.7500000   0.5000000   0.7500000  )
        33           Pd  tau(  33) = (   0.5000000   0.7500000   0.7500000  )

     number of k points=    35  Marzari-Vanderbilt smearing, width (Ry)=  0.0400
                       cart. coord. in units 2pi/alat
        k(    1) = (   0.0555556   0.0555556   0.0555556), wk =   0.0219479
        k(    2) = (   0.0555556   0.0555556   0.1666667), wk =   0.0658436
        k(    3) = (   0.0555556   0.0555556   0.2777778), wk =   0.0658436
        k(    4) = (   0.0555556   0.0555556   0.3888889), wk =   0.0658436
        k(    5) = (   0.0555556   0.0555556  -0.5000000), wk =   0.0329218
        k(    6) = (   0.0555556   0.1666667   0.1666667), wk =   0.0658436
        k(    7) = (   0.0555556   0.1666667   0.2777778), wk =   0.1316872
        k(    8) = (   0.0555556   0.1666667   0.3888889), wk =   0.1316872
        k(    9) = (   0.0555556   0.1666667  -0.5000000), wk =   0.0658436
        k(   10) = (   0.0555556   0.2777778   0.2777778), wk =   0.0658436
        k(   11) = (   0.0555556   0.2777778   0.3888889), wk =   0.1316872
        k(   12) = (   0.0555556   0.2777778  -0.5000000), wk =   0.0658436
        k(   13) = (   0.0555556   0.3888889   0.3888889), wk =   0.0658436
        k(   14) = (   0.0555556   0.3888889  -0.5000000), wk =   0.0658436
        k(   15) = (   0.0555556  -0.5000000  -0.5000000), wk =   0.0164609
        k(   16) = (   0.1666667   0.1666667   0.1666667), wk =   0.0219479
        k(   17) = (   0.1666667   0.1666667   0.2777778), wk =   0.0658436
        k(   18) = (   0.1666667   0.1666667   0.3888889), wk =   0.0658436
        k(   19) = (   0.1666667   0.1666667  -0.5000000), wk =   0.0329218
        k(   20) = (   0.1666667   0.2777778   0.2777778), wk =   0.0658436
        k(   21) = (   0.1666667   0.2777778   0.3888889), wk =   0.1316872
        k(   22) = (   0.1666667   0.2777778  -0.5000000), wk =   0.0658436
        k(   23) = (   0.1666667   0.3888889   0.3888889), wk =   0.0658436
        k(   24) = (   0.1666667   0.3888889  -0.5000000), wk =   0.0658436
        k(   25) = (   0.1666667  -0.5000000  -0.5000000), wk =   0.0164609
        k(   26) = (   0.2777778   0.2777778   0.2777778), wk =   0.0219479
        k(   27) = (   0.2777778   0.2777778   0.3888889), wk =   0.0658436
        k(   28) = (   0.2777778   0.2777778  -0.5000000), wk =   0.0329218
        k(   29) = (   0.2777778   0.3888889   0.3888889), wk =   0.0658436
        k(   30) = (   0.2777778   0.3888889  -0.5000000), wk =   0.0658436
        k(   31) = (   0.2777778  -0.5000000  -0.5000000), wk =   0.0164609
        k(   32) = (   0.3888889   0.3888889   0.3888889), wk =   0.0219479
        k(   33) = (   0.3888889   0.3888889  -0.5000000), wk =   0.0329218
        k(   34) = (   0.3888889  -0.5000000  -0.5000000), wk =   0.0164609
        k(   35) = (  -0.5000000  -0.5000000  -0.5000000), wk =   0.0027435

     Check: negative core charge=   -0.000002

     Initial potential from superposition of free atoms

     starting charge  593.98738, renormalised to  594.00000
     Starting wfcs are  330 randomized atomic wfcs +   26 random wfcs
     Checking if some PAW data can be deallocated...

     Self-consistent Calculation

     iteration #  1     ecut=    71.00 Ry     beta= 0.10
     Davidson diagonalization with overlap
     ethr =  1.00E-02,  avg # of iterations =  3.0

     Threshold (ethr) on eigenvalues was too large:
     Diagonalizing with lowered threshold

     Davidson diagonalization with overlap
     ethr =  3.45E-04,  avg # of iterations =  1.9

     total energy              =  -16893.79569809 Ry
     estimated scf accuracy    <       1.99261810 Ry

[...]

     iteration #  4     ecut=    71.00 Ry     beta= 0.10
     Davidson diagonalization with overlap
     c_bands:  2 eigenvalues not converged
     ethr =  3.74E-05,  avg # of iterations =  4.0

[...]

     End of self-consistent calculation

          k = 0.0556 0.0556 0.0556 ( 32996 PWs)   bands (ev):

   -72.4874 -66.5865 -66.5865 -66.5865 -65.9942 -63.8518 -63.8332 -63.8332
   -63.8310 -63.8294 -63.8294 -63.8258 -63.8159 -63.8159 -63.8159 -63.8154
   -63.8152 -63.8152 -63.8106 -63.8105 -63.8105 -63.7789 -63.7731 -63.7731
   -63.7688 -63.7686 -63.7686 -63.7568 -63.7568 -63.7568 -63.7568 -63.7567
   -63.7567 -39.7925 -39.7925 -39.7925 -33.1577 -32.0271 -32.0271 -32.0271
   -31.7941 -31.7941 -31.6929 -31.6929 -31.6929 -31.1013 -31.1013 -31.1013
   -29.7254 -29.7183 -29.7183 -29.7174 -29.7015 -29.7015 -29.6751 -29.6402
   -29.6398 -29.6398 -29.6379 -29.6379 -29.6364 -29.6352 -29.6323 -29.6323
   -29.6277 -29.6108 -29.6108 -29.6096 -29.6063 -29.6063 -29.5987 -29.5968
   -29.5968 -29.5725 -29.5725 -29.5675 -29.5642 -29.5642 -29.5591 -29.5544
   -29.5544 -29.5476 -29.5445 -29.5445 -29.5423 -29.5392 -29.5392 -29.5389
   -29.5352 -29.5352 -29.5154 -29.5081 -29.5081 -29.5072 -29.4845 -29.4838
   -29.4838 -29.4717 -29.4717 -29.4685 -29.4638 -29.4601 -29.4601 -29.4541
   -29.4541 -29.4403 -29.4403 -29.4400 -29.4323 -29.4317 -29.4317 -29.4281
   -29.4280 -29.4280 -29.4182 -29.4176 -29.4176 -29.4109 -29.4109 -29.4099
   -29.4095 -29.4088 -29.4088 -29.4058 -29.4051 -29.4051 -29.3925 -29.3925
   -29.3910 -29.3684 -29.3665 -29.3665   6.5793   6.5793   7.0074   7.0075
     7.0075  12.6368  13.9623  14.3044  14.3091  14.3091  14.4413  14.4421
    14.4421  14.6507  14.8822  14.8822  14.8919  14.9339  14.9339  15.1816
    15.1816  15.1961  15.2510  15.3684  15.3684  15.4379  15.4757  15.4757
    15.6503  15.6503  15.6986  15.7244  15.7735  15.7735  15.8603  16.0631
    16.0631  16.1581  16.2654  16.2654  16.2981  16.3197  16.3197  16.3222
[...]
Pd            0.7392867356        0.2519895755        0.5107132644
Pd            0.7392867356       -0.0019895755        0.7392867356
Pd            0.5107132644        0.2519895755        0.7392867356
Pd            0.5107132644        0.5107132644       -0.0019895755
Pd            0.7392867356        0.7392867356       -0.0019895755
Pd            0.7392867356        0.5107132644        0.2519895755
Pd            0.5107132644        0.7392867356        0.2519895755
Pd            0.4995020731        0.4995020731        0.4995020731
Pd            0.7504979269        0.7504979269        0.4995020731
Pd            0.7504979269        0.4995020731        0.7504979269
Pd            0.4995020731        0.7504979269        0.7504979269
End final coordinates

     Writing output data file /scratch/pdtetra2.save/

     Final scf calculation at the relaxed structure.
     The G-vectors are recalculated for the final unit cell
     Results may differ from those at the preceding step.

     bravais-lattice index     =            0
     lattice parameter (alat)  =      14.8394  a.u.
     unit-cell volume          =    3486.0398 (a.u.)^3
     number of atoms/cell      =           33
     number of atomic types    =            1
     number of electrons       =       594.00
     number of Kohn-Sham states=          356
     kinetic-energy cutoff     =      71.0000  Ry
     charge density cutoff     =     430.0000  Ry
     scf convergence threshold =      1.0E-08
     mixing beta               =       0.1000
     number of iterations used =           10  TF        mixing
     press convergence thresh. =      5.0E-01
     Exchange-correlation= SLA  PW   PBX  PBC
                           (   1   4   3   4   0   0   0)

     celldm(1)=  14.839420  celldm(2)=   0.000000  celldm(3)=   0.000000
     celldm(4)=   0.000000  celldm(5)=   0.000000  celldm(6)=   0.000000

     crystal axes: (cart. coord. in units of alat)
               a(1) = (   1.021787   0.000000   0.000000 )
               a(2) = (   0.000000   1.021787   0.000000 )
               a(3) = (   0.000000   0.000000   1.021787 )

     reciprocal axes: (cart. coord. in units 2 pi/alat)
               b(1) = (  0.978677  0.000000  0.000000 )
               b(2) = (  0.000000  0.978677  0.000000 )
               b(3) = (  0.000000  0.000000  0.978677 )

     PseudoPot. # 1 for Pd read from file:
     /rds/homes/b/bxp912/pp/Pd.pbe-spn-kjpaw_psl.1.0.0.UPF
     MD5 check sum: 790f2ebce206edfd9790dcb9844eca51
     Pseudo is Projector augmented-wave + core cor, Zval = 18.0
     Generated using &quot;atomic&quot; code by A. Dal Corso  v.6.3
     Shape of augmentation charge: PSQ
     Using radial grid of 1235 points,  6 beta functions with:
                l(1) =   0
                l(2) =   0
                l(3) =   1
                l(4) =   1
                l(5) =   2
                l(6) =   2
     Q(r) pseudized with 0 coefficients

     atomic species   valence    mass     pseudopotential
        Pd            18.00   106.42000     Pd( 1.00)

     24 Sym. Ops. (no inversion) found (18 have fractional translation)

   Cartesian axes

     site n.     atom                  positions (alat units)
         1           Pd  tau(   1) = (   0.1277234   0.1277234   0.1277234  )
         2           Pd  tau(   2) = (  -0.0422654  -0.0422654  -0.0422654  )
         3           Pd  tau(   3) = (   0.2977123   0.2977123  -0.0422654  )
         4           Pd  tau(   4) = (   0.2977123  -0.0422654   0.2977123  )
         5           Pd  tau(   5) = (  -0.0422654   0.2977123   0.2977123  )
         6           Pd  tau(   6) = (   0.0009018   0.0009018   0.5094416  )
         7           Pd  tau(   7) = (   0.2545451   0.2545451   0.5094416  )
         8           Pd  tau(   8) = (   0.2545451   0.0009018   0.7677926  )
         9           Pd  tau(   9) = (   0.0009018   0.2545451   0.7677926  )
        10           Pd  tau(  10) = (   0.0009018   0.5094416   0.0009018  )
        11           Pd  tau(  11) = (   0.2545451   0.7677926   0.0009018  )
        12           Pd  tau(  12) = (   0.2545451   0.5094416   0.2545451  )
        13           Pd  tau(  13) = (   0.0009018   0.7677926   0.2545451  )
        14           Pd  tau(  14) = (  -0.0020329   0.5218404   0.5218404  )
        15           Pd  tau(  15) = (   0.2574798   0.7553938   0.5218404  )
        16           Pd  tau(  16) = (   0.2574798   0.5218404   0.7553938  )
        17           Pd  tau(  17) = (  -0.0020329   0.7553938   0.7553938  )
        18           Pd  tau(  18) = (   0.5094416   0.0009018   0.0009018  )
        19           Pd  tau(  19) = (   0.7677926   0.2545451   0.0009018  )
        20           Pd  tau(  20) = (   0.7677926   0.0009018   0.2545451  )
        21           Pd  tau(  21) = (   0.5094416   0.2545451   0.2545451  )
        22           Pd  tau(  22) = (   0.5218404  -0.0020329   0.5218404  )
        23           Pd  tau(  23) = (   0.7553938   0.2574798   0.5218404  )
        24           Pd  tau(  24) = (   0.7553938  -0.0020329   0.7553938  )
        25           Pd  tau(  25) = (   0.5218404   0.2574798   0.7553938  )
        26           Pd  tau(  26) = (   0.5218404   0.5218404  -0.0020329  )
        27           Pd  tau(  27) = (   0.7553938   0.7553938  -0.0020329  )
        28           Pd  tau(  28) = (   0.7553938   0.5218404   0.2574798  )
        29           Pd  tau(  29) = (   0.5218404   0.7553938   0.2574798  )
        30           Pd  tau(  30) = (   0.5103849   0.5103849   0.5103849  )
        31           Pd  tau(  31) = (   0.7668493   0.7668493   0.5103849  )
        32           Pd  tau(  32) = (   0.7668493   0.5103849   0.7668493  )
        33           Pd  tau(  33) = (   0.5103849   0.7668493   0.7668493  )

     number of k points=    35  Marzari-Vanderbilt smearing, width (Ry)=  0.0400
                       cart. coord. in units 2pi/alat
        k(    1) = (   0.0543710   0.0543710   0.0543710), wk =   0.0219479
        k(    2) = (   0.0543710   0.0543710   0.1631129), wk =   0.0658436
        k(    3) = (   0.0543710   0.0543710   0.2718548), wk =   0.0658436
        k(    4) = (   0.0543710   0.0543710   0.3805967), wk =   0.0658436
        k(    5) = (   0.0543710   0.0543710  -0.4893386), wk =   0.0329218
        k(    6) = (   0.0543710   0.1631129   0.1631129), wk =   0.0658436
        k(    7) = (   0.0543710   0.1631129   0.2718548), wk =   0.1316872
        k(    8) = (   0.0543710   0.1631129   0.3805967), wk =   0.1316872
        k(    9) = (   0.0543710   0.1631129  -0.4893386), wk =   0.0658436
        k(   10) = (   0.0543710   0.2718548   0.2718548), wk =   0.0658436
        k(   11) = (   0.0543710   0.2718548   0.3805967), wk =   0.1316872
        k(   12) = (   0.0543710   0.2718548  -0.4893386), wk =   0.0658436
        k(   13) = (   0.0543710   0.3805967   0.3805967), wk =   0.0658436
        k(   14) = (   0.0543710   0.3805967  -0.4893386), wk =   0.0658436
        k(   15) = (   0.0543710  -0.4893386  -0.4893386), wk =   0.0164609
        k(   16) = (   0.1631129   0.1631129   0.1631129), wk =   0.0219479
        k(   17) = (   0.1631129   0.1631129   0.2718548), wk =   0.0658436
        k(   18) = (   0.1631129   0.1631129   0.3805967), wk =   0.0658436
        k(   19) = (   0.1631129   0.1631129  -0.4893386), wk =   0.0329218
        k(   20) = (   0.1631129   0.2718548   0.2718548), wk =   0.0658436
        k(   21) = (   0.1631129   0.2718548   0.3805967), wk =   0.1316872
        k(   22) = (   0.1631129   0.2718548  -0.4893386), wk =   0.0658436
        k(   23) = (   0.1631129   0.3805967   0.3805967), wk =   0.0658436
        k(   24) = (   0.1631129   0.3805967  -0.4893386), wk =   0.0658436
        k(   25) = (   0.1631129  -0.4893386  -0.4893386), wk =   0.0164609
        k(   26) = (   0.2718548   0.2718548   0.2718548), wk =   0.0219479
        k(   27) = (   0.2718548   0.2718548   0.3805967), wk =   0.0658436
        k(   28) = (   0.2718548   0.2718548  -0.4893386), wk =   0.0329218
        k(   29) = (   0.2718548   0.3805967   0.3805967), wk =   0.0658436
        k(   30) = (   0.2718548   0.3805967  -0.4893386), wk =   0.0658436
        k(   31) = (   0.2718548  -0.4893386  -0.4893386), wk =   0.0164609
        k(   32) = (   0.3805967   0.3805967   0.3805967), wk =   0.0219479
        k(   33) = (   0.3805967   0.3805967  -0.4893386), wk =   0.0329218
        k(   34) = (   0.3805967  -0.4893386  -0.4893386), wk =   0.0164609
        k(   35) = (  -0.4893386  -0.4893386  -0.4893386), wk =   0.0027435

     Check: negative core charge=   -0.000002

     Initial potential from superposition of free atoms

     starting charge  593.98738, renormalised to  594.00000
     Starting wfcs are  330 randomized atomic wfcs +   26 random wfcs
     Checking if some PAW data can be deallocated...

     Self-consistent Calculation

[...]

     iteration #  7     ecut=    71.00 Ry     beta= 0.10
     Davidson diagonalization with overlap
     c_bands:  1 eigenvalues not converged
     c_bands:  1 eigenvalues not converged
     ethr =  5.98E-07,  avg # of iterations =  2.2

[...]

     total energy              =  -16896.59801623 Ry
     estimated scf accuracy    <       0.00000002 Ry

     iteration # 19     ecut=    71.00 Ry     beta= 0.10
     Davidson diagonalization with overlap
     ethr =  3.07E-12,  avg # of iterations =  2.0

     End of self-consistent calculation

[...]

          k = 0.3806-0.4893-0.4893 ( 35204 PWs)   bands (ev):

[...]

          k =-0.4893-0.4893-0.4893 ( 35208 PWs)   bands (ev):

   -66.4172 -65.9683 -65.9683 -65.9683 -65.9539 -65.6791 -65.6791 -65.6791
   -65.6633 -65.6582 -65.6582 -65.6501 -65.6501 -65.6501 -65.6477 -65.6477
   -65.6477 -65.5469 -65.5370 -65.5370 -65.5370 -65.3912 -65.3912 -65.3912
   -65.3842 -65.3786 -65.3786 -65.3786 -65.3752 -65.3752 -65.3744 -65.3744
   -65.3744 -32.4283 -32.4283 -32.4283 -32.0199 -31.7814 -31.7814 -31.7814
   -31.6999 -31.6999 -31.6999 -31.6994 -31.6994 -31.6431 -31.6431 -31.6431
   -31.5236 -31.4935 -31.4935 -31.4935 -31.4857 -31.4857 -31.4477 -31.4477
   -31.4477 -31.4118 -31.4118 -31.4118 -31.3792 -31.3792 -31.3792 -31.3543
   -31.3543 -31.3436 -31.3436 -31.3436 -31.3413 -31.3413 -31.3413 -31.3330
   -31.3330 -31.3330 -31.3282 -31.3282 -31.3282 -31.3223 -31.3086 -31.2751
   -31.2751 -31.2705 -31.2705 -31.2705 -31.2552 -31.2552 -31.2552 -31.2542
   -31.2202 -31.2202 -31.2202 -31.2153 -31.2153 -31.2153 -31.2101 -31.2101
   -31.1756 -31.1756 -31.1756 -31.1459 -31.1255 -31.1255 -31.1255 -31.1244
   -31.1244 -31.1193 -31.1193 -31.1193 -31.0919 -31.0896 -31.0896 -31.0896
   -31.0812 -31.0812 -31.0810 -31.0810 -31.0810 -31.0753 -31.0753 -31.0753
   -31.0527 -31.0527 -31.0527 -31.0518 -31.0518 -31.0518 -31.0474 -31.0191
   -31.0191 -31.0191 -31.0080 -31.0080  12.9548  12.9548  12.9548  13.0356
    13.3037  13.3037  13.3686  13.3686  13.3686  13.3738  13.5278  13.5278
    13.5278  13.7903  13.7903  13.7903  13.8505  14.1008  14.1008  14.1008
    14.1198  14.1198  14.1432  14.1432  14.1432  14.2419  14.2419  14.2419
    14.2924  14.2924  14.2924  14.4247  14.4304  14.4304  14.4366  14.4366
    14.4366  14.5799  14.5799  14.5799  14.6050  14.7444  14.7444  14.7755
    14.7755  14.7755  14.9166  14.9166  14.9166  14.9178  14.9178  14.9178
    15.0790  15.0790  15.0790  15.0871  15.2317  15.2317  15.2317  15.4007
    15.4007  15.4254  15.4254  15.4254  15.4923  15.4923  15.4923  15.6521
    15.6723  15.6723  15.8580  15.8580  15.8580  16.0265  16.0265  16.0265
    16.0581  16.0582  16.0582  16.0582  16.1173  16.1173  16.1474  16.1474
    16.1474  16.1655  16.1655  16.1655  16.2730  16.2788  16.2788  16.2788
    16.3089  16.3089  16.3089  16.3666  16.3666  16.3666  16.3904  16.3904
    16.4101  16.4101  16.4101  16.4252  16.4252  16.4252  16.6133  16.6133
    16.6133  16.6862  16.8184  16.8184  16.8184  16.8363  16.8363  16.9598
    16.9751  16.9751  16.9751  17.0547  17.0547  17.0657  17.0657  17.0657
    17.0947  17.1190  17.1190  17.1190  17.2103  17.2103  17.2117  17.2117
    17.2117  17.2954  17.2954  17.2954  17.4775  17.4775  17.4775  17.4781
    17.4781  17.5523  17.5523  17.5523  17.6904  17.6904  17.6904  17.9575
    17.9575  18.2595  18.2595  18.2595  18.2711  18.3030  18.3030  18.3169
    18.3169  18.3169  18.3222  18.3222  18.3222  18.3943  18.3943  18.4676
    18.4676  18.4676  18.4678  18.4678  18.4678  18.5063  18.5148  18.5148
    18.5148  21.3572  21.3572  21.3572  21.4630  21.4630  21.4630  21.5758
    21.5758  21.5758  21.7133  21.7133  21.7783  21.8536  21.8536  21.8536
    21.9279  21.9674  21.9674  21.9674  21.9810  21.9810  21.9861  21.9861
    21.9861  26.1560  26.1560  26.1560  26.5731  26.6895  26.6895  26.6895
    26.7828  26.7828  26.7828  27.0180  27.0180  27.2080  27.2080  27.2080
    27.3081  27.3081  27.3081  27.3667  27.3667  27.4883  27.4883  27.4883
    27.6826  30.5455  30.5455  30.5455

     the Fermi energy is    18.4717 ev

!    total energy              =  -16896.59801833 Ry

     total all-electron energy =   -333037.478404 Ry
     estimated scf accuracy    <          5.1E-09 Ry
     smearing contrib. (-TS)   =       0.07468227 Ry
     internal energy E=F+TS    =  -16896.67270061 Ry

     The total energy is F=E-TS. E is the sum of the following terms:
     one-electron contribution =   -2731.52168008 Ry
     hartree contribution      =    1779.65223109 Ry
     xc contribution           =   -1017.16017263 Ry
     ewald contribution        =   -6505.00722689 Ry
     one-center paw contrib.   =   -8422.63585210 Ry

     convergence has been achieved in  19 iterations

     Forces acting on atoms (cartesian axes, Ry/au):

     atom    1 type  1   force =     0.00000000    0.00000000    0.00000000
     atom    2 type  1   force =    -0.00020929   -0.00020929   -0.00020929
     atom    3 type  1   force =     0.00020929    0.00020929   -0.00020929
     atom    4 type  1   force =     0.00020929   -0.00020929    0.00020929
     atom    5 type  1   force =    -0.00020929    0.00020929    0.00020929
     atom    6 type  1   force =    -0.00003967   -0.00003967    0.00015532
     atom    7 type  1   force =     0.00003967    0.00003967    0.00015532
     atom    8 type  1   force =     0.00003967   -0.00003967   -0.00015532
     atom    9 type  1   force =    -0.00003967    0.00003967   -0.00015532
     atom   10 type  1   force =    -0.00003967    0.00015532   -0.00003967
     atom   11 type  1   force =     0.00003967   -0.00015532   -0.00003967
     atom   12 type  1   force =     0.00003967    0.00015532    0.00003967
     atom   13 type  1   force =    -0.00003967   -0.00015532    0.00003967
     atom   14 type  1   force =     0.00075296    0.00008892    0.00008892
     atom   15 type  1   force =    -0.00075296   -0.00008892    0.00008892
     atom   16 type  1   force =    -0.00075296    0.00008892   -0.00008892
     atom   17 type  1   force =     0.00075296   -0.00008892   -0.00008892
     atom   18 type  1   force =     0.00015532   -0.00003967   -0.00003967
     atom   19 type  1   force =    -0.00015532    0.00003967   -0.00003967
     atom   20 type  1   force =    -0.00015532   -0.00003967    0.00003967
     atom   21 type  1   force =     0.00015532    0.00003967    0.00003967
     atom   22 type  1   force =     0.00008892    0.00075296    0.00008892
     atom   23 type  1   force =    -0.00008892   -0.00075296    0.00008892
     atom   24 type  1   force =    -0.00008892    0.00075296   -0.00008892
     atom   25 type  1   force =     0.00008892   -0.00075296   -0.00008892
     atom   26 type  1   force =     0.00008892    0.00008892    0.00075296
     atom   27 type  1   force =    -0.00008892   -0.00008892    0.00075296
     atom   28 type  1   force =    -0.00008892    0.00008892   -0.00075296
     atom   29 type  1   force =     0.00008892   -0.00008892   -0.00075296
     atom   30 type  1   force =    -0.00040377   -0.00040377   -0.00040377
     atom   31 type  1   force =     0.00040377    0.00040377   -0.00040377
     atom   32 type  1   force =     0.00040377   -0.00040377    0.00040377
     atom   33 type  1   force =    -0.00040377    0.00040377    0.00040377

     Total force =     0.003131     Total SCF correction =     0.000089

     Computing stress (Cartesian axis) and pressure

          total   stress  (Ry/bohr**3)                   (kbar)     P=        2.75
   0.00001871   0.00000000   0.00000000            2.75        0.00        0.00
   0.00000000   0.00001871   0.00000000            0.00        2.75        0.00
   0.00000000   0.00000000   0.00001871            0.00        0.00        2.75

     Writing output data file /scratch/pdtetra2.save/

     General routines

     Parallel routines

   This run was terminated on:   5:47:44   4Jan2022

   JOB DONE.