     Program PWSCF v.6.7MaX starts on  4Jan2022 at  3:27:49

     R & G space division:  proc/nbgrp/npool/nimage =      72
     Reading input from pd_tetra_1.in
Warning: card &CELL ignored
Warning: card CELL_DYNAMICS = 'BFGS', ignored
Warning: card CELL_FACTOR = 2.0, ignored
Warning: card PRESS = 0.0, ignored
Warning: card / ignored

     Current dimensions of program PWSCF are:
     Max number of different atomic species (ntypx) = 10
     Max number of k-points (npk) =  40000
     Max angular momentum in pseudopotentials (lmaxx) =  3
     file Pd.pbe-spn-kjpaw_psl.1.0.0.UPF: wavefunction(s)  4S 5S 4D renormalized

     Subspace diagonalization in iterative solution of the eigenvalue problem:
     one sub-group per band group will be used

     Message from routine setup:
     using ibrav=0 with symmetry is DISCOURAGED, use correct ibrav instead

     bravais-lattice index     =            0
     lattice parameter (alat)  =      14.8394  a.u.
     unit-cell volume          =    3267.7646 (a.u.)^3
     number of atoms/cell      =           33
     number of atomic types    =            1
     number of electrons       =       594.00
     number of Kohn-Sham states=          356
     kinetic-energy cutoff     =      71.0000  Ry
     charge density cutoff     =     430.0000  Ry
     scf convergence threshold =      1.0E-06
     mixing beta               =       0.1000
     number of iterations used =           10  TF        mixing
     Exchange-correlation= SLA  PW   PBX  PBC
                           (   1   4   3   4   0   0   0)

     celldm(1)=  14.839420  celldm(2)=   0.000000  celldm(3)=   0.000000
     celldm(4)=   0.000000  celldm(5)=   0.000000  celldm(6)=   0.000000

     crystal axes: (cart. coord. in units of alat)
               a(1) = (   1.000000   0.000000   0.000000 )
               a(2) = (   0.000000   1.000000   0.000000 )
               a(3) = (   0.000000   0.000000   1.000000 )

     reciprocal axes: (cart. coord. in units 2 pi/alat)
               b(1) = (  1.000000  0.000000  0.000000 )
               b(2) = (  0.000000  1.000000  0.000000 )
               b(3) = (  0.000000  0.000000  1.000000 )

     PseudoPot. # 1 for Pd read from file:
     /rds/homes/b/bxp912/pp/Pd.pbe-spn-kjpaw_psl.1.0.0.UPF
     MD5 check sum: 790f2ebce206edfd9790dcb9844eca51
     Pseudo is Projector augmented-wave + core cor, Zval = 18.0
     Generated using &quot;atomic&quot; code by A. Dal Corso  v.6.3
     Shape of augmentation charge: PSQ
     Using radial grid of 1235 points,  6 beta functions with:
                l(1) =   0
                l(2) =   0
                l(3) =   1
                l(4) =   1
                l(5) =   2
                l(6) =   2
     Q(r) pseudized with 0 coefficients

     atomic species   valence    mass     pseudopotential
        Pd            18.00   106.42000     Pd( 1.00)

     24 Sym. Ops. (no inversion) found (18 have fractional translation)

   Cartesian axes

     site n.     atom                  positions (alat units)
         1           Pd  tau(   1) = (   0.1250000   0.1250000   0.1250000  )
         2           Pd  tau(   2) = (   0.0000000   0.0000000   0.0000000  )
         3           Pd  tau(   3) = (   0.2500000   0.2500000   0.0000000  )
         4           Pd  tau(   4) = (   0.2500000   0.0000000   0.2500000  )
         5           Pd  tau(   5) = (   0.0000000   0.2500000   0.2500000  )
         6           Pd  tau(   6) = (   0.0000000   0.0000000   0.5000000  )
         7           Pd  tau(   7) = (   0.2500000   0.2500000   0.5000000  )
         8           Pd  tau(   8) = (   0.2500000   0.0000000   0.7500000  )
         9           Pd  tau(   9) = (   0.0000000   0.2500000   0.7500000  )
        10           Pd  tau(  10) = (   0.0000000   0.5000000   0.0000000  )
        11           Pd  tau(  11) = (   0.2500000   0.7500000   0.0000000  )
        12           Pd  tau(  12) = (   0.2500000   0.5000000   0.2500000  )
        13           Pd  tau(  13) = (   0.0000000   0.7500000   0.2500000  )
        14           Pd  tau(  14) = (   0.0000000   0.5000000   0.5000000  )
        15           Pd  tau(  15) = (   0.2500000   0.7500000   0.5000000  )
        16           Pd  tau(  16) = (   0.2500000   0.5000000   0.7500000  )
        17           Pd  tau(  17) = (   0.0000000   0.7500000   0.7500000  )
        18           Pd  tau(  18) = (   0.5000000   0.0000000   0.0000000  )
        19           Pd  tau(  19) = (   0.7500000   0.2500000   0.0000000  )
        20           Pd  tau(  20) = (   0.7500000   0.0000000   0.2500000  )
        21           Pd  tau(  21) = (   0.5000000   0.2500000   0.2500000  )
        22           Pd  tau(  22) = (   0.5000000   0.0000000   0.5000000  )
        23           Pd  tau(  23) = (   0.7500000   0.2500000   0.5000000  )
        24           Pd  tau(  24) = (   0.7500000   0.0000000   0.7500000  )
        25           Pd  tau(  25) = (   0.5000000   0.2500000   0.7500000  )
        26           Pd  tau(  26) = (   0.5000000   0.5000000   0.0000000  )
        27           Pd  tau(  27) = (   0.7500000   0.7500000   0.0000000  )
        28           Pd  tau(  28) = (   0.7500000   0.5000000   0.2500000  )
        29           Pd  tau(  29) = (   0.5000000   0.7500000   0.2500000  )
        30           Pd  tau(  30) = (   0.5000000   0.5000000   0.5000000  )
        31           Pd  tau(  31) = (   0.7500000   0.7500000   0.5000000  )
        32           Pd  tau(  32) = (   0.7500000   0.5000000   0.7500000  )
        33           Pd  tau(  33) = (   0.5000000   0.7500000   0.7500000  )

     number of k points=    35  Marzari-Vanderbilt smearing, width (Ry)=  0.0400
                       cart. coord. in units 2pi/alat
        k(    1) = (   0.0555556   0.0555556   0.0555556), wk =   0.0219479
        k(    2) = (   0.0555556   0.0555556   0.1666667), wk =   0.0658436
        k(    3) = (   0.0555556   0.0555556   0.2777778), wk =   0.0658436
        k(    4) = (   0.0555556   0.0555556   0.3888889), wk =   0.0658436
        k(    5) = (   0.0555556   0.0555556  -0.5000000), wk =   0.0329218
        k(    6) = (   0.0555556   0.1666667   0.1666667), wk =   0.0658436
        k(    7) = (   0.0555556   0.1666667   0.2777778), wk =   0.1316872
        k(    8) = (   0.0555556   0.1666667   0.3888889), wk =   0.1316872
        k(    9) = (   0.0555556   0.1666667  -0.5000000), wk =   0.0658436
        k(   10) = (   0.0555556   0.2777778   0.2777778), wk =   0.0658436
        k(   11) = (   0.0555556   0.2777778   0.3888889), wk =   0.1316872
        k(   12) = (   0.0555556   0.2777778  -0.5000000), wk =   0.0658436
        k(   13) = (   0.0555556   0.3888889   0.3888889), wk =   0.0658436
        k(   14) = (   0.0555556   0.3888889  -0.5000000), wk =   0.0658436
        k(   15) = (   0.0555556  -0.5000000  -0.5000000), wk =   0.0164609
        k(   16) = (   0.1666667   0.1666667   0.1666667), wk =   0.0219479
        k(   17) = (   0.1666667   0.1666667   0.2777778), wk =   0.0658436
        k(   18) = (   0.1666667   0.1666667   0.3888889), wk =   0.0658436
        k(   19) = (   0.1666667   0.1666667  -0.5000000), wk =   0.0329218
        k(   20) = (   0.1666667   0.2777778   0.2777778), wk =   0.0658436
        k(   21) = (   0.1666667   0.2777778   0.3888889), wk =   0.1316872
        k(   22) = (   0.1666667   0.2777778  -0.5000000), wk =   0.0658436
        k(   23) = (   0.1666667   0.3888889   0.3888889), wk =   0.0658436
        k(   24) = (   0.1666667   0.3888889  -0.5000000), wk =   0.0658436
        k(   25) = (   0.1666667  -0.5000000  -0.5000000), wk =   0.0164609
        k(   26) = (   0.2777778   0.2777778   0.2777778), wk =   0.0219479
        k(   27) = (   0.2777778   0.2777778   0.3888889), wk =   0.0658436
        k(   28) = (   0.2777778   0.2777778  -0.5000000), wk =   0.0329218
        k(   29) = (   0.2777778   0.3888889   0.3888889), wk =   0.0658436
        k(   30) = (   0.2777778   0.3888889  -0.5000000), wk =   0.0658436
        k(   31) = (   0.2777778  -0.5000000  -0.5000000), wk =   0.0164609
        k(   32) = (   0.3888889   0.3888889   0.3888889), wk =   0.0219479
        k(   33) = (   0.3888889   0.3888889  -0.5000000), wk =   0.0329218
        k(   34) = (   0.3888889  -0.5000000  -0.5000000), wk =   0.0164609
        k(   35) = (  -0.5000000  -0.5000000  -0.5000000), wk =   0.0027435

     Check: negative core charge=   -0.000002

     Initial potential from superposition of free atoms

     starting charge  593.98738, renormalised to  594.00000
     Starting wfcs are  330 randomized atomic wfcs +   26 random wfcs
     Checking if some PAW data can be deallocated...

     Self-consistent Calculation

     iteration #  1     ecut=    71.00 Ry     beta= 0.10
     Davidson diagonalization with overlap
     ethr =  1.00E-02,  avg # of iterations =  3.0

     Threshold (ethr) on eigenvalues was too large:
     Diagonalizing with lowered threshold

     Davidson diagonalization with overlap
     ethr =  3.45E-04,  avg # of iterations =  1.9

     total energy              =  -16893.79569809 Ry
     estimated scf accuracy    <       1.99261810 Ry

[...]

     iteration #  4     ecut=    71.00 Ry     beta= 0.10
     Davidson diagonalization with overlap
     c_bands:  2 eigenvalues not converged
     ethr =  3.74E-05,  avg # of iterations =  4.0

[...]

     iteration #  7     ecut=    71.00 Ry     beta= 0.10
     Davidson diagonalization with overlap
     c_bands:  1 eigenvalues not converged
     c_bands:  1 eigenvalues not converged
     c_bands:  1 eigenvalues not converged
     c_bands:  1 eigenvalues not converged
     ethr =  1.80E-06,  avg # of iterations = 11.8

[...]

     total energy              =  -16893.62452610 Ry
     estimated scf accuracy    <       0.00000366 Ry

     iteration # 15     ecut=    71.00 Ry     beta= 0.10
     Davidson diagonalization with overlap
     ethr =  6.16E-10,  avg # of iterations =  2.0

     End of self-consistent calculation

          k = 0.0556 0.0556 0.0556 ( 32996 PWs)   bands (ev):

   -72.4874 -66.5865 -66.5865 -66.5865 -65.9942 -63.8518 -63.8332 -63.8332
   -63.8310 -63.8294 -63.8294 -63.8258 -63.8159 -63.8159 -63.8159 -63.8154
   -63.8152 -63.8152 -63.8106 -63.8105 -63.8105 -63.7789 -63.7731 -63.7731
   -63.7688 -63.7686 -63.7686 -63.7568 -63.7568 -63.7568 -63.7568 -63.7567
   -63.7567 -39.7925 -39.7925 -39.7925 -33.1577 -32.0271 -32.0271 -32.0271
   -31.7941 -31.7941 -31.6929 -31.6929 -31.6929 -31.1013 -31.1013 -31.1013
   -29.7254 -29.7183 -29.7183 -29.7174 -29.7015 -29.7015 -29.6751 -29.6402
   -29.6398 -29.6398 -29.6379 -29.6379 -29.6364 -29.6352 -29.6323 -29.6323
   -29.6277 -29.6108 -29.6108 -29.6096 -29.6063 -29.6063 -29.5987 -29.5968
   -29.5968 -29.5725 -29.5725 -29.5675 -29.5642 -29.5642 -29.5591 -29.5544
   -29.5544 -29.5476 -29.5445 -29.5445 -29.5423 -29.5392 -29.5392 -29.5389
   -29.5352 -29.5352 -29.5154 -29.5081 -29.5081 -29.5072 -29.4845 -29.4838
   -29.4838 -29.4717 -29.4717 -29.4685 -29.4638 -29.4601 -29.4601 -29.4541
   -29.4541 -29.4403 -29.4403 -29.4400 -29.4323 -29.4317 -29.4317 -29.4281
   -29.4280 -29.4280 -29.4182 -29.4176 -29.4176 -29.4109 -29.4109 -29.4099
   -29.4095 -29.4088 -29.4088 -29.4058 -29.4051 -29.4051 -29.3925 -29.3925
   -29.3910 -29.3684 -29.3665 -29.3665   6.5793   6.5793   7.0074   7.0075
     7.0075  12.6368  13.9623  14.3044  14.3091  14.3091  14.4413  14.4421
    14.4421  14.6507  14.8822  14.8822  14.8919  14.9339  14.9339  15.1816
    15.1816  15.1961  15.2510  15.3684  15.3684  15.4379  15.4757  15.4757
    15.6503  15.6503  15.6986  15.7244  15.7735  15.7735  15.8603  16.0631
    16.0631  16.1581  16.2654  16.2654  16.2981  16.3197  16.3197  16.3222
    16.3292  16.3353  16.3353  16.3921  16.3921  16.5762  16.5762  16.5916
    16.6180  16.6196  16.6506  16.6506  16.6776  16.6776  16.7584  16.7584
    16.7728  16.8059  16.8059  16.8525  16.8591  16.8812  16.8812  16.9965
    16.9965  17.0168  17.0395  17.0395  17.0764  17.0782  17.1348  17.1586
    17.1586  17.1959  17.1959  17.2132  17.2841  17.2841  17.3464  17.3549
    17.3549  17.3561  17.3844  17.3844  17.4909  17.5089  17.5089  17.6113
    17.6113  17.6251  17.6411  17.6411  18.0880  18.0916  18.0916  18.2184
    18.2342  18.2342  18.2344  18.3210  18.3210  18.3788  18.3818  18.3818
    18.3950  18.4199  18.4199  18.4357  18.4682  18.4682  18.5239  18.5471
    18.5471  18.6413  18.7087  18.7087  18.7583  18.7613  18.7613  18.7888
    18.7888  18.8578  18.8749  18.8749  18.8815  18.8940  18.8940  18.9069
    18.9688  18.9688  18.9845  19.0383  19.0383  19.1082  19.2678  19.2678
    19.2894  19.3242  19.3242  19.3815  19.4256  19.4256  19.6022  19.7514
    19.7514  19.8510  19.9302  19.9302  20.0055  20.0475  20.0475  20.0522
    20.1309  20.1309  20.1624  20.1624  20.2745  20.2745  20.2799  20.4582
    20.4709  20.4709  20.4912  20.4912  20.4925  20.6243  20.7881  20.7881
    20.9676  21.1844  21.2460  21.2460  21.8064  21.8064  21.8256  22.1243
    22.2637  22.2980  22.2980  22.3829  22.3829  22.7509  22.8171  22.8171
    23.4824  23.4939  23.4939  26.9481  27.1711  27.1711  27.3011  28.1074
    28.1074  28.1607  28.2972  28.3712  28.3712  28.8095  28.8095  28.8931
    28.9856  29.0349  29.0349  29.9262  29.9416  29.9416  30.4037  30.4037
    30.4080  30.5247  30.5248  30.5271  31.2327  31.3051  31.3051  31.4602
    31.4602  31.5117  31.5121  31.6049

[...]

          k = 0.3889-0.5000-0.5000 ( 33008 PWs)   bands (ev):

[...]

          k =-0.5000-0.5000-0.5000 ( 32968 PWs)   bands (ev):

   -72.4874 -66.5865 -66.5865 -66.5865 -65.9942 -63.8405 -63.8405 -63.8405
   -63.8363 -63.8256 -63.8256 -63.8256 -63.8220 -63.8149 -63.8149 -63.8148
   -63.8148 -63.8148 -63.8098 -63.8098 -63.8098 -63.7762 -63.7762 -63.7762
   -63.7668 -63.7619 -63.7619 -63.7619 -63.7579 -63.7579 -63.7579 -63.7579
   -63.7579 -39.7924 -39.7924 -39.7924 -33.1576 -32.0271 -32.0271 -32.0271
   -31.7942 -31.7942 -31.6929 -31.6929 -31.6929 -31.1012 -31.1012 -31.1012
   -29.6832 -29.6832 -29.6832 -29.6807 -29.6807 -29.6807 -29.6804 -29.6756
   -29.6756 -29.6741 -29.6741 -29.6741 -29.6631 -29.6631 -29.6631 -29.6528
   -29.6528 -29.6528 -29.6139 -29.6139 -29.6008 -29.6008 -29.6008 -29.5786
   -29.5744 -29.5744 -29.5744 -29.5479 -29.5479 -29.5479 -29.5472 -29.5472
   -29.5472 -29.5467 -29.5467 -29.5411 -29.5292 -29.5231 -29.5231 -29.5231
   -29.5082 -29.5055 -29.5004 -29.5004 -29.5004 -29.4904 -29.4904 -29.4904
   -29.4638 -29.4638 -29.4638 -29.4631 -29.4631 -29.4611 -29.4611 -29.4611
   -29.4609 -29.4609 -29.4609 -29.4527 -29.4527 -29.4527 -29.4447 -29.4447
   -29.4392 -29.4392 -29.4392 -29.4297 -29.4297 -29.4297 -29.4167 -29.4005
   -29.4005 -29.4005 -29.3974 -29.3974 -29.3905 -29.3905 -29.3905 -29.3834
   -29.3834 -29.3695 -29.3695 -29.3695   6.5781   6.5781   7.0091   7.0091
     7.0091  13.3065  14.1955  14.2014  14.2014  14.2014  14.5542  14.5542
    14.5542  14.8050  14.8050  14.8050  14.8320  14.8320  14.8320  15.0134
    15.1899  15.1899  15.2851  15.2851  15.2851  15.3883  15.3883  15.3883
    15.6849  15.7060  15.7060  15.7060  15.7928  15.7928  15.7928  15.8337
    15.8337  15.8401  15.8401  15.8401  16.1817  16.1817  16.1817  16.2599
    16.2599  16.2641  16.2641  16.2641  16.3403  16.3950  16.4262  16.4262
    16.4262  16.4836  16.4836  16.4836  16.5543  16.5543  16.5543  16.6580
    16.6580  16.8812  16.8812  16.8812  16.9351  16.9351  16.9351  17.1688
    17.1688  17.1688  17.1941  17.3482  17.3482  17.3482  17.3686  17.4741
    17.4741  17.5970  17.5970  17.5970  17.6255  17.6255  17.6255  17.6827
    17.6827  17.7534  17.7703  17.7703  17.7703  17.8335  17.8335  17.8335
    17.8764  17.8764  17.8820  17.8820  17.8820  17.8828  17.8828  17.8828
    17.9277  17.9277  17.9277  17.9321  17.9321  17.9321  17.9422  18.1414
    18.1414  18.1722  18.1722  18.1722  18.4529  18.4529  18.4529  18.5043
    18.5043  18.5043  18.6119  18.6119  18.6119  18.6164  18.6672  18.6672
    18.6897  18.6897  18.6897  18.6903  18.6903  18.6903  18.7121  18.7369
    18.7369  18.9965  18.9965  18.9965  19.0817  19.0817  19.0817  19.1189
    19.1189  19.1844  19.1844  19.1844  19.3705  19.3705  19.3705  19.7648
    19.7648  19.7648  19.8935  19.8935  20.0741  20.0741  20.0741  20.1496
    20.1496  20.1496  20.2205  20.2205  20.2577  20.2655  20.2655  20.2655
    20.2898  20.2898  20.2898  20.2946  20.2946  20.3137  20.8366  20.8366
    20.8366  22.8874  23.1563  23.1563  23.1563  23.5006  23.5006  23.5006
    23.6233  23.6233  23.6233  23.6403  23.6403  23.7074  23.7074  23.7074
    23.8036  23.8036  23.8036  23.8134  23.8706  23.8706  23.9035  23.9035
    23.9035  28.5110  28.5903  28.5903  28.5903  28.8567  28.8567  28.8567
    28.9987  28.9987  28.9990  28.9990  28.9990  29.0633  29.2350  29.2350
    29.2350  29.2375  29.2375  29.2375  29.2934  29.2934  29.3365  29.3365
    29.3365  33.4548  33.4548  33.4548

     the Fermi energy is    20.2993 ev

!    total energy              =  -16893.62453093 Ry

     total all-electron energy =   -333034.504916 Ry
     estimated scf accuracy    <       0.00000044 Ry
     smearing contrib. (-TS)   =       0.07658934 Ry
     internal energy E=F+TS    =  -16893.70112027 Ry

     The total energy is F=E-TS. E is the sum of the following terms:
     one-electron contribution =   -2709.11098089 Ry
     hartree contribution      =    1797.22675232 Ry
     xc contribution           =   -1020.32726463 Ry
     ewald contribution        =   -6538.68510539 Ry
     one-center paw contrib.   =   -8422.80452167 Ry

     convergence has been achieved in  15 iterations

     Forces acting on atoms (cartesian axes, Ry/au):

     atom    1 type  1   force =     0.00000000    0.00000000    0.00000000
     atom    2 type  1   force =    -1.15641050   -1.15641050   -1.15641050
     atom    3 type  1   force =     1.15641050    1.15641050   -1.15641050
     atom    4 type  1   force =     1.15641050   -1.15641050    1.15641050
     atom    5 type  1   force =    -1.15641050    1.15641050    1.15641050
     atom    6 type  1   force =    -0.00117968   -0.00117968    0.00650347
     atom    7 type  1   force =     0.00117968    0.00117968    0.00650347
     atom    8 type  1   force =     0.00117968   -0.00117968   -0.00650347
     atom    9 type  1   force =    -0.00117968    0.00117968   -0.00650347
     atom   10 type  1   force =    -0.00117968    0.00650347   -0.00117968
     atom   11 type  1   force =     0.00117968   -0.00650347   -0.00117968
     atom   12 type  1   force =     0.00117968    0.00650347    0.00117968
     atom   13 type  1   force =    -0.00117968   -0.00650347    0.00117968
     atom   14 type  1   force =    -0.00209993    0.00102286    0.00102286
     atom   15 type  1   force =     0.00209993   -0.00102286    0.00102286
     atom   16 type  1   force =     0.00209993    0.00102286   -0.00102286
     atom   17 type  1   force =    -0.00209993   -0.00102286   -0.00102286
     atom   18 type  1   force =     0.00650347   -0.00117968   -0.00117968
     atom   19 type  1   force =    -0.00650347    0.00117968   -0.00117968
     atom   20 type  1   force =    -0.00650347   -0.00117968    0.00117968
     atom   21 type  1   force =     0.00650347    0.00117968    0.00117968
     atom   22 type  1   force =     0.00102286   -0.00209993    0.00102286
     atom   23 type  1   force =    -0.00102286    0.00209993    0.00102286
     atom   24 type  1   force =    -0.00102286   -0.00209993   -0.00102286
     atom   25 type  1   force =     0.00102286    0.00209993   -0.00102286
     atom   26 type  1   force =     0.00102286    0.00102286   -0.00209993
     atom   27 type  1   force =    -0.00102286   -0.00102286   -0.00209993
     atom   28 type  1   force =    -0.00102286    0.00102286    0.00209993
     atom   29 type  1   force =     0.00102286   -0.00102286    0.00209993
     atom   30 type  1   force =    -0.00003375   -0.00003375   -0.00003375
     atom   31 type  1   force =     0.00003375    0.00003375   -0.00003375
     atom   32 type  1   force =     0.00003375   -0.00003375    0.00003375
     atom   33 type  1   force =    -0.00003375    0.00003375    0.00003375

     Total force =     4.006001     Total SCF correction =     0.002902

     Computing stress (Cartesian axis) and pressure

          total   stress  (Ry/bohr**3)                   (kbar)     P=      413.40
   0.00281024   0.00000000   0.00000000          413.40        0.00        0.00
   0.00000000   0.00281024   0.00000000            0.00      413.40        0.00
   0.00000000   0.00000000   0.00281024            0.00        0.00      413.40

     Writing output data file /scratch/pdtetra1.save/

     General routines

     Parallel routines

   This run was terminated on:   3:38:17   4Jan2022

   JOB DONE.