     Program PWSCF v.6.7MaX starts on  4Jan2022 at  5:47:49

     R & G space division:  proc/nbgrp/npool/nimage =      72
     Reading input from pd_vacancy_1.in
Warning: card &CELL ignored
Warning: card CELL_DYNAMICS = 'BFGS', ignored
Warning: card CELL_FACTOR = 2.0, ignored
Warning: card PRESS = 0.0, ignored
Warning: card / ignored

     Current dimensions of program PWSCF are:
     Max number of different atomic species (ntypx) = 10
     Max number of k-points (npk) =  40000
     Max angular momentum in pseudopotentials (lmaxx) =  3
     file Pd.pbe-spn-kjpaw_psl.1.0.0.UPF: wavefunction(s)  4S 5S 4D renormalized

     Subspace diagonalization in iterative solution of the eigenvalue problem:
     one sub-group per band group will be used

     Message from routine setup:
     using ibrav=0 with symmetry is DISCOURAGED, use correct ibrav instead

     bravais-lattice index     =            0
     lattice parameter (alat)  =      14.4007  a.u.
     unit-cell volume          =    2986.4454 (a.u.)^3
     number of atoms/cell      =           31
     number of atomic types    =            1
     number of electrons       =       558.00
     number of Kohn-Sham states=          335
     kinetic-energy cutoff     =      71.0000  Ry
     charge density cutoff     =     430.0000  Ry
     scf convergence threshold =      1.0E-06
     mixing beta               =       0.1000
     number of iterations used =           10  TF        mixing
     Exchange-correlation= SLA  PW   PBX  PBC
                           (   1   4   3   4   0   0   0)

     celldm(1)=  14.400742  celldm(2)=   0.000000  celldm(3)=   0.000000
     celldm(4)=   0.000000  celldm(5)=   0.000000  celldm(6)=   0.000000

     crystal axes: (cart. coord. in units of alat)
               a(1) = (   1.000000   0.000000   0.000000 )
               a(2) = (   0.000000   1.000000   0.000000 )
               a(3) = (   0.000000   0.000000   1.000000 )

     reciprocal axes: (cart. coord. in units 2 pi/alat)
               b(1) = (  1.000000  0.000000  0.000000 )
               b(2) = (  0.000000  1.000000  0.000000 )
               b(3) = (  0.000000  0.000000  1.000000 )

     PseudoPot. # 1 for Pd read from file:
     /rds/homes/b/bxp912/pp/Pd.pbe-spn-kjpaw_psl.1.0.0.UPF
     MD5 check sum: 790f2ebce206edfd9790dcb9844eca51
     Pseudo is Projector augmented-wave + core cor, Zval = 18.0
     Generated using &quot;atomic&quot; code by A. Dal Corso  v.6.3
     Shape of augmentation charge: PSQ
     Using radial grid of 1235 points,  6 beta functions with:
                l(1) =   0
                l(2) =   0
                l(3) =   1
                l(4) =   1
                l(5) =   2
                l(6) =   2
     Q(r) pseudized with 0 coefficients

     atomic species   valence    mass     pseudopotential
        Pd            18.00   106.42000     Pd( 1.00)

     48 Sym. Ops., with inversion, found

   Cartesian axes

     site n.     atom                  positions (alat units)
         1           Pd  tau(   1) = (   0.2500000   0.2500000   0.0000000  )
         2           Pd  tau(   2) = (   0.2500000   0.0000000   0.2500000  )
         3           Pd  tau(   3) = (   0.0000000   0.2500000   0.2500000  )
         4           Pd  tau(   4) = (   0.0000000   0.0000000   0.5000000  )
         5           Pd  tau(   5) = (   0.2500000   0.2500000   0.5000000  )
         6           Pd  tau(   6) = (   0.2500000   0.0000000   0.7500000  )
         7           Pd  tau(   7) = (   0.0000000   0.2500000   0.7500000  )
         8           Pd  tau(   8) = (   0.0000000   0.5000000   0.0000000  )
         9           Pd  tau(   9) = (   0.2500000   0.7500000   0.0000000  )
        10           Pd  tau(  10) = (   0.2500000   0.5000000   0.2500000  )
        11           Pd  tau(  11) = (   0.0000000   0.7500000   0.2500000  )
        12           Pd  tau(  12) = (   0.0000000   0.5000000   0.5000000  )
        13           Pd  tau(  13) = (   0.2500000   0.7500000   0.5000000  )
        14           Pd  tau(  14) = (   0.2500000   0.5000000   0.7500000  )
        15           Pd  tau(  15) = (   0.0000000   0.7500000   0.7500000  )
        16           Pd  tau(  16) = (   0.5000000   0.0000000   0.0000000  )
        17           Pd  tau(  17) = (   0.7500000   0.2500000   0.0000000  )
        18           Pd  tau(  18) = (   0.7500000   0.0000000   0.2500000  )
        19           Pd  tau(  19) = (   0.5000000   0.2500000   0.2500000  )
        20           Pd  tau(  20) = (   0.5000000   0.0000000   0.5000000  )
        21           Pd  tau(  21) = (   0.7500000   0.2500000   0.5000000  )
        22           Pd  tau(  22) = (   0.7500000   0.0000000   0.7500000  )
        23           Pd  tau(  23) = (   0.5000000   0.2500000   0.7500000  )
        24           Pd  tau(  24) = (   0.5000000   0.5000000   0.0000000  )
        25           Pd  tau(  25) = (   0.7500000   0.7500000   0.0000000  )
        26           Pd  tau(  26) = (   0.7500000   0.5000000   0.2500000  )
        27           Pd  tau(  27) = (   0.5000000   0.7500000   0.2500000  )
        28           Pd  tau(  28) = (   0.5000000   0.5000000   0.5000000  )
        29           Pd  tau(  29) = (   0.7500000   0.7500000   0.5000000  )
        30           Pd  tau(  30) = (   0.7500000   0.5000000   0.7500000  )
        31           Pd  tau(  31) = (   0.5000000   0.7500000   0.7500000  )

     number of k points=    35  Marzari-Vanderbilt smearing, width (Ry)=  0.0400
                       cart. coord. in units 2pi/alat
        k(    1) = (   0.0555556   0.0555556   0.0555556), wk =   0.0219479
        k(    2) = (   0.0555556   0.0555556   0.1666667), wk =   0.0658436
        k(    3) = (   0.0555556   0.0555556   0.2777778), wk =   0.0658436
        k(    4) = (   0.0555556   0.0555556   0.3888889), wk =   0.0658436
        k(    5) = (   0.0555556   0.0555556  -0.5000000), wk =   0.0329218
        k(    6) = (   0.0555556   0.1666667   0.1666667), wk =   0.0658436
        k(    7) = (   0.0555556   0.1666667   0.2777778), wk =   0.1316872
        k(    8) = (   0.0555556   0.1666667   0.3888889), wk =   0.1316872
        k(    9) = (   0.0555556   0.1666667  -0.5000000), wk =   0.0658436
        k(   10) = (   0.0555556   0.2777778   0.2777778), wk =   0.0658436
        k(   11) = (   0.0555556   0.2777778   0.3888889), wk =   0.1316872
        k(   12) = (   0.0555556   0.2777778  -0.5000000), wk =   0.0658436
        k(   13) = (   0.0555556   0.3888889   0.3888889), wk =   0.0658436
        k(   14) = (   0.0555556   0.3888889  -0.5000000), wk =   0.0658436
        k(   15) = (   0.0555556  -0.5000000  -0.5000000), wk =   0.0164609
        k(   16) = (   0.1666667   0.1666667   0.1666667), wk =   0.0219479
        k(   17) = (   0.1666667   0.1666667   0.2777778), wk =   0.0658436
        k(   18) = (   0.1666667   0.1666667   0.3888889), wk =   0.0658436
        k(   19) = (   0.1666667   0.1666667  -0.5000000), wk =   0.0329218
        k(   20) = (   0.1666667   0.2777778   0.2777778), wk =   0.0658436
        k(   21) = (   0.1666667   0.2777778   0.3888889), wk =   0.1316872
        k(   22) = (   0.1666667   0.2777778  -0.5000000), wk =   0.0658436
        k(   23) = (   0.1666667   0.3888889   0.3888889), wk =   0.0658436
        k(   24) = (   0.1666667   0.3888889  -0.5000000), wk =   0.0658436
        k(   25) = (   0.1666667  -0.5000000  -0.5000000), wk =   0.0164609
        k(   26) = (   0.2777778   0.2777778   0.2777778), wk =   0.0219479
        k(   27) = (   0.2777778   0.2777778   0.3888889), wk =   0.0658436
        k(   28) = (   0.2777778   0.2777778  -0.5000000), wk =   0.0329218
        k(   29) = (   0.2777778   0.3888889   0.3888889), wk =   0.0658436
        k(   30) = (   0.2777778   0.3888889  -0.5000000), wk =   0.0658436
        k(   31) = (   0.2777778  -0.5000000  -0.5000000), wk =   0.0164609
        k(   32) = (   0.3888889   0.3888889   0.3888889), wk =   0.0219479
        k(   33) = (   0.3888889   0.3888889  -0.5000000), wk =   0.0329218
        k(   34) = (   0.3888889  -0.5000000  -0.5000000), wk =   0.0164609
        k(   35) = (  -0.5000000  -0.5000000  -0.5000000), wk =   0.0027435

     Check: negative core charge=   -0.000001

     Initial potential from superposition of free atoms

     starting charge  557.98814, renormalised to  558.00000
     Starting wfcs are  310 randomized atomic wfcs +   25 random wfcs
     Checking if some PAW data can be deallocated...

     Self-consistent Calculation

     iteration #  1     ecut=    71.00 Ry     beta= 0.10
     Davidson diagonalization with overlap
     ethr =  1.00E-02,  avg # of iterations =  3.0

     Threshold (ethr) on eigenvalues was too large:
     Diagonalizing with lowered threshold

     Davidson diagonalization with overlap
     ethr =  8.85E-05,  avg # of iterations =  5.2

     total energy              =  -15872.75491547 Ry
     estimated scf accuracy    <       0.47013927 Ry

[...]

     iteration #  4     ecut=    71.00 Ry     beta= 0.10
     Davidson diagonalization with overlap
     c_bands:  1 eigenvalues not converged
     ethr =  1.09E-05,  avg # of iterations =  8.4

[...]

     total energy              =  -15872.66519916 Ry
     estimated scf accuracy    <       0.00000157 Ry

     iteration # 15     ecut=    71.00 Ry     beta= 0.10
     Davidson diagonalization with overlap
     ethr =  2.81E-10,  avg # of iterations =  2.0

     End of self-consistent calculation

          k = 0.0556 0.0556 0.0556 ( 30224 PWs)   bands (ev):

   -63.5472 -63.5214 -63.5214 -63.5213 -63.4976 -63.4966 -63.4966 -63.4960
   -63.4824 -63.4824 -63.4824 -63.4787 -63.4787 -63.4719 -63.4717 -63.4717
   -63.4529 -63.4529 -63.4503 -63.4152 -63.4122 -63.4122 -63.4115 -63.4018
   -63.4018 -63.4018 -63.3881 -63.3881 -63.3881 -63.3860 -63.3860 -29.4954
   -29.4954 -29.4939 -29.4862 -29.4456 -29.4456 -29.4452 -29.3679 -29.3679
   -29.3661 -29.3581 -29.3578 -29.3578 -29.3499 -29.3482 -29.3482 -29.3379
   -29.3379 -29.3314 -29.3266 -29.3223 -29.3223 -29.3094 -29.3094 -29.3013
   -29.2973 -29.2924 -29.2924 -29.2655 -29.2655 -29.2590 -29.2440 -29.2440
   -29.2406 -29.2138 -29.2138 -29.1996 -29.1996 -29.1914 -29.1889 -29.1889
   -29.1856 -29.1850 -29.1755 -29.1755 -29.1754 -29.1687 -29.1687 -29.1672
   -29.1516 -29.1516 -29.1501 -29.1497 -29.1497 -29.1481 -29.1397 -29.1397
   -29.1350 -29.0929 -29.0929 -29.0902 -29.0784 -29.0780 -29.0780 -29.0735
   -29.0712 -29.0712 -29.0648 -29.0637 -29.0637 -29.0608 -29.0608 -29.0607
   -29.0593 -29.0593 -29.0582 -29.0375 -29.0375 -29.0355 -29.0292 -29.0286
   -29.0286 -29.0126 -29.0122 -29.0122 -28.9796 -28.9796 -28.9699 -28.9699
   -28.9696 -28.9662 -28.9630 -28.9630  13.3473  14.9073  15.0002  15.0002
    15.0805  15.0902  15.0902  15.1150  15.3293  15.3312  15.3312  15.4286
    15.4286  15.4964  15.6045  15.6045  15.8332  16.0328  16.0770  16.0770
    16.0779  16.2572  16.2572  16.2840  16.3063  16.3063  16.4442  16.4442
    16.4839  16.5063  16.5063  16.5471  16.5498  16.5606  16.5606  16.6043
    16.6043  16.6713  16.6713  16.6730  16.8998  16.9144  16.9176  16.9176
    16.9532  16.9532  17.0309  17.0309  17.0438  17.0660  17.0660  17.0876
    17.1373  17.1525  17.1563  17.1563  17.2384  17.2384  17.2967  17.3104
    17.3667  17.3667  17.4132  17.4132  17.4284  17.4527  17.4728  17.4728
    17.5580  17.5580  17.5652  17.5960  17.5960  17.6563  17.6563  17.6601
    17.6805  17.6805  17.6891  17.6891  17.6916  17.7038  17.7161  18.0218
    18.0218  18.3769  18.3976  18.3976  18.6398  18.6398  18.6886  18.7469
    18.7566  18.7566  18.7712  18.7899  18.7899  18.8074  18.8107  18.8107
    18.8746  18.8746  18.8909  18.9729  19.0016  19.1061  19.1061  19.1258
    19.1258  19.1808  19.1808  19.2464  19.2682  19.2830  19.2830  19.3291
    19.4075  19.4075  19.4097  19.4271  19.4287  19.4287  19.4498  19.4498
    19.4805  19.4805  19.5309  19.5364  19.5364  19.5677  19.5858  19.5858
    19.6298  19.9119  19.9119  20.0806  20.1507  20.1507  20.1934  20.4179
    20.5219  20.5219  20.6041  20.6041  20.6924  20.6924  20.8056  20.8056
    20.8085  20.8518  20.8643  20.9618  20.9618  21.1094  21.1121  21.1121
    21.1522  21.1522  21.1624  21.1823  21.1861  21.1861  21.7238  22.0092
    22.1142  22.1142  22.7166  22.7166  22.8349  23.1589  23.1589  23.3473
    23.4333  23.4540  23.4540  23.8479  23.8479  24.0978  24.4554  24.4590
    24.4590  28.6073  28.6073  28.7061  28.9454  29.6038  29.6038  29.6754
    29.7170  29.7720  29.7720  30.3593  30.3593  30.4581  30.5025  30.5886
    30.5886  31.9287  31.9287  32.0637  32.1044  32.1044  32.1100  32.2594
    32.2594  32.3606  32.9238  32.9243  33.0225  33.1145  33.1646

[...]

          k = 0.3889-0.5000-0.5000 ( 30188 PWs)   bands (ev):

[...]

          k =-0.5000-0.5000-0.5000 ( 30280 PWs)   bands (ev):

   -63.5348 -63.5244 -63.5244 -63.5244 -63.5061 -63.5061 -63.5061 -63.4909
   -63.4800 -63.4800 -63.4800 -63.4702 -63.4702 -63.4702 -63.4702 -63.4702
   -63.4552 -63.4552 -63.4552 -63.4262 -63.4081 -63.4081 -63.4081 -63.3976
   -63.3976 -63.3976 -63.3899 -63.3899 -63.3899 -63.3899 -63.3899 -29.4381
   -29.4381 -29.4381 -29.4202 -29.4202 -29.4202 -29.4132 -29.4132 -29.4056
   -29.4056 -29.4045 -29.4045 -29.4045 -29.3977 -29.3977 -29.3977 -29.3954
   -29.3941 -29.3921 -29.3921 -29.3921 -29.2871 -29.2871 -29.2871 -29.2617
   -29.2617 -29.2617 -29.2438 -29.2344 -29.2118 -29.2118 -29.2118 -29.2080
   -29.2080 -29.2080 -29.1912 -29.1912 -29.1893 -29.1893 -29.1893 -29.1789
   -29.1751 -29.1751 -29.1751 -29.1741 -29.1741 -29.1741 -29.1588 -29.1588
   -29.1481 -29.1481 -29.1481 -29.1258 -29.1252 -29.1252 -29.1252 -29.1247
   -29.1247 -29.1247 -29.1214 -29.1072 -29.1072 -29.1072 -29.1023 -29.1023
   -29.1023 -29.0976 -29.0976 -29.0976 -29.0959 -29.0959 -29.0745 -29.0739
   -29.0739 -29.0528 -29.0528 -29.0528 -29.0079 -29.0079 -29.0041 -29.0041
   -29.0041 -28.9953 -28.9953 -28.9953 -28.9852 -28.9852 -28.9852 -28.9738
   -28.9738 -28.9668 -28.9668 -28.9668  14.9216  14.9833  14.9833  14.9833
    14.9859  14.9859  14.9859  15.3869  15.7217  15.7217  15.7381  15.7381
    15.7381  15.7413  15.7413  15.7413  15.7419  15.7419  15.7419  15.7490
    15.7490  15.7490  15.7544  15.7715  15.7715  15.7715  15.9350  15.9350
    16.1222  16.1222  16.1222  16.3711  16.5580  16.5580  16.5739  16.5739
    16.5739  16.5795  16.5795  16.5795  16.5910  16.5910  16.5910  16.5977
    16.6106  16.6106  16.6106  16.6341  16.7578  16.7578  16.7578  16.8982
    16.8982  16.8982  17.3928  17.3928  17.7343  17.7372  17.7372  17.7372
    17.7428  17.7428  17.7428  17.8360  18.0112  18.0112  18.0210  18.0210
    18.0210  18.0250  18.0250  18.0250  18.0275  18.0275  18.0275  18.1479
    18.1479  18.1479  18.1996  18.1996  18.2231  18.2231  18.2231  18.2372
    18.2396  18.2396  18.2396  18.2397  18.2397  18.2397  18.2620  18.2620
    18.2624  18.2624  18.2624  18.3383  18.3383  18.5568  18.5568  18.5568
    18.7690  18.8563  18.8563  18.8563  19.0330  19.0330  19.0457  19.0457
    19.0457  19.0494  19.0804  19.0804  19.0804  19.0945  19.0986  19.0986
    19.0986  19.1015  19.1015  19.1015  19.1361  19.1361  19.1361  19.4348
    19.4348  19.5330  19.5330  19.5330  19.6322  19.6322  19.6556  19.6556
    19.6556  19.6828  19.6828  19.6828  19.7069  19.7069  19.7069  20.4764
    20.4764  20.4764  20.6840  20.6840  20.9101  20.9101  20.9176  20.9176
    20.9176  20.9225  20.9225  20.9225  20.9280  20.9280  20.9280  20.9339
    20.9432  20.9432  20.9432  20.9463  20.9644  20.9644  20.9644  24.4075
    24.4075  24.4075  24.5308  24.5308  24.7262  24.7262  24.7262  24.7414
    24.7414  24.7458  24.7491  24.7491  24.7491  24.7510  24.7510  24.7510
    24.7531  24.7531  24.7531  25.1621  25.3605  25.3605  25.3605  30.2488
    30.2488  30.2488  30.5300  30.5300  30.5335  30.5335  30.5335  30.5485
    30.5485  30.5497  30.5497  30.5497  30.5513  30.5513  30.5513  30.5536
    30.8039  30.8039  30.8039  30.8308  30.9255  30.9255  30.9255

     the Fermi energy is    20.8945 ev

!    total energy              =  -15872.66520406 Ry

     total all-electron energy =   -312853.492233 Ry
     estimated scf accuracy    <       0.00000096 Ry
     smearing contrib. (-TS)   =       0.01419884 Ry
     internal energy E=F+TS    =  -15872.67940289 Ry

     The total energy is F=E-TS. E is the sum of the following terms:
     one-electron contribution =   -2365.71187834 Ry
     hartree contribution      =    1615.99109676 Ry
     xc contribution           =    -957.59242144 Ry
     ewald contribution        =   -6253.08095967 Ry
     one-center paw contrib.   =   -7912.28524020 Ry

     convergence has been achieved in  15 iterations

     Forces acting on atoms (cartesian axes, Ry/au):

     atom    1 type  1   force =    -0.01911668   -0.01911668    0.00000000
     atom    2 type  1   force =    -0.01911668    0.00000000   -0.01911668
     atom    3 type  1   force =    -0.00000000   -0.01911668   -0.01911668
     atom    4 type  1   force =     0.00000000    0.00000000    0.00000000
     atom    5 type  1   force =    -0.00185059   -0.00185059    0.00000000
     atom    6 type  1   force =    -0.01911668    0.00000000    0.01911668
     atom    7 type  1   force =    -0.00000000   -0.01911668    0.01911668
     atom    8 type  1   force =     0.00000000    0.00000000    0.00000000
     atom    9 type  1   force =    -0.01911668    0.01911668   -0.00000000
     atom   10 type  1   force =    -0.00185059    0.00000000   -0.00185059
     atom   11 type  1   force =     0.00000000    0.01911668   -0.01911668
     atom   12 type  1   force =     0.00000000    0.00000000    0.00000000
     atom   13 type  1   force =    -0.00185059    0.00185059    0.00000000
     atom   14 type  1   force =    -0.00185059    0.00000000    0.00185059
     atom   15 type  1   force =    -0.00000000    0.01911668    0.01911668
     atom   16 type  1   force =     0.00000000    0.00000000    0.00000000
     atom   17 type  1   force =     0.01911668   -0.01911668    0.00000000
     atom   18 type  1   force =     0.01911668   -0.00000000   -0.01911668
     atom   19 type  1   force =     0.00000000   -0.00185059   -0.00185059
     atom   20 type  1   force =     0.00000000    0.00000000    0.00000000
     atom   21 type  1   force =     0.00185059   -0.00185059    0.00000000
     atom   22 type  1   force =     0.01911668   -0.00000000    0.01911668
     atom   23 type  1   force =     0.00000000   -0.00185059    0.00185059
     atom   24 type  1   force =     0.00000000    0.00000000    0.00000000
     atom   25 type  1   force =     0.01911668    0.01911668    0.00000000
     atom   26 type  1   force =     0.00185059    0.00000000   -0.00185059
     atom   27 type  1   force =     0.00000000    0.00185059   -0.00185059
     atom   28 type  1   force =     0.00000000    0.00000000    0.00000000
     atom   29 type  1   force =     0.00185059    0.00185059    0.00000000
     atom   30 type  1   force =     0.00185059    0.00000000    0.00185059
     atom   31 type  1   force =     0.00000000    0.00185059    0.00185059

     Total force =     0.094090     Total SCF correction =     0.001782

     Computing stress (Cartesian axis) and pressure

          total   stress  (Ry/bohr**3)                   (kbar)     P=      177.97
   0.00120981   0.00000000   0.00000000          177.97        0.00        0.00
   0.00000000   0.00120981   0.00000000            0.00      177.97        0.00
   0.00000000   0.00000000   0.00120981            0.00        0.00      177.97

     Writing output data file /scratch/pdvacancy1.save/

     General routines

     Parallel routines

   This run was terminated on:   5:57: 8   4Jan2022

   JOB DONE.