     Program PWSCF v.6.7MaX starts on  4Jan2022 at  5:57:13

     R & G space division:  proc/nbgrp/npool/nimage =      72
     Reading input from pd_vacancy_2.in

     Current dimensions of program PWSCF are:
     Max number of different atomic species (ntypx) = 10
     Max number of k-points (npk) =  40000
     Max angular momentum in pseudopotentials (lmaxx) =  3
     file Pd.pbe-spn-kjpaw_psl.1.0.0.UPF: wavefunction(s)  4S 5S 4D renormalized

     Subspace diagonalization in iterative solution of the eigenvalue problem:
     one sub-group per band group will be used

     Message from routine setup:
     using ibrav=0 with symmetry is DISCOURAGED, use correct ibrav instead

     bravais-lattice index     =            0
     lattice parameter (alat)  =      14.4007  a.u.
     unit-cell volume          =    2986.4454 (a.u.)^3
     number of atoms/cell      =           31
     number of atomic types    =            1
     number of electrons       =       558.00
     number of Kohn-Sham states=          335
     kinetic-energy cutoff     =      71.0000  Ry
     charge density cutoff     =     430.0000  Ry
     scf convergence threshold =      1.0E-06
     mixing beta               =       0.1000
     number of iterations used =           10  TF        mixing
     energy convergence thresh.=      1.0E-04
     force convergence thresh. =      1.0E-03
     press convergence thresh. =      5.0E-01
     Exchange-correlation= SLA  PW   PBX  PBC
                           (   1   4   3   4   0   0   0)
     nstep                     =           40

     celldm(1)=  14.400742  celldm(2)=   0.000000  celldm(3)=   0.000000
     celldm(4)=   0.000000  celldm(5)=   0.000000  celldm(6)=   0.000000

     crystal axes: (cart. coord. in units of alat)
               a(1) = (   1.000000   0.000000   0.000000 )
               a(2) = (   0.000000   1.000000   0.000000 )
               a(3) = (   0.000000   0.000000   1.000000 )

     reciprocal axes: (cart. coord. in units 2 pi/alat)
               b(1) = (  1.000000  0.000000  0.000000 )
               b(2) = (  0.000000  1.000000  0.000000 )
               b(3) = (  0.000000  0.000000  1.000000 )

     PseudoPot. # 1 for Pd read from file:
     /rds/homes/b/bxp912/pp/Pd.pbe-spn-kjpaw_psl.1.0.0.UPF
     MD5 check sum: 790f2ebce206edfd9790dcb9844eca51
     Pseudo is Projector augmented-wave + core cor, Zval = 18.0
     Generated using &quot;atomic&quot; code by A. Dal Corso  v.6.3
     Shape of augmentation charge: PSQ
     Using radial grid of 1235 points,  6 beta functions with:
                l(1) =   0
                l(2) =   0
                l(3) =   1
                l(4) =   1
                l(5) =   2
                l(6) =   2
     Q(r) pseudized with 0 coefficients

     atomic species   valence    mass     pseudopotential
        Pd            18.00   106.42000     Pd( 1.00)

     48 Sym. Ops., with inversion, found

   Cartesian axes

     site n.     atom                  positions (alat units)
         1           Pd  tau(   1) = (   0.2500000   0.2500000   0.0000000  )
         2           Pd  tau(   2) = (   0.2500000   0.0000000   0.2500000  )
         3           Pd  tau(   3) = (   0.0000000   0.2500000   0.2500000  )
         4           Pd  tau(   4) = (   0.0000000   0.0000000   0.5000000  )
         5           Pd  tau(   5) = (   0.2500000   0.2500000   0.5000000  )
         6           Pd  tau(   6) = (   0.2500000   0.0000000   0.7500000  )
         7           Pd  tau(   7) = (   0.0000000   0.2500000   0.7500000  )
         8           Pd  tau(   8) = (   0.0000000   0.5000000   0.0000000  )
         9           Pd  tau(   9) = (   0.2500000   0.7500000   0.0000000  )
        10           Pd  tau(  10) = (   0.2500000   0.5000000   0.2500000  )
        11           Pd  tau(  11) = (   0.0000000   0.7500000   0.2500000  )
        12           Pd  tau(  12) = (   0.0000000   0.5000000   0.5000000  )
        13           Pd  tau(  13) = (   0.2500000   0.7500000   0.5000000  )
        14           Pd  tau(  14) = (   0.2500000   0.5000000   0.7500000  )
        15           Pd  tau(  15) = (   0.0000000   0.7500000   0.7500000  )
        16           Pd  tau(  16) = (   0.5000000   0.0000000   0.0000000  )
        17           Pd  tau(  17) = (   0.7500000   0.2500000   0.0000000  )
        18           Pd  tau(  18) = (   0.7500000   0.0000000   0.2500000  )
        19           Pd  tau(  19) = (   0.5000000   0.2500000   0.2500000  )
        20           Pd  tau(  20) = (   0.5000000   0.0000000   0.5000000  )
        21           Pd  tau(  21) = (   0.7500000   0.2500000   0.5000000  )
        22           Pd  tau(  22) = (   0.7500000   0.0000000   0.7500000  )
        23           Pd  tau(  23) = (   0.5000000   0.2500000   0.7500000  )
        24           Pd  tau(  24) = (   0.5000000   0.5000000   0.0000000  )
        25           Pd  tau(  25) = (   0.7500000   0.7500000   0.0000000  )
        26           Pd  tau(  26) = (   0.7500000   0.5000000   0.2500000  )
        27           Pd  tau(  27) = (   0.5000000   0.7500000   0.2500000  )
        28           Pd  tau(  28) = (   0.5000000   0.5000000   0.5000000  )
        29           Pd  tau(  29) = (   0.7500000   0.7500000   0.5000000  )
        30           Pd  tau(  30) = (   0.7500000   0.5000000   0.7500000  )
        31           Pd  tau(  31) = (   0.5000000   0.7500000   0.7500000  )

     number of k points=    35  Marzari-Vanderbilt smearing, width (Ry)=  0.0400
                       cart. coord. in units 2pi/alat
        k(    1) = (   0.0555556   0.0555556   0.0555556), wk =   0.0219479
        k(    2) = (   0.0555556   0.0555556   0.1666667), wk =   0.0658436
        k(    3) = (   0.0555556   0.0555556   0.2777778), wk =   0.0658436
        k(    4) = (   0.0555556   0.0555556   0.3888889), wk =   0.0658436
        k(    5) = (   0.0555556   0.0555556  -0.5000000), wk =   0.0329218
        k(    6) = (   0.0555556   0.1666667   0.1666667), wk =   0.0658436
        k(    7) = (   0.0555556   0.1666667   0.2777778), wk =   0.1316872
        k(    8) = (   0.0555556   0.1666667   0.3888889), wk =   0.1316872
        k(    9) = (   0.0555556   0.1666667  -0.5000000), wk =   0.0658436
        k(   10) = (   0.0555556   0.2777778   0.2777778), wk =   0.0658436
        k(   11) = (   0.0555556   0.2777778   0.3888889), wk =   0.1316872
        k(   12) = (   0.0555556   0.2777778  -0.5000000), wk =   0.0658436
        k(   13) = (   0.0555556   0.3888889   0.3888889), wk =   0.0658436
        k(   14) = (   0.0555556   0.3888889  -0.5000000), wk =   0.0658436
        k(   15) = (   0.0555556  -0.5000000  -0.5000000), wk =   0.0164609
        k(   16) = (   0.1666667   0.1666667   0.1666667), wk =   0.0219479
        k(   17) = (   0.1666667   0.1666667   0.2777778), wk =   0.0658436
        k(   18) = (   0.1666667   0.1666667   0.3888889), wk =   0.0658436
        k(   19) = (   0.1666667   0.1666667  -0.5000000), wk =   0.0329218
        k(   20) = (   0.1666667   0.2777778   0.2777778), wk =   0.0658436
        k(   21) = (   0.1666667   0.2777778   0.3888889), wk =   0.1316872
        k(   22) = (   0.1666667   0.2777778  -0.5000000), wk =   0.0658436
        k(   23) = (   0.1666667   0.3888889   0.3888889), wk =   0.0658436
        k(   24) = (   0.1666667   0.3888889  -0.5000000), wk =   0.0658436
        k(   25) = (   0.1666667  -0.5000000  -0.5000000), wk =   0.0164609
        k(   26) = (   0.2777778   0.2777778   0.2777778), wk =   0.0219479
        k(   27) = (   0.2777778   0.2777778   0.3888889), wk =   0.0658436
        k(   28) = (   0.2777778   0.2777778  -0.5000000), wk =   0.0329218
        k(   29) = (   0.2777778   0.3888889   0.3888889), wk =   0.0658436
        k(   30) = (   0.2777778   0.3888889  -0.5000000), wk =   0.0658436
        k(   31) = (   0.2777778  -0.5000000  -0.5000000), wk =   0.0164609
        k(   32) = (   0.3888889   0.3888889   0.3888889), wk =   0.0219479
        k(   33) = (   0.3888889   0.3888889  -0.5000000), wk =   0.0329218
        k(   34) = (   0.3888889  -0.5000000  -0.5000000), wk =   0.0164609
        k(   35) = (  -0.5000000  -0.5000000  -0.5000000), wk =   0.0027435

     Check: negative core charge=   -0.000001

     Initial potential from superposition of free atoms

     starting charge  557.98814, renormalised to  558.00000
     Starting wfcs are  310 randomized atomic wfcs +   25 random wfcs
     Checking if some PAW data can be deallocated...

     Self-consistent Calculation

     iteration #  1     ecut=    71.00 Ry     beta= 0.10
     Davidson diagonalization with overlap
     ethr =  1.00E-02,  avg # of iterations =  3.0

     Threshold (ethr) on eigenvalues was too large:
     Diagonalizing with lowered threshold

     Davidson diagonalization with overlap
     ethr =  8.85E-05,  avg # of iterations =  5.2

     total energy              =  -15872.75491547 Ry
     estimated scf accuracy    <       0.47013927 Ry

[...]

     iteration #  4     ecut=    71.00 Ry     beta= 0.10
     Davidson diagonalization with overlap
     c_bands:  1 eigenvalues not converged
     ethr =  1.09E-05,  avg # of iterations =  8.4

[...]

     End of self-consistent calculation

          k = 0.0556 0.0556 0.0556 ( 30224 PWs)   bands (ev):

   -63.5472 -63.5214 -63.5214 -63.5213 -63.4976 -63.4966 -63.4966 -63.4960
   -63.4824 -63.4824 -63.4824 -63.4787 -63.4787 -63.4719 -63.4717 -63.4717
   -63.4529 -63.4529 -63.4503 -63.4152 -63.4122 -63.4122 -63.4115 -63.4018
   -63.4018 -63.4018 -63.3881 -63.3881 -63.3881 -63.3860 -63.3860 -29.4954
   -29.4954 -29.4939 -29.4862 -29.4456 -29.4456 -29.4452 -29.3679 -29.3679
   -29.3661 -29.3581 -29.3578 -29.3578 -29.3499 -29.3482 -29.3482 -29.3379
   -29.3379 -29.3314 -29.3266 -29.3223 -29.3223 -29.3094 -29.3094 -29.3013
   -29.2973 -29.2924 -29.2924 -29.2655 -29.2655 -29.2590 -29.2440 -29.2440
   -29.2406 -29.2138 -29.2138 -29.1996 -29.1996 -29.1914 -29.1889 -29.1889
   -29.1856 -29.1850 -29.1755 -29.1755 -29.1754 -29.1687 -29.1687 -29.1672
   -29.1516 -29.1516 -29.1501 -29.1497 -29.1497 -29.1481 -29.1397 -29.1397
   -29.1350 -29.0929 -29.0929 -29.0902 -29.0784 -29.0780 -29.0780 -29.0735
   -29.0712 -29.0712 -29.0648 -29.0637 -29.0637 -29.0608 -29.0608 -29.0607
   -29.0593 -29.0593 -29.0582 -29.0375 -29.0375 -29.0355 -29.0292 -29.0286
   -29.0286 -29.0126 -29.0122 -29.0122 -28.9796 -28.9796 -28.9699 -28.9699
   -28.9696 -28.9662 -28.9630 -28.9630  13.3473  14.9073  15.0002  15.0002
    15.0805  15.0902  15.0902  15.1150  15.3293  15.3312  15.3312  15.4286
    15.4286  15.4964  15.6045  15.6045  15.8332  16.0328  16.0770  16.0770
    16.0779  16.2572  16.2572  16.2840  16.3063  16.3063  16.4442  16.4442
    16.4839  16.5063  16.5063  16.5471  16.5498  16.5606  16.5606  16.6043
    16.6043  16.6713  16.6713  16.6730  16.8998  16.9144  16.9176  16.9176
    16.9532  16.9532  17.0309  17.0309  17.0438  17.0660  17.0660  17.0876
    17.1373  17.1525  17.1563  17.1563  17.2384  17.2384  17.2967  17.3104
    17.3667  17.3667  17.4132  17.4132  17.4284  17.4527  17.4728  17.4728
    17.5580  17.5580  17.5652  17.5960  17.5960  17.6563  17.6563  17.6601
[...]
Pd            0.7540379471        0.0000000000        0.2459620529
Pd            0.5000000000        0.2489449917        0.2489449917
Pd            0.5000000000        0.0000000000        0.5000000000
Pd            0.7510550083        0.2489449917        0.5000000000
Pd            0.7540379471       -0.0000000000        0.7540379471
Pd            0.5000000000        0.2489449917        0.7510550083
Pd            0.5000000000        0.5000000000        0.0000000000
Pd            0.7540379471        0.7540379471        0.0000000000
Pd            0.7510550083        0.5000000000        0.2489449917
Pd            0.5000000000        0.7510550083        0.2489449917
Pd            0.5000000000        0.5000000000        0.5000000000
Pd            0.7510550083        0.7510550083        0.5000000000
Pd            0.7510550083        0.5000000000        0.7510550083
Pd            0.5000000000        0.7510550083        0.7510550083
End final coordinates

     Writing output data file /scratch/pdvacancy2.save/

     Final scf calculation at the relaxed structure.
     The G-vectors are recalculated for the final unit cell
     Results may differ from those at the preceding step.

     bravais-lattice index     =            0
     lattice parameter (alat)  =      14.4007  a.u.
     unit-cell volume          =    3225.8447 (a.u.)^3
     number of atoms/cell      =           31
     number of atomic types    =            1
     number of electrons       =       558.00
     number of Kohn-Sham states=          335
     kinetic-energy cutoff     =      71.0000  Ry
     charge density cutoff     =     430.0000  Ry
     scf convergence threshold =      1.0E-08
     mixing beta               =       0.1000
     number of iterations used =           10  TF        mixing
     press convergence thresh. =      5.0E-01
     Exchange-correlation= SLA  PW   PBX  PBC
                           (   1   4   3   4   0   0   0)

     celldm(1)=  14.400742  celldm(2)=   0.000000  celldm(3)=   0.000000
     celldm(4)=   0.000000  celldm(5)=   0.000000  celldm(6)=   0.000000

     crystal axes: (cart. coord. in units of alat)
               a(1) = (   1.026037   0.000000   0.000000 )
               a(2) = (   0.000000   1.026037   0.000000 )
               a(3) = (   0.000000   0.000000   1.026037 )

     reciprocal axes: (cart. coord. in units 2 pi/alat)
               b(1) = (  0.974624  0.000000  0.000000 )
               b(2) = (  0.000000  0.974624  0.000000 )
               b(3) = (  0.000000  0.000000  0.974624 )

     PseudoPot. # 1 for Pd read from file:
     /rds/homes/b/bxp912/pp/Pd.pbe-spn-kjpaw_psl.1.0.0.UPF
     MD5 check sum: 790f2ebce206edfd9790dcb9844eca51
     Pseudo is Projector augmented-wave + core cor, Zval = 18.0
     Generated using &quot;atomic&quot; code by A. Dal Corso  v.6.3
     Shape of augmentation charge: PSQ
     Using radial grid of 1235 points,  6 beta functions with:
                l(1) =   0
                l(2) =   0
                l(3) =   1
                l(4) =   1
                l(5) =   2
                l(6) =   2
     Q(r) pseudized with 0 coefficients

     atomic species   valence    mass     pseudopotential
        Pd            18.00   106.42000     Pd( 1.00)

     48 Sym. Ops., with inversion, found

   Cartesian axes

     site n.     atom                  positions (alat units)
         1           Pd  tau(   1) = (   0.2523661   0.2523661   0.0000000  )
         2           Pd  tau(   2) = (   0.2523661   0.0000000   0.2523661  )
         3           Pd  tau(   3) = (   0.0000000   0.2523661   0.2523661  )
         4           Pd  tau(   4) = (   0.0000000   0.0000000   0.5130184  )
         5           Pd  tau(   5) = (   0.2554267   0.2554267   0.5130184  )
         6           Pd  tau(   6) = (   0.2523661   0.0000000   0.7736707  )
         7           Pd  tau(   7) = (   0.0000000   0.2523661   0.7736707  )
         8           Pd  tau(   8) = (   0.0000000   0.5130184   0.0000000  )
         9           Pd  tau(   9) = (   0.2523661   0.7736707  -0.0000000  )
        10           Pd  tau(  10) = (   0.2554267   0.5130184   0.2554267  )
        11           Pd  tau(  11) = (  -0.0000000   0.7736707   0.2523661  )
        12           Pd  tau(  12) = (   0.0000000   0.5130184   0.5130184  )
        13           Pd  tau(  13) = (   0.2554267   0.7706101   0.5130184  )
        14           Pd  tau(  14) = (   0.2554267   0.5130184   0.7706101  )
        15           Pd  tau(  15) = (   0.0000000   0.7736707   0.7736707  )
        16           Pd  tau(  16) = (   0.5130184   0.0000000   0.0000000  )
        17           Pd  tau(  17) = (   0.7736707   0.2523661  -0.0000000  )
        18           Pd  tau(  18) = (   0.7736707   0.0000000   0.2523661  )
        19           Pd  tau(  19) = (   0.5130184   0.2554267   0.2554267  )
        20           Pd  tau(  20) = (   0.5130184   0.0000000   0.5130184  )
        21           Pd  tau(  21) = (   0.7706101   0.2554267   0.5130184  )
        22           Pd  tau(  22) = (   0.7736707  -0.0000000   0.7736707  )
        23           Pd  tau(  23) = (   0.5130184   0.2554267   0.7706101  )
        24           Pd  tau(  24) = (   0.5130184   0.5130184   0.0000000  )
        25           Pd  tau(  25) = (   0.7736707   0.7736707   0.0000000  )
        26           Pd  tau(  26) = (   0.7706101   0.5130184   0.2554267  )
        27           Pd  tau(  27) = (   0.5130184   0.7706101   0.2554267  )
        28           Pd  tau(  28) = (   0.5130184   0.5130184   0.5130184  )
        29           Pd  tau(  29) = (   0.7706101   0.7706101   0.5130184  )
        30           Pd  tau(  30) = (   0.7706101   0.5130184   0.7706101  )
        31           Pd  tau(  31) = (   0.5130184   0.7706101   0.7706101  )

     number of k points=    35  Marzari-Vanderbilt smearing, width (Ry)=  0.0400
                       cart. coord. in units 2pi/alat
        k(    1) = (   0.0541458   0.0541458   0.0541458), wk =   0.0219479
        k(    2) = (   0.0541458   0.0541458   0.1624373), wk =   0.0658436
        k(    3) = (   0.0541458   0.0541458   0.2707288), wk =   0.0658436
        k(    4) = (   0.0541458   0.0541458   0.3790204), wk =   0.0658436
        k(    5) = (   0.0541458   0.0541458  -0.4873119), wk =   0.0329218
        k(    6) = (   0.0541458   0.1624373   0.1624373), wk =   0.0658436
        k(    7) = (   0.0541458   0.1624373   0.2707288), wk =   0.1316872
        k(    8) = (   0.0541458   0.1624373   0.3790204), wk =   0.1316872
        k(    9) = (   0.0541458   0.1624373  -0.4873119), wk =   0.0658436
        k(   10) = (   0.0541458   0.2707288   0.2707288), wk =   0.0658436
        k(   11) = (   0.0541458   0.2707288   0.3790204), wk =   0.1316872
        k(   12) = (   0.0541458   0.2707288  -0.4873119), wk =   0.0658436
        k(   13) = (   0.0541458   0.3790204   0.3790204), wk =   0.0658436
        k(   14) = (   0.0541458   0.3790204  -0.4873119), wk =   0.0658436
        k(   15) = (   0.0541458  -0.4873119  -0.4873119), wk =   0.0164609
        k(   16) = (   0.1624373   0.1624373   0.1624373), wk =   0.0219479
        k(   17) = (   0.1624373   0.1624373   0.2707288), wk =   0.0658436
        k(   18) = (   0.1624373   0.1624373   0.3790204), wk =   0.0658436
        k(   19) = (   0.1624373   0.1624373  -0.4873119), wk =   0.0329218
        k(   20) = (   0.1624373   0.2707288   0.2707288), wk =   0.0658436
        k(   21) = (   0.1624373   0.2707288   0.3790204), wk =   0.1316872
        k(   22) = (   0.1624373   0.2707288  -0.4873119), wk =   0.0658436
        k(   23) = (   0.1624373   0.3790204   0.3790204), wk =   0.0658436
        k(   24) = (   0.1624373   0.3790204  -0.4873119), wk =   0.0658436
        k(   25) = (   0.1624373  -0.4873119  -0.4873119), wk =   0.0164609
        k(   26) = (   0.2707288   0.2707288   0.2707288), wk =   0.0219479
        k(   27) = (   0.2707288   0.2707288   0.3790204), wk =   0.0658436
        k(   28) = (   0.2707288   0.2707288  -0.4873119), wk =   0.0329218
        k(   29) = (   0.2707288   0.3790204   0.3790204), wk =   0.0658436
        k(   30) = (   0.2707288   0.3790204  -0.4873119), wk =   0.0658436
        k(   31) = (   0.2707288  -0.4873119  -0.4873119), wk =   0.0164609
        k(   32) = (   0.3790204   0.3790204   0.3790204), wk =   0.0219479
        k(   33) = (   0.3790204   0.3790204  -0.4873119), wk =   0.0329218
        k(   34) = (   0.3790204  -0.4873119  -0.4873119), wk =   0.0164609
        k(   35) = (  -0.4873119  -0.4873119  -0.4873119), wk =   0.0027435

     Check: negative core charge=   -0.000002

     Initial potential from superposition of free atoms

     starting charge  557.98814, renormalised to  558.00000
     Starting wfcs are  310 randomized atomic wfcs +   25 random wfcs
     Checking if some PAW data can be deallocated...

     Self-consistent Calculation

     iteration #  1     ecut=    71.00 Ry     beta= 0.10
     Davidson diagonalization with overlap
     c_bands:  2 eigenvalues not converged
     c_bands:  1 eigenvalues not converged
     c_bands:  1 eigenvalues not converged
     c_bands:  1 eigenvalues not converged
     c_bands:  2 eigenvalues not converged
     c_bands:  1 eigenvalues not converged
     c_bands:  1 eigenvalues not converged
     c_bands:  1 eigenvalues not converged
     ethr =  1.00E-06,  avg # of iterations = 15.4

[...]

     total energy              =  -15872.83719577 Ry
     estimated scf accuracy    <       0.00000001 Ry

     iteration # 20     ecut=    71.00 Ry     beta= 0.10
     Davidson diagonalization with overlap
     ethr =  2.38E-12,  avg # of iterations =  2.0

     End of self-consistent calculation

[...]

          k = 0.3790-0.4873-0.4873 ( 32548 PWs)   bands (ev):

[...]

          k =-0.4873-0.4873-0.4873 ( 32344 PWs)   bands (ev):

   -65.3666 -65.3666 -65.3666 -65.3137 -65.2960 -65.2960 -65.2960 -65.2929
   -65.2883 -65.2883 -65.2883 -65.2839 -65.2694 -65.2694 -65.2694 -65.2694
   -65.2694 -65.2685 -65.2685 -65.2685 -65.2655 -65.2655 -65.2655 -65.2611
   -65.2611 -65.2610 -65.2610 -65.2610 -65.2464 -65.2464 -65.2464 -31.2103
   -31.2103 -31.2041 -31.2041 -31.2041 -31.1880 -31.1788 -31.1788 -31.1788
   -31.1686 -31.1686 -31.1686 -31.1644 -31.1644 -31.1644 -31.1467 -31.1467
   -31.1341 -31.1272 -31.1272 -31.1272 -31.0823 -31.0663 -31.0663 -31.0663
   -31.0574 -31.0574 -31.0574 -31.0391 -31.0334 -31.0334 -31.0334 -31.0172
   -31.0172 -31.0172 -31.0062 -31.0062 -31.0062 -31.0019 -31.0019 -31.0019
   -30.9956 -30.9956 -30.9956 -30.9951 -30.9951 -30.9759 -30.9754 -30.9754
   -30.9754 -30.9713 -30.9713 -30.9694 -30.9670 -30.9670 -30.9670 -30.9458
   -30.9447 -30.9447 -30.9447 -30.9444 -30.9444 -30.9424 -30.9424 -30.9424
   -30.9345 -30.9345 -30.9345 -30.9282 -30.9282 -30.9282 -30.9266 -30.9266
   -30.9266 -30.8866 -30.8866 -30.8866 -30.8818 -30.8818 -30.8818 -30.8595
   -30.8595 -30.8589 -30.8589 -30.8589 -30.8567 -30.8567 -30.8567 -30.8450
   -30.8450 -30.8344 -30.8344 -30.8344  13.4303  13.4483  13.4483  13.4483
    13.5031  13.5031  13.5031  13.8282  14.2261  14.2261  14.2261  14.2466
    14.2466  14.2466  14.2544  14.2544  14.2809  14.2873  14.2873  14.2873
    14.3072  14.3072  14.3072  14.3356  14.3356  14.3356  14.4903  14.4903
    14.6537  14.6537  14.6537  14.8236  14.9363  15.0070  15.0070  15.0070
    15.0302  15.0302  15.0544  15.0544  15.0544  15.0618  15.0618  15.0618
    15.1152  15.1282  15.1282  15.1282  15.1455  15.1455  15.1455  15.2548
    15.2548  15.2548  15.6344  15.6344  15.9470  16.0306  16.0306  16.0306
    16.0651  16.0691  16.0691  16.0691  16.2441  16.2441  16.2843  16.2843
    16.2843  16.2877  16.2877  16.2877  16.3128  16.3128  16.3128  16.3966
    16.3966  16.3966  16.4428  16.4428  16.4557  16.4557  16.4557  16.4770
    16.4770  16.4770  16.4786  16.5092  16.5092  16.5092  16.5297  16.5297
    16.5297  16.5960  16.5960  16.6999  16.6999  16.7130  16.7130  16.7130
    16.9191  17.0667  17.0667  17.0667  17.1763  17.1763  17.1763  17.1955
    17.1955  17.1955  17.1992  17.1992  17.2104  17.2104  17.2104  17.2436
    17.2436  17.2436  17.2690  17.3122  17.3438  17.3438  17.3438  17.5508
    17.5508  17.6175  17.6175  17.6175  17.6926  17.6926  17.7036  17.7036
    17.7036  17.7379  17.7379  17.7379  17.8527  17.8527  17.8527  18.4145
    18.4145  18.4145  18.5713  18.5713  18.8177  18.8177  18.8177  18.8390
    18.8390  18.8390  18.8539  18.8539  18.8560  18.8560  18.8560  18.8675
    18.8681  18.8681  18.8681  18.8688  18.8846  18.8846  18.8846  22.1632
    22.1632  22.1632  22.1970  22.1970  22.4500  22.4500  22.4500  22.4521
    22.4521  22.4521  22.4666  22.4666  22.4666  22.4710  22.4710  22.4874
    22.5287  22.5287  22.5287  22.7695  23.0358  23.0358  23.0358  27.7117
    27.7117  27.7117  27.8525  27.8615  27.8615  27.9318  27.9318  27.9475
    27.9475  27.9475  27.9564  27.9564  27.9564  27.9631  27.9631  27.9631
    28.2412  28.2412  28.2412  28.2966  28.2966  28.2966  28.4482

     the Fermi energy is    18.8311 ev

!    total energy              =  -15872.83719747 Ry

     total all-electron energy =   -312853.664226 Ry
     estimated scf accuracy    <          6.6E-09 Ry
     smearing contrib. (-TS)   =       0.04244411 Ry
     internal energy E=F+TS    =  -15872.87964158 Ry

     The total energy is F=E-TS. E is the sum of the following terms:
     one-electron contribution =   -2574.86933561 Ry
     hartree contribution      =    1682.86258279 Ry
     xc contribution           =    -955.63567576 Ry
     ewald contribution        =   -6113.04402638 Ry
     one-center paw contrib.   =   -7912.19318663 Ry

     convergence has been achieved in  20 iterations

     Forces acting on atoms (cartesian axes, Ry/au):

     atom    1 type  1   force =     0.00020266    0.00020266    0.00000000
     atom    2 type  1   force =     0.00020266   -0.00000000    0.00020266
     atom    3 type  1   force =     0.00000000    0.00020266    0.00020266
     atom    4 type  1   force =     0.00000000    0.00000000    0.00000000
     atom    5 type  1   force =    -0.00027349   -0.00027349    0.00000000
     atom    6 type  1   force =     0.00020266    0.00000000   -0.00020266
     atom    7 type  1   force =    -0.00000000    0.00020266   -0.00020266
     atom    8 type  1   force =     0.00000000    0.00000000    0.00000000
     atom    9 type  1   force =     0.00020266   -0.00020266   -0.00000000
     atom   10 type  1   force =    -0.00027349    0.00000000   -0.00027349
     atom   11 type  1   force =    -0.00000000   -0.00020266    0.00020266
     atom   12 type  1   force =     0.00000000    0.00000000    0.00000000
     atom   13 type  1   force =    -0.00027349    0.00027349    0.00000000
     atom   14 type  1   force =    -0.00027349    0.00000000    0.00027349
     atom   15 type  1   force =     0.00000000   -0.00020266   -0.00020266
     atom   16 type  1   force =     0.00000000    0.00000000    0.00000000
     atom   17 type  1   force =    -0.00020266    0.00020266   -0.00000000
     atom   18 type  1   force =    -0.00020266    0.00000000    0.00020266
     atom   19 type  1   force =     0.00000000   -0.00027349   -0.00027349
     atom   20 type  1   force =     0.00000000    0.00000000    0.00000000
     atom   21 type  1   force =     0.00027349   -0.00027349    0.00000000
     atom   22 type  1   force =    -0.00020266   -0.00000000   -0.00020266
     atom   23 type  1   force =     0.00000000   -0.00027349    0.00027349
     atom   24 type  1   force =     0.00000000    0.00000000    0.00000000
     atom   25 type  1   force =    -0.00020266   -0.00020266    0.00000000
     atom   26 type  1   force =     0.00027349    0.00000000   -0.00027349
     atom   27 type  1   force =     0.00000000    0.00027349   -0.00027349
     atom   28 type  1   force =     0.00000000    0.00000000    0.00000000
     atom   29 type  1   force =     0.00027349    0.00027349    0.00000000
     atom   30 type  1   force =     0.00027349    0.00000000    0.00027349
     atom   31 type  1   force =     0.00000000    0.00027349    0.00027349

     Total force =     0.001668     Total SCF correction =     0.000339
     SCF correction compared to forces is large: reduce conv_thr to get better values

     Computing stress (Cartesian axis) and pressure

          total   stress  (Ry/bohr**3)                   (kbar)     P=        3.16
   0.00002146   0.00000000   0.00000000            3.16        0.00        0.00
   0.00000000   0.00002146   0.00000000            0.00        3.16        0.00
   0.00000000   0.00000000   0.00002146            0.00        0.00        3.16

     Writing output data file /scratch/pdvacancy2.save/

     General routines

     Parallel routines

   This run was terminated on:   7:23:37   4Jan2022

   JOB DONE.