     Program PWSCF v.6.7MaX starts on 29May2022 at 13:48:47

     R & G space division:  proc/nbgrp/npool/nimage =      72
     Reading input from feruslabA.in
Warning: card &CELL ignored
Warning: card CELL_DYNAMICS = 'BFGS', ignored
Warning: card CELL_FACTOR = 2.0, ignored
Warning: card PRESS = 0.0, ignored
Warning: card / ignored

     Current dimensions of program PWSCF are:
     Max number of different atomic species (ntypx) = 10
     Max number of k-points (npk) =  40000
     Max angular momentum in pseudopotentials (lmaxx) =  3
     file Fe.pbe-spn-kjpaw_psl.1.0.0.UPF: wavefunction(s)  3P 3D renormalized
     file Fe.pbe-spn-kjpaw_psl.1.0.0.UPF: wavefunction(s)  3P 3D renormalized
     file Ru.pbe-spn-kjpaw_psl.1.0.0.UPF: wavefunction(s)  4D renormalized

     gamma-point specific algorithms are used

     Subspace diagonalization in iterative solution of the eigenvalue problem:
     one sub-group per band group will be used

     bravais-lattice index     =            0
     lattice parameter (alat)  =      25.8600  a.u.
     unit-cell volume          =   18186.5006 (a.u.)^3
     number of atoms/cell      =          128
     number of atomic types    =            3
     number of electrons       =      2048.00
     number of Kohn-Sham states=         1229
     kinetic-energy cutoff     =      71.0000  Ry
     charge density cutoff     =     430.0000  Ry
     scf convergence threshold =      1.0E-08
     mixing beta               =       0.3000
     number of iterations used =           10  local-TF  mixing
     Exchange-correlation= SLA  PW   PBX  PBC
                           (   1   4   3   4   0   0   0)

     celldm(1)=  25.860000  celldm(2)=   0.000000  celldm(3)=   0.000000
     celldm(4)=   0.000000  celldm(5)=   0.000000  celldm(6)=   0.000000

     crystal axes: (cart. coord. in units of alat)
               a(1) = (   1.000000   0.000000   0.000000 )
               a(2) = (   0.000000   1.051631   0.000000 )
               a(3) = (   0.000000   0.000000   1.000000 )

     reciprocal axes: (cart. coord. in units 2 pi/alat)
               b(1) = (  1.000000  0.000000  0.000000 )
               b(2) = (  0.000000  0.950903  0.000000 )
               b(3) = (  0.000000  0.000000  1.000000 )

     PseudoPot. # 1 for Fe read from file:
     /rds/homes/b/bxp912/pp/Fe.pbe-spn-kjpaw_psl.1.0.0.UPF
     MD5 check sum: 42f43b795421b414b0dc916aa790dbcb
     Pseudo is Projector augmented-wave + core cor, Zval = 16.0
     Generated using &quot;atomic&quot; code by A. Dal Corso  v.6.3
     Shape of augmentation charge: PSQ
     Using radial grid of 1191 points,  6 beta functions with:
                l(1) =   0
                l(2) =   0
                l(3) =   1
                l(4) =   1
                l(5) =   2
                l(6) =   2
     Q(r) pseudized with 0 coefficients

     PseudoPot. # 2 for Fe read from file:
     /rds/homes/b/bxp912/pp/Fe.pbe-spn-kjpaw_psl.1.0.0.UPF
     MD5 check sum: 42f43b795421b414b0dc916aa790dbcb
     Pseudo is Projector augmented-wave + core cor, Zval = 16.0
     Generated using &quot;atomic&quot; code by A. Dal Corso  v.6.3
     Shape of augmentation charge: PSQ
     Using radial grid of 1191 points,  6 beta functions with:
                l(1) =   0
                l(2) =   0
                l(3) =   1
                l(4) =   1
                l(5) =   2
                l(6) =   2
     Q(r) pseudized with 0 coefficients

     PseudoPot. # 3 for Ru read from file:
     /rds/homes/b/bxp912/pp/Ru.pbe-spn-kjpaw_psl.1.0.0.UPF
     MD5 check sum: 0ae1f594dea09af7be8575c3a481d1ae
     Pseudo is Projector augmented-wave + core cor, Zval = 16.0
     Generated using "atomic" code by A. Dal Corso  v.5.1
     Shape of augmentation charge: PSQ
     Using radial grid of 1233 points,  6 beta functions with:
                l(1) =   0
                l(2) =   0
                l(3) =   1
                l(4) =   1
                l(5) =   2
                l(6) =   2
     Q(r) pseudized with 0 coefficients

     atomic species   valence    mass     pseudopotential
        Fe1           16.00    55.84500     Fe( 1.00)
        Fe2           16.00    55.84500     Fe( 1.00)
        Ru            16.00   101.07000     Ru( 1.00)

     Starting magnetic structure
     atomic species   magnetization
        Fe1          0.100
        Fe2         -0.100
        Ru           0.001

     No symmetry found

   Cartesian axes

     site n.     atom                  positions (alat units)
         1           Fe1 tau(   1) = (   0.0624969   0.0661319   0.3164225  )
         2           Fe2 tau(   2) = (   0.1869237   0.1974229   0.3130776  )
         3           Fe1 tau(   3) = (   0.1894797   0.0665422   0.4348823  )
         4           Fe2 tau(   4) = (   0.0625134   0.1968947   0.4358772  )
         5           Fe1 tau(   5) = (   0.0624335   0.0655576   0.5662940  )
         6           Fe2 tau(   6) = (   0.1878217   0.1968289   0.5642123  )
         7           Fe1 tau(   7) = (   0.1938646   0.0682321   0.6887592  )
         8           Fe2 tau(   8) = (   0.0624692   0.1929224   0.6835365  )
         9           Fe1 tau(   9) = (   0.0625249   0.3286747   0.3166289  )
        10           Fe2 tau(  10) = (   0.1869608   0.4599777   0.3130659  )
        11           Fe1 tau(  11) = (   0.1875652   0.3286624   0.4360324  )
        12           Fe2 tau(  12) = (   0.0624903   0.4604699   0.4358751  )
        13           Fe1 tau(  13) = (   0.0624956   0.3286044   0.5657096  )
        14           Fe2 tau(  14) = (   0.1878185   0.4605001   0.5642303  )
        15           Fe1 tau(  15) = (   0.1862075   0.3285793   0.6872624  )
        16           Fe2 tau(  16) = (   0.0624707   0.4642573   0.6836264  )
        17           Fe1 tau(  17) = (   0.0624808   0.5911143   0.3163949  )
        18           Fe2 tau(  18) = (   0.1874772   0.7221831   0.3127873  )
        19           Fe1 tau(  19) = (   0.1895002   0.5907292   0.4348365  )
        20           Fe2 tau(  20) = (   0.0624407   0.7201086   0.4332314  )
        21           Fe1 tau(  21) = (   0.0624345   0.5915586   0.5662601  )
        22           Fe2 tau(  22) = (   0.1897921   0.7189299   0.5651579  )
        23           Fe1 tau(  23) = (   0.1937961   0.5891127   0.6887728  )
        24           Fe2 tau(  24) = (   0.0624104   0.7130697   0.6907427  )
        25           Fe1 tau(  25) = (   0.0624129   0.8544182   0.3159221  )
        26           Fe2 tau(  26) = (   0.1875193   0.9867801   0.3127985  )
        27           Fe1 tau(  27) = (   0.1903254   0.8543936   0.4315791  )
        28           Fe2 tau(  28) = (   0.0624439   0.9886517   0.4332169  )
        29           Ru  tau(  29) = (   0.0624871   0.8544220   0.5705122  )
        30           Fe2 tau(  30) = (   0.1898007   0.9898523   0.5651521  )
        31           Fe1 tau(  31) = (   0.1998953   0.8543052   0.6955483  )
        32           Fe2 tau(  32) = (   0.0624178   0.9957619   0.6907576  )
        33           Fe1 tau(  33) = (   0.3134985   0.0663472   0.3145578  )
        34           Fe2 tau(  34) = (   0.4381314   0.1979486   0.3127148  )
        35           Fe1 tau(  35) = (   0.4381270   0.0661549   0.4351677  )
        36           Fe2 tau(  36) = (   0.3128578   0.1976699   0.4340081  )
        37           Fe1 tau(  37) = (   0.3141486   0.0665893   0.5642993  )
        38           Fe2 tau(  38) = (   0.4382527   0.1979178   0.5634274  )
        39           Fe1 tau(  39) = (   0.4381837   0.0663132   0.6870850  )
        40           Fe2 tau(  40) = (   0.3140866   0.1987057   0.6835268  )
        41           Fe1 tau(  41) = (   0.3122480   0.3286625   0.3155511  )
        42           Fe2 tau(  42) = (   0.4381067   0.4594567   0.3127185  )
        43           Fe1 tau(  43) = (   0.4374543   0.3286534   0.4355984  )
        44           Fe2 tau(  44) = (   0.3128743   0.4597280   0.4340447  )
        45           Fe1 tau(  45) = (   0.3120871   0.3286228   0.5650213  )
        46           Fe2 tau(  46) = (   0.4382270   0.4594035   0.5634612  )
        47           Fe1 tau(  47) = (   0.4375159   0.3286156   0.6865699  )
        48           Fe2 tau(  48) = (   0.3140400   0.4585826   0.6835848  )
        49           Fe1 tau(  49) = (   0.3135215   0.5910151   0.3144987  )
        50           Fe2 tau(  50) = (   0.4388297   0.7229706   0.3129125  )
        51           Fe1 tau(  51) = (   0.4381373   0.5911424   0.4351347  )
        52           Fe2 tau(  52) = (   0.3128686   0.7225087   0.4337943  )
        53           Fe1 tau(  53) = (   0.3141728   0.5906588   0.5643308  )
        54           Fe2 tau(  54) = (   0.4381575   0.7232299   0.5638341  )
        55           Fe1 tau(  55) = (   0.4382642   0.5908155   0.6871160  )
        56           Fe2 tau(  56) = (   0.3144294   0.7199947   0.6841395  )
        57           Fe1 tau(  57) = (   0.3136811   0.8544604   0.3149203  )
        58           Fe2 tau(  58) = (   0.4388186   0.9861544   0.3129265  )
        59           Fe1 tau(  59) = (   0.4373828   0.8544568   0.4355654  )
        60           Fe2 tau(  60) = (   0.3128559   0.9864419   0.4338014  )
[...]
       114           Fe2 tau( 114) = (   0.9375435   0.7221354   0.3127565  )
       115           Fe1 tau( 115) = (   0.9353975   0.5907111   0.4347984  )
       116           Fe2 tau( 116) = (   0.8120375   0.7225176   0.4337022  )
       117           Fe1 tau( 117) = (   0.8108805   0.5906394   0.5642947  )
       118           Fe2 tau( 118) = (   0.9351067   0.7189729   0.5650863  )
       119           Fe1 tau( 119) = (   0.9311873   0.5890739   0.6887757  )
       120           Fe2 tau( 120) = (   0.8106211   0.7200417   0.6841525  )
       121           Fe1 tau( 121) = (   0.8113573   0.8544331   0.3148011  )
       122           Fe2 tau( 122) = (   0.9375632   0.9868209   0.3127664  )
       123           Fe1 tau( 123) = (   0.9345094   0.8544084   0.4315909  )
       124           Fe2 tau( 124) = (   0.8120595   0.9864507   0.4336968  )
       125           Fe1 tau( 125) = (   0.8135241   0.8543985   0.5630824  )
       126           Fe2 tau( 126) = (   0.9351183   0.9898420   0.5650991  )
       127           Fe1 tau( 127) = (   0.9251503   0.8543279   0.6955549  )
       128           Fe2 tau( 128) = (   0.8106743   0.9886827   0.6841793  )

     number of k points=     1  Marzari-Vanderbilt smearing, width (Ry)=  0.0400
                       cart. coord. in units 2pi/alat
        k(    1) = (   0.0000000   0.0000000   0.0000000), wk =   1.0000000

     Check: negative core charge=   -0.000004
     Generating pointlists ...
     new r_m :   0.0700 (alat units)  1.8105 (a.u.) for type    1
     new r_m :   0.0711 (alat units)  1.8374 (a.u.) for type    2
     new r_m :   0.0765 (alat units)  1.9795 (a.u.) for type    3

     Initial potential from superposition of free atoms

     starting charge 2047.94379, renormalised to 2048.00000

     negative rho (up, down):  1.856E-04 1.888E-04
     Starting wfcs are 1280 randomized atomic wfcs
     Checking if some PAW data can be deallocated...

     Self-consistent Calculation

     iteration #  1     ecut=    71.00 Ry     beta= 0.30
[...]
   -46.3320 -46.3238 -46.3233 -46.3128 -46.3045 -46.3031 -46.2730 -46.2718
   -46.2617 -46.2550 -46.2536 -46.2531 -46.2530 -46.2511 -46.2510 -46.2463
   -46.2446 -46.2387 -46.2383 -46.2279 -46.2245 -46.2221 -46.1957 -46.1946
   -45.9399 -45.9386 -45.9367 -45.9362 -45.9251 -45.9236 -45.9171 -45.9158
   -45.9144 -45.9141 -45.9117 -45.9100 -45.9083 -45.9078 -45.9071 -45.9058
   -45.9052 -45.9041 -45.9020 -45.8989 -45.8972 -45.8971 -45.8955 -45.8912
   -45.8892 -45.8885 -45.8860 -45.8832 -45.8821 -45.8815 -45.8813 -45.8787
   -45.8558 -45.8551 -45.8514 -45.8505 -45.8455 -45.8448 -45.8415 -45.8405
   -45.8400 -45.8379 -45.8371 -45.8366 -45.8364 -45.8329 -45.8209 -45.8149
   -45.7793 -45.7759 -45.7300 -45.7254 -45.7187 -45.7151 -45.6902 -45.6832
   -45.6261 -45.6211 -45.6201 -45.5979 -45.5963 -45.5647 -45.5637 -45.5051
   -45.4989 -45.4978 -45.4912 -45.4862 -45.4821 -45.4715 -45.4701 -45.4643
   -45.4633 -45.4564 -45.4474 -45.4440 -45.4430 -45.4371 -45.4347 -45.4319
   -45.4271 -45.4246 -45.4212 -45.4022 -45.1327 -45.0961 -45.0359 -44.7131
   -44.7110 -44.7101 -44.7072 -44.6797 -44.6782 -44.6760 -44.6742 -44.6732
   -44.6726 -44.6640 -44.6631 -44.6557 -44.6527 -44.6516 -44.6478 -44.6473
   -44.6449 -44.6441 -44.6422 -44.6410 -44.6373 -44.6370 -44.6344 -44.6297
   -44.6273 -44.6256 -44.6226 -44.6192 -44.6182 -44.6082 -44.6070 -44.6037
   -44.6013 -44.6006 -44.5969 -44.5738 -44.5728 -44.5725 -44.5708 -44.5685
   -44.5673 -44.5568 -44.5559 -44.5465 -44.5441 -44.5398 -44.5380 -44.5351
   -44.5309 -44.5155 -44.5137 -44.5130 -44.5127 -44.3868 -44.3849 -44.3823
   -44.3812 -44.3804 -44.3796 -44.3768 -44.3762 -44.3713 -44.3704 -44.3698
   -44.3695 -44.3677 -44.3670 -44.3653 -44.3647 -44.3609 -44.3596 -44.3539
   -44.3535 -44.3474 -44.3454 -44.3449 -44.3441 -44.3397 -44.3390 -44.3360
   -44.3331 -44.3328 -44.3314 -44.3284 -44.3245 -44.3177 -44.3173 -44.3141
   -44.3095 -44.2723 -44.2712 -44.2702 -44.2692 -44.2331 -44.2324 -44.2309
   -44.2297 -44.2113 -44.2092 -44.2052 -44.2034 -44.0595 -44.0584 -44.0579
   -44.0567 -43.9827 -43.9803 -43.9791 -43.9781 -43.9423 -43.9410 -43.9385
   -43.9379 -43.9365 -43.9358 -43.9152 -43.9130 -43.9121 -43.9118 -43.9114
   -43.9112 -43.9104 -43.9091 -43.9063 -43.9049 -43.9040 -43.9037 -43.9022
   -43.9013 -43.8998 -43.8992 -43.8931 -43.8922 -43.8907 -43.8895 -43.8892
   -43.8885 -43.8869 -43.8860 -43.8603 -43.8594 -43.8450 -43.8430 -43.8416
   -43.8397 -43.8391 -43.8385 -43.8380 -43.8374 -43.8366 -43.8358 -43.8336
   -43.8330 -43.8320 -43.8315 -43.8283 -43.8275 -43.8263 -43.8262 -43.8252
   -43.8246 -43.8240 -43.8233 -43.8163 -43.8156 -43.7985 -43.7969 -43.7964
[...]
     8.8682   8.8784   8.8869   8.8879   8.8914   8.8955   8.9050   8.9069
     8.9149   8.9162   8.9182   8.9225   8.9291   8.9478   8.9544   8.9659
     8.9661   8.9787   8.9838   8.9844   8.9903   9.0071   9.0135   9.0193
     9.0328   9.0396   9.0497   9.0516   9.0533   9.0584   9.0722   9.0722
     9.0726   9.0762   9.0886   9.0896   9.0934   9.1002   9.1115   9.1271
     9.1299   9.1379   9.1416   9.1460   9.1506   9.1700   9.1725   9.1742
     9.1782   9.1785   9.1829   9.1916   9.1923   9.1989   9.2018   9.2099
     9.2115   9.2293   9.2296   9.2370   9.2412   9.2460   9.2484   9.2646
     9.2748   9.2802   9.2974   9.3066   9.3159   9.3212   9.3356   9.3392
     9.3405   9.3431   9.3582   9.3618   9.3730   9.3734   9.3809   9.3824
     9.3843   9.3865   9.3872   9.3941   9.4041   9.4175   9.4399   9.4717
     9.4941   9.4982   9.5162   9.5362   9.5369   9.5388   9.5416   9.5829
     9.6384   9.7140   9.8888   9.9581  10.1111  10.2206  10.2473  10.3399
    10.3867  10.3886  10.4001  10.4519  10.4736  10.5158  10.5349  10.5621
    10.6023  10.6058  10.6258  10.6385  10.6409

 ------ SPIN DOWN ----------

          k = 0.0000 0.0000 0.0000 ( 91909 PWs)   bands (ev):

   -80.4278 -80.4275 -80.4271 -80.4269 -80.4157 -80.4153 -80.4148 -80.4144
   -80.4130 -80.4127 -80.4119 -80.4117 -80.4098 -80.4091 -80.4091 -80.4083
   -80.3668 -80.3648 -80.2925 -80.2917 -80.2549 -80.2540 -80.2354 -80.2338
   -80.2209 -80.2197 -80.2192 -80.2164 -80.1192 -80.1176 -80.1175 -80.1160
   -79.9221 -79.9210 -79.9205 -79.9191 -79.8413 -79.8409 -79.8399 -79.8389
   -79.8187 -79.8185 -79.8183 -79.8169 -79.7924 -79.7912 -79.7902 -79.7896
   -79.5626 -79.5622 -79.5243 -79.5234 -79.4867 -79.4859 -79.4346 -79.4298
   -79.4292 -79.4255 -79.3835 -79.3832 -79.3685 -79.3652 -79.3646 -79.3623
   -79.2802 -79.2797 -78.8638 -78.5925 -78.5721 -78.5690 -78.5658 -78.5647
   -78.5640 -78.5583 -78.4259 -78.4245 -78.3393 -78.3021 -78.2996 -78.2927
   -78.2925 -78.2776 -78.2767 -78.2664 -78.2659 -78.2658 -78.2655 -78.2653
   -78.2643 -78.2611 -78.2605 -78.2596 -78.2590 -78.2402 -78.2389 -77.7980
   -77.7969 -77.7957 -77.7867 -77.7860 -77.7858 -77.7847 -77.7845 -77.7786
   -77.7699 -77.7693 -77.7691 -77.7689 -77.7665 -77.7664 -77.7459 -77.7457
   -77.7447 -77.7446 -77.7443 -77.7440 -77.7408 -77.7400 -77.7389 -77.7370
   -77.7362 -77.7361 -77.7351 -77.7084 -77.7076 -77.6548 -77.6541 -64.6999
   -46.5881 -46.5870 -46.5857 -46.5848 -46.5699 -46.5688 -46.5675 -46.5668
   -46.5656 -46.5647 -46.5643 -46.5636 -46.5628 -46.5620 -46.5618 -46.5613
   -46.5108 -46.5089 -46.4806 -46.4779 -46.4773 -46.4766 -46.4750 -46.4741
   -46.4737 -46.4733 -46.4711 -46.4708 -46.4705 -46.4690 -46.4656 -46.4641
   -46.4634 -46.4610 -46.4536 -46.4508 -46.4212 -46.4202 -46.4195 -46.4179
   -46.4036 -46.4004 -46.3972 -46.3964 -46.3961 -46.3946 -46.3916 -46.3892
   -46.3882 -46.3861 -46.3846 -46.3841 -46.3834 -46.3831 -46.3829 -46.3823
   -46.3812 -46.3805 -46.3803 -46.3789 -46.3774 -46.3763 -46.3667 -46.3641
   -46.3576 -46.3556 -46.3288 -46.3261 -46.2958 -46.2942 -46.2929 -46.2913
   -46.2904 -46.2891 -46.2887 -46.2875 -46.2870 -46.2863 -46.2748 -46.2738
   -46.2433 -46.2411 -46.2400 -46.2382 -46.2160 -46.2144 -46.2138 -46.2117
   -46.1909 -46.1891 -46.1890 -46.1873 -46.1502 -46.1491 -46.1479 -46.1471
   -46.0178 -46.0152 -46.0147 -46.0129 -45.9788 -45.9768 -45.9731 -45.9717
   -45.9294 -45.9280 -45.9270 -45.9242 -45.9167 -45.9136 -45.9119 -45.9098
   -45.9068 -45.9041 -45.9030 -45.9024 -45.9005 -45.8984 -45.8973 -45.8972
   -45.8967 -45.8958 -45.8955 -45.8926 -45.8920 -45.8879 -45.8871 -45.8818
   -45.8601 -45.8584 -45.8571 -45.8550 -45.8484 -45.8478 -45.8462 -45.8447
   -45.8343 -45.8331 -45.8293 -45.8277 -45.8120 -45.8102 -45.8091 -45.8067
   -45.6301 -45.6299 -45.6148 -45.6108 -45.5927 -45.5921 -45.5911 -45.5908
   -45.5859 -45.5821 -45.5680 -45.5674 -45.5541 -45.5536 -45.5343 -45.5314
   -45.5261 -45.5239 -45.5232 -45.5196 -45.5190 -45.5162 -45.4791 -45.4784
   -45.4756 -45.4748 -45.4744 -45.4741 -45.4726 -45.4712 -45.4708 -45.4697
   -45.4693 -45.4687 -45.4672 -45.4652 -45.4493 -45.4483 -45.4382 -45.4358
   -45.4194 -45.4164 -45.4160 -45.4137 -45.4036 -45.4004 -45.3977 -45.3952
   -45.3614 -45.3611 -45.3054 -45.3050 -45.2951 -45.2947 -44.9996 -44.9215
   -44.8858 -44.7212 -44.7030 -44.6964 -44.6945 -44.6912 -44.6884 -44.6865
   -44.6853 -44.6744 -44.6695 -44.6678 -44.6651 -44.6615 -44.6604 -44.6533
   -44.6317 -44.6285 -44.6251 -44.6205 -44.6190 -44.6145 -44.5484 -44.5471
   -44.5373 -44.5356 -44.5160 -44.5151 -44.4837 -44.4707 -44.4683 -44.4629
   -44.4370 -44.4362 -44.4332 -44.4119 -44.4088 -44.4012 -44.4001 -44.3894
   -44.3884 -44.3881 -44.3855 -44.3760 -44.3751 -44.3741 -44.3738 -44.3734
   -44.3723 -44.3719 -44.3709 -44.3695 -44.3693 -44.3683 -44.3670 -44.3626
   -44.3611 -44.3605 -44.3592 -44.3565 -44.3557 -44.3556 -44.3552 -44.3546
   -44.3543 -44.3523 -44.3516 -44.3502 -44.3489 -44.3408 -44.3401 -44.3251
   -44.3242 -44.3237 -44.3233 -44.3225 -44.3204 -44.3203 -44.3189 -44.3150
   -44.3132 -44.3125 -44.3102 -44.2811 -44.2765 -43.9808 -43.9796 -43.9768
   -43.9634 -43.9555 -43.9454 -43.9446 -43.9375 -43.9369 -43.9355 -43.9344
   -43.9340 -43.9331 -43.9281 -43.9274 -43.9170 -43.9165 -43.9155 -43.9150
   -43.9133 -43.9099 -43.9087 -43.9057 -43.9048 -43.8971 -43.8966 -43.8964
   -43.8956 -43.8897 -43.8891 -43.8885 -43.8881 -43.8875 -43.8865 -43.8863
   -43.8778 -43.8664 -43.8635 -43.8627 -43.8619 -43.8605 -43.8583 -43.8572
   -43.8564 -43.8554 -43.8368 -43.8366 -43.8357 -43.8354 -43.8335 -43.8331
   -43.8296 -43.8295 -43.8284 -43.8282 -43.8271 -43.8267 -43.8257 -43.8208
   -43.8201 -43.8196 -43.8187 -43.8147 -43.8141 -43.8101 -43.8071 -43.7982
[...]
     8.8331   8.8420   8.8423   8.8549   8.8604   8.8706   8.8717   8.8802
     8.8854   8.8914   8.8941   8.8945   8.9003   8.9069   8.9155   8.9162
     8.9333   8.9414   8.9611   8.9613   8.9669   8.9690   8.9794   8.9813
     8.9940   9.0012   9.0016   9.0107   9.0188   9.0195   9.0288   9.0432
     9.0466   9.0624   9.0640   9.0661   9.0809   9.0824   9.0831   9.0914
     9.0951   9.0988   9.1004   9.1104   9.1185   9.1301   9.1426   9.1516
     9.1537   9.1653   9.1673   9.1732   9.1739   9.1813   9.1842   9.1860
     9.1892   9.2008   9.2030   9.2055   9.2106   9.2164   9.2233   9.2419
     9.2425   9.2571   9.2623   9.2730   9.2737   9.2798   9.2875   9.2916
     9.3003   9.3084   9.3127   9.3161   9.3338   9.3373   9.3401   9.3442
     9.3487   9.3569   9.3786   9.3797   9.3830   9.3909   9.4377   9.4453
     9.4513   9.4590   9.4935   9.5065   9.5083   9.5218   9.5245   9.5897
     9.6373   9.6996   9.8635   9.9550  10.1027  10.1948  10.2337  10.3391
    10.3508  10.3960  10.4113  10.4150  10.4749  10.4934  10.5282  10.5307
    10.5312  10.5397  10.5786  10.6118  10.6457

     the Fermi energy is     8.0931 ev

!    total energy              =  -42242.29431834 Ry

     total all-electron energy =   -332342.466215 Ry
     estimated scf accuracy    <          9.3E-09 Ry
     smearing contrib. (-TS)   =       0.03855238 Ry
     internal energy E=F+TS    =  -42242.33287072 Ry

     The total energy is F=E-TS. E is the sum of the following terms:
     one-electron contribution =  -97551.54057656 Ry
     hartree contribution      =   49278.39536682 Ry
     xc contribution           =   -3546.01153764 Ry
     ewald contribution        =   20328.76560313 Ry
     one-center paw contrib.   =  -10751.94172647 Ry

     total magnetization       =    -3.09 Bohr mag/cell
     absolute magnetization    =   228.61 Bohr mag/cell

     convergence has been achieved in  86 iterations

     negative rho (up, down):  1.926E-03 1.676E-03

     Forces acting on atoms (cartesian axes, Ry/au):

     atom    1 type  1   force =     0.00000301    0.00137762   -0.00158425
     atom    2 type  2   force =    -0.00000079    0.00027744   -0.00012425
     atom    3 type  1   force =    -0.00231788   -0.00243910    0.00121991
     atom    4 type  2   force =    -0.00001990   -0.00025990   -0.00002096
     atom    5 type  1   force =    -0.00000767    0.00215695    0.00148549
     atom    6 type  2   force =     0.00018959   -0.00026987   -0.00015720
     atom    7 type  1   force =    -0.00043091   -0.00089274   -0.00101956
     atom    8 type  2   force =    -0.00001785   -0.00017299    0.00072139
     atom    9 type  1   force =     0.00000800    0.00002576   -0.00039449
     atom   10 type  2   force =    -0.00001185   -0.00027094   -0.00008935
     atom   11 type  1   force =    -0.00029911   -0.00000363   -0.00009774
     atom   12 type  2   force =    -0.00000478    0.00028255   -0.00000096
     atom   13 type  1   force =    -0.00000873    0.00001520   -0.00015039
     atom   14 type  2   force =     0.00020671    0.00029781   -0.00012972
     atom   15 type  1   force =     0.00003258   -0.00001891    0.00008676
     atom   16 type  2   force =     0.00000232    0.00017519    0.00071622
     atom   17 type  1   force =    -0.00000518   -0.00134638   -0.00155333
     atom   18 type  2   force =     0.00007151   -0.00054230   -0.00052189
     atom   19 type  1   force =    -0.00229363    0.00238792    0.00118468
     atom   20 type  2   force =    -0.00002398    0.00916922    0.00867265
     atom   21 type  1   force =    -0.00005016   -0.00208857    0.00152200
     atom   22 type  2   force =    -0.00752456    0.00702489   -0.00142701
     atom   23 type  1   force =    -0.00036917    0.00090795   -0.00099115
     atom   24 type  2   force =    -0.00000265    0.01159782   -0.01039530
     atom   25 type  1   force =     0.00004275   -0.00000807   -0.00004825
     atom   26 type  2   force =     0.00006190    0.00049767   -0.00046827
     atom   27 type  1   force =    -0.01033377    0.00006066    0.01339398
     atom   28 type  2   force =    -0.00000676   -0.00918991    0.00867390
     atom   29 type  3   force =    -0.00005198   -0.00008369    0.01811306
     atom   30 type  2   force =    -0.00746256   -0.00695978   -0.00143185
     atom   31 type  1   force =    -0.01272437    0.00001744   -0.00964887
     atom   32 type  2   force =     0.00005729   -0.01153759   -0.01040965
     atom   33 type  1   force =    -0.00014526   -0.00025302    0.00056599
     atom   34 type  2   force =    -0.00000723    0.00009594    0.00007381
     atom   35 type  1   force =    -0.00021981   -0.00034482   -0.00004585
     atom   36 type  2   force =     0.00029336    0.00009207    0.00029170
     atom   37 type  1   force =     0.00274924    0.00253800   -0.00087391
     atom   38 type  2   force =    -0.00092630   -0.00068527   -0.00023582
     atom   39 type  1   force =     0.00004706   -0.00015718   -0.00008765
     atom   40 type  2   force =     0.00027123    0.00016268   -0.00003173
     atom   41 type  1   force =     0.00037286   -0.00000712   -0.00035751
     atom   42 type  2   force =    -0.00000824   -0.00008611    0.00006942
     atom   43 type  1   force =     0.00009352    0.00000275   -0.00031170
     atom   44 type  2   force =     0.00030394   -0.00011257    0.00027633
     atom   45 type  1   force =     0.00043357   -0.00002982   -0.00018251
     atom   46 type  2   force =    -0.00090541    0.00067563   -0.00024906
     atom   47 type  1   force =     0.00117772   -0.00001740   -0.00027530
     atom   48 type  2   force =     0.00021349   -0.00021767   -0.00006271
     atom   49 type  1   force =    -0.00009415    0.00029957    0.00055834
     atom   50 type  2   force =     0.00019600    0.00001397   -0.00029767
     atom   51 type  1   force =    -0.00021223    0.00033480   -0.00005276
     atom   52 type  2   force =     0.00026261   -0.00055285   -0.00009909
     atom   53 type  1   force =     0.00273074   -0.00260729   -0.00091360
     atom   54 type  2   force =    -0.00016644   -0.00028626    0.00001033
     atom   55 type  1   force =     0.00005842    0.00015987   -0.00007587
     atom   56 type  2   force =     0.00128044   -0.00156403    0.00036492
     atom   57 type  1   force =     0.00293797    0.00001539   -0.00454984
     atom   58 type  2   force =     0.00016660   -0.00008642   -0.00029629
     atom   59 type  1   force =    -0.00047929    0.00004697    0.00017803
     atom   60 type  2   force =     0.00020600    0.00063079   -0.00007689
[...]
     atom  114 type  2   force =    -0.00009030   -0.00051689   -0.00053316
     atom  115 type  1   force =     0.00233644    0.00240925    0.00119598
     atom  116 type  2   force =    -0.00026620   -0.00059272   -0.00007567
     atom  117 type  1   force =    -0.00279978   -0.00262855   -0.00098791
     atom  118 type  2   force =     0.00746488    0.00695436   -0.00143196
     atom  119 type  1   force =     0.00031083    0.00089700   -0.00091647
     atom  120 type  2   force =    -0.00118479   -0.00161230    0.00036204
     atom  121 type  1   force =    -0.00308477    0.00003130   -0.00461275
     atom  122 type  2   force =    -0.00005992    0.00047045   -0.00050113
     atom  123 type  1   force =     0.01054616    0.00001002    0.01337533
     atom  124 type  2   force =    -0.00025702    0.00067062   -0.00005754
     atom  125 type  1   force =     0.00017466   -0.00002626    0.00061417
     atom  126 type  2   force =     0.00746127   -0.00694217   -0.00146617
     atom  127 type  1   force =     0.01263274    0.00003087   -0.00966724
     atom  128 type  2   force =    -0.00120778    0.00161788    0.00030204

     Total force =     0.053701     Total SCF correction =     0.000234

     Computing stress (Cartesian axis) and pressure

     negative rho (up, down):  1.926E-03 1.676E-03
          total   stress  (Ry/bohr**3)                   (kbar)     P=      -22.02
  -0.00015266  -0.00000000  -0.00000018          -22.46       -0.00       -0.03
  -0.00000000  -0.00011622   0.00000090           -0.00      -17.10        0.13
  -0.00000018   0.00000090  -0.00018012           -0.03        0.13      -26.50

     Writing output data file /scratch/bxp912/feruslab1.save/

     General routines

     Parallel routines

   This run was terminated on:  14:27:21  29May2022

   JOB DONE.