     Program PWSCF v.6.7MaX starts on 29May2022 at 13:48:51

     R & G space division:  proc/nbgrp/npool/nimage =      72
     Reading input from feruslabD.in
Warning: card &CELL ignored
Warning: card CELL_DYNAMICS = 'BFGS', ignored
Warning: card CELL_FACTOR = 2.0, ignored
Warning: card PRESS = 0.0, ignored
Warning: card / ignored

     Current dimensions of program PWSCF are:
     Max number of different atomic species (ntypx) = 10
     Max number of k-points (npk) =  40000
     Max angular momentum in pseudopotentials (lmaxx) =  3
     file Fe.pbe-spn-kjpaw_psl.1.0.0.UPF: wavefunction(s)  3P 3D renormalized
     file Fe.pbe-spn-kjpaw_psl.1.0.0.UPF: wavefunction(s)  3P 3D renormalized
     file Ru.pbe-spn-kjpaw_psl.1.0.0.UPF: wavefunction(s)  4D renormalized

     gamma-point specific algorithms are used

     Subspace diagonalization in iterative solution of the eigenvalue problem:
     one sub-group per band group will be used

     bravais-lattice index     =            0
     lattice parameter (alat)  =      25.8600  a.u.
     unit-cell volume          =   18186.5006 (a.u.)^3
     number of atoms/cell      =          129
     number of atomic types    =            3
     number of electrons       =      2064.00
     number of Kohn-Sham states=         1238
     kinetic-energy cutoff     =      71.0000  Ry
     charge density cutoff     =     430.0000  Ry
     scf convergence threshold =      1.0E-08
     mixing beta               =       0.3000
     number of iterations used =           10  local-TF  mixing
     Exchange-correlation= SLA  PW   PBX  PBC
                           (   1   4   3   4   0   0   0)

     celldm(1)=  25.860000  celldm(2)=   0.000000  celldm(3)=   0.000000
     celldm(4)=   0.000000  celldm(5)=   0.000000  celldm(6)=   0.000000

     crystal axes: (cart. coord. in units of alat)
               a(1) = (   1.000000   0.000000   0.000000 )
               a(2) = (   0.000000   1.051631   0.000000 )
               a(3) = (   0.000000   0.000000   1.000000 )

     reciprocal axes: (cart. coord. in units 2 pi/alat)
               b(1) = (  1.000000  0.000000  0.000000 )
               b(2) = (  0.000000  0.950903  0.000000 )
               b(3) = (  0.000000  0.000000  1.000000 )

     PseudoPot. # 1 for Fe read from file:
     /rds/homes/b/bxp912/pp/Fe.pbe-spn-kjpaw_psl.1.0.0.UPF
     MD5 check sum: 42f43b795421b414b0dc916aa790dbcb
     Pseudo is Projector augmented-wave + core cor, Zval = 16.0
     Generated using &quot;atomic&quot; code by A. Dal Corso  v.6.3
     Shape of augmentation charge: PSQ
     Using radial grid of 1191 points,  6 beta functions with:
                l(1) =   0
                l(2) =   0
                l(3) =   1
                l(4) =   1
                l(5) =   2
                l(6) =   2
     Q(r) pseudized with 0 coefficients

     PseudoPot. # 2 for Fe read from file:
     /rds/homes/b/bxp912/pp/Fe.pbe-spn-kjpaw_psl.1.0.0.UPF
     MD5 check sum: 42f43b795421b414b0dc916aa790dbcb
     Pseudo is Projector augmented-wave + core cor, Zval = 16.0
     Generated using &quot;atomic&quot; code by A. Dal Corso  v.6.3
     Shape of augmentation charge: PSQ
     Using radial grid of 1191 points,  6 beta functions with:
                l(1) =   0
                l(2) =   0
                l(3) =   1
                l(4) =   1
                l(5) =   2
                l(6) =   2
     Q(r) pseudized with 0 coefficients

     PseudoPot. # 3 for Ru read from file:
     /rds/homes/b/bxp912/pp/Ru.pbe-spn-kjpaw_psl.1.0.0.UPF
     MD5 check sum: 0ae1f594dea09af7be8575c3a481d1ae
     Pseudo is Projector augmented-wave + core cor, Zval = 16.0
     Generated using "atomic" code by A. Dal Corso  v.5.1
     Shape of augmentation charge: PSQ
     Using radial grid of 1233 points,  6 beta functions with:
                l(1) =   0
                l(2) =   0
                l(3) =   1
                l(4) =   1
                l(5) =   2
                l(6) =   2
     Q(r) pseudized with 0 coefficients

     atomic species   valence    mass     pseudopotential
        Fe1           16.00    55.84500     Fe( 1.00)
        Fe2           16.00    55.84500     Fe( 1.00)
        Ru            16.00   101.07000     Ru( 1.00)

     Starting magnetic structure
     atomic species   magnetization
        Fe1          0.100
        Fe2         -0.100
        Ru           0.001

     No symmetry found

   Cartesian axes

     site n.     atom                  positions (alat units)
         1           Ru  tau(   1) = (   0.1425366   0.1152741   0.1753095  )
         2           Fe1 tau(   2) = (   0.0587515   0.0653881   0.3211198  )
         3           Fe2 tau(   3) = (   0.1884265   0.2002713   0.3214448  )
         4           Fe1 tau(   4) = (   0.1868213   0.0655646   0.4421276  )
         5           Fe2 tau(   5) = (   0.0624952   0.1980629   0.4424469  )
         6           Fe1 tau(   6) = (   0.0623234   0.0655267   0.5697271  )
         7           Fe2 tau(   7) = (   0.1876610   0.1975943   0.5698145  )
         8           Fe1 tau(   8) = (   0.1882185   0.0650035   0.6879009  )
         9           Fe2 tau(   9) = (   0.0616632   0.1980291   0.6879420  )
        10           Fe1 tau(  10) = (   0.0653597   0.3265762   0.3172267  )
        11           Fe2 tau(  11) = (   0.1877413   0.4579090   0.3175394  )
        12           Fe1 tau(  12) = (   0.1881227   0.3296492   0.4412225  )
        13           Fe2 tau(  13) = (   0.0633903   0.4595175   0.4385688  )
        14           Fe1 tau(  14) = (   0.0628268   0.3296102   0.5678640  )
        15           Fe2 tau(  15) = (   0.1885537   0.4615096   0.5682187  )
        16           Fe1 tau(  16) = (   0.1887326   0.3305664   0.6874596  )
        17           Fe2 tau(  17) = (   0.0603308   0.4618776   0.6862421  )
        18           Fe1 tau(  18) = (   0.0648519   0.5907106   0.3145093  )
        19           Fe2 tau(  19) = (   0.1847510   0.7238107   0.3145456  )
        20           Fe1 tau(  20) = (   0.1863681   0.5909977   0.4371267  )
        21           Fe2 tau(  21) = (   0.0633682   0.7236125   0.4371464  )
        22           Fe1 tau(  22) = (   0.0615849   0.5918936   0.5662034  )
        23           Fe2 tau(  23) = (   0.1882586   0.7226899   0.5660552  )
        24           Fe1 tau(  24) = (   0.1887997   0.5925453   0.6861716  )
        25           Fe2 tau(  25) = (   0.0613274   0.7219977   0.6862125  )
        26           Fe1 tau(  26) = (   0.0618357   0.8560935   0.3172000  )
        27           Fe2 tau(  27) = (   0.1829530   0.9895025   0.3139428  )
        28           Fe1 tau(  28) = (   0.1862919   0.8555747   0.4379183  )
        29           Fe2 tau(  29) = (   0.0618572   0.9855343   0.4406165  )
        30           Fe1 tau(  30) = (   0.0613876   0.8531658   0.5679772  )
        31           Fe2 tau(  31) = (   0.1869233   0.9851356   0.5677120  )
        32           Fe1 tau(  32) = (   0.1896322   0.8527645   0.6860337  )
        33           Fe2 tau(  33) = (   0.0612834   0.9839846   0.6875207  )
        34           Fe1 tau(  34) = (   0.3076371   0.0696373   0.3122286  )
        35           Fe2 tau(  35) = (   0.4357117   0.1980603   0.3171939  )
        36           Fe1 tau(  36) = (   0.4341488   0.0657210   0.4341951  )
        37           Fe2 tau(  37) = (   0.3121648   0.1978698   0.4418603  )
        38           Fe1 tau(  38) = (   0.3124073   0.0653502   0.5666112  )
        39           Fe2 tau(  39) = (   0.4385533   0.1968925   0.5660486  )
        40           Fe1 tau(  40) = (   0.4380091   0.0657438   0.6859902  )
        41           Fe2 tau(  41) = (   0.3146724   0.1973275   0.6859048  )
        42           Fe1 tau(  42) = (   0.3112557   0.3275738   0.3170910  )
        43           Fe2 tau(  43) = (   0.4354886   0.4597974   0.3147106  )
        44           Fe1 tau(  44) = (   0.4374791   0.3293042   0.4369893  )
        45           Fe2 tau(  45) = (   0.3125364   0.4604356   0.4366549  )
        46           Fe1 tau(  46) = (   0.3141732   0.3293478   0.5679259  )
        47           Fe2 tau(  47) = (   0.4390386   0.4604040   0.5632767  )
        48           Fe1 tau(  48) = (   0.4403086   0.3292951   0.6845898  )
        49           Fe2 tau(  49) = (   0.3159177   0.4625217   0.6855273  )
        50           Fe1 tau(  50) = (   0.3083587   0.5903099   0.3147277  )
        51           Fe2 tau(  51) = (   0.4339295   0.7233087   0.3130231  )
        52           Fe1 tau(  52) = (   0.4358847   0.5924128   0.4322183  )
        53           Fe2 tau(  53) = (   0.3104159   0.7228918   0.4334436  )
        54           Fe1 tau(  54) = (   0.3142966   0.5918280   0.5641361  )
        55           Fe2 tau(  55) = (   0.4385180   0.7234213   0.5598951  )
        56           Fe1 tau(  56) = (   0.4419191   0.5923939   0.6824908  )
        57           Fe2 tau(  57) = (   0.3162141   0.7223454   0.6842751  )
        58           Fe1 tau(  58) = (   0.3074024   0.8548895   0.3147790  )
        59           Fe2 tau(  59) = (   0.4344514   0.9868630   0.3150403  )
        60           Fe1 tau(  60) = (   0.4356335   0.8547100   0.4315209  )
[...]
       115           Fe2 tau( 115) = (   0.9412610   0.7242602   0.3148148  )
       116           Fe1 tau( 116) = (   0.9393584   0.5917595   0.4337111  )
       117           Fe2 tau( 117) = (   0.8139347   0.7222047   0.4324709  )
       118           Fe1 tau( 118) = (   0.8112426   0.5912370   0.5601288  )
       119           Fe2 tau( 119) = (   0.9356265   0.7227141   0.5643328  )
       120           Fe1 tau( 120) = (   0.9336551   0.5923087   0.6844350  )
       121           Fe2 tau( 121) = (   0.8078635   0.7222525   0.6825759  )
       122           Fe1 tau( 122) = (   0.8143703   0.8548553   0.3146769  )
       123           Fe2 tau( 123) = (   0.9388847   0.9870538   0.3171989  )
       124           Fe1 tau( 124) = (   0.9373427   0.8541441   0.4366752  )
       125           Fe2 tau( 125) = (   0.8125994   0.9853090   0.4370552  )
       126           Fe1 tau( 126) = (   0.8108362   0.8541803   0.5632913  )
       127           Fe2 tau( 127) = (   0.9358746   0.9851837   0.5680012  )
       128           Fe1 tau( 128) = (   0.9341019   0.8520056   0.6853792  )
       129           Fe2 tau( 129) = (   0.8094919   0.9851394   0.6846363  )

     number of k points=     1  Marzari-Vanderbilt smearing, width (Ry)=  0.0400
                       cart. coord. in units 2pi/alat
        k(    1) = (   0.0000000   0.0000000   0.0000000), wk =   1.0000000

     Check: negative core charge=   -0.000004
     Generating pointlists ...
     new r_m :   0.0707 (alat units)  1.8289 (a.u.) for type    1
     new r_m :   0.0709 (alat units)  1.8345 (a.u.) for type    2
     new r_m :   0.0723 (alat units)  1.8686 (a.u.) for type    3

     Initial potential from superposition of free atoms

     starting charge 2063.94336, renormalised to 2064.00000

     negative rho (up, down):  1.761E-04 1.760E-04
     Starting wfcs are 1290 randomized atomic wfcs
     Checking if some PAW data can be deallocated...

     Self-consistent Calculation

     iteration #  1     ecut=    71.00 Ry     beta= 0.30
[...]
   -46.2288 -46.2253 -46.2229 -46.2209 -46.2206 -46.2187 -46.2180 -46.2166
   -46.2130 -46.2069 -46.2066 -46.2047 -46.1950 -46.1912 -46.1877 -46.1876
   -46.1749 -46.1716 -46.1659 -46.1638 -46.1584 -46.1390 -46.0381 -45.9790
   -45.9642 -45.8653 -45.8419 -45.7929 -45.7687 -45.7547 -45.7526 -45.7462
   -45.7315 -45.7263 -45.7229 -45.7220 -45.7202 -45.7134 -45.7114 -45.7104
   -45.7095 -45.7083 -45.7075 -45.7055 -45.7054 -45.7026 -45.6982 -45.6928
   -45.6880 -45.6851 -45.6827 -45.6795 -45.6778 -45.6773 -45.6758 -45.6741
   -45.6730 -45.6699 -45.6689 -45.6682 -45.6579 -45.6562 -45.6543 -45.6498
   -45.6487 -45.6463 -45.6455 -45.6428 -45.6376 -45.6314 -45.6289 -45.6100
   -45.6037 -45.5988 -45.5967 -45.5862 -45.5794 -45.5755 -45.5717 -45.5662
   -45.5631 -45.5612 -45.5599 -45.5580 -45.5571 -45.5550 -45.5527 -45.5438
   -45.5418 -45.5382 -45.5323 -45.5313 -45.5290 -45.5147 -45.5109 -45.5096
   -45.5077 -45.5067 -45.5058 -45.5047 -45.5045 -45.5023 -45.4998 -45.4981
   -45.4933 -45.4899 -45.4848 -45.4839 -45.4823 -45.4805 -45.4672 -45.4575
   -45.4547 -45.4508 -45.4490 -45.4461 -45.4448 -45.4419 -45.4218 -45.4093
   -45.3816 -44.5779 -44.5576 -44.5283 -44.4981 -44.4963 -44.4921 -44.4899
   -44.4883 -44.4783 -44.4715 -44.4698 -44.4695 -44.4678 -44.4654 -44.4630
   -44.4615 -44.4577 -44.4559 -44.4550 -44.4529 -44.4486 -44.4476 -44.4441
   -44.4433 -44.4401 -44.4396 -44.4394 -44.4359 -44.4346 -44.4339 -44.4315
   -44.4268 -44.4262 -44.4253 -44.4248 -44.4189 -44.4171 -44.4152 -44.4127
   -44.4094 -44.4085 -44.4060 -44.4034 -44.4021 -44.3972 -44.3970 -44.3924
   -44.3919 -44.3908 -44.3830 -44.3761 -44.3732 -44.3723 -44.3656 -44.3531
   -44.3406 -44.3389 -44.3364 -44.3347 -44.3288 -44.3179 -44.3157 -44.3131
   -44.3123 -44.3109 -44.3101 -44.3083 -44.3074 -44.3015 -44.2994 -44.2939
   -44.2899 -44.2893 -44.2874 -44.2869 -44.2860 -44.2814 -44.2798 -44.2749
   -44.2690 -44.2684 -44.2672 -44.2661 -44.2632 -44.2622 -44.2617 -44.2588
   -44.2568 -44.2469 -44.2458 -44.2446 -44.2413 -44.2397 -44.2385 -44.2295
   -44.2131 -44.1981 -44.1529 -44.1505 -43.8713 -43.8664 -43.8476 -43.8471
   -43.8420 -43.8372 -43.8348 -43.8345 -43.8300 -43.8288 -43.8264 -43.8245
   -43.8240 -43.8186 -43.8179 -43.8171 -43.8160 -43.8131 -43.8092 -43.8058
   -43.8056 -43.7980 -43.7978 -43.7964 -43.7919 -43.7912 -43.7906 -43.7901
   -43.7836 -43.7801 -43.7789 -43.7783 -43.7710 -43.7646 -43.7644 -43.7597
   -43.7586 -43.7573 -43.7505 -43.7492 -43.7466 -43.7459 -43.7447 -43.7429
   -43.7425 -43.7406 -43.7375 -43.7365 -43.7360 -43.7338 -43.7316 -43.7304
   -43.7289 -43.7256 -43.7226 -43.7217 -43.7206 -43.7199 -43.7185 -43.7174
[...]
     8.9431   8.9459   8.9493   8.9560   8.9731   8.9864   8.9921   8.9930
     8.9942   9.0002   9.0034   9.0057   9.0173   9.0275   9.0328   9.0356
     9.0434   9.0629   9.0700   9.0727   9.0764   9.0799   9.0851   9.0886
     9.0907   9.0921   9.0929   9.0966   9.1019   9.1340   9.1469   9.1656
     9.1718   9.1794   9.1834   9.1895   9.1910   9.1963   9.1992   9.2014
     9.2031   9.2085   9.2103   9.2138   9.2187   9.2273   9.2458   9.2508
     9.2665   9.2673   9.2721   9.2734   9.2770   9.2829   9.2845   9.2861
     9.2882   9.2946   9.2983   9.3056   9.3068   9.3201   9.3251   9.3354
     9.3416   9.3554   9.3719   9.3813   9.3846   9.3923   9.4069   9.4119
     9.4176   9.4206   9.4222   9.4244   9.4284   9.4295   9.4305   9.4407
     9.4429   9.4524   9.4613   9.4657   9.4770   9.4901   9.5053   9.5213
     9.5411   9.5597   9.5757   9.5979   9.6074   9.6232   9.6440   9.6480
     9.6551   9.7565   9.7818   9.8366  10.0109  10.0461  10.3127  10.3236
    10.4356  10.4648  10.4961  10.5315  10.5415  10.5562  10.5625  10.5809
    10.5886  10.6473  10.6582  10.6621  10.7331  10.7508

 ------ SPIN DOWN ----------

          k = 0.0000 0.0000 0.0000 ( 91909 PWs)   bands (ev):

   -80.2942 -80.2917 -80.2779 -80.2778 -80.2773 -80.2748 -80.2654 -80.2648
   -80.2644 -80.2633 -80.2588 -80.2567 -80.2538 -80.2531 -80.2429 -80.2419
   -80.2374 -80.2338 -80.2336 -80.2273 -80.2245 -80.2195 -80.2182 -80.2179
   -80.2149 -80.2005 -80.2001 -80.1964 -80.1917 -80.1585 -80.1566 -79.8347
   -79.7798 -79.6927 -79.6666 -79.6587 -79.6411 -79.6376 -79.6270 -79.6166
   -79.6064 -79.6048 -79.5792 -79.5665 -79.5633 -79.5612 -79.5477 -79.5436
   -79.5353 -79.5299 -79.5250 -79.5149 -79.5111 -79.5100 -79.5001 -79.4979
   -79.4828 -79.4760 -79.4585 -79.4511 -79.4307 -79.4195 -79.3959 -79.3392
   -78.4089 -78.3762 -78.3596 -78.3569 -78.3485 -78.3447 -78.3426 -78.3298
   -78.3097 -78.3036 -78.3006 -78.2966 -78.2932 -78.2921 -78.2872 -78.2829
   -78.2776 -78.2733 -78.2523 -78.2467 -78.2433 -78.2410 -78.2321 -78.2279
   -78.2271 -78.2262 -78.2241 -78.1979 -78.1972 -78.1968 -78.1825 -78.1274
   -77.9484 -77.7001 -77.6921 -77.6739 -77.6702 -77.6679 -77.6671 -77.6646
   -77.6595 -77.6590 -77.6575 -77.6560 -77.6531 -77.6517 -77.6507 -77.6503
   -77.6489 -77.6452 -77.6432 -77.6427 -77.6392 -77.6369 -77.6367 -77.6337
   -77.6329 -77.6322 -77.6309 -77.6295 -77.6292 -77.6214 -77.6185 -77.6176
   -63.3431 -46.4522 -46.4490 -46.4352 -46.4314 -46.4313 -46.4288 -46.4254
   -46.4188 -46.4185 -46.4156 -46.4127 -46.4117 -46.4096 -46.4055 -46.3980
   -46.3970 -46.3951 -46.3917 -46.3900 -46.3877 -46.3873 -46.3798 -46.3795
   -46.3784 -46.3726 -46.3630 -46.3577 -46.3566 -46.3530 -46.3524 -46.3506
   -46.3496 -46.3427 -46.3410 -46.3363 -46.3319 -46.3309 -46.3247 -46.3245
   -46.3242 -46.3213 -46.3191 -46.3164 -46.3136 -46.3128 -46.3118 -46.3072
   -46.3004 -46.2976 -46.2948 -46.2888 -46.2881 -46.2862 -46.2832 -46.2828
   -46.2762 -46.2688 -46.2670 -46.2658 -46.2627 -46.2596 -46.2562 -46.2496
   -46.2484 -46.2472 -46.2449 -46.2400 -46.2364 -46.2356 -46.2343 -46.2315
   -46.2295 -46.2272 -46.2264 -46.2251 -46.2245 -46.2214 -46.2167 -46.2133
   -46.2084 -46.2077 -46.2061 -46.1988 -46.1986 -46.1967 -46.1941 -46.1880
   -46.1824 -46.1803 -46.1786 -46.1715 -46.1458 -46.1424 -45.9599 -45.9215
   -45.9208 -45.8568 -45.8479 -45.8131 -45.7736 -45.7630 -45.7597 -45.7587
   -45.7562 -45.7522 -45.7418 -45.7375 -45.7346 -45.7299 -45.7236 -45.7223
   -45.7150 -45.7140 -45.7120 -45.7115 -45.7105 -45.7066 -45.7005 -45.6984
   -45.6975 -45.6920 -45.6903 -45.6850 -45.6822 -45.6812 -45.6789 -45.6758
   -45.6731 -45.6713 -45.6706 -45.6694 -45.6520 -45.6506 -45.6442 -45.6434
   -45.6384 -45.6355 -45.6329 -45.6296 -45.6274 -45.6126 -45.6050 -45.5976
   -45.5925 -45.5910 -45.5854 -45.5816 -45.5797 -45.5751 -45.5749 -45.5723
   -45.5703 -45.5626 -45.5582 -45.5559 -45.5550 -45.5506 -45.5453 -45.5428
   -45.5418 -45.5375 -45.5320 -45.5312 -45.5279 -45.5173 -45.5162 -45.5153
   -45.5142 -45.5133 -45.5108 -45.5080 -45.5062 -45.5052 -45.5042 -45.4983
   -45.4931 -45.4924 -45.4834 -45.4819 -45.4805 -45.4719 -45.4707 -45.4665
   -45.4628 -45.4585 -45.4453 -45.4431 -45.4400 -45.4315 -45.4145 -45.3793
   -45.3703 -44.5276 -44.5167 -44.4992 -44.4965 -44.4901 -44.4831 -44.4821
   -44.4780 -44.4767 -44.4758 -44.4733 -44.4723 -44.4713 -44.4647 -44.4611
   -44.4607 -44.4597 -44.4583 -44.4548 -44.4497 -44.4476 -44.4467 -44.4463
   -44.4445 -44.4428 -44.4420 -44.4403 -44.4353 -44.4325 -44.4298 -44.4274
   -44.4227 -44.4215 -44.4182 -44.4164 -44.4155 -44.4141 -44.4110 -44.4098
   -44.4077 -44.4072 -44.4048 -44.4024 -44.4016 -44.4009 -44.3991 -44.3952
   -44.3936 -44.3839 -44.3822 -44.3688 -44.3624 -44.3570 -44.3455 -44.3415
   -44.3395 -44.3372 -44.3362 -44.3347 -44.3263 -44.3214 -44.3127 -44.3125
   -44.3109 -44.3104 -44.3073 -44.3060 -44.3041 -44.3022 -44.2937 -44.2932
   -44.2906 -44.2876 -44.2871 -44.2865 -44.2847 -44.2797 -44.2774 -44.2767
   -44.2742 -44.2716 -44.2679 -44.2665 -44.2655 -44.2633 -44.2615 -44.2606
   -44.2577 -44.2551 -44.2521 -44.2437 -44.2394 -44.2331 -44.2280 -44.2127
   -44.1839 -44.0939 -44.0240 -43.9224 -43.8811 -43.8712 -43.8482 -43.8421
   -43.8399 -43.8388 -43.8327 -43.8299 -43.8297 -43.8289 -43.8214 -43.8211
   -43.8210 -43.8204 -43.8153 -43.8147 -43.8126 -43.8102 -43.8060 -43.8039
   -43.8016 -43.7985 -43.7974 -43.7956 -43.7924 -43.7920 -43.7903 -43.7895
   -43.7802 -43.7787 -43.7786 -43.7777 -43.7762 -43.7609 -43.7578 -43.7574
   -43.7528 -43.7517 -43.7504 -43.7467 -43.7416 -43.7415 -43.7410 -43.7405
   -43.7386 -43.7373 -43.7354 -43.7346 -43.7320 -43.7307 -43.7306 -43.7287
   -43.7281 -43.7256 -43.7238 -43.7219 -43.7209 -43.7207 -43.7198 -43.7126
[...]
     8.9498   8.9591   8.9656   8.9731   8.9880   8.9939   8.9959   9.0000
     9.0050   9.0068   9.0145   9.0195   9.0301   9.0329   9.0389   9.0429
     9.0556   9.0696   9.0748   9.0783   9.0821   9.0840   9.0870   9.0899
     9.0912   9.0939   9.0981   9.1042   9.1093   9.1406   9.1475   9.1710
     9.1822   9.1839   9.1900   9.1952   9.1975   9.1991   9.2023   9.2056
     9.2108   9.2141   9.2182   9.2256   9.2290   9.2359   9.2484   9.2624
     9.2666   9.2721   9.2727   9.2767   9.2810   9.2865   9.2871   9.2914
     9.2966   9.2998   9.3021   9.3049   9.3152   9.3213   9.3272   9.3415
     9.3444   9.3598   9.3727   9.3821   9.3927   9.3986   9.4070   9.4189
     9.4198   9.4236   9.4253   9.4307   9.4334   9.4373   9.4413   9.4429
     9.4535   9.4616   9.4674   9.4756   9.4933   9.4979   9.5168   9.5266
     9.5480   9.5590   9.5820   9.6014   9.6187   9.6464   9.6500   9.6531
     9.6677   9.7695   9.7878   9.9211  10.0213  10.0939  10.3261  10.3290
    10.4513  10.4667  10.5070  10.5355  10.5400  10.5548  10.5735  10.5758
    10.6160  10.6462  10.6595  10.6775  10.7290  10.7669

     the Fermi energy is     8.2021 ev

!    total energy              =  -42571.41596363 Ry

     total all-electron energy =   -334887.884393 Ry
     estimated scf accuracy    <          9.6E-09 Ry
     smearing contrib. (-TS)   =       0.01894737 Ry
     internal energy E=F+TS    =  -42571.43491100 Ry

     The total energy is F=E-TS. E is the sum of the following terms:
     one-electron contribution =  -98104.76317953 Ry
     hartree contribution      =   49567.01264980 Ry
     xc contribution           =   -3573.59727377 Ry
     ewald contribution        =   20374.66585367 Ry
     one-center paw contrib.   =  -10834.75296116 Ry

     total magnetization       =     1.65 Bohr mag/cell
     absolute magnetization    =   229.98 Bohr mag/cell

     convergence has been achieved in  85 iterations

     negative rho (up, down):  1.696E-03 1.871E-03

     Forces acting on atoms (cartesian axes, Ry/au):

     atom    1 type  3   force =     0.01287097   -0.00899082    0.10615979
     atom    2 type  1   force =     0.02814758    0.01103753   -0.04181893
     atom    3 type  2   force =    -0.01691309   -0.02229110   -0.03587186
     atom    4 type  1   force =    -0.00141828    0.00688943   -0.00357257
     atom    5 type  2   force =     0.00380383   -0.00239542   -0.00248524
     atom    6 type  1   force =     0.00157176   -0.00051093    0.00011844
     atom    7 type  2   force =    -0.00124035    0.00118509    0.00140666
     atom    8 type  1   force =     0.00219929    0.00041529    0.00047916
     atom    9 type  2   force =    -0.00252878    0.00034041    0.00084360
     atom   10 type  1   force =     0.00194309   -0.00373839   -0.00600971
     atom   11 type  2   force =    -0.00383024    0.00245712   -0.00247463
     atom   12 type  1   force =     0.00035554   -0.00135401   -0.00057755
     atom   13 type  2   force =    -0.00045681   -0.00007216   -0.00095028
     atom   14 type  1   force =    -0.00174346    0.00136334    0.00387489
     atom   15 type  2   force =    -0.00232562    0.00041799   -0.00036523
     atom   16 type  1   force =     0.00012391   -0.00030686   -0.00012762
     atom   17 type  2   force =     0.00048950   -0.00066038   -0.00025977
     atom   18 type  1   force =    -0.00005194    0.00002895   -0.00006878
     atom   19 type  2   force =     0.00006127   -0.00007172    0.00007386
     atom   20 type  1   force =     0.00266567    0.00168543    0.00257922
     atom   21 type  2   force =    -0.00265736   -0.00175303    0.00284191
     atom   22 type  1   force =     0.00121562   -0.00006811    0.00128804
     atom   23 type  2   force =    -0.00108942    0.00029498    0.00089932
     atom   24 type  1   force =    -0.00009707   -0.00116319   -0.00244432
     atom   25 type  2   force =    -0.00009061    0.00117521   -0.00201983
     atom   26 type  1   force =     0.00421292   -0.00046260   -0.00267818
     atom   27 type  2   force =     0.00079285    0.00767213   -0.01444969
     atom   28 type  1   force =    -0.00044585    0.00097002   -0.00204103
     atom   29 type  2   force =     0.00034368    0.00152995    0.00004299
     atom   30 type  1   force =     0.00256125    0.00009948   -0.00081119
     atom   31 type  2   force =     0.00211152   -0.00151254    0.00307335
     atom   32 type  1   force =    -0.00060342    0.00092129   -0.00035836
     atom   33 type  2   force =    -0.00014542   -0.00005418    0.00058015
     atom   34 type  1   force =    -0.01060831    0.00093875   -0.01793883
     atom   35 type  2   force =    -0.00012232   -0.00356809   -0.00090770
     atom   36 type  1   force =     0.00290284    0.00113763   -0.00050143
     atom   37 type  2   force =    -0.00207316   -0.00091282   -0.00722213
     atom   38 type  1   force =     0.00014775   -0.00058808    0.00326115
     atom   39 type  2   force =     0.00204462    0.00048936   -0.00059550
     atom   40 type  1   force =     0.00439126   -0.00097235   -0.00002238
     atom   41 type  2   force =     0.00044644    0.00155258    0.00566435
     atom   42 type  1   force =    -0.00893876   -0.00603859   -0.00105729
     atom   43 type  2   force =     0.00001361   -0.00106985   -0.00189248
     atom   44 type  1   force =    -0.00038662   -0.00316670   -0.00368442
     atom   45 type  2   force =    -0.00013879   -0.00214448    0.00300016
     atom   46 type  1   force =    -0.00449989    0.00194631   -0.00156868
     atom   47 type  2   force =    -0.00048193    0.00098762    0.00018899
     atom   48 type  1   force =     0.00089316    0.00204732    0.00475195
     atom   49 type  2   force =     0.00126691   -0.00189895    0.00178366
     atom   50 type  1   force =     0.00083310    0.00293587   -0.00272509
     atom   51 type  2   force =     0.00017359    0.00172391   -0.00315856
     atom   52 type  1   force =     0.00257799   -0.00246972   -0.00046755
     atom   53 type  2   force =     0.00141479    0.00132161    0.00393870
     atom   54 type  1   force =    -0.00340917    0.00179589    0.00144038
     atom   55 type  2   force =    -0.00246256   -0.00088878    0.00288191
     atom   56 type  1   force =    -0.00073305   -0.00004257   -0.00029010
     atom   57 type  2   force =    -0.00002697    0.00020096   -0.00061461
     atom   58 type  1   force =     0.00087399    0.00432254   -0.00141001
     atom   59 type  2   force =    -0.00193900    0.00220846   -0.00070358
     atom   60 type  1   force =     0.00227967    0.00171736    0.00015173
[...]
     atom  115 type  2   force =    -0.00108157   -0.00296952   -0.00225435
     atom  116 type  1   force =    -0.00165249   -0.00083958    0.00414014
     atom  117 type  2   force =    -0.00267249    0.00288522   -0.00063729
     atom  118 type  1   force =     0.00236745    0.00103665    0.00305384
     atom  119 type  2   force =     0.00347383   -0.00147512    0.00138682
     atom  120 type  1   force =    -0.00002370    0.00010249   -0.00078203
     atom  121 type  2   force =     0.00070477    0.00015157   -0.00005595
     atom  122 type  1   force =    -0.00002915    0.00106562   -0.00203886
     atom  123 type  2   force =     0.00384813    0.00253300   -0.00019171
     atom  124 type  1   force =     0.00104398    0.00256813    0.00195615
     atom  125 type  2   force =     0.00111163    0.00298439   -0.00387356
     atom  126 type  1   force =     0.00026585   -0.00101729    0.00023900
     atom  127 type  2   force =     0.00377983   -0.00164128   -0.00185394
     atom  128 type  1   force =    -0.00097123    0.00205883    0.00159174
     atom  129 type  2   force =    -0.00090222   -0.00209445    0.00504267

     Total force =     0.136560     Total SCF correction =     0.000339

     Computing stress (Cartesian axis) and pressure

     negative rho (up, down):  1.696E-03 1.871E-03
          total   stress  (Ry/bohr**3)                   (kbar)     P=      -21.23
  -0.00015474   0.00000188  -0.00000588          -22.76        0.28       -0.87
   0.00000188  -0.00010848   0.00000480            0.28      -15.96        0.71
  -0.00000588   0.00000480  -0.00016973           -0.87        0.71      -24.97

     Writing output data file /scratch/bxp912/feruslab4.save/

     General routines

     Parallel routines

   This run was terminated on:  14:25:36  29May2022

   JOB DONE.