     Program PWSCF v.6.7MaX starts on 29May2022 at 14:25:44

     R & G space division:  proc/nbgrp/npool/nimage =      72
     Reading input from feruslabDr4.in
Warning: card &CELL ignored
Warning: card CELL_DYNAMICS = 'BFGS', ignored
Warning: card CELL_FACTOR = 2.0, ignored
Warning: card PRESS = 0.0, ignored
Warning: card / ignored

     Current dimensions of program PWSCF are:
     Max number of different atomic species (ntypx) = 10
     Max number of k-points (npk) =  40000
     Max angular momentum in pseudopotentials (lmaxx) =  3
     file Fe.pbe-spn-kjpaw_psl.1.0.0.UPF: wavefunction(s)  3P 3D renormalized
     file Fe.pbe-spn-kjpaw_psl.1.0.0.UPF: wavefunction(s)  3P 3D renormalized
     file Ru.pbe-spn-kjpaw_psl.1.0.0.UPF: wavefunction(s)  4D renormalized

     gamma-point specific algorithms are used

     Subspace diagonalization in iterative solution of the eigenvalue problem:
     one sub-group per band group will be used

     bravais-lattice index     =            0
     lattice parameter (alat)  =      25.8600  a.u.
     unit-cell volume          =   18186.5006 (a.u.)^3
     number of atoms/cell      =          129
     number of atomic types    =            3
     number of electrons       =      2064.00
     number of Kohn-Sham states=         1238
     kinetic-energy cutoff     =      71.0000  Ry
     charge density cutoff     =     430.0000  Ry
     scf convergence threshold =      1.0E-08
     mixing beta               =       0.3000
     number of iterations used =           10  local-TF  mixing
     Exchange-correlation= SLA  PW   PBX  PBC
                           (   1   4   3   4   0   0   0)

     celldm(1)=  25.860000  celldm(2)=   0.000000  celldm(3)=   0.000000
     celldm(4)=   0.000000  celldm(5)=   0.000000  celldm(6)=   0.000000

     crystal axes: (cart. coord. in units of alat)
               a(1) = (   1.000000   0.000000   0.000000 )
               a(2) = (   0.000000   1.051631   0.000000 )
               a(3) = (   0.000000   0.000000   1.000000 )

     reciprocal axes: (cart. coord. in units 2 pi/alat)
               b(1) = (  1.000000  0.000000  0.000000 )
               b(2) = (  0.000000  0.950903  0.000000 )
               b(3) = (  0.000000  0.000000  1.000000 )

     PseudoPot. # 1 for Fe read from file:
     /rds/homes/b/bxp912/pp/Fe.pbe-spn-kjpaw_psl.1.0.0.UPF
     MD5 check sum: 42f43b795421b414b0dc916aa790dbcb
     Pseudo is Projector augmented-wave + core cor, Zval = 16.0
     Generated using &quot;atomic&quot; code by A. Dal Corso  v.6.3
     Shape of augmentation charge: PSQ
     Using radial grid of 1191 points,  6 beta functions with:
                l(1) =   0
                l(2) =   0
                l(3) =   1
                l(4) =   1
                l(5) =   2
                l(6) =   2
     Q(r) pseudized with 0 coefficients

     PseudoPot. # 2 for Fe read from file:
     /rds/homes/b/bxp912/pp/Fe.pbe-spn-kjpaw_psl.1.0.0.UPF
     MD5 check sum: 42f43b795421b414b0dc916aa790dbcb
     Pseudo is Projector augmented-wave + core cor, Zval = 16.0
     Generated using &quot;atomic&quot; code by A. Dal Corso  v.6.3
     Shape of augmentation charge: PSQ
     Using radial grid of 1191 points,  6 beta functions with:
                l(1) =   0
                l(2) =   0
                l(3) =   1
                l(4) =   1
                l(5) =   2
                l(6) =   2
     Q(r) pseudized with 0 coefficients

     PseudoPot. # 3 for Ru read from file:
     /rds/homes/b/bxp912/pp/Ru.pbe-spn-kjpaw_psl.1.0.0.UPF
     MD5 check sum: 0ae1f594dea09af7be8575c3a481d1ae
     Pseudo is Projector augmented-wave + core cor, Zval = 16.0
     Generated using "atomic" code by A. Dal Corso  v.5.1
     Shape of augmentation charge: PSQ
     Using radial grid of 1233 points,  6 beta functions with:
                l(1) =   0
                l(2) =   0
                l(3) =   1
                l(4) =   1
                l(5) =   2
                l(6) =   2
     Q(r) pseudized with 0 coefficients

     atomic species   valence    mass     pseudopotential
        Fe1           16.00    55.84500     Fe( 1.00)
        Fe2           16.00    55.84500     Fe( 1.00)
        Ru            16.00   101.07000     Ru( 1.00)

     Starting magnetic structure
     atomic species   magnetization
        Fe1          0.100
        Fe2         -0.100
        Ru           0.001

     No symmetry found

   Cartesian axes

     site n.     atom                  positions (alat units)
         1           Ru  tau(   1) = (   0.1419147   0.1149731   0.1759229  )
         2           Fe1 tau(   2) = (   0.0587515   0.0653881   0.3211198  )
         3           Fe2 tau(   3) = (   0.1884265   0.2002713   0.3214448  )
         4           Fe1 tau(   4) = (   0.1868213   0.0655646   0.4421276  )
         5           Fe2 tau(   5) = (   0.0624952   0.1980629   0.4424469  )
         6           Fe1 tau(   6) = (   0.0623234   0.0655267   0.5697271  )
         7           Fe2 tau(   7) = (   0.1876610   0.1975943   0.5698145  )
         8           Fe1 tau(   8) = (   0.1882185   0.0650035   0.6879009  )
         9           Fe2 tau(   9) = (   0.0616632   0.1980291   0.6879420  )
        10           Fe1 tau(  10) = (   0.0653597   0.3265762   0.3172267  )
        11           Fe2 tau(  11) = (   0.1877413   0.4579090   0.3175394  )
        12           Fe1 tau(  12) = (   0.1881227   0.3296492   0.4412225  )
        13           Fe2 tau(  13) = (   0.0633903   0.4595175   0.4385688  )
        14           Fe1 tau(  14) = (   0.0628268   0.3296102   0.5678640  )
        15           Fe2 tau(  15) = (   0.1885537   0.4615096   0.5682187  )
        16           Fe1 tau(  16) = (   0.1887326   0.3305664   0.6874596  )
        17           Fe2 tau(  17) = (   0.0603308   0.4618776   0.6862421  )
        18           Fe1 tau(  18) = (   0.0648519   0.5907106   0.3145093  )
        19           Fe2 tau(  19) = (   0.1847510   0.7238107   0.3145456  )
        20           Fe1 tau(  20) = (   0.1863681   0.5909977   0.4371267  )
        21           Fe2 tau(  21) = (   0.0633682   0.7236125   0.4371464  )
        22           Fe1 tau(  22) = (   0.0615849   0.5918936   0.5662034  )
        23           Fe2 tau(  23) = (   0.1882586   0.7226899   0.5660552  )
        24           Fe1 tau(  24) = (   0.1887997   0.5925453   0.6861716  )
        25           Fe2 tau(  25) = (   0.0613274   0.7219977   0.6862125  )
        26           Fe1 tau(  26) = (   0.0618357   0.8560935   0.3172000  )
        27           Fe2 tau(  27) = (   0.1829530   0.9895025   0.3139428  )
        28           Fe1 tau(  28) = (   0.1862919   0.8555747   0.4379183  )
        29           Fe2 tau(  29) = (   0.0618572   0.9855343   0.4406165  )
        30           Fe1 tau(  30) = (   0.0613876   0.8531658   0.5679772  )
        31           Fe2 tau(  31) = (   0.1869233   0.9851356   0.5677120  )
        32           Fe1 tau(  32) = (   0.1896322   0.8527645   0.6860337  )
        33           Fe2 tau(  33) = (   0.0612834   0.9839846   0.6875207  )
        34           Fe1 tau(  34) = (   0.3076371   0.0696373   0.3122286  )
        35           Fe2 tau(  35) = (   0.4357117   0.1980603   0.3171939  )
        36           Fe1 tau(  36) = (   0.4341488   0.0657210   0.4341951  )
        37           Fe2 tau(  37) = (   0.3121648   0.1978698   0.4418603  )
        38           Fe1 tau(  38) = (   0.3124073   0.0653502   0.5666112  )
        39           Fe2 tau(  39) = (   0.4385533   0.1968925   0.5660486  )
        40           Fe1 tau(  40) = (   0.4380091   0.0657438   0.6859902  )
        41           Fe2 tau(  41) = (   0.3146724   0.1973275   0.6859048  )
        42           Fe1 tau(  42) = (   0.3112557   0.3275738   0.3170910  )
        43           Fe2 tau(  43) = (   0.4354886   0.4597974   0.3147106  )
        44           Fe1 tau(  44) = (   0.4374791   0.3293042   0.4369893  )
        45           Fe2 tau(  45) = (   0.3125364   0.4604356   0.4366549  )
        46           Fe1 tau(  46) = (   0.3141732   0.3293478   0.5679259  )
        47           Fe2 tau(  47) = (   0.4390386   0.4604040   0.5632767  )
        48           Fe1 tau(  48) = (   0.4403086   0.3292951   0.6845898  )
        49           Fe2 tau(  49) = (   0.3159177   0.4625217   0.6855273  )
        50           Fe1 tau(  50) = (   0.3083587   0.5903099   0.3147277  )
        51           Fe2 tau(  51) = (   0.4339295   0.7233087   0.3130231  )
        52           Fe1 tau(  52) = (   0.4358847   0.5924128   0.4322183  )
        53           Fe2 tau(  53) = (   0.3104159   0.7228918   0.4334436  )
        54           Fe1 tau(  54) = (   0.3142966   0.5918280   0.5641361  )
        55           Fe2 tau(  55) = (   0.4385180   0.7234213   0.5598951  )
        56           Fe1 tau(  56) = (   0.4419191   0.5923939   0.6824908  )
        57           Fe2 tau(  57) = (   0.3162141   0.7223454   0.6842751  )
        58           Fe1 tau(  58) = (   0.3074024   0.8548895   0.3147790  )
        59           Fe2 tau(  59) = (   0.4344514   0.9868630   0.3150403  )
        60           Fe1 tau(  60) = (   0.4356335   0.8547100   0.4315209  )
[...]
       115           Fe2 tau( 115) = (   0.9412610   0.7242602   0.3148148  )
       116           Fe1 tau( 116) = (   0.9393584   0.5917595   0.4337111  )
       117           Fe2 tau( 117) = (   0.8139347   0.7222047   0.4324709  )
       118           Fe1 tau( 118) = (   0.8112426   0.5912370   0.5601288  )
       119           Fe2 tau( 119) = (   0.9356265   0.7227141   0.5643328  )
       120           Fe1 tau( 120) = (   0.9336551   0.5923087   0.6844350  )
       121           Fe2 tau( 121) = (   0.8078635   0.7222525   0.6825759  )
       122           Fe1 tau( 122) = (   0.8143703   0.8548553   0.3146769  )
       123           Fe2 tau( 123) = (   0.9388847   0.9870538   0.3171989  )
       124           Fe1 tau( 124) = (   0.9373427   0.8541441   0.4366752  )
       125           Fe2 tau( 125) = (   0.8125994   0.9853090   0.4370552  )
       126           Fe1 tau( 126) = (   0.8108362   0.8541803   0.5632913  )
       127           Fe2 tau( 127) = (   0.9358746   0.9851837   0.5680012  )
       128           Fe1 tau( 128) = (   0.9341019   0.8520056   0.6853792  )
       129           Fe2 tau( 129) = (   0.8094919   0.9851394   0.6846363  )

     number of k points=     1  Marzari-Vanderbilt smearing, width (Ry)=  0.0400
                       cart. coord. in units 2pi/alat
        k(    1) = (   0.0000000   0.0000000   0.0000000), wk =   1.0000000

     Check: negative core charge=   -0.000004
     Generating pointlists ...
     new r_m :   0.0707 (alat units)  1.8289 (a.u.) for type    1
     new r_m :   0.0709 (alat units)  1.8345 (a.u.) for type    2
     new r_m :   0.0720 (alat units)  1.8616 (a.u.) for type    3

     Initial potential from superposition of free atoms

     starting charge 2063.94336, renormalised to 2064.00000

     negative rho (up, down):  1.763E-04 1.763E-04
     Starting wfcs are 1290 randomized atomic wfcs
     Checking if some PAW data can be deallocated...

     Self-consistent Calculation

     iteration #  1     ecut=    71.00 Ry     beta= 0.30
[...]
   -46.2289 -46.2249 -46.2232 -46.2211 -46.2205 -46.2189 -46.2179 -46.2173
   -46.2129 -46.2071 -46.2063 -46.2048 -46.1955 -46.1920 -46.1880 -46.1878
   -46.1752 -46.1719 -46.1662 -46.1643 -46.1581 -46.1393 -46.0337 -45.9660
   -45.9587 -45.8684 -45.8427 -45.7885 -45.7687 -45.7554 -45.7525 -45.7462
   -45.7316 -45.7277 -45.7233 -45.7221 -45.7199 -45.7142 -45.7114 -45.7107
   -45.7090 -45.7087 -45.7084 -45.7072 -45.7054 -45.7027 -45.6984 -45.6940
   -45.6912 -45.6855 -45.6824 -45.6793 -45.6785 -45.6774 -45.6755 -45.6742
   -45.6739 -45.6702 -45.6693 -45.6681 -45.6594 -45.6559 -45.6541 -45.6500
   -45.6489 -45.6468 -45.6463 -45.6427 -45.6377 -45.6322 -45.6289 -45.6126
   -45.6032 -45.5983 -45.5959 -45.5867 -45.5815 -45.5759 -45.5730 -45.5670
   -45.5650 -45.5620 -45.5608 -45.5590 -45.5570 -45.5548 -45.5527 -45.5440
   -45.5426 -45.5391 -45.5324 -45.5316 -45.5291 -45.5148 -45.5112 -45.5099
   -45.5081 -45.5073 -45.5056 -45.5049 -45.5044 -45.5029 -45.5004 -45.4989
   -45.4936 -45.4886 -45.4854 -45.4830 -45.4818 -45.4805 -45.4677 -45.4577
   -45.4553 -45.4516 -45.4512 -45.4456 -45.4439 -45.4423 -45.4222 -45.4137
   -45.3848 -44.5585 -44.5528 -44.5249 -44.4972 -44.4932 -44.4914 -44.4900
   -44.4886 -44.4781 -44.4710 -44.4700 -44.4695 -44.4677 -44.4656 -44.4624
   -44.4609 -44.4570 -44.4563 -44.4550 -44.4530 -44.4488 -44.4445 -44.4437
   -44.4433 -44.4400 -44.4398 -44.4388 -44.4369 -44.4348 -44.4342 -44.4317
   -44.4271 -44.4264 -44.4257 -44.4251 -44.4190 -44.4171 -44.4124 -44.4115
   -44.4095 -44.4085 -44.4059 -44.4037 -44.4023 -44.3975 -44.3972 -44.3927
   -44.3926 -44.3913 -44.3832 -44.3764 -44.3737 -44.3722 -44.3606 -44.3528
   -44.3416 -44.3392 -44.3372 -44.3346 -44.3225 -44.3158 -44.3136 -44.3127
   -44.3118 -44.3109 -44.3106 -44.3094 -44.3074 -44.3018 -44.2995 -44.2941
   -44.2904 -44.2901 -44.2880 -44.2870 -44.2862 -44.2817 -44.2799 -44.2752
   -44.2700 -44.2690 -44.2678 -44.2666 -44.2637 -44.2627 -44.2618 -44.2594
   -44.2574 -44.2501 -44.2460 -44.2448 -44.2424 -44.2404 -44.2392 -44.2306
   -44.2162 -44.1996 -44.1521 -44.1471 -43.8715 -43.8670 -43.8477 -43.8467
   -43.8420 -43.8374 -43.8350 -43.8346 -43.8300 -43.8290 -43.8266 -43.8246
   -43.8241 -43.8188 -43.8178 -43.8172 -43.8161 -43.8134 -43.8094 -43.8059
   -43.8058 -43.7983 -43.7979 -43.7967 -43.7921 -43.7913 -43.7907 -43.7903
   -43.7836 -43.7802 -43.7790 -43.7784 -43.7714 -43.7650 -43.7642 -43.7599
   -43.7583 -43.7574 -43.7506 -43.7493 -43.7466 -43.7460 -43.7448 -43.7430
   -43.7424 -43.7407 -43.7375 -43.7366 -43.7361 -43.7340 -43.7318 -43.7305
   -43.7290 -43.7259 -43.7227 -43.7218 -43.7207 -43.7200 -43.7184 -43.7178
[...]
     8.9430   8.9461   8.9494   8.9559   8.9734   8.9866   8.9921   8.9931
     8.9943   9.0001   9.0035   9.0059   9.0173   9.0275   9.0329   9.0355
     9.0433   9.0633   9.0700   9.0730   9.0763   9.0797   9.0849   9.0885
     9.0906   9.0919   9.0928   9.0965   9.1019   9.1341   9.1467   9.1659
     9.1719   9.1793   9.1835   9.1894   9.1910   9.1962   9.1991   9.2012
     9.2029   9.2086   9.2103   9.2138   9.2186   9.2280   9.2456   9.2508
     9.2663   9.2674   9.2723   9.2733   9.2769   9.2829   9.2844   9.2861
     9.2882   9.2946   9.2983   9.3053   9.3065   9.3199   9.3250   9.3356
     9.3414   9.3552   9.3717   9.3812   9.3845   9.3922   9.4069   9.4119
     9.4175   9.4208   9.4221   9.4243   9.4283   9.4297   9.4305   9.4406
     9.4427   9.4524   9.4615   9.4660   9.4769   9.4902   9.5051   9.5213
     9.5413   9.5596   9.5756   9.5978   9.6075   9.6234   9.6441   9.6478
     9.6550   9.7567   9.7819   9.8404  10.0114  10.0471  10.3130  10.3235
    10.4358  10.4645  10.4968  10.5317  10.5411  10.5563  10.5627  10.5804
    10.5885  10.6478  10.6580  10.6620  10.7332  10.7505

 ------ SPIN DOWN ----------

          k = 0.0000 0.0000 0.0000 ( 91909 PWs)   bands (ev):

   -80.2934 -80.2913 -80.2784 -80.2783 -80.2776 -80.2751 -80.2658 -80.2651
   -80.2648 -80.2645 -80.2593 -80.2558 -80.2535 -80.2527 -80.2442 -80.2425
   -80.2369 -80.2342 -80.2335 -80.2271 -80.2248 -80.2199 -80.2179 -80.2175
   -80.2160 -80.2004 -80.2000 -80.1967 -80.1916 -80.1589 -80.1565 -79.8306
   -79.7713 -79.6912 -79.6670 -79.6570 -79.6416 -79.6352 -79.6251 -79.6158
   -79.6070 -79.6055 -79.5994 -79.5801 -79.5668 -79.5630 -79.5484 -79.5424
   -79.5363 -79.5305 -79.5242 -79.5150 -79.5110 -79.5108 -79.4993 -79.4982
   -79.4823 -79.4757 -79.4580 -79.4524 -79.4323 -79.4193 -79.3979 -79.3453
   -78.4065 -78.3762 -78.3592 -78.3585 -78.3494 -78.3448 -78.3424 -78.3300
   -78.3100 -78.3027 -78.2997 -78.2964 -78.2934 -78.2916 -78.2877 -78.2833
   -78.2779 -78.2722 -78.2523 -78.2460 -78.2440 -78.2415 -78.2329 -78.2282
   -78.2268 -78.2265 -78.2245 -78.1972 -78.1963 -78.1953 -78.1828 -78.1280
   -77.9655 -77.7003 -77.6922 -77.6740 -77.6715 -77.6681 -77.6673 -77.6658
   -77.6596 -77.6590 -77.6576 -77.6561 -77.6532 -77.6517 -77.6509 -77.6505
   -77.6491 -77.6453 -77.6434 -77.6428 -77.6392 -77.6369 -77.6368 -77.6337
   -77.6329 -77.6323 -77.6320 -77.6297 -77.6293 -77.6217 -77.6188 -77.6177
   -63.3624 -46.4514 -46.4486 -46.4357 -46.4317 -46.4312 -46.4295 -46.4258
   -46.4188 -46.4187 -46.4148 -46.4124 -46.4115 -46.4101 -46.4051 -46.3986
   -46.3965 -46.3955 -46.3924 -46.3897 -46.3877 -46.3876 -46.3802 -46.3801
   -46.3780 -46.3725 -46.3645 -46.3576 -46.3565 -46.3527 -46.3525 -46.3503
   -46.3495 -46.3426 -46.3415 -46.3367 -46.3326 -46.3309 -46.3257 -46.3250
   -46.3248 -46.3217 -46.3188 -46.3159 -46.3149 -46.3126 -46.3117 -46.3076
   -46.3003 -46.2979 -46.2944 -46.2890 -46.2879 -46.2870 -46.2836 -46.2826
   -46.2758 -46.2687 -46.2665 -46.2654 -46.2624 -46.2599 -46.2561 -46.2500
   -46.2487 -46.2471 -46.2464 -46.2405 -46.2379 -46.2348 -46.2343 -46.2318
   -46.2292 -46.2275 -46.2265 -46.2250 -46.2248 -46.2229 -46.2161 -46.2139
   -46.2087 -46.2076 -46.2058 -46.1990 -46.1980 -46.1970 -46.1940 -46.1889
   -46.1824 -46.1804 -46.1786 -46.1715 -46.1461 -46.1424 -45.9596 -45.9210
   -45.9170 -45.8481 -45.8451 -45.8081 -45.7723 -45.7620 -45.7589 -45.7585
   -45.7548 -45.7508 -45.7421 -45.7381 -45.7379 -45.7325 -45.7287 -45.7231
   -45.7219 -45.7151 -45.7131 -45.7112 -45.7087 -45.7069 -45.7007 -45.6975
   -45.6963 -45.6917 -45.6896 -45.6848 -45.6816 -45.6807 -45.6789 -45.6765
   -45.6733 -45.6715 -45.6707 -45.6695 -45.6516 -45.6506 -45.6451 -45.6429
   -45.6387 -45.6357 -45.6330 -45.6298 -45.6273 -45.6134 -45.6107 -45.6037
   -45.5983 -45.5932 -45.5904 -45.5897 -45.5846 -45.5797 -45.5755 -45.5729
   -45.5702 -45.5627 -45.5580 -45.5567 -45.5559 -45.5549 -45.5508 -45.5463
   -45.5419 -45.5365 -45.5319 -45.5311 -45.5285 -45.5279 -45.5164 -45.5162
   -45.5152 -45.5133 -45.5111 -45.5085 -45.5066 -45.5059 -45.5049 -45.4987
   -45.4931 -45.4926 -45.4850 -45.4823 -45.4818 -45.4714 -45.4705 -45.4666
   -45.4625 -45.4593 -45.4474 -45.4452 -45.4444 -45.4314 -45.4162 -45.3859
   -45.3753 -44.5251 -44.5150 -44.4990 -44.4965 -44.4886 -44.4829 -44.4821
   -44.4795 -44.4774 -44.4757 -44.4733 -44.4723 -44.4719 -44.4655 -44.4610
   -44.4607 -44.4597 -44.4584 -44.4550 -44.4498 -44.4480 -44.4466 -44.4462
   -44.4445 -44.4430 -44.4422 -44.4406 -44.4351 -44.4327 -44.4296 -44.4274
   -44.4226 -44.4214 -44.4174 -44.4163 -44.4158 -44.4139 -44.4113 -44.4095
   -44.4076 -44.4065 -44.4052 -44.4023 -44.4014 -44.4007 -44.3990 -44.3956
   -44.3941 -44.3828 -44.3822 -44.3689 -44.3616 -44.3576 -44.3464 -44.3422
   -44.3392 -44.3375 -44.3366 -44.3351 -44.3264 -44.3211 -44.3128 -44.3111
   -44.3107 -44.3095 -44.3076 -44.3048 -44.3041 -44.3025 -44.2941 -44.2935
   -44.2908 -44.2878 -44.2872 -44.2867 -44.2849 -44.2797 -44.2775 -44.2768
   -44.2743 -44.2717 -44.2680 -44.2666 -44.2657 -44.2634 -44.2628 -44.2608
   -44.2579 -44.2551 -44.2508 -44.2440 -44.2396 -44.2328 -44.2284 -44.2149
   -44.1844 -44.1091 -44.0380 -43.9370 -43.8812 -43.8713 -43.8484 -43.8436
   -43.8401 -43.8389 -43.8338 -43.8302 -43.8298 -43.8290 -43.8215 -43.8211
   -43.8210 -43.8204 -43.8154 -43.8148 -43.8127 -43.8102 -43.8062 -43.8040
   -43.8016 -43.7987 -43.7975 -43.7956 -43.7926 -43.7921 -43.7905 -43.7904
   -43.7804 -43.7791 -43.7787 -43.7778 -43.7766 -43.7610 -43.7580 -43.7574
   -43.7531 -43.7529 -43.7519 -43.7468 -43.7418 -43.7416 -43.7412 -43.7407
   -43.7387 -43.7374 -43.7356 -43.7348 -43.7321 -43.7308 -43.7308 -43.7289
   -43.7282 -43.7268 -43.7238 -43.7220 -43.7210 -43.7208 -43.7199 -43.7129
[...]
     8.9493   8.9587   8.9647   8.9722   8.9876   8.9936   8.9955   8.9997
     9.0046   9.0063   9.0141   9.0190   9.0298   9.0326   9.0386   9.0425
     9.0548   9.0692   9.0743   9.0782   9.0817   9.0839   9.0867   9.0898
     9.0910   9.0935   9.0976   9.1039   9.1088   9.1403   9.1471   9.1709
     9.1818   9.1836   9.1897   9.1949   9.1973   9.1988   9.2019   9.2052
     9.2106   9.2138   9.2179   9.2251   9.2283   9.2358   9.2482   9.2621
     9.2662   9.2720   9.2726   9.2764   9.2807   9.2862   9.2869   9.2910
     9.2963   9.2994   9.3015   9.3044   9.3149   9.3211   9.3268   9.3412
     9.3437   9.3596   9.3724   9.3818   9.3923   9.3983   9.4068   9.4187
     9.4195   9.4234   9.4248   9.4305   9.4330   9.4367   9.4411   9.4424
     9.4531   9.4609   9.4669   9.4756   9.4927   9.4971   9.5163   9.5260
     9.5476   9.5588   9.5818   9.6013   9.6182   9.6462   9.6498   9.6530
     9.6674   9.7688   9.7876   9.9210  10.0209  10.0931  10.3255  10.3288
    10.4507  10.4666  10.5064  10.5356  10.5395  10.5546  10.5736  10.5753
    10.6157  10.6461  10.6593  10.6773  10.7288  10.7664

     the Fermi energy is     8.2020 ev

!    total energy              =  -42571.41749540 Ry

     total all-electron energy =   -334887.885925 Ry
     estimated scf accuracy    <          9.1E-09 Ry
     smearing contrib. (-TS)   =       0.01859829 Ry
     internal energy E=F+TS    =  -42571.43609368 Ry

     The total energy is F=E-TS. E is the sum of the following terms:
     one-electron contribution =  -98111.12571748 Ry
     hartree contribution      =   49570.19317213 Ry
     xc contribution           =   -3573.60020489 Ry
     ewald contribution        =   20377.84970628 Ry
     one-center paw contrib.   =  -10834.75304973 Ry

     total magnetization       =     1.56 Bohr mag/cell
     absolute magnetization    =   229.95 Bohr mag/cell

     convergence has been achieved in  88 iterations

     negative rho (up, down):  1.696E-03 1.870E-03

     Forces acting on atoms (cartesian axes, Ry/au):

     atom    1 type  3   force =     0.01328926   -0.00896490    0.10473026
     atom    2 type  1   force =     0.02756120    0.01042798   -0.04109703
     atom    3 type  2   force =    -0.01665667   -0.02191852   -0.03586966
     atom    4 type  1   force =    -0.00152934    0.00665721   -0.00338890
     atom    5 type  2   force =     0.00358869   -0.00244896   -0.00228262
     atom    6 type  1   force =     0.00154245   -0.00053173    0.00015887
     atom    7 type  2   force =    -0.00126000    0.00116485    0.00129637
     atom    8 type  1   force =     0.00221465    0.00037301    0.00052866
     atom    9 type  2   force =    -0.00249531    0.00032403    0.00083670
     atom   10 type  1   force =     0.00168952   -0.00344697   -0.00592523
     atom   11 type  2   force =    -0.00382677    0.00238546   -0.00244173
     atom   12 type  1   force =     0.00038533   -0.00122276   -0.00047129
     atom   13 type  2   force =    -0.00042808   -0.00011209   -0.00101619
     atom   14 type  1   force =    -0.00176869    0.00138560    0.00387103
     atom   15 type  2   force =    -0.00232467    0.00039760   -0.00037820
     atom   16 type  1   force =     0.00012346   -0.00027405   -0.00005773
     atom   17 type  2   force =     0.00049828   -0.00065569   -0.00026479
     atom   18 type  1   force =    -0.00005753    0.00002020   -0.00005461
     atom   19 type  2   force =     0.00005588   -0.00006991    0.00005005
     atom   20 type  1   force =     0.00266238    0.00169094    0.00259246
     atom   21 type  2   force =    -0.00266064   -0.00175029    0.00282770
     atom   22 type  1   force =     0.00121606   -0.00007274    0.00127628
     atom   23 type  2   force =    -0.00109046    0.00029428    0.00090600
     atom   24 type  1   force =    -0.00009750   -0.00115099   -0.00242113
     atom   25 type  2   force =    -0.00008699    0.00118141   -0.00202990
     atom   26 type  1   force =     0.00420641   -0.00051446   -0.00265178
     atom   27 type  2   force =     0.00074176    0.00781535   -0.01451346
     atom   28 type  1   force =    -0.00042522    0.00095192   -0.00201455
     atom   29 type  2   force =     0.00031185    0.00158676    0.00002304
     atom   30 type  1   force =     0.00256957    0.00009341   -0.00080833
     atom   31 type  2   force =     0.00208299   -0.00147551    0.00305406
     atom   32 type  1   force =    -0.00059939    0.00091124   -0.00033703
     atom   33 type  2   force =    -0.00014518   -0.00004352    0.00055385
     atom   34 type  1   force =    -0.01024644    0.00069580   -0.01772180
     atom   35 type  2   force =    -0.00015765   -0.00355725   -0.00090798
     atom   36 type  1   force =     0.00283083    0.00114131   -0.00050234
     atom   37 type  2   force =    -0.00201608   -0.00087696   -0.00715984
     atom   38 type  1   force =     0.00017524   -0.00059156    0.00324361
     atom   39 type  2   force =     0.00199524    0.00048806   -0.00065613
     atom   40 type  1   force =     0.00438846   -0.00097707    0.00001863
     atom   41 type  2   force =     0.00041401    0.00155006    0.00567158
     atom   42 type  1   force =    -0.00873096   -0.00587811   -0.00089403
     atom   43 type  2   force =     0.00002821   -0.00105260   -0.00190211
     atom   44 type  1   force =    -0.00044449   -0.00317507   -0.00370699
     atom   45 type  2   force =    -0.00018872   -0.00219050    0.00293604
     atom   46 type  1   force =    -0.00448072    0.00195099   -0.00159408
     atom   47 type  2   force =    -0.00048196    0.00098591    0.00018918
     atom   48 type  1   force =     0.00088270    0.00205219    0.00477021
     atom   49 type  2   force =     0.00126221   -0.00190066    0.00177573
     atom   50 type  1   force =     0.00083954    0.00291968   -0.00271414
     atom   51 type  2   force =     0.00017960    0.00172399   -0.00317440
     atom   52 type  1   force =     0.00257508   -0.00247407   -0.00047157
     atom   53 type  2   force =     0.00142217    0.00132029    0.00393021
     atom   54 type  1   force =    -0.00340822    0.00179127    0.00144010
     atom   55 type  2   force =    -0.00246591   -0.00088863    0.00288092
     atom   56 type  1   force =    -0.00073455   -0.00004309   -0.00027728
     atom   57 type  2   force =    -0.00003319    0.00019812   -0.00062264
     atom   58 type  1   force =     0.00085979    0.00435452   -0.00138145
     atom   59 type  2   force =    -0.00195315    0.00220371   -0.00074555
     atom   60 type  1   force =     0.00227056    0.00172506    0.00015523
[...]
     atom  115 type  2   force =    -0.00108370   -0.00297626   -0.00227474
     atom  116 type  1   force =    -0.00165216   -0.00084909    0.00413728
     atom  117 type  2   force =    -0.00267512    0.00287657   -0.00064929
     atom  118 type  1   force =     0.00236734    0.00103284    0.00305567
     atom  119 type  2   force =     0.00346792   -0.00147726    0.00139100
     atom  120 type  1   force =    -0.00001997    0.00009743   -0.00076541
     atom  121 type  2   force =     0.00070823    0.00015932   -0.00006848
     atom  122 type  1   force =    -0.00005143    0.00105680   -0.00201632
     atom  123 type  2   force =     0.00405280    0.00274908   -0.00023864
     atom  124 type  1   force =     0.00104233    0.00257781    0.00196816
     atom  125 type  2   force =     0.00110968    0.00298610   -0.00388644
     atom  126 type  1   force =     0.00026854   -0.00100922    0.00023886
     atom  127 type  2   force =     0.00378996   -0.00164316   -0.00186259
     atom  128 type  1   force =    -0.00097072    0.00205846    0.00161051
     atom  129 type  2   force =    -0.00090407   -0.00210176    0.00503427

     Total force =     0.134914     Total SCF correction =     0.000512

     Computing stress (Cartesian axis) and pressure

     negative rho (up, down):  1.696E-03 1.870E-03
          total   stress  (Ry/bohr**3)                   (kbar)     P=      -21.07
  -0.00015376   0.00000194  -0.00000604          -22.62        0.29       -0.89
   0.00000194  -0.00010750   0.00000477            0.29      -15.81        0.70
  -0.00000604   0.00000477  -0.00016842           -0.89        0.70      -24.78

     Writing output data file /scratch/bxp912/feruslab4r4.save/

     General routines

     Parallel routines

   This run was terminated on:  15: 3:42  29May2022

   JOB DONE.