     Program PWSCF v.6.7MaX starts on 29May2022 at 15: 3:47

     R & G space division:  proc/nbgrp/npool/nimage =      72
     Reading input from feruslabDr5.in
Warning: card &CELL ignored
Warning: card CELL_DYNAMICS = 'BFGS', ignored
Warning: card CELL_FACTOR = 2.0, ignored
Warning: card PRESS = 0.0, ignored
Warning: card / ignored

     Current dimensions of program PWSCF are:
     Max number of different atomic species (ntypx) = 10
     Max number of k-points (npk) =  40000
     Max angular momentum in pseudopotentials (lmaxx) =  3
     file Fe.pbe-spn-kjpaw_psl.1.0.0.UPF: wavefunction(s)  3P 3D renormalized
     file Fe.pbe-spn-kjpaw_psl.1.0.0.UPF: wavefunction(s)  3P 3D renormalized
     file Ru.pbe-spn-kjpaw_psl.1.0.0.UPF: wavefunction(s)  4D renormalized

     gamma-point specific algorithms are used

     Subspace diagonalization in iterative solution of the eigenvalue problem:
     one sub-group per band group will be used

     bravais-lattice index     =            0
     lattice parameter (alat)  =      25.8600  a.u.
     unit-cell volume          =   18186.5006 (a.u.)^3
     number of atoms/cell      =          129
     number of atomic types    =            3
     number of electrons       =      2064.00
     number of Kohn-Sham states=         1238
     kinetic-energy cutoff     =      71.0000  Ry
     charge density cutoff     =     430.0000  Ry
     scf convergence threshold =      1.0E-08
     mixing beta               =       0.3000
     number of iterations used =           10  local-TF  mixing
     Exchange-correlation= SLA  PW   PBX  PBC
                           (   1   4   3   4   0   0   0)

     celldm(1)=  25.860000  celldm(2)=   0.000000  celldm(3)=   0.000000
     celldm(4)=   0.000000  celldm(5)=   0.000000  celldm(6)=   0.000000

     crystal axes: (cart. coord. in units of alat)
               a(1) = (   1.000000   0.000000   0.000000 )
               a(2) = (   0.000000   1.051631   0.000000 )
               a(3) = (   0.000000   0.000000   1.000000 )

     reciprocal axes: (cart. coord. in units 2 pi/alat)
               b(1) = (  1.000000  0.000000  0.000000 )
               b(2) = (  0.000000  0.950903  0.000000 )
               b(3) = (  0.000000  0.000000  1.000000 )

     PseudoPot. # 1 for Fe read from file:
     /rds/homes/b/bxp912/pp/Fe.pbe-spn-kjpaw_psl.1.0.0.UPF
     MD5 check sum: 42f43b795421b414b0dc916aa790dbcb
     Pseudo is Projector augmented-wave + core cor, Zval = 16.0
     Generated using &quot;atomic&quot; code by A. Dal Corso  v.6.3
     Shape of augmentation charge: PSQ
     Using radial grid of 1191 points,  6 beta functions with:
                l(1) =   0
                l(2) =   0
                l(3) =   1
                l(4) =   1
                l(5) =   2
                l(6) =   2
     Q(r) pseudized with 0 coefficients

     PseudoPot. # 2 for Fe read from file:
     /rds/homes/b/bxp912/pp/Fe.pbe-spn-kjpaw_psl.1.0.0.UPF
     MD5 check sum: 42f43b795421b414b0dc916aa790dbcb
     Pseudo is Projector augmented-wave + core cor, Zval = 16.0
     Generated using &quot;atomic&quot; code by A. Dal Corso  v.6.3
     Shape of augmentation charge: PSQ
     Using radial grid of 1191 points,  6 beta functions with:
                l(1) =   0
                l(2) =   0
                l(3) =   1
                l(4) =   1
                l(5) =   2
                l(6) =   2
     Q(r) pseudized with 0 coefficients

     PseudoPot. # 3 for Ru read from file:
     /rds/homes/b/bxp912/pp/Ru.pbe-spn-kjpaw_psl.1.0.0.UPF
     MD5 check sum: 0ae1f594dea09af7be8575c3a481d1ae
     Pseudo is Projector augmented-wave + core cor, Zval = 16.0
     Generated using "atomic" code by A. Dal Corso  v.5.1
     Shape of augmentation charge: PSQ
     Using radial grid of 1233 points,  6 beta functions with:
                l(1) =   0
                l(2) =   0
                l(3) =   1
                l(4) =   1
                l(5) =   2
                l(6) =   2
     Q(r) pseudized with 0 coefficients

     atomic species   valence    mass     pseudopotential
        Fe1           16.00    55.84500     Fe( 1.00)
        Fe2           16.00    55.84500     Fe( 1.00)
        Ru            16.00   101.07000     Ru( 1.00)

     Starting magnetic structure
     atomic species   magnetization
        Fe1          0.100
        Fe2         -0.100
        Ru           0.001

     No symmetry found

   Cartesian axes

     site n.     atom                  positions (alat units)
         1           Ru  tau(   1) = (   0.1424794   0.1154773   0.1756628  )
         2           Fe1 tau(   2) = (   0.0587515   0.0653881   0.3211198  )
         3           Fe2 tau(   3) = (   0.1884265   0.2002713   0.3214448  )
         4           Fe1 tau(   4) = (   0.1868213   0.0655646   0.4421276  )
         5           Fe2 tau(   5) = (   0.0624952   0.1980629   0.4424469  )
         6           Fe1 tau(   6) = (   0.0623234   0.0655267   0.5697271  )
         7           Fe2 tau(   7) = (   0.1876610   0.1975943   0.5698145  )
         8           Fe1 tau(   8) = (   0.1882185   0.0650035   0.6879009  )
         9           Fe2 tau(   9) = (   0.0616632   0.1980291   0.6879420  )
        10           Fe1 tau(  10) = (   0.0653597   0.3265762   0.3172267  )
        11           Fe2 tau(  11) = (   0.1877413   0.4579090   0.3175394  )
        12           Fe1 tau(  12) = (   0.1881227   0.3296492   0.4412225  )
        13           Fe2 tau(  13) = (   0.0633903   0.4595175   0.4385688  )
        14           Fe1 tau(  14) = (   0.0628268   0.3296102   0.5678640  )
        15           Fe2 tau(  15) = (   0.1885537   0.4615096   0.5682187  )
        16           Fe1 tau(  16) = (   0.1887326   0.3305664   0.6874596  )
        17           Fe2 tau(  17) = (   0.0603308   0.4618776   0.6862421  )
        18           Fe1 tau(  18) = (   0.0648519   0.5907106   0.3145093  )
        19           Fe2 tau(  19) = (   0.1847510   0.7238107   0.3145456  )
        20           Fe1 tau(  20) = (   0.1863681   0.5909977   0.4371267  )
        21           Fe2 tau(  21) = (   0.0633682   0.7236125   0.4371464  )
        22           Fe1 tau(  22) = (   0.0615849   0.5918936   0.5662034  )
        23           Fe2 tau(  23) = (   0.1882586   0.7226899   0.5660552  )
        24           Fe1 tau(  24) = (   0.1887997   0.5925453   0.6861716  )
        25           Fe2 tau(  25) = (   0.0613274   0.7219977   0.6862125  )
        26           Fe1 tau(  26) = (   0.0618357   0.8560935   0.3172000  )
        27           Fe2 tau(  27) = (   0.1829530   0.9895025   0.3139428  )
        28           Fe1 tau(  28) = (   0.1862919   0.8555747   0.4379183  )
        29           Fe2 tau(  29) = (   0.0618572   0.9855343   0.4406165  )
        30           Fe1 tau(  30) = (   0.0613876   0.8531658   0.5679772  )
        31           Fe2 tau(  31) = (   0.1869233   0.9851356   0.5677120  )
        32           Fe1 tau(  32) = (   0.1896322   0.8527645   0.6860337  )
        33           Fe2 tau(  33) = (   0.0612834   0.9839846   0.6875207  )
        34           Fe1 tau(  34) = (   0.3076371   0.0696373   0.3122286  )
        35           Fe2 tau(  35) = (   0.4357117   0.1980603   0.3171939  )
        36           Fe1 tau(  36) = (   0.4341488   0.0657210   0.4341951  )
        37           Fe2 tau(  37) = (   0.3121648   0.1978698   0.4418603  )
        38           Fe1 tau(  38) = (   0.3124073   0.0653502   0.5666112  )
        39           Fe2 tau(  39) = (   0.4385533   0.1968925   0.5660486  )
        40           Fe1 tau(  40) = (   0.4380091   0.0657438   0.6859902  )
        41           Fe2 tau(  41) = (   0.3146724   0.1973275   0.6859048  )
        42           Fe1 tau(  42) = (   0.3112557   0.3275738   0.3170910  )
        43           Fe2 tau(  43) = (   0.4354886   0.4597974   0.3147106  )
        44           Fe1 tau(  44) = (   0.4374791   0.3293042   0.4369893  )
        45           Fe2 tau(  45) = (   0.3125364   0.4604356   0.4366549  )
        46           Fe1 tau(  46) = (   0.3141732   0.3293478   0.5679259  )
        47           Fe2 tau(  47) = (   0.4390386   0.4604040   0.5632767  )
        48           Fe1 tau(  48) = (   0.4403086   0.3292951   0.6845898  )
        49           Fe2 tau(  49) = (   0.3159177   0.4625217   0.6855273  )
        50           Fe1 tau(  50) = (   0.3083587   0.5903099   0.3147277  )
        51           Fe2 tau(  51) = (   0.4339295   0.7233087   0.3130231  )
        52           Fe1 tau(  52) = (   0.4358847   0.5924128   0.4322183  )
        53           Fe2 tau(  53) = (   0.3104159   0.7228918   0.4334436  )
        54           Fe1 tau(  54) = (   0.3142966   0.5918280   0.5641361  )
        55           Fe2 tau(  55) = (   0.4385180   0.7234213   0.5598951  )
        56           Fe1 tau(  56) = (   0.4419191   0.5923939   0.6824908  )
        57           Fe2 tau(  57) = (   0.3162141   0.7223454   0.6842751  )
        58           Fe1 tau(  58) = (   0.3074024   0.8548895   0.3147790  )
        59           Fe2 tau(  59) = (   0.4344514   0.9868630   0.3150403  )
        60           Fe1 tau(  60) = (   0.4356335   0.8547100   0.4315209  )
[...]
       115           Fe2 tau( 115) = (   0.9412610   0.7242602   0.3148148  )
       116           Fe1 tau( 116) = (   0.9393584   0.5917595   0.4337111  )
       117           Fe2 tau( 117) = (   0.8139347   0.7222047   0.4324709  )
       118           Fe1 tau( 118) = (   0.8112426   0.5912370   0.5601288  )
       119           Fe2 tau( 119) = (   0.9356265   0.7227141   0.5643328  )
       120           Fe1 tau( 120) = (   0.9336551   0.5923087   0.6844350  )
       121           Fe2 tau( 121) = (   0.8078635   0.7222525   0.6825759  )
       122           Fe1 tau( 122) = (   0.8143703   0.8548553   0.3146769  )
       123           Fe2 tau( 123) = (   0.9388847   0.9870538   0.3171989  )
       124           Fe1 tau( 124) = (   0.9373427   0.8541441   0.4366752  )
       125           Fe2 tau( 125) = (   0.8125994   0.9853090   0.4370552  )
       126           Fe1 tau( 126) = (   0.8108362   0.8541803   0.5632913  )
       127           Fe2 tau( 127) = (   0.9358746   0.9851837   0.5680012  )
       128           Fe1 tau( 128) = (   0.9341019   0.8520056   0.6853792  )
       129           Fe2 tau( 129) = (   0.8094919   0.9851394   0.6846363  )

     number of k points=     1  Marzari-Vanderbilt smearing, width (Ry)=  0.0400
                       cart. coord. in units 2pi/alat
        k(    1) = (   0.0000000   0.0000000   0.0000000), wk =   1.0000000

     Check: negative core charge=   -0.000004
     Generating pointlists ...
     new r_m :   0.0707 (alat units)  1.8289 (a.u.) for type    1
     new r_m :   0.0709 (alat units)  1.8345 (a.u.) for type    2
     new r_m :   0.0721 (alat units)  1.8646 (a.u.) for type    3

     Initial potential from superposition of free atoms

     starting charge 2063.94336, renormalised to 2064.00000

     negative rho (up, down):  1.761E-04 1.760E-04
     Starting wfcs are 1290 randomized atomic wfcs
     Checking if some PAW data can be deallocated...

     Self-consistent Calculation

     iteration #  1     ecut=    71.00 Ry     beta= 0.30
[...]
   -46.2287 -46.2257 -46.2228 -46.2211 -46.2206 -46.2186 -46.2181 -46.2164
   -46.2133 -46.2070 -46.2068 -46.2048 -46.1948 -46.1911 -46.1879 -46.1874
   -46.1748 -46.1716 -46.1659 -46.1638 -46.1585 -46.1390 -46.0396 -45.9789
   -45.9642 -45.8657 -45.8418 -45.7929 -45.7690 -45.7547 -45.7530 -45.7464
   -45.7317 -45.7265 -45.7228 -45.7221 -45.7204 -45.7134 -45.7118 -45.7110
   -45.7106 -45.7084 -45.7078 -45.7058 -45.7053 -45.7028 -45.6987 -45.6927
   -45.6881 -45.6850 -45.6832 -45.6799 -45.6779 -45.6772 -45.6756 -45.6742
   -45.6732 -45.6698 -45.6691 -45.6685 -45.6579 -45.6566 -45.6546 -45.6508
   -45.6491 -45.6464 -45.6453 -45.6430 -45.6376 -45.6310 -45.6291 -45.6084
   -45.6041 -45.5995 -45.5972 -45.5863 -45.5791 -45.5754 -45.5712 -45.5659
   -45.5618 -45.5611 -45.5599 -45.5578 -45.5571 -45.5553 -45.5529 -45.5438
   -45.5415 -45.5384 -45.5324 -45.5312 -45.5291 -45.5147 -45.5113 -45.5097
   -45.5073 -45.5066 -45.5061 -45.5049 -45.5045 -45.5021 -45.4997 -45.4975
   -45.4932 -45.4904 -45.4846 -45.4844 -45.4821 -45.4805 -45.4669 -45.4573
   -45.4543 -45.4509 -45.4484 -45.4464 -45.4450 -45.4417 -45.4216 -45.4081
   -45.3808 -44.5992 -44.5624 -44.5317 -44.4997 -44.4993 -44.4931 -44.4899
   -44.4882 -44.4788 -44.4721 -44.4705 -44.4698 -44.4688 -44.4661 -44.4637
   -44.4630 -44.4607 -44.4557 -44.4553 -44.4532 -44.4510 -44.4488 -44.4440
   -44.4433 -44.4406 -44.4397 -44.4396 -44.4361 -44.4345 -44.4339 -44.4316
   -44.4271 -44.4264 -44.4256 -44.4249 -44.4191 -44.4187 -44.4173 -44.4130
   -44.4095 -44.4087 -44.4062 -44.4035 -44.4022 -44.3974 -44.3969 -44.3924
   -44.3922 -44.3906 -44.3831 -44.3763 -44.3735 -44.3726 -44.3695 -44.3535
   -44.3407 -44.3403 -44.3390 -44.3358 -44.3350 -44.3195 -44.3159 -44.3132
   -44.3125 -44.3110 -44.3102 -44.3077 -44.3072 -44.3016 -44.2996 -44.2941
   -44.2899 -44.2893 -44.2873 -44.2867 -44.2861 -44.2815 -44.2797 -44.2750
   -44.2691 -44.2683 -44.2670 -44.2660 -44.2630 -44.2621 -44.2618 -44.2589
   -44.2568 -44.2462 -44.2448 -44.2447 -44.2412 -44.2389 -44.2376 -44.2294
   -44.2110 -44.1968 -44.1550 -44.1516 -43.8714 -43.8662 -43.8477 -43.8472
   -43.8419 -43.8373 -43.8349 -43.8346 -43.8301 -43.8288 -43.8266 -43.8246
   -43.8240 -43.8187 -43.8181 -43.8172 -43.8161 -43.8131 -43.8092 -43.8059
   -43.8057 -43.7980 -43.7980 -43.7964 -43.7919 -43.7912 -43.7907 -43.7901
   -43.7838 -43.7801 -43.7789 -43.7784 -43.7709 -43.7645 -43.7644 -43.7598
   -43.7586 -43.7573 -43.7506 -43.7493 -43.7468 -43.7460 -43.7449 -43.7431
   -43.7428 -43.7407 -43.7376 -43.7366 -43.7361 -43.7338 -43.7317 -43.7305
   -43.7290 -43.7256 -43.7226 -43.7218 -43.7206 -43.7199 -43.7189 -43.7175
[...]
     8.9429   8.9457   8.9492   8.9559   8.9730   8.9861   8.9919   8.9928
     8.9941   9.0001   9.0032   9.0056   9.0172   9.0273   9.0328   9.0355
     9.0434   9.0625   9.0698   9.0725   9.0762   9.0798   9.0849   9.0885
     9.0906   9.0920   9.0927   9.0966   9.1018   9.1337   9.1468   9.1653
     9.1715   9.1794   9.1831   9.1892   9.1907   9.1963   9.1991   9.2013
     9.2030   9.2083   9.2102   9.2137   9.2186   9.2269   9.2457   9.2507
     9.2664   9.2672   9.2716   9.2733   9.2768   9.2826   9.2843   9.2860
     9.2881   9.2944   9.2981   9.3056   9.3067   9.3200   9.3249   9.3349
     9.3415   9.3553   9.3717   9.3811   9.3845   9.3922   9.4068   9.4118
     9.4174   9.4205   9.4221   9.4244   9.4283   9.4293   9.4303   9.4406
     9.4429   9.4524   9.4613   9.4655   9.4770   9.4899   9.5052   9.5211
     9.5409   9.5596   9.5755   9.5977   9.6073   9.6232   9.6437   9.6479
     9.6550   9.7562   9.7818   9.8377  10.0110  10.0462  10.3125  10.3234
    10.4355  10.4647  10.4962  10.5312  10.5415  10.5560  10.5621  10.5810
    10.5886  10.6475  10.6581  10.6621  10.7329  10.7501

 ------ SPIN DOWN ----------

          k = 0.0000 0.0000 0.0000 ( 91909 PWs)   bands (ev):

   -80.2951 -80.2920 -80.2782 -80.2778 -80.2769 -80.2747 -80.2653 -80.2651
   -80.2642 -80.2629 -80.2585 -80.2577 -80.2543 -80.2534 -80.2429 -80.2418
   -80.2380 -80.2338 -80.2337 -80.2276 -80.2244 -80.2195 -80.2188 -80.2182
   -80.2145 -80.2007 -80.2004 -80.1963 -80.1920 -80.1583 -80.1568 -79.8397
   -79.7854 -79.6932 -79.6665 -79.6602 -79.6407 -79.6385 -79.6288 -79.6170
   -79.6060 -79.6046 -79.5788 -79.5664 -79.5638 -79.5471 -79.5439 -79.5348
   -79.5329 -79.5296 -79.5255 -79.5150 -79.5114 -79.5097 -79.5001 -79.4978
   -79.4822 -79.4763 -79.4594 -79.4505 -79.4299 -79.4198 -79.3944 -79.3338
   -78.4097 -78.3766 -78.3599 -78.3567 -78.3484 -78.3446 -78.3430 -78.3299
   -78.3098 -78.3046 -78.3008 -78.2968 -78.2933 -78.2926 -78.2870 -78.2826
   -78.2776 -78.2745 -78.2522 -78.2468 -78.2421 -78.2407 -78.2321 -78.2279
   -78.2277 -78.2261 -78.2240 -78.1978 -78.1974 -78.1968 -78.1825 -78.1274
   -77.9520 -77.7002 -77.6922 -77.6740 -77.6697 -77.6680 -77.6672 -77.6639
   -77.6596 -77.6591 -77.6577 -77.6560 -77.6532 -77.6518 -77.6508 -77.6503
   -77.6489 -77.6453 -77.6433 -77.6428 -77.6393 -77.6369 -77.6367 -77.6339
   -77.6331 -77.6323 -77.6307 -77.6296 -77.6293 -77.6213 -77.6184 -77.6177
   -63.3523 -46.4531 -46.4494 -46.4351 -46.4319 -46.4312 -46.4287 -46.4254
   -46.4191 -46.4180 -46.4165 -46.4132 -46.4112 -46.4094 -46.4059 -46.3979
   -46.3976 -46.3949 -46.3916 -46.3901 -46.3880 -46.3872 -46.3797 -46.3797
   -46.3783 -46.3729 -46.3627 -46.3580 -46.3568 -46.3536 -46.3523 -46.3510
   -46.3499 -46.3431 -46.3409 -46.3363 -46.3318 -46.3311 -46.3245 -46.3244
   -46.3240 -46.3211 -46.3195 -46.3171 -46.3135 -46.3132 -46.3120 -46.3071
   -46.3006 -46.2976 -46.2952 -46.2888 -46.2884 -46.2859 -46.2832 -46.2830
   -46.2766 -46.2691 -46.2677 -46.2662 -46.2630 -46.2595 -46.2565 -46.2495
   -46.2484 -46.2475 -46.2449 -46.2400 -46.2366 -46.2362 -46.2346 -46.2313
   -46.2300 -46.2275 -46.2264 -46.2253 -46.2244 -46.2215 -46.2173 -46.2132
   -46.2083 -46.2079 -46.2063 -46.1992 -46.1987 -46.1967 -46.1944 -46.1878
   -46.1827 -46.1803 -46.1787 -46.1718 -46.1456 -46.1426 -45.9626 -45.9260
   -45.9228 -45.8626 -45.8512 -45.8169 -45.7739 -45.7639 -45.7601 -45.7587
   -45.7565 -45.7526 -45.7417 -45.7374 -45.7362 -45.7310 -45.7238 -45.7225
   -45.7151 -45.7142 -45.7123 -45.7103 -45.7065 -45.7007 -45.7004 -45.6978
   -45.6947 -45.6920 -45.6904 -45.6852 -45.6826 -45.6817 -45.6785 -45.6754
   -45.6730 -45.6712 -45.6704 -45.6694 -45.6521 -45.6508 -45.6438 -45.6434
   -45.6384 -45.6355 -45.6328 -45.6296 -45.6277 -45.6120 -45.6053 -45.5971
   -45.5922 -45.5912 -45.5859 -45.5798 -45.5786 -45.5749 -45.5721 -45.5706
   -45.5628 -45.5579 -45.5558 -45.5551 -45.5545 -45.5506 -45.5418 -45.5415
   -45.5374 -45.5326 -45.5322 -45.5313 -45.5280 -45.5165 -45.5163 -45.5156
   -45.5146 -45.5108 -45.5077 -45.5062 -45.5050 -45.5037 -45.5015 -45.4933
   -45.4926 -45.4916 -45.4828 -45.4817 -45.4795 -45.4715 -45.4711 -45.4666
   -45.4633 -45.4581 -45.4436 -45.4426 -45.4353 -45.4317 -45.4132 -45.3733
   -45.3659 -44.5285 -44.5174 -44.4996 -44.4968 -44.4906 -44.4834 -44.4821
   -44.4778 -44.4767 -44.4760 -44.4736 -44.4724 -44.4713 -44.4645 -44.4615
   -44.4609 -44.4598 -44.4584 -44.4549 -44.4500 -44.4475 -44.4470 -44.4463
   -44.4446 -44.4430 -44.4421 -44.4404 -44.4356 -44.4327 -44.4301 -44.4275
   -44.4230 -44.4218 -44.4192 -44.4167 -44.4155 -44.4143 -44.4110 -44.4100
   -44.4079 -44.4074 -44.4047 -44.4028 -44.4020 -44.4011 -44.3993 -44.3949
   -44.3936 -44.3851 -44.3823 -44.3687 -44.3625 -44.3567 -44.3441 -44.3414
   -44.3401 -44.3371 -44.3361 -44.3347 -44.3262 -44.3219 -44.3130 -44.3126
   -44.3109 -44.3108 -44.3072 -44.3062 -44.3042 -44.3023 -44.2937 -44.2925
   -44.2906 -44.2876 -44.2872 -44.2864 -44.2844 -44.2800 -44.2774 -44.2768
   -44.2742 -44.2717 -44.2680 -44.2665 -44.2655 -44.2637 -44.2618 -44.2610
   -44.2578 -44.2552 -44.2522 -44.2438 -44.2394 -44.2332 -44.2279 -44.2130
   -44.1839 -44.0971 -44.0273 -43.9254 -43.8812 -43.8713 -43.8483 -43.8414
   -43.8400 -43.8389 -43.8320 -43.8298 -43.8298 -43.8290 -43.8214 -43.8212
   -43.8211 -43.8205 -43.8153 -43.8148 -43.8127 -43.8103 -43.8061 -43.8040
   -43.8017 -43.7985 -43.7975 -43.7957 -43.7925 -43.7921 -43.7904 -43.7891
   -43.7803 -43.7787 -43.7786 -43.7778 -43.7761 -43.7609 -43.7579 -43.7574
   -43.7528 -43.7508 -43.7497 -43.7468 -43.7417 -43.7416 -43.7411 -43.7406
   -43.7388 -43.7375 -43.7354 -43.7347 -43.7321 -43.7308 -43.7307 -43.7288
   -43.7282 -43.7253 -43.7239 -43.7219 -43.7210 -43.7208 -43.7199 -43.7127
[...]
     8.9500   8.9591   8.9661   8.9730   8.9879   8.9941   8.9961   9.0000
     9.0052   9.0068   9.0146   9.0194   9.0300   9.0329   9.0388   9.0429
     9.0558   9.0695   9.0747   9.0783   9.0822   9.0840   9.0871   9.0899
     9.0912   9.0940   9.0983   9.1043   9.1093   9.1405   9.1474   9.1708
     9.1823   9.1839   9.1899   9.1952   9.1974   9.1991   9.2023   9.2056
     9.2108   9.2141   9.2181   9.2255   9.2288   9.2358   9.2483   9.2625
     9.2666   9.2721   9.2726   9.2768   9.2810   9.2865   9.2870   9.2916
     9.2967   9.2999   9.3021   9.3050   9.3151   9.3212   9.3272   9.3415
     9.3445   9.3599   9.3727   9.3821   9.3927   9.3986   9.4069   9.4188
     9.4198   9.4236   9.4254   9.4308   9.4335   9.4373   9.4414   9.4428
     9.4537   9.4619   9.4677   9.4755   9.4933   9.4982   9.5167   9.5268
     9.5480   9.5589   9.5819   9.6014   9.6187   9.6464   9.6502   9.6531
     9.6678   9.7696   9.7878   9.9213  10.0217  10.0940  10.3261  10.3289
    10.4512  10.4666  10.5070  10.5352  10.5401  10.5548  10.5733  10.5760
    10.6160  10.6462  10.6594  10.6774  10.7290  10.7678

     the Fermi energy is     8.2020 ev

!    total energy              =  -42571.41686394 Ry

     total all-electron energy =   -334887.885294 Ry
     estimated scf accuracy    <          9.4E-09 Ry
     smearing contrib. (-TS)   =       0.01897319 Ry
     internal energy E=F+TS    =  -42571.43583713 Ry

     The total energy is F=E-TS. E is the sum of the following terms:
     one-electron contribution =  -98108.42823658 Ry
     hartree contribution      =   49568.84401232 Ry
     xc contribution           =   -3573.59804051 Ry
     ewald contribution        =   20376.49943830 Ry
     one-center paw contrib.   =  -10834.75301067 Ry

     total magnetization       =     1.67 Bohr mag/cell
     absolute magnetization    =   229.91 Bohr mag/cell

     convergence has been achieved in  99 iterations

     negative rho (up, down):  1.696E-03 1.872E-03

     Forces acting on atoms (cartesian axes, Ry/au):

     atom    1 type  3   force =     0.01304152   -0.00893883    0.10534957
     atom    2 type  1   force =     0.02797043    0.01088579   -0.04143924
     atom    3 type  2   force =    -0.01684527   -0.02219645   -0.03559241
     atom    4 type  1   force =    -0.00145543    0.00699595   -0.00359625
     atom    5 type  2   force =     0.00381683   -0.00236457   -0.00242524
     atom    6 type  1   force =     0.00158262   -0.00048783    0.00011593
     atom    7 type  2   force =    -0.00122627    0.00117859    0.00149057
     atom    8 type  1   force =     0.00220009    0.00045876    0.00042766
     atom    9 type  2   force =    -0.00256179    0.00034030    0.00083831
     atom   10 type  1   force =     0.00213503   -0.00391820   -0.00611436
     atom   11 type  2   force =    -0.00382632    0.00250663   -0.00249254
     atom   12 type  1   force =     0.00035815   -0.00133722   -0.00051288
     atom   13 type  2   force =    -0.00048712   -0.00004962   -0.00092772
     atom   14 type  1   force =    -0.00172333    0.00134627    0.00386676
     atom   15 type  2   force =    -0.00232660    0.00042784   -0.00035819
     atom   16 type  1   force =     0.00012449   -0.00034084   -0.00018186
     atom   17 type  2   force =     0.00048583   -0.00066064   -0.00024869
     atom   18 type  1   force =    -0.00004874    0.00003950   -0.00007651
     atom   19 type  2   force =     0.00006275   -0.00007223    0.00008138
     atom   20 type  1   force =     0.00266285    0.00168007    0.00256250
     atom   21 type  2   force =    -0.00265445   -0.00175755    0.00283947
     atom   22 type  1   force =     0.00121942   -0.00006512    0.00128451
     atom   23 type  2   force =    -0.00108997    0.00029681    0.00090146
     atom   24 type  1   force =    -0.00009829   -0.00117622   -0.00246104
     atom   25 type  2   force =    -0.00009311    0.00117690   -0.00201034
     atom   26 type  1   force =     0.00420542   -0.00047490   -0.00267246
     atom   27 type  2   force =     0.00078856    0.00764158   -0.01441998
     atom   28 type  1   force =    -0.00044774    0.00097103   -0.00204501
     atom   29 type  2   force =     0.00032336    0.00150552    0.00004078
     atom   30 type  1   force =     0.00256164    0.00009793   -0.00081179
     atom   31 type  2   force =     0.00210695   -0.00152140    0.00306304
     atom   32 type  1   force =    -0.00060458    0.00092695   -0.00036686
     atom   33 type  2   force =    -0.00014806   -0.00005392    0.00059326
     atom   34 type  1   force =    -0.01068151    0.00106964   -0.01793546
     atom   35 type  2   force =    -0.00008978   -0.00355912   -0.00091467
     atom   36 type  1   force =     0.00293293    0.00113461   -0.00048818
     atom   37 type  2   force =    -0.00202111   -0.00090008   -0.00712972
     atom   38 type  1   force =     0.00013652   -0.00056696    0.00327305
     atom   39 type  2   force =     0.00206652    0.00048954   -0.00055295
     atom   40 type  1   force =     0.00440035   -0.00097237   -0.00003272
     atom   41 type  2   force =     0.00047453    0.00155447    0.00566175
     atom   42 type  1   force =    -0.00916801   -0.00626061   -0.00116142
     atom   43 type  2   force =     0.00003240   -0.00107392   -0.00186589
     atom   44 type  1   force =    -0.00035644   -0.00315736   -0.00366845
     atom   45 type  2   force =    -0.00010848   -0.00212420    0.00303436
     atom   46 type  1   force =    -0.00452066    0.00193209   -0.00157295
     atom   47 type  2   force =    -0.00048457    0.00098085    0.00018915
     atom   48 type  1   force =     0.00090223    0.00204404    0.00473727
     atom   49 type  2   force =     0.00127342   -0.00189959    0.00179869
     atom   50 type  1   force =     0.00082637    0.00295051   -0.00273911
     atom   51 type  2   force =     0.00016847    0.00172360   -0.00314744
     atom   52 type  1   force =     0.00258170   -0.00245860   -0.00047296
     atom   53 type  2   force =     0.00141264    0.00131985    0.00393220
     atom   54 type  1   force =    -0.00340955    0.00179789    0.00144122
     atom   55 type  2   force =    -0.00246432   -0.00088718    0.00288291
     atom   56 type  1   force =    -0.00073352   -0.00004577   -0.00029907
     atom   57 type  2   force =    -0.00002631    0.00020217   -0.00060504
     atom   58 type  1   force =     0.00086604    0.00431592   -0.00141690
     atom   59 type  2   force =    -0.00194991    0.00222296   -0.00068854
     atom   60 type  1   force =     0.00228107    0.00171414    0.00014587
[...]
     atom  115 type  2   force =    -0.00108378   -0.00297397   -0.00224487
     atom  116 type  1   force =    -0.00165405   -0.00083284    0.00413362
     atom  117 type  2   force =    -0.00267687    0.00288113   -0.00063866
     atom  118 type  1   force =     0.00237250    0.00103572    0.00305173
     atom  119 type  2   force =     0.00346961   -0.00147607    0.00139329
     atom  120 type  1   force =    -0.00002343    0.00010367   -0.00078963
     atom  121 type  2   force =     0.00070265    0.00015169   -0.00004934
     atom  122 type  1   force =    -0.00003247    0.00106370   -0.00204630
     atom  123 type  2   force =     0.00391022    0.00259033   -0.00016797
     atom  124 type  1   force =     0.00104686    0.00257056    0.00195411
     atom  125 type  2   force =     0.00110952    0.00298705   -0.00387131
     atom  126 type  1   force =     0.00027145   -0.00101443    0.00023087
     atom  127 type  2   force =     0.00378066   -0.00163896   -0.00185309
     atom  128 type  1   force =    -0.00097199    0.00205709    0.00158449
     atom  129 type  2   force =    -0.00090203   -0.00209341    0.00504918

     Total force =     0.135730     Total SCF correction =     0.000265

     Computing stress (Cartesian axis) and pressure

     negative rho (up, down):  1.696E-03 1.872E-03
          total   stress  (Ry/bohr**3)                   (kbar)     P=      -21.17
  -0.00015438   0.00000192  -0.00000591          -22.71        0.28       -0.87
   0.00000192  -0.00010827   0.00000482            0.28      -15.93        0.71
  -0.00000591   0.00000482  -0.00016914           -0.87        0.71      -24.88

     Writing output data file /scratch/bxp912/feruslab4r5.save/

     General routines

     Parallel routines

   This run was terminated on:  15:47:49  29May2022

   JOB DONE.