     Program PWSCF v.6.7MaX starts on 29May2022 at 15: 8: 8

     R & G space division:  proc/nbgrp/npool/nimage =      72
     Reading input from feruslabC.in
Warning: card &CELL ignored
Warning: card CELL_DYNAMICS = 'BFGS', ignored
Warning: card CELL_FACTOR = 2.0, ignored
Warning: card PRESS = 0.0, ignored
Warning: card / ignored

     Current dimensions of program PWSCF are:
     Max number of different atomic species (ntypx) = 10
     Max number of k-points (npk) =  40000
     Max angular momentum in pseudopotentials (lmaxx) =  3
     file Fe.pbe-spn-kjpaw_psl.1.0.0.UPF: wavefunction(s)  3P 3D renormalized
     file Fe.pbe-spn-kjpaw_psl.1.0.0.UPF: wavefunction(s)  3P 3D renormalized
     file Ru.pbe-spn-kjpaw_psl.1.0.0.UPF: wavefunction(s)  4D renormalized

     gamma-point specific algorithms are used

     Subspace diagonalization in iterative solution of the eigenvalue problem:
     one sub-group per band group will be used

     bravais-lattice index     =            0
     lattice parameter (alat)  =      25.8600  a.u.
     unit-cell volume          =   18186.5006 (a.u.)^3
     number of atoms/cell      =          128
     number of atomic types    =            3
     number of electrons       =      2048.00
     number of Kohn-Sham states=         1229
     kinetic-energy cutoff     =      71.0000  Ry
     charge density cutoff     =     430.0000  Ry
     scf convergence threshold =      1.0E-08
     mixing beta               =       0.3000
     number of iterations used =           10  local-TF  mixing
     Exchange-correlation= SLA  PW   PBX  PBC
                           (   1   4   3   4   0   0   0)

     celldm(1)=  25.860000  celldm(2)=   0.000000  celldm(3)=   0.000000
     celldm(4)=   0.000000  celldm(5)=   0.000000  celldm(6)=   0.000000

     crystal axes: (cart. coord. in units of alat)
               a(1) = (   1.000000   0.000000   0.000000 )
               a(2) = (   0.000000   1.051631   0.000000 )
               a(3) = (   0.000000   0.000000   1.000000 )

     reciprocal axes: (cart. coord. in units 2 pi/alat)
               b(1) = (  1.000000  0.000000  0.000000 )
               b(2) = (  0.000000  0.950903  0.000000 )
               b(3) = (  0.000000  0.000000  1.000000 )

     PseudoPot. # 1 for Fe read from file:
     /rds/homes/b/bxp912/pp/Fe.pbe-spn-kjpaw_psl.1.0.0.UPF
     MD5 check sum: 42f43b795421b414b0dc916aa790dbcb
     Pseudo is Projector augmented-wave + core cor, Zval = 16.0
     Generated using &quot;atomic&quot; code by A. Dal Corso  v.6.3
     Shape of augmentation charge: PSQ
     Using radial grid of 1191 points,  6 beta functions with:
                l(1) =   0
                l(2) =   0
                l(3) =   1
                l(4) =   1
                l(5) =   2
                l(6) =   2
     Q(r) pseudized with 0 coefficients

     PseudoPot. # 2 for Fe read from file:
     /rds/homes/b/bxp912/pp/Fe.pbe-spn-kjpaw_psl.1.0.0.UPF
     MD5 check sum: 42f43b795421b414b0dc916aa790dbcb
     Pseudo is Projector augmented-wave + core cor, Zval = 16.0
     Generated using &quot;atomic&quot; code by A. Dal Corso  v.6.3
     Shape of augmentation charge: PSQ
     Using radial grid of 1191 points,  6 beta functions with:
                l(1) =   0
                l(2) =   0
                l(3) =   1
                l(4) =   1
                l(5) =   2
                l(6) =   2
     Q(r) pseudized with 0 coefficients

     PseudoPot. # 3 for Ru read from file:
     /rds/homes/b/bxp912/pp/Ru.pbe-spn-kjpaw_psl.1.0.0.UPF
     MD5 check sum: 0ae1f594dea09af7be8575c3a481d1ae
     Pseudo is Projector augmented-wave + core cor, Zval = 16.0
     Generated using "atomic" code by A. Dal Corso  v.5.1
     Shape of augmentation charge: PSQ
     Using radial grid of 1233 points,  6 beta functions with:
                l(1) =   0
                l(2) =   0
                l(3) =   1
                l(4) =   1
                l(5) =   2
                l(6) =   2
     Q(r) pseudized with 0 coefficients

     atomic species   valence    mass     pseudopotential
        Fe1           16.00    55.84500     Fe( 1.00)
        Fe2           16.00    55.84500     Fe( 1.00)
        Ru            16.00   101.07000     Ru( 1.00)

     Starting magnetic structure
     atomic species   magnetization
        Fe1          0.100
        Fe2         -0.100
        Ru           0.001

     No symmetry found

   Cartesian axes

     site n.     atom                  positions (alat units)
         1           Ru  tau(   1) = (   0.0625059   0.0657779   0.2910260  )
         2           Fe2 tau(   2) = (   0.1918897   0.2014172   0.3118918  )
         3           Fe1 tau(   3) = (   0.1882328   0.0656869   0.4358379  )
         4           Fe2 tau(   4) = (   0.0624775   0.1970719   0.4359471  )
         5           Fe1 tau(   5) = (   0.0624549   0.0656597   0.5661003  )
         6           Fe2 tau(   6) = (   0.1871430   0.1965451   0.5642273  )
         7           Fe1 tau(   7) = (   0.1889127   0.0656324   0.6868723  )
         8           Fe2 tau(   8) = (   0.0625044   0.1953941   0.6845946  )
         9           Fe1 tau(   9) = (   0.0624492   0.3290082   0.3162931  )
        10           Fe2 tau(  10) = (   0.1878214   0.4592247   0.3140372  )
        11           Fe1 tau(  11) = (   0.1883843   0.3293589   0.4358220  )
        12           Fe2 tau(  12) = (   0.0624760   0.4596378   0.4342728  )
        13           Fe1 tau(  13) = (   0.0624920   0.3282674   0.5642399  )
        14           Fe2 tau(  14) = (   0.1874818   0.4600075   0.5644807  )
        15           Fe1 tau(  15) = (   0.1868970   0.3281618   0.6858748  )
        16           Fe2 tau(  16) = (   0.0624936   0.4605212   0.6849404  )
        17           Fe1 tau(  17) = (   0.0625024   0.5915716   0.3157343  )
        18           Fe2 tau(  18) = (   0.1879142   0.7239319   0.3139752  )
        19           Fe1 tau(  19) = (   0.1872820   0.5915469   0.4358293  )
        20           Fe2 tau(  20) = (   0.0624835   0.7235138   0.4342323  )
        21           Fe1 tau(  21) = (   0.0624907   0.5915302   0.5645538  )
        22           Fe2 tau(  22) = (   0.1874919   0.7231202   0.5644793  )
        23           Fe1 tau(  23) = (   0.1874063   0.5915279   0.6856542  )
        24           Fe2 tau(  24) = (   0.0625142   0.7225942   0.6849283  )
        25           Fe1 tau(  25) = (   0.0624543   0.8539987   0.3163316  )
        26           Fe2 tau(  26) = (   0.1918142   0.9816207   0.3118943  )
        27           Fe1 tau(  27) = (   0.1884013   0.8536921   0.4358345  )
        28           Fe2 tau(  28) = (   0.0624649   0.9860452   0.4359182  )
        29           Fe1 tau(  29) = (   0.0624985   0.8547814   0.5642264  )
        30           Fe2 tau(  30) = (   0.1871332   0.9865130   0.5642305  )
        31           Fe1 tau(  31) = (   0.1869002   0.8548778   0.6858783  )
        32           Fe2 tau(  32) = (   0.0624558   0.9876052   0.6846415  )
        33           Fe1 tau(  33) = (   0.3125283   0.0656767   0.3153241  )
        34           Fe2 tau(  34) = (   0.4366043   0.1971699   0.3142072  )
        35           Fe1 tau(  35) = (   0.4374422   0.0657131   0.4355769  )
        36           Fe2 tau(  36) = (   0.3125894   0.1975774   0.4358271  )
        37           Fe1 tau(  37) = (   0.3120225   0.0656827   0.5647659  )
        38           Fe2 tau(  38) = (   0.4378242   0.1969597   0.5645465  )
        39           Fe1 tau(  39) = (   0.4382670   0.0656506   0.6865253  )
        40           Fe2 tau(  40) = (   0.3128280   0.1968527   0.6838988  )
        41           Fe1 tau(  41) = (   0.3143566   0.3300848   0.3168881  )
        42           Ru  tau(  42) = (   0.4380142   0.4607661   0.3143143  )
        43           Fe1 tau(  43) = (   0.4381801   0.3288131   0.4365576  )
        44           Fe2 tau(  44) = (   0.3127566   0.4604807   0.4354136  )
        45           Fe1 tau(  45) = (   0.3125129   0.3287898   0.5653541  )
        46           Fe2 tau(  46) = (   0.4375258   0.4601913   0.5648721  )
        47           Fe1 tau(  47) = (   0.4372527   0.3286868   0.6863403  )
        48           Fe2 tau(  48) = (   0.3121639   0.4602999   0.6850825  )
        49           Fe1 tau(  49) = (   0.3122461   0.5915191   0.3156420  )
        50           Fe2 tau(  50) = (   0.4379749   0.7223781   0.3143454  )
        51           Fe1 tau(  51) = (   0.4374235   0.5915294   0.4359555  )
        52           Fe2 tau(  52) = (   0.3127687   0.7226645   0.4354242  )
        53           Fe1 tau(  53) = (   0.3124200   0.5915220   0.5650306  )
        54           Fe2 tau(  54) = (   0.4375286   0.7229381   0.5648768  )
        55           Fe1 tau(  55) = (   0.4377002   0.5915143   0.6861050  )
        56           Fe2 tau(  56) = (   0.3121736   0.7228110   0.6850814  )
        57           Fe1 tau(  57) = (   0.3144103   0.8531069   0.3169355  )
        58           Fe2 tau(  58) = (   0.4366715   0.9859647   0.3142091  )
        59           Fe1 tau(  59) = (   0.4382063   0.8542513   0.4365853  )
        60           Fe2 tau(  60) = (   0.3125895   0.9855573   0.4358131  )
[...]
       114           Fe2 tau( 114) = (   0.9371598   0.7238976   0.3139999  )
       115           Fe1 tau( 115) = (   0.9377646   0.5915458   0.4358419  )
       116           Fe2 tau( 116) = (   0.8122153   0.7226557   0.4354428  )
       117           Fe1 tau( 117) = (   0.8125580   0.5915265   0.5650413  )
       118           Fe2 tau( 118) = (   0.9375705   0.7231224   0.5644911  )
       119           Fe1 tau( 119) = (   0.9376433   0.5915402   0.6856562  )
       120           Fe2 tau( 120) = (   0.8128215   0.7228073   0.6850820  )
       121           Fe1 tau( 121) = (   0.8106770   0.8530522   0.3170121  )
       122           Fe2 tau( 122) = (   0.9331251   0.9816405   0.3118907  )
       123           Fe1 tau( 123) = (   0.9366253   0.8537026   0.4358875  )
       124           Fe2 tau( 124) = (   0.8123694   0.9855677   0.4358403  )
       125           Fe1 tau( 125) = (   0.8124209   0.8542355   0.5653886  )
       126           Fe2 tau( 126) = (   0.9378693   0.9865197   0.5642632  )
       127           Fe1 tau( 127) = (   0.9381364   0.8548433   0.6858883  )
       128           Fe2 tau( 128) = (   0.8121443   0.9862056   0.6839159  )

     number of k points=     1  Marzari-Vanderbilt smearing, width (Ry)=  0.0400
                       cart. coord. in units 2pi/alat
        k(    1) = (   0.0000000   0.0000000   0.0000000), wk =   1.0000000

     Check: negative core charge=   -0.000004
     Generating pointlists ...
     new r_m :   0.0710 (alat units)  1.8364 (a.u.) for type    1
     new r_m :   0.0713 (alat units)  1.8431 (a.u.) for type    2
     new r_m :   0.0717 (alat units)  1.8541 (a.u.) for type    3

     Initial potential from superposition of free atoms

     starting charge 2047.94359, renormalised to 2048.00000

     negative rho (up, down):  2.022E-04 2.026E-04
     Starting wfcs are 1280 randomized atomic wfcs
     Checking if some PAW data can be deallocated...

     Self-consistent Calculation

     iteration #  1     ecut=    71.00 Ry     beta= 0.30
[...]
   -46.2965 -46.2927 -46.2926 -46.2876 -46.2860 -46.2695 -46.2675 -46.2600
   -46.2493 -46.2429 -46.2376 -46.2353 -46.2339 -46.2301 -46.2287 -46.2244
   -46.2237 -46.2214 -46.2168 -46.2107 -46.2039 -46.1913 -46.1862 -46.1532
   -46.1476 -46.0305 -46.0257 -45.8533 -45.8424 -45.8368 -45.8352 -45.8323
   -45.8300 -45.8282 -45.8244 -45.8232 -45.8188 -45.8174 -45.8150 -45.8116
   -45.8085 -45.8060 -45.8037 -45.8001 -45.7965 -45.7909 -45.7876 -45.7855
   -45.7846 -45.7830 -45.7800 -45.7777 -45.7771 -45.7762 -45.7753 -45.7732
   -45.7715 -45.7654 -45.7619 -45.7538 -45.7489 -45.7483 -45.7438 -45.7409
   -45.7382 -45.7375 -45.7359 -45.7303 -45.7262 -45.6587 -45.6543 -45.6491
   -45.6409 -45.6407 -45.6365 -45.6354 -45.6320 -45.6265 -45.6223 -45.6215
   -45.6163 -45.6131 -45.6110 -45.6083 -45.6040 -45.6005 -45.5990 -45.5970
   -45.5957 -45.5944 -45.5917 -45.5894 -45.5873 -45.5866 -45.5855 -45.5850
   -45.5834 -45.5827 -45.5776 -45.5704 -45.5678 -45.5643 -45.5595 -45.5511
   -45.5501 -45.5469 -45.5444 -45.5411 -45.4710 -45.4705 -45.4131 -45.4130
   -45.4028 -45.4018 -45.0385 -44.9972 -44.9330 -44.6390 -44.6325 -44.6104
   -44.6017 -44.5783 -44.5734 -44.5682 -44.5667 -44.5647 -44.5589 -44.5465
   -44.5437 -44.5375 -44.5348 -44.5292 -44.5245 -44.5232 -44.5224 -44.5214
   -44.5190 -44.5149 -44.5077 -44.5065 -44.5046 -44.5039 -44.5029 -44.5011
   -44.4979 -44.4975 -44.4957 -44.4924 -44.4888 -44.4881 -44.4822 -44.4818
   -44.4713 -44.4689 -44.4671 -44.4606 -44.4570 -44.4463 -44.4379 -44.4364
   -44.4351 -44.4316 -44.4304 -44.4293 -44.4260 -44.4242 -44.4226 -44.4220
   -44.4190 -44.4170 -44.4142 -44.4118 -44.4087 -44.4079 -44.4048 -44.4039
   -44.3983 -44.3926 -44.3812 -44.3802 -44.3750 -44.3736 -44.3722 -44.3679
   -44.3665 -44.3620 -44.3602 -44.3581 -44.3572 -44.3526 -44.3499 -44.3491
   -44.3451 -44.3433 -44.3418 -44.3406 -44.3400 -44.3396 -44.3377 -44.3360
   -44.3339 -44.3324 -44.3309 -44.3271 -44.3243 -44.3237 -44.3122 -44.1966
   -44.1953 -44.1715 -44.1701 -44.1466 -44.1456 -43.9127 -43.9108 -43.9094
   -43.9085 -43.9063 -43.9029 -43.9018 -43.9014 -43.9000 -43.8980 -43.8973
   -43.8954 -43.8949 -43.8931 -43.8916 -43.8879 -43.8867 -43.8840 -43.8826
   -43.8824 -43.8815 -43.8801 -43.8800 -43.8797 -43.8790 -43.8778 -43.8768
   -43.8478 -43.8451 -43.8444 -43.8423 -43.8352 -43.8342 -43.8330 -43.8321
   -43.8318 -43.8288 -43.8237 -43.8222 -43.8220 -43.8200 -43.8189 -43.8185
   -43.8176 -43.8174 -43.8164 -43.8152 -43.8147 -43.8134 -43.8126 -43.8117
   -43.8102 -43.8089 -43.8042 -43.8035 -43.8026 -43.8017 -43.7980 -43.7725
   -43.7712 -43.7692 -43.7654 -43.7648 -43.7629 -43.7604 -43.7591 -43.7585
[...]
     8.8825   8.8969   8.9046   8.9142   8.9183   8.9236   8.9288   8.9332
     8.9439   8.9466   8.9553   8.9577   8.9637   8.9728   8.9855   8.9861
     8.9901   9.0041   9.0072   9.0134   9.0181   9.0219   9.0249   9.0285
     9.0370   9.0487   9.0520   9.0559   9.0692   9.0864   9.0905   9.1002
     9.1051   9.1162   9.1207   9.1219   9.1262   9.1322   9.1381   9.1409
     9.1457   9.1517   9.1552   9.1632   9.1710   9.1927   9.1975   9.2022
     9.2031   9.2045   9.2064   9.2140   9.2187   9.2191   9.2278   9.2349
     9.2394   9.2431   9.2484   9.2547   9.2639   9.2747   9.2780   9.2846
     9.3007   9.3100   9.3138   9.3288   9.3306   9.3430   9.3476   9.3497
     9.3538   9.3562   9.3637   9.3646   9.3782   9.3892   9.3993   9.4020
     9.4057   9.4155   9.4257   9.4417   9.4436   9.4712   9.4782   9.4910
     9.5099   9.5350   9.5390   9.5525   9.5617   9.5731   9.5897   9.6225
     9.7069   9.7480   9.9558   9.9732  10.1705  10.2756  10.2967  10.3962
    10.4245  10.4560  10.4808  10.4960  10.5061  10.5312  10.5448  10.5811
    10.5932  10.5996  10.6450  10.6886  10.7072

 ------ SPIN DOWN ----------

          k = 0.0000 0.0000 0.0000 ( 91909 PWs)   bands (ev):

   -80.4230 -80.4196 -80.4194 -80.4160 -80.3493 -80.3489 -80.3483 -80.3482
   -80.3449 -80.3359 -80.3335 -80.3309 -80.3269 -80.3188 -80.3164 -80.3117
   -80.3063 -80.3025 -80.3017 -80.2860 -80.2811 -80.2789 -80.2776 -80.2716
   -80.2692 -80.2681 -80.2666 -80.2633 -80.2610 -80.2599 -80.2583 -79.9321
   -79.9264 -79.8744 -79.8499 -79.7021 -79.6964 -79.6940 -79.6852 -79.6824
   -79.6813 -79.6757 -79.6753 -79.6722 -79.6650 -79.6641 -79.6599 -79.6565
   -79.6441 -79.6365 -79.6363 -79.6266 -79.5887 -79.5821 -79.5807 -79.5721
   -79.5657 -79.5496 -79.5016 -79.4939 -79.4790 -79.4092 -79.4038 -78.8997
   -78.5401 -78.5391 -78.4042 -78.4019 -78.3982 -78.3962 -78.3954 -78.3932
   -78.3870 -78.3865 -78.3814 -78.3687 -78.3616 -78.3546 -78.3506 -78.3343
   -78.3277 -78.3243 -78.3214 -78.3173 -78.3161 -78.2782 -78.2764 -78.2744
   -78.2739 -78.2691 -78.2675 -78.2655 -78.2580 -78.1212 -78.1184 -77.8064
   -77.7865 -77.7833 -77.7832 -77.7636 -77.7546 -77.7542 -77.7449 -77.7414
   -77.7384 -77.7358 -77.7356 -77.7312 -77.7280 -77.7278 -77.7266 -77.7214
   -77.7207 -77.7199 -77.7188 -77.7177 -77.7158 -77.7155 -77.7152 -77.7149
   -77.7127 -77.7116 -77.7078 -77.7074 -77.7072 -77.7060 -64.5884 -64.2558
   -46.5497 -46.5481 -46.5469 -46.5435 -46.5070 -46.5035 -46.5032 -46.5028
   -46.5004 -46.5001 -46.5001 -46.4987 -46.4949 -46.4940 -46.4920 -46.4903
   -46.4881 -46.4798 -46.4783 -46.4733 -46.4676 -46.4644 -46.4607 -46.4465
   -46.4409 -46.4381 -46.4341 -46.4331 -46.4277 -46.4255 -46.4237 -46.4225
   -46.4172 -46.4165 -46.4137 -46.4125 -46.4117 -46.4079 -46.4034 -46.4017
   -46.3958 -46.3941 -46.3926 -46.3924 -46.3912 -46.3889 -46.3876 -46.3858
   -46.3802 -46.3765 -46.3656 -46.3614 -46.3609 -46.3596 -46.3522 -46.3480
   -46.3473 -46.3464 -46.3386 -46.3374 -46.3317 -46.3305 -46.3295 -46.3294
   -46.3282 -46.3272 -46.3247 -46.3241 -46.3233 -46.3179 -46.3171 -46.3122
   -46.3102 -46.3019 -46.2982 -46.2938 -46.2932 -46.2895 -46.2863 -46.2827
   -46.2773 -46.2646 -46.2616 -46.2586 -46.2578 -46.2548 -46.2516 -46.2494
   -46.2463 -46.2442 -46.2409 -46.2401 -46.2360 -46.0319 -46.0303 -46.0252
   -46.0060 -45.9820 -45.9778 -45.9709 -45.9661 -45.9202 -45.8958 -45.8803
   -45.8620 -45.8097 -45.8036 -45.8009 -45.7969 -45.7954 -45.7908 -45.7901
   -45.7868 -45.7850 -45.7810 -45.7777 -45.7758 -45.7735 -45.7714 -45.7673
   -45.7628 -45.7592 -45.7538 -45.7536 -45.7517 -45.7514 -45.7494 -45.7473
   -45.7466 -45.7449 -45.7427 -45.7413 -45.7389 -45.7381 -45.7374 -45.7356
   -45.7344 -45.7322 -45.7307 -45.7287 -45.7235 -45.7222 -45.7103 -45.7050
   -45.7040 -45.6912 -45.6892 -45.6882 -45.6870 -45.6833 -45.6601 -45.6539
   -45.6525 -45.6474 -45.6445 -45.6401 -45.6347 -45.6240 -45.6219 -45.6184
   -45.6176 -45.6160 -45.6083 -45.6069 -45.6063 -45.6030 -45.6020 -45.5932
   -45.5864 -45.5838 -45.5818 -45.5796 -45.5777 -45.5641 -45.5617 -45.5594
   -45.5533 -45.5499 -45.5430 -45.5233 -45.5232 -45.5155 -45.5107 -45.5013
   -45.4965 -45.4520 -45.4437 -45.4402 -45.4366 -45.0562 -44.9355 -44.9212
   -44.6648 -44.6627 -44.6451 -44.6438 -44.5934 -44.5929 -44.5349 -44.5329
   -44.5321 -44.5298 -44.5265 -44.5239 -44.5239 -44.5209 -44.5192 -44.5189
   -44.5185 -44.5170 -44.5148 -44.5132 -44.5128 -44.5108 -44.5106 -44.5103
   -44.5090 -44.5079 -44.5044 -44.5005 -44.4991 -44.4963 -44.4949 -44.4937
   -44.4935 -44.4923 -44.4895 -44.4858 -44.4847 -44.4812 -44.4800 -44.4788
   -44.4775 -44.4748 -44.4666 -44.4616 -44.4565 -44.4471 -44.4395 -44.4382
   -44.4358 -44.4301 -44.4283 -44.3893 -44.3880 -44.3856 -44.3852 -44.3775
   -44.3758 -44.3749 -44.3735 -44.3726 -44.3709 -44.3682 -44.3676 -44.3637
   -44.3635 -44.3576 -44.3563 -44.3532 -44.3522 -44.3517 -44.3505 -44.3480
   -44.3476 -44.3454 -44.3448 -44.3437 -44.3386 -44.3350 -44.3296 -44.3283
   -44.3275 -44.3251 -44.3231 -44.3206 -44.3161 -44.3157 -44.3058 -44.2316
   -44.2289 -44.2182 -44.2157 -44.1869 -44.1836 -43.9955 -43.9648 -43.9607
   -43.9605 -43.9419 -43.9226 -43.9211 -43.9198 -43.9186 -43.9160 -43.9060
   -43.8955 -43.8940 -43.8930 -43.8907 -43.8896 -43.8883 -43.8849 -43.8839
   -43.8835 -43.8817 -43.8808 -43.8805 -43.8783 -43.8780 -43.8778 -43.8753
   -43.8734 -43.8715 -43.8708 -43.8706 -43.8701 -43.8699 -43.8689 -43.8683
   -43.8546 -43.8488 -43.8476 -43.8350 -43.8339 -43.8332 -43.8242 -43.8224
   -43.8189 -43.8177 -43.8160 -43.8150 -43.8117 -43.8112 -43.8110 -43.8084
   -43.8082 -43.8061 -43.8041 -43.8037 -43.8032 -43.8027 -43.8021 -43.8007
   -43.7943 -43.7939 -43.7934 -43.7920 -43.7879 -43.7863 -43.7841 -43.7836
[...]
     8.8655   8.8758   8.8864   8.9007   8.9051   8.9093   8.9209   8.9253
     8.9317   8.9328   8.9423   8.9462   8.9488   8.9538   8.9624   8.9788
     8.9819   8.9870   8.9911   8.9925   8.9992   9.0031   9.0087   9.0147
     9.0213   9.0389   9.0414   9.0478   9.0501   9.0528   9.0738   9.0904
     9.0956   9.0970   9.1000   9.1099   9.1139   9.1166   9.1218   9.1231
     9.1282   9.1383   9.1525   9.1563   9.1730   9.1761   9.1848   9.1890
     9.1946   9.1959   9.1972   9.2062   9.2073   9.2112   9.2149   9.2211
     9.2231   9.2309   9.2385   9.2428   9.2511   9.2559   9.2683   9.2777
     9.2822   9.2919   9.2984   9.3058   9.3171   9.3276   9.3336   9.3383
     9.3410   9.3492   9.3547   9.3622   9.3693   9.3809   9.3845   9.3891
     9.3926   9.4071   9.4224   9.4267   9.4400   9.4606   9.4776   9.4939
     9.5230   9.5329   9.5345   9.5419   9.5460   9.5479   9.5774   9.6030
     9.7282   9.7405   9.9346   9.9771  10.1554  10.2596  10.2821  10.3767
    10.4066  10.4589  10.4742  10.4878  10.4970  10.5119  10.5264  10.5575
    10.5720  10.6299  10.6313  10.6678  10.6947

     the Fermi energy is     8.1265 ev

!    total energy              =  -42344.69434529 Ry

     total all-electron energy =   -338859.081907 Ry
     estimated scf accuracy    <          8.9E-09 Ry
     smearing contrib. (-TS)   =       0.01544132 Ry
     internal energy E=F+TS    =  -42344.70978661 Ry

     The total energy is F=E-TS. E is the sum of the following terms:
     one-electron contribution =  -97965.96881703 Ry
     hartree contribution      =   49488.16272203 Ry
     xc contribution           =   -3547.37667650 Ry
     ewald contribution        =   20586.80039168 Ry
     one-center paw contrib.   =  -10906.32740678 Ry

     total magnetization       =    -2.38 Bohr mag/cell
     absolute magnetization    =   227.16 Bohr mag/cell

     convergence has been achieved in  89 iterations

     negative rho (up, down):  1.146E-03 1.263E-03

     Forces acting on atoms (cartesian axes, Ry/au):

     atom    1 type  3   force =    -0.00028208   -0.00036731    0.04989084
     atom    2 type  2   force =    -0.01119607   -0.01280664    0.00025824
     atom    3 type  1   force =    -0.01364181   -0.00030084   -0.01501274
     atom    4 type  2   force =     0.00045739   -0.00808290   -0.00785494
     atom    5 type  1   force =     0.00011293    0.00000728    0.00062583
     atom    6 type  2   force =    -0.00099144   -0.00022747   -0.00096051
     atom    7 type  1   force =     0.00106078    0.00005486   -0.00096771
     atom    8 type  2   force =     0.00005503   -0.00013499   -0.00106487
     atom    9 type  1   force =     0.00015434   -0.00160334   -0.00485062
     atom   10 type  2   force =     0.00096154    0.00106213   -0.00193034
     atom   11 type  1   force =    -0.00277256   -0.00156254    0.00249874
     atom   12 type  2   force =     0.00113638    0.00031002    0.00094944
     atom   13 type  1   force =     0.00030268    0.00144137    0.00002551
     atom   14 type  2   force =    -0.00304125    0.00028146    0.00302207
     atom   15 type  1   force =     0.00008545    0.00020814   -0.00045024
     atom   16 type  2   force =    -0.00021854   -0.00056481    0.00021176
     atom   17 type  1   force =     0.00004704    0.00024749   -0.00091126
     atom   18 type  2   force =     0.00039808   -0.00118654    0.00047442
     atom   19 type  1   force =    -0.00215979    0.00069030    0.00105198
     atom   20 type  2   force =     0.00037744   -0.00046150    0.00003080
     atom   21 type  1   force =     0.00034213    0.00005730   -0.00026809
     atom   22 type  2   force =    -0.00012629   -0.00014046    0.00008104
     atom   23 type  1   force =    -0.00031563   -0.00004782   -0.00060688
     atom   24 type  2   force =     0.00003799    0.00059430   -0.00013469
     atom   25 type  1   force =    -0.00003321    0.00149641   -0.00457778
     atom   26 type  2   force =    -0.01097233    0.01307094    0.00047224
     atom   27 type  1   force =    -0.00057490    0.00109314    0.00130074
     atom   28 type  2   force =    -0.00005570    0.00823363   -0.00768245
     atom   29 type  1   force =     0.00013091   -0.00162470    0.00009124
     atom   30 type  2   force =    -0.00093552    0.00010861   -0.00101464
     atom   31 type  1   force =     0.00011248   -0.00017618   -0.00008358
     atom   32 type  2   force =     0.00001449    0.00007266   -0.00120275
     atom   33 type  1   force =    -0.00341896   -0.00024829   -0.00392310
     atom   34 type  2   force =     0.00060756   -0.00109212   -0.00231686
     atom   35 type  1   force =    -0.00065180    0.00021671   -0.00117966
     atom   36 type  2   force =     0.00061471   -0.00060239    0.00325755
     atom   37 type  1   force =     0.00284566   -0.00028800    0.00170494
     atom   38 type  2   force =     0.00008623   -0.00100775    0.00052414
     atom   39 type  1   force =    -0.00091601    0.00029446   -0.00067622
     atom   40 type  2   force =     0.00051468    0.00052335    0.00125684
     atom   41 type  1   force =    -0.00734197   -0.00727620   -0.00637403
     atom   42 type  3   force =    -0.00000555   -0.00083895   -0.05832542
     atom   43 type  1   force =     0.00015731   -0.00825749    0.01172976
     atom   44 type  2   force =    -0.01434159    0.00045581    0.01931970
     atom   45 type  1   force =     0.00009395   -0.00012862    0.00180006
     atom   46 type  2   force =    -0.00041424   -0.00026842    0.00835760
     atom   47 type  1   force =    -0.00002499    0.00135447   -0.00272324
     atom   48 type  2   force =    -0.00089824   -0.00025402   -0.00153127
     atom   49 type  1   force =    -0.00645001    0.00677410   -0.00406744
     atom   50 type  2   force =     0.00010573    0.00130123   -0.00250950
     atom   51 type  1   force =     0.00060729    0.00911422    0.01306040
     atom   52 type  2   force =    -0.00046639    0.00002099    0.00240843
     atom   53 type  1   force =     0.00030331    0.00002276    0.00217597
     atom   54 type  2   force =    -0.00038244    0.00197566    0.00106055
     atom   55 type  1   force =    -0.00044330   -0.00172728   -0.00263243
     atom   56 type  2   force =    -0.00021464    0.00030499    0.00004184
     atom   57 type  1   force =     0.00049458   -0.00020825   -0.00282083
     atom   58 type  2   force =     0.00054046    0.00000169    0.00067794
     atom   59 type  1   force =     0.00030974   -0.00033492   -0.00075956
     atom   60 type  2   force =     0.00135291   -0.00003508    0.00141084
[...]
     atom  114 type  2   force =    -0.00021172   -0.00112936    0.00047315
     atom  115 type  1   force =    -0.00010560    0.00031514   -0.00029378
     atom  116 type  2   force =    -0.00062394   -0.00068614    0.00049191
     atom  117 type  1   force =    -0.00036807    0.00005420    0.00011334
     atom  118 type  2   force =     0.00014470   -0.00028458    0.00019155
     atom  119 type  1   force =     0.00031036   -0.00018932   -0.00010406
     atom  120 type  2   force =     0.00014228    0.00026613    0.00001005
     atom  121 type  1   force =     0.00008010   -0.00038386   -0.00280871
     atom  122 type  2   force =     0.01138115    0.01330297    0.00043621
     atom  123 type  1   force =     0.00048270    0.00094513    0.00138266
     atom  124 type  2   force =    -0.00121205   -0.00002344    0.00145666
     atom  125 type  1   force =    -0.00002248   -0.00002983   -0.00008564
     atom  126 type  2   force =     0.00092329    0.00008426   -0.00111932
     atom  127 type  1   force =    -0.00015469   -0.00024662    0.00008099
     atom  128 type  2   force =    -0.00055523   -0.00059137    0.00116025

     Total force =     0.103551     Total SCF correction =     0.000368

     Computing stress (Cartesian axis) and pressure

     negative rho (up, down):  1.146E-03 1.263E-03
          total   stress  (Ry/bohr**3)                   (kbar)     P=      -20.11
  -0.00014660   0.00000034   0.00000010          -21.57        0.05        0.01
   0.00000034  -0.00010315   0.00000044            0.05      -15.17        0.06
   0.00000010   0.00000044  -0.00016033            0.01        0.06      -23.59

     Writing output data file /scratch/bxp912/feruslab3.save/

     General routines

     Parallel routines

   This run was terminated on:  15:45:31  29May2022

   JOB DONE.