     Program PWSCF v.6.7MaX starts on 29May2022 at 14:47:22

     R & G space division:  proc/nbgrp/npool/nimage =      72
     Reading input from feruslabE.in
Warning: card &CELL ignored
Warning: card CELL_DYNAMICS = 'BFGS', ignored
Warning: card CELL_FACTOR = 2.0, ignored
Warning: card PRESS = 0.0, ignored
Warning: card / ignored

     Current dimensions of program PWSCF are:
     Max number of different atomic species (ntypx) = 10
     Max number of k-points (npk) =  40000
     Max angular momentum in pseudopotentials (lmaxx) =  3
     file Fe.pbe-spn-kjpaw_psl.1.0.0.UPF: wavefunction(s)  3P 3D renormalized
     file Fe.pbe-spn-kjpaw_psl.1.0.0.UPF: wavefunction(s)  3P 3D renormalized
     file Ru.pbe-spn-kjpaw_psl.1.0.0.UPF: wavefunction(s)  4D renormalized

     gamma-point specific algorithms are used

     Subspace diagonalization in iterative solution of the eigenvalue problem:
     one sub-group per band group will be used

     bravais-lattice index     =            0
     lattice parameter (alat)  =      25.8600  a.u.
     unit-cell volume          =   18186.5006 (a.u.)^3
     number of atoms/cell      =          128
     number of atomic types    =            3
     number of electrons       =      2048.00
     number of Kohn-Sham states=         1229
     kinetic-energy cutoff     =      71.0000  Ry
     charge density cutoff     =     430.0000  Ry
     scf convergence threshold =      1.0E-08
     mixing beta               =       0.3000
     number of iterations used =           10  local-TF  mixing
     Exchange-correlation= SLA  PW   PBX  PBC
                           (   1   4   3   4   0   0   0)

     celldm(1)=  25.860000  celldm(2)=   0.000000  celldm(3)=   0.000000
     celldm(4)=   0.000000  celldm(5)=   0.000000  celldm(6)=   0.000000

     crystal axes: (cart. coord. in units of alat)
               a(1) = (   1.000000   0.000000   0.000000 )
               a(2) = (   0.000000   1.051631   0.000000 )
               a(3) = (   0.000000   0.000000   1.000000 )

     reciprocal axes: (cart. coord. in units 2 pi/alat)
               b(1) = (  1.000000  0.000000  0.000000 )
               b(2) = (  0.000000  0.950903  0.000000 )
               b(3) = (  0.000000  0.000000  1.000000 )

     PseudoPot. # 1 for Fe read from file:
     /rds/homes/b/bxp912/pp/Fe.pbe-spn-kjpaw_psl.1.0.0.UPF
     MD5 check sum: 42f43b795421b414b0dc916aa790dbcb
     Pseudo is Projector augmented-wave + core cor, Zval = 16.0
     Generated using &quot;atomic&quot; code by A. Dal Corso  v.6.3
     Shape of augmentation charge: PSQ
     Using radial grid of 1191 points,  6 beta functions with:
                l(1) =   0
                l(2) =   0
                l(3) =   1
                l(4) =   1
                l(5) =   2
                l(6) =   2
     Q(r) pseudized with 0 coefficients

     PseudoPot. # 2 for Fe read from file:
     /rds/homes/b/bxp912/pp/Fe.pbe-spn-kjpaw_psl.1.0.0.UPF
     MD5 check sum: 42f43b795421b414b0dc916aa790dbcb
     Pseudo is Projector augmented-wave + core cor, Zval = 16.0
     Generated using &quot;atomic&quot; code by A. Dal Corso  v.6.3
     Shape of augmentation charge: PSQ
     Using radial grid of 1191 points,  6 beta functions with:
                l(1) =   0
                l(2) =   0
                l(3) =   1
                l(4) =   1
                l(5) =   2
                l(6) =   2
     Q(r) pseudized with 0 coefficients

     PseudoPot. # 3 for Ru read from file:
     /rds/homes/b/bxp912/pp/Ru.pbe-spn-kjpaw_psl.1.0.0.UPF
     MD5 check sum: 0ae1f594dea09af7be8575c3a481d1ae
     Pseudo is Projector augmented-wave + core cor, Zval = 16.0
     Generated using "atomic" code by A. Dal Corso  v.5.1
     Shape of augmentation charge: PSQ
     Using radial grid of 1233 points,  6 beta functions with:
                l(1) =   0
                l(2) =   0
                l(3) =   1
                l(4) =   1
                l(5) =   2
                l(6) =   2
     Q(r) pseudized with 0 coefficients

     atomic species   valence    mass     pseudopotential
        Fe1           16.00    55.84500     Fe( 1.00)
        Fe2           16.00    55.84500     Fe( 1.00)
        Ru            16.00   101.07000     Ru( 1.00)

     Starting magnetic structure
     atomic species   magnetization
        Fe1          0.100
        Fe2         -0.100
        Ru           0.001

     No symmetry found

   Cartesian axes

     site n.     atom                  positions (alat units)
         1           Ru  tau(   1) = (   0.0625059   0.0657779   0.2910260  )
         2           Fe2 tau(   2) = (   0.1918897   0.2014172   0.3118918  )
         3           Fe1 tau(   3) = (   0.1882328   0.0656869   0.4358379  )
         4           Fe2 tau(   4) = (   0.0624775   0.1970719   0.4359471  )
         5           Fe1 tau(   5) = (   0.0624549   0.0656597   0.5661003  )
         6           Fe2 tau(   6) = (   0.1871430   0.1965451   0.5642273  )
         7           Fe1 tau(   7) = (   0.1889127   0.0656324   0.6868723  )
         8           Fe2 tau(   8) = (   0.0625044   0.1953941   0.6845946  )
         9           Fe1 tau(   9) = (   0.0624492   0.3290082   0.3162931  )
        10           Fe2 tau(  10) = (   0.1878214   0.4592247   0.3140372  )
        11           Fe1 tau(  11) = (   0.1883843   0.3293589   0.4358220  )
        12           Fe2 tau(  12) = (   0.0624760   0.4596378   0.4342728  )
        13           Fe1 tau(  13) = (   0.0624920   0.3282674   0.5642399  )
        14           Fe2 tau(  14) = (   0.1874818   0.4600075   0.5644807  )
        15           Fe1 tau(  15) = (   0.1868970   0.3281618   0.6858748  )
        16           Fe2 tau(  16) = (   0.0624936   0.4605212   0.6849404  )
        17           Fe1 tau(  17) = (   0.0625024   0.5915716   0.3157343  )
        18           Fe2 tau(  18) = (   0.1879142   0.7239319   0.3139752  )
        19           Fe1 tau(  19) = (   0.1872820   0.5915469   0.4358293  )
        20           Fe2 tau(  20) = (   0.0624835   0.7235138   0.4342323  )
        21           Fe1 tau(  21) = (   0.0624907   0.5915302   0.5645538  )
        22           Fe2 tau(  22) = (   0.1874919   0.7231202   0.5644793  )
        23           Fe1 tau(  23) = (   0.1874063   0.5915279   0.6856542  )
        24           Fe2 tau(  24) = (   0.0625142   0.7225942   0.6849283  )
        25           Fe1 tau(  25) = (   0.0624543   0.8539987   0.3163316  )
        26           Fe2 tau(  26) = (   0.1918142   0.9816207   0.3118943  )
        27           Fe1 tau(  27) = (   0.1884013   0.8536921   0.4358345  )
        28           Fe2 tau(  28) = (   0.0624649   0.9860452   0.4359182  )
        29           Fe1 tau(  29) = (   0.0624985   0.8547814   0.5642264  )
        30           Fe2 tau(  30) = (   0.1871332   0.9865130   0.5642305  )
        31           Fe1 tau(  31) = (   0.1869002   0.8548778   0.6858783  )
        32           Fe2 tau(  32) = (   0.0624558   0.9876052   0.6846415  )
        33           Fe1 tau(  33) = (   0.3125283   0.0656767   0.3153241  )
        34           Fe2 tau(  34) = (   0.4366043   0.1971699   0.3142072  )
        35           Fe1 tau(  35) = (   0.4374422   0.0657131   0.4355769  )
        36           Fe2 tau(  36) = (   0.3125894   0.1975774   0.4358271  )
        37           Fe1 tau(  37) = (   0.3120225   0.0656827   0.5647659  )
        38           Ru  tau(  38) = (   0.4378242   0.1969597   0.5645465  )
        39           Fe1 tau(  39) = (   0.4382670   0.0656506   0.6865253  )
        40           Fe2 tau(  40) = (   0.3128280   0.1968527   0.6838988  )
        41           Fe1 tau(  41) = (   0.3143566   0.3300848   0.3168881  )
        42           Fe2 tau(  42) = (   0.4380142   0.4607661   0.3143143  )
        43           Fe1 tau(  43) = (   0.4381801   0.3288131   0.4365576  )
        44           Fe2 tau(  44) = (   0.3127566   0.4604807   0.4354136  )
        45           Fe1 tau(  45) = (   0.3125129   0.3287898   0.5653541  )
        46           Fe2 tau(  46) = (   0.4375258   0.4601913   0.5648721  )
        47           Fe1 tau(  47) = (   0.4372527   0.3286868   0.6863403  )
        48           Fe2 tau(  48) = (   0.3121639   0.4602999   0.6850825  )
        49           Fe1 tau(  49) = (   0.3122461   0.5915191   0.3156420  )
        50           Fe2 tau(  50) = (   0.4379749   0.7223781   0.3143454  )
        51           Fe1 tau(  51) = (   0.4374235   0.5915294   0.4359555  )
        52           Fe2 tau(  52) = (   0.3127687   0.7226645   0.4354242  )
        53           Fe1 tau(  53) = (   0.3124200   0.5915220   0.5650306  )
        54           Fe2 tau(  54) = (   0.4375286   0.7229381   0.5648768  )
        55           Fe1 tau(  55) = (   0.4377002   0.5915143   0.6861050  )
        56           Fe2 tau(  56) = (   0.3121736   0.7228110   0.6850814  )
        57           Fe1 tau(  57) = (   0.3144103   0.8531069   0.3169355  )
        58           Fe2 tau(  58) = (   0.4366715   0.9859647   0.3142091  )
        59           Fe1 tau(  59) = (   0.4382063   0.8542513   0.4365853  )
        60           Fe2 tau(  60) = (   0.3125895   0.9855573   0.4358131  )
[...]
       114           Fe2 tau( 114) = (   0.9371598   0.7238976   0.3139999  )
       115           Fe1 tau( 115) = (   0.9377646   0.5915458   0.4358419  )
       116           Fe2 tau( 116) = (   0.8122153   0.7226557   0.4354428  )
       117           Fe1 tau( 117) = (   0.8125580   0.5915265   0.5650413  )
       118           Fe2 tau( 118) = (   0.9375705   0.7231224   0.5644911  )
       119           Fe1 tau( 119) = (   0.9376433   0.5915402   0.6856562  )
       120           Fe2 tau( 120) = (   0.8128215   0.7228073   0.6850820  )
       121           Fe1 tau( 121) = (   0.8106770   0.8530522   0.3170121  )
       122           Fe2 tau( 122) = (   0.9331251   0.9816405   0.3118907  )
       123           Fe1 tau( 123) = (   0.9366253   0.8537026   0.4358875  )
       124           Fe2 tau( 124) = (   0.8123694   0.9855677   0.4358403  )
       125           Fe1 tau( 125) = (   0.8124209   0.8542355   0.5653886  )
       126           Fe2 tau( 126) = (   0.9378693   0.9865197   0.5642632  )
       127           Fe1 tau( 127) = (   0.9381364   0.8548433   0.6858883  )
       128           Fe2 tau( 128) = (   0.8121443   0.9862056   0.6839159  )

     number of k points=     1  Marzari-Vanderbilt smearing, width (Ry)=  0.0400
                       cart. coord. in units 2pi/alat
        k(    1) = (   0.0000000   0.0000000   0.0000000), wk =   1.0000000

     Check: negative core charge=   -0.000004
     Generating pointlists ...
     new r_m :   0.0710 (alat units)  1.8364 (a.u.) for type    1
     new r_m :   0.0713 (alat units)  1.8431 (a.u.) for type    2
     new r_m :   0.0713 (alat units)  1.8436 (a.u.) for type    3

     Initial potential from superposition of free atoms

     starting charge 2047.94359, renormalised to 2048.00000

     negative rho (up, down):  2.059E-04 2.051E-04
     Starting wfcs are 1280 randomized atomic wfcs
     Checking if some PAW data can be deallocated...

     Self-consistent Calculation

     iteration #  1     ecut=    71.00 Ry     beta= 0.30
[...]
   -46.2890 -46.2873 -46.2821 -46.2803 -46.2763 -46.2604 -46.2513 -46.2479
   -46.2445 -46.2437 -46.2415 -46.2406 -46.2295 -46.2294 -46.2254 -46.2144
   -46.2096 -46.2091 -46.2049 -46.2038 -46.1999 -46.1889 -46.1812 -46.1525
   -46.1426 -46.0265 -46.0223 -45.8475 -45.8405 -45.8385 -45.8312 -45.8277
   -45.8229 -45.8228 -45.8215 -45.8183 -45.8156 -45.8123 -45.8070 -45.7892
   -45.7875 -45.7861 -45.7859 -45.7835 -45.7796 -45.7790 -45.7769 -45.7765
   -45.7714 -45.7710 -45.7700 -45.7657 -45.7605 -45.7539 -45.7517 -45.7509
   -45.7459 -45.7444 -45.7419 -45.7413 -45.7391 -45.7389 -45.7385 -45.7370
   -45.7345 -45.7315 -45.7275 -45.7119 -45.7098 -45.6377 -45.6270 -45.6251
   -45.6228 -45.6198 -45.6183 -45.6169 -45.6119 -45.6006 -45.6004 -45.5903
   -45.5899 -45.5873 -45.5855 -45.5799 -45.5779 -45.5772 -45.5743 -45.5738
   -45.5698 -45.5683 -45.5673 -45.5650 -45.5618 -45.5610 -45.5588 -45.5557
   -45.5546 -45.5531 -45.5471 -45.5464 -45.5423 -45.5343 -45.5280 -45.5242
   -45.5233 -45.5230 -45.5068 -45.5024 -45.4504 -45.4490 -45.3899 -45.3833
   -45.3778 -45.3749 -45.0193 -44.9784 -44.9127 -44.6527 -44.6351 -44.6212
   -44.6076 -44.5824 -44.5817 -44.5777 -44.5697 -44.5689 -44.5682 -44.5659
   -44.5590 -44.5515 -44.5448 -44.5364 -44.5350 -44.5285 -44.5267 -44.5228
   -44.5213 -44.5191 -44.5162 -44.5156 -44.5126 -44.5080 -44.5071 -44.5051
   -44.5035 -44.5011 -44.4962 -44.4935 -44.4905 -44.4891 -44.4858 -44.4839
   -44.4828 -44.4806 -44.4794 -44.4731 -44.4631 -44.4604 -44.4441 -44.4304
   -44.4273 -44.4254 -44.4231 -44.4211 -44.4166 -44.4154 -44.4099 -44.4058
   -44.4037 -44.4027 -44.4001 -44.3993 -44.3966 -44.3961 -44.3911 -44.3847
   -44.3779 -44.3667 -44.3654 -44.3648 -44.3645 -44.3640 -44.3617 -44.3601
   -44.3592 -44.3573 -44.3524 -44.3501 -44.3493 -44.3467 -44.3455 -44.3423
   -44.3404 -44.3377 -44.3359 -44.3343 -44.3331 -44.3316 -44.3311 -44.3296
   -44.3276 -44.3252 -44.3230 -44.3196 -44.1925 -44.1898 -44.1678 -44.1647
   -44.1412 -44.1386 -43.9195 -43.9115 -43.9054 -43.9029 -43.8993 -43.8984
   -43.8943 -43.8941 -43.8928 -43.8920 -43.8901 -43.8890 -43.8877 -43.8857
   -43.8849 -43.8834 -43.8815 -43.8813 -43.8806 -43.8776 -43.8765 -43.8764
   -43.8756 -43.8751 -43.8747 -43.8740 -43.8735 -43.8718 -43.8703 -43.8679
   -43.8381 -43.8377 -43.8371 -43.8324 -43.8321 -43.8265 -43.8222 -43.8191
   -43.8130 -43.8124 -43.8106 -43.8103 -43.8097 -43.8089 -43.8085 -43.8077
   -43.8068 -43.8062 -43.8059 -43.8057 -43.8052 -43.8049 -43.8045 -43.8030
   -43.8022 -43.7999 -43.7973 -43.7958 -43.7939 -43.7926 -43.7884 -43.7861
   -43.7631 -43.7624 -43.7619 -43.7571 -43.7551 -43.7534 -43.7532 -43.7520
[...]
     8.8961   8.9058   8.9217   8.9268   8.9286   8.9309   8.9331   8.9434
     8.9520   8.9582   8.9598   8.9623   8.9736   8.9784   8.9897   8.9919
     8.9999   9.0080   9.0183   9.0244   9.0268   9.0317   9.0347   9.0394
     9.0516   9.0553   9.0598   9.0622   9.0803   9.0950   9.0986   9.1022
     9.1177   9.1246   9.1331   9.1359   9.1411   9.1430   9.1499   9.1549
     9.1585   9.1625   9.1699   9.1757   9.1793   9.1990   9.2062   9.2073
     9.2104   9.2125   9.2181   9.2196   9.2274   9.2305   9.2404   9.2437
     9.2502   9.2537   9.2564   9.2664   9.2773   9.2835   9.2944   9.3033
     9.3112   9.3181   9.3222   9.3373   9.3387   9.3519   9.3562   9.3584
     9.3652   9.3692   9.3751   9.3800   9.3969   9.4004   9.4052   9.4184
     9.4197   9.4263   9.4372   9.4523   9.4657   9.4810   9.4913   9.5006
     9.5141   9.5431   9.5472   9.5572   9.5691   9.5695   9.6043   9.6790
     9.7108   9.7660   9.9645   9.9823  10.1764  10.2781  10.3024  10.4007
    10.4369  10.4571  10.4831  10.5061  10.5258  10.5629  10.5747  10.5950
    10.6047  10.6163  10.6536  10.6957  10.7251

 ------ SPIN DOWN ----------

          k = 0.0000 0.0000 0.0000 ( 91909 PWs)   bands (ev):

   -80.4190 -80.4178 -80.4154 -80.4145 -80.3541 -80.3531 -80.3498 -80.3471
   -80.3469 -80.3434 -80.3386 -80.3357 -80.3342 -80.3315 -80.3277 -80.3267
   -80.2826 -80.2780 -80.2729 -80.2699 -80.2687 -80.2685 -80.2680 -80.2668
   -80.2652 -80.2637 -80.2637 -80.2633 -80.2633 -80.2572 -80.2555 -80.2496
   -79.9239 -79.9222 -79.7197 -79.7125 -79.7087 -79.7045 -79.7012 -79.6985
   -79.6940 -79.6918 -79.6916 -79.6828 -79.6641 -79.6634 -79.6575 -79.6507
   -79.6507 -79.6064 -79.5924 -79.5858 -79.5781 -79.5672 -79.5634 -79.5224
   -79.5183 -79.5033 -79.4771 -79.4656 -79.4603 -79.3926 -79.3722 -78.9064
   -78.5538 -78.5475 -78.4224 -78.4204 -78.4087 -78.4082 -78.4072 -78.4051
   -78.4019 -78.3923 -78.3868 -78.3768 -78.3667 -78.3567 -78.3521 -78.3169
   -78.3113 -78.3111 -78.3095 -78.3082 -78.3076 -78.3065 -78.3020 -78.2607
   -78.2600 -78.2567 -78.2531 -78.2460 -78.2443 -78.1137 -78.1110 -77.7786
   -77.7785 -77.7781 -77.7767 -77.7490 -77.7486 -77.7401 -77.7349 -77.7340
   -77.7304 -77.7287 -77.7224 -77.7217 -77.7217 -77.7209 -77.7206 -77.7177
   -77.7159 -77.7141 -77.7140 -77.7133 -77.7125 -77.7122 -77.7109 -77.7102
   -77.7089 -77.7052 -77.7025 -77.7019 -77.7019 -77.7009 -64.9981 -64.2513
   -46.5463 -46.5457 -46.5433 -46.5422 -46.5107 -46.5079 -46.5060 -46.5022
   -46.5013 -46.4997 -46.4973 -46.4972 -46.4948 -46.4943 -46.4921 -46.4895
   -46.4861 -46.4851 -46.4797 -46.4784 -46.4459 -46.4407 -46.4389 -46.4342
   -46.4298 -46.4285 -46.4272 -46.4256 -46.4237 -46.4225 -46.4201 -46.4193
   -46.4190 -46.4140 -46.4128 -46.4115 -46.4081 -46.4065 -46.4058 -46.4057
   -46.4030 -46.4013 -46.4007 -46.3973 -46.3944 -46.3928 -46.3912 -46.3901
   -46.3888 -46.3851 -46.3842 -46.3829 -46.3534 -46.3495 -46.3398 -46.3382
   -46.3374 -46.3365 -46.3353 -46.3342 -46.3335 -46.3330 -46.3318 -46.3286
   -46.3280 -46.3231 -46.3221 -46.3201 -46.3190 -46.3184 -46.3165 -46.3158
   -46.3143 -46.3109 -46.3106 -46.3094 -46.3089 -46.3085 -46.3023 -46.2991
   -46.2684 -46.2639 -46.2611 -46.2556 -46.2543 -46.2525 -46.2485 -46.2477
   -46.2462 -46.2434 -46.2426 -46.2409 -46.2400 -46.2366 -46.2353 -46.2306
   -46.0227 -46.0203 -45.9749 -45.9730 -45.9633 -45.9615 -45.8232 -45.8138
   -45.8049 -45.8013 -45.8000 -45.7946 -45.7945 -45.7907 -45.7897 -45.7884
   -45.7851 -45.7838 -45.7827 -45.7754 -45.7752 -45.7746 -45.7737 -45.7720
   -45.7695 -45.7693 -45.7663 -45.7637 -45.7616 -45.7613 -45.7602 -45.7585
   -45.7520 -45.7475 -45.7444 -45.7420 -45.7372 -45.7365 -45.7353 -45.7350
   -45.7340 -45.7316 -45.7311 -45.7301 -45.7267 -45.7237 -45.7161 -45.7079
   -45.6852 -45.6834 -45.6803 -45.6774 -45.6738 -45.6545 -45.6539 -45.6394
   -45.6304 -45.6198 -45.6185 -45.6180 -45.6152 -45.6101 -45.6058 -45.5892
   -45.5870 -45.5868 -45.5845 -45.5814 -45.5766 -45.5764 -45.5738 -45.5731
   -45.5711 -45.5667 -45.5550 -45.5478 -45.5437 -45.5385 -45.5349 -45.5340
   -45.5263 -45.5235 -45.5127 -45.5067 -45.5024 -45.4933 -45.4892 -45.4858
   -45.4701 -45.4332 -45.4267 -45.4132 -45.4066 -45.0622 -44.9412 -44.9271
   -44.6869 -44.6715 -44.6594 -44.6510 -44.6125 -44.5989 -44.5564 -44.5533
   -44.5470 -44.5462 -44.5392 -44.5358 -44.5333 -44.5325 -44.5296 -44.5264
   -44.5261 -44.5251 -44.5245 -44.5230 -44.5192 -44.5179 -44.5159 -44.5132
   -44.5125 -44.5112 -44.5076 -44.5048 -44.5045 -44.5021 -44.5011 -44.4999
   -44.4965 -44.4945 -44.4925 -44.4916 -44.4889 -44.4859 -44.4836 -44.4809
   -44.4793 -44.4755 -44.4664 -44.4644 -44.4597 -44.4319 -44.4281 -44.4270
   -44.4234 -44.4229 -44.4215 -44.4167 -44.4118 -44.3838 -44.3759 -44.3712
   -44.3697 -44.3690 -44.3657 -44.3645 -44.3631 -44.3622 -44.3605 -44.3574
   -44.3570 -44.3561 -44.3520 -44.3516 -44.3487 -44.3480 -44.3441 -44.3433
   -44.3418 -44.3409 -44.3397 -44.3375 -44.3363 -44.3338 -44.3301 -44.3197
   -44.3196 -44.3179 -44.3136 -44.3090 -44.3060 -44.2966 -44.2959 -44.2236
   -44.2216 -44.2111 -44.2089 -44.1808 -44.1765 -43.9564 -43.9557 -43.9554
   -43.9539 -43.9167 -43.9158 -43.9130 -43.9114 -43.9111 -43.8894 -43.8889
   -43.8887 -43.8883 -43.8880 -43.8865 -43.8836 -43.8829 -43.8823 -43.8798
   -43.8788 -43.8784 -43.8770 -43.8754 -43.8733 -43.8730 -43.8726 -43.8705
   -43.8668 -43.8662 -43.8657 -43.8649 -43.8646 -43.8644 -43.8636 -43.8624
   -43.8430 -43.8421 -43.8319 -43.8298 -43.8285 -43.8191 -43.8183 -43.8163
   -43.8121 -43.8112 -43.8108 -43.8092 -43.8088 -43.8056 -43.8031 -43.8015
   -43.8005 -43.7992 -43.7982 -43.7980 -43.7974 -43.7971 -43.7941 -43.7886
   -43.7884 -43.7881 -43.7875 -43.7825 -43.7794 -43.7789 -43.7781 -43.7776
[...]
     8.8758   8.8832   8.8968   8.9044   8.9157   8.9169   8.9210   8.9326
     8.9345   8.9387   8.9447   8.9469   8.9504   8.9542   8.9614   8.9753
     8.9876   8.9955   8.9979   9.0013   9.0059   9.0106   9.0176   9.0221
     9.0290   9.0333   9.0457   9.0521   9.0556   9.0575   9.0802   9.0981
     9.1049   9.1085   9.1118   9.1163   9.1228   9.1267   9.1292   9.1301
     9.1379   9.1402   9.1442   9.1509   9.1593   9.1803   9.1871   9.1923
     9.1976   9.1999   9.2047   9.2067   9.2140   9.2171   9.2235   9.2260
     9.2335   9.2408   9.2431   9.2505   9.2583   9.2682   9.2720   9.2861
     9.2876   9.3073   9.3123   9.3212   9.3316   9.3364   9.3411   9.3435
     9.3461   9.3510   9.3588   9.3682   9.3734   9.3792   9.3914   9.3982
     9.4073   9.4130   9.4221   9.4294   9.4413   9.4490   9.4672   9.4913
     9.4967   9.5138   9.5387   9.5482   9.5570   9.5783   9.5870   9.6103
     9.6933   9.7289   9.9417   9.9601  10.1624  10.2619  10.2819  10.3802
    10.4184  10.4759  10.4885  10.5051  10.5237  10.5356  10.5424  10.5649
    10.5799  10.6450  10.6484  10.6785  10.7034

     the Fermi energy is     8.1320 ev

!    total energy              =  -42344.67858451 Ry

     total all-electron energy =   -338859.066146 Ry
     estimated scf accuracy    <          8.6E-09 Ry
     smearing contrib. (-TS)   =       0.01666135 Ry
     internal energy E=F+TS    =  -42344.69524586 Ry

     The total energy is F=E-TS. E is the sum of the following terms:
     one-electron contribution =  -97966.27762224 Ry
     hartree contribution      =   49488.65025783 Ry
     xc contribution           =   -3547.54381670 Ry
     ewald contribution        =   20586.80039168 Ry
     one-center paw contrib.   =  -10906.32445642 Ry

     total magnetization       =    -3.47 Bohr mag/cell
     absolute magnetization    =   227.25 Bohr mag/cell

     convergence has been achieved in  92 iterations

     negative rho (up, down):  1.156E-03 1.292E-03

     Forces acting on atoms (cartesian axes, Ry/au):

     atom    1 type  3   force =    -0.00017402   -0.00012271    0.04974219
     atom    2 type  2   force =    -0.01166705   -0.01279458   -0.00138279
     atom    3 type  1   force =    -0.01417316    0.00007018   -0.01524629
     atom    4 type  2   force =     0.00049896   -0.00818359   -0.00753250
     atom    5 type  1   force =     0.00028115   -0.00001980    0.00069178
     atom    6 type  2   force =    -0.00228011   -0.00002706    0.00004080
     atom    7 type  1   force =     0.00016472   -0.00036533   -0.00061511
     atom    8 type  2   force =     0.00060769   -0.00005041   -0.00107073
     atom    9 type  1   force =    -0.00009446   -0.00121456   -0.00441906
     atom   10 type  2   force =     0.00023827    0.00094794    0.00030573
     atom   11 type  1   force =    -0.00138126   -0.00073153    0.00107759
     atom   12 type  2   force =     0.00020927    0.00014698    0.00015877
     atom   13 type  1   force =     0.00030528    0.00139480    0.00023710
     atom   14 type  2   force =    -0.00088558    0.00114123   -0.00034710
     atom   15 type  1   force =    -0.00095772    0.00037531    0.00025608
     atom   16 type  2   force =     0.00005485   -0.00079298   -0.00035048
     atom   17 type  1   force =     0.00006170    0.00007134   -0.00050217
     atom   18 type  2   force =     0.00021553   -0.00104356    0.00024394
     atom   19 type  1   force =    -0.00026725    0.00018460   -0.00019902
     atom   20 type  2   force =     0.00003900   -0.00018889   -0.00010607
     atom   21 type  1   force =     0.00030490   -0.00017299   -0.00006806
     atom   22 type  2   force =    -0.00005376   -0.00028821    0.00021765
     atom   23 type  1   force =    -0.00050923    0.00023557    0.00016189
     atom   24 type  2   force =    -0.00009449    0.00056680   -0.00022672
     atom   25 type  1   force =     0.00006027    0.00125070   -0.00427064
     atom   26 type  2   force =    -0.01113767    0.01313476    0.00026610
     atom   27 type  1   force =    -0.00076674    0.00062086    0.00121916
     atom   28 type  2   force =     0.00016015    0.00835193   -0.00765515
     atom   29 type  1   force =     0.00026232   -0.00138508    0.00013657
     atom   30 type  2   force =    -0.00194087   -0.00090919   -0.00136216
     atom   31 type  1   force =    -0.00007335   -0.00032659    0.00022551
     atom   32 type  2   force =     0.00008751    0.00034656   -0.00135597
     atom   33 type  1   force =    -0.00419616   -0.00011350   -0.00475207
     atom   34 type  2   force =     0.00059225   -0.00002076   -0.00092343
     atom   35 type  1   force =    -0.00069775   -0.01194485   -0.01147694
     atom   36 type  2   force =    -0.01983803    0.00001749   -0.01745011
     atom   37 type  1   force =    -0.01124226   -0.01560499    0.00087926
     atom   38 type  3   force =     0.00040148    0.00050358   -0.00288585
     atom   39 type  1   force =    -0.00084254   -0.01343077    0.01131048
     atom   40 type  2   force =    -0.02848471    0.00061324    0.02626163
     atom   41 type  1   force =    -0.00038089    0.00087491   -0.00372857
     atom   42 type  2   force =     0.00025646   -0.00040418    0.00057755
     atom   43 type  1   force =     0.00015471    0.01244883   -0.01134480
     atom   44 type  2   force =     0.00040279    0.00029288    0.00071593
     atom   45 type  1   force =    -0.01407428    0.01530073   -0.00030711
     atom   46 type  2   force =    -0.00030900    0.00076230   -0.00115090
     atom   47 type  1   force =    -0.00003925    0.01275140    0.01100579
     atom   48 type  2   force =    -0.00081314   -0.00015335    0.00064721
     atom   49 type  1   force =     0.00015157    0.00041546   -0.00014387
     atom   50 type  2   force =     0.00031227   -0.00000286    0.00064028
     atom   51 type  1   force =     0.00037926    0.00029562    0.00047206
     atom   52 type  2   force =     0.00033766   -0.00047916    0.00034731
     atom   53 type  1   force =     0.00011767    0.00009824    0.00036586
     atom   54 type  2   force =    -0.00026118    0.00019833    0.00040191
     atom   55 type  1   force =    -0.00044509    0.00037920    0.00008511
     atom   56 type  2   force =    -0.00027361    0.00027937   -0.00016385
     atom   57 type  1   force =     0.00005045   -0.00100559   -0.00269010
     atom   58 type  2   force =     0.00060587    0.00044989    0.00054347
     atom   59 type  1   force =     0.00023956   -0.00038106    0.00023099
     atom   60 type  2   force =     0.00144782    0.00020548    0.00162378
[...]
     atom  114 type  2   force =    -0.00025781   -0.00105115    0.00018688
     atom  115 type  1   force =    -0.00004626    0.00001818   -0.00013142
     atom  116 type  2   force =    -0.00020617   -0.00045208    0.00030358
     atom  117 type  1   force =    -0.00037560   -0.00020132    0.00030798
     atom  118 type  2   force =     0.00009840   -0.00029438    0.00011359
     atom  119 type  1   force =     0.00032503    0.00000906    0.00032977
     atom  120 type  2   force =     0.00030712    0.00024531   -0.00006823
     atom  121 type  1   force =    -0.00007518   -0.00061920   -0.00246329
     atom  122 type  2   force =     0.01127622    0.01320439    0.00023724
     atom  123 type  1   force =     0.00047235    0.00070196    0.00130066
     atom  124 type  2   force =    -0.00142027    0.00007933    0.00155120
     atom  125 type  1   force =    -0.00017098    0.00015926    0.00003420
     atom  126 type  2   force =     0.00084542    0.00010899   -0.00099021
     atom  127 type  1   force =    -0.00016004   -0.00017301    0.00037906
     atom  128 type  2   force =    -0.00061319   -0.00028133    0.00097027

     Total force =     0.110789     Total SCF correction =     0.000312

     Computing stress (Cartesian axis) and pressure

     negative rho (up, down):  1.156E-03 1.292E-03
          total   stress  (Ry/bohr**3)                   (kbar)     P=      -18.09
  -0.00012873   0.00000006  -0.00000005          -18.94        0.01       -0.01
   0.00000006  -0.00009203   0.00000002            0.01      -13.54        0.00
  -0.00000005   0.00000002  -0.00014812           -0.01        0.00      -21.79

     Writing output data file /scratch/bxp912/feruslab5.save/

     General routines

     Parallel routines

   This run was terminated on:  15:26:48  29May2022

   JOB DONE.