     Program PWSCF v.6.7MaX starts on 29May2022 at 15:26:53

     R & G space division:  proc/nbgrp/npool/nimage =      72
     Reading input from feruslabF.in
Warning: card &CELL ignored
Warning: card CELL_DYNAMICS = 'BFGS', ignored
Warning: card CELL_FACTOR = 2.0, ignored
Warning: card PRESS = 0.0, ignored
Warning: card / ignored

     Current dimensions of program PWSCF are:
     Max number of different atomic species (ntypx) = 10
     Max number of k-points (npk) =  40000
     Max angular momentum in pseudopotentials (lmaxx) =  3
     file Fe.pbe-spn-kjpaw_psl.1.0.0.UPF: wavefunction(s)  3P 3D renormalized
     file Fe.pbe-spn-kjpaw_psl.1.0.0.UPF: wavefunction(s)  3P 3D renormalized
     file Ru.pbe-spn-kjpaw_psl.1.0.0.UPF: wavefunction(s)  4D renormalized

     gamma-point specific algorithms are used

     Subspace diagonalization in iterative solution of the eigenvalue problem:
     one sub-group per band group will be used

     bravais-lattice index     =            0
     lattice parameter (alat)  =      25.8600  a.u.
     unit-cell volume          =   18186.5006 (a.u.)^3
     number of atoms/cell      =          129
     number of atomic types    =            3
     number of electrons       =      2064.00
     number of Kohn-Sham states=         1238
     kinetic-energy cutoff     =      71.0000  Ry
     charge density cutoff     =     430.0000  Ry
     scf convergence threshold =      1.0E-08
     mixing beta               =       0.3000
     number of iterations used =           10  local-TF  mixing
     Exchange-correlation= SLA  PW   PBX  PBC
                           (   1   4   3   4   0   0   0)

     celldm(1)=  25.860000  celldm(2)=   0.000000  celldm(3)=   0.000000
     celldm(4)=   0.000000  celldm(5)=   0.000000  celldm(6)=   0.000000

     crystal axes: (cart. coord. in units of alat)
               a(1) = (   1.000000   0.000000   0.000000 )
               a(2) = (   0.000000   1.051631   0.000000 )
               a(3) = (   0.000000   0.000000   1.000000 )

     reciprocal axes: (cart. coord. in units 2 pi/alat)
               b(1) = (  1.000000  0.000000  0.000000 )
               b(2) = (  0.000000  0.950903  0.000000 )
               b(3) = (  0.000000  0.000000  1.000000 )

     PseudoPot. # 1 for Fe read from file:
     /rds/homes/b/bxp912/pp/Fe.pbe-spn-kjpaw_psl.1.0.0.UPF
     MD5 check sum: 42f43b795421b414b0dc916aa790dbcb
     Pseudo is Projector augmented-wave + core cor, Zval = 16.0
     Generated using &quot;atomic&quot; code by A. Dal Corso  v.6.3
     Shape of augmentation charge: PSQ
     Using radial grid of 1191 points,  6 beta functions with:
                l(1) =   0
                l(2) =   0
                l(3) =   1
                l(4) =   1
                l(5) =   2
                l(6) =   2
     Q(r) pseudized with 0 coefficients

     PseudoPot. # 2 for Fe read from file:
     /rds/homes/b/bxp912/pp/Fe.pbe-spn-kjpaw_psl.1.0.0.UPF
     MD5 check sum: 42f43b795421b414b0dc916aa790dbcb
     Pseudo is Projector augmented-wave + core cor, Zval = 16.0
     Generated using &quot;atomic&quot; code by A. Dal Corso  v.6.3
     Shape of augmentation charge: PSQ
     Using radial grid of 1191 points,  6 beta functions with:
                l(1) =   0
                l(2) =   0
                l(3) =   1
                l(4) =   1
                l(5) =   2
                l(6) =   2
     Q(r) pseudized with 0 coefficients

     PseudoPot. # 3 for Ru read from file:
     /rds/homes/b/bxp912/pp/Ru.pbe-spn-kjpaw_psl.1.0.0.UPF
     MD5 check sum: 0ae1f594dea09af7be8575c3a481d1ae
     Pseudo is Projector augmented-wave + core cor, Zval = 16.0
     Generated using "atomic" code by A. Dal Corso  v.5.1
     Shape of augmentation charge: PSQ
     Using radial grid of 1233 points,  6 beta functions with:
                l(1) =   0
                l(2) =   0
                l(3) =   1
                l(4) =   1
                l(5) =   2
                l(6) =   2
     Q(r) pseudized with 0 coefficients

     atomic species   valence    mass     pseudopotential
        Fe1           16.00    55.84500     Fe( 1.00)
        Fe2           16.00    55.84500     Fe( 1.00)
        Ru            16.00   101.07000     Ru( 1.00)

     Starting magnetic structure
     atomic species   magnetization
        Fe1          0.100
        Fe2         -0.100
        Ru           0.001

     No symmetry found

   Cartesian axes

     site n.     atom                  positions (alat units)
         1           Ru  tau(   1) = (   0.1425366   0.1152741   0.1753095  )
         2           Fe1 tau(   2) = (   0.0587515   0.0653881   0.3211198  )
         3           Fe2 tau(   3) = (   0.1884265   0.2002713   0.3214448  )
         4           Fe1 tau(   4) = (   0.1868213   0.0655646   0.4421276  )
         5           Fe2 tau(   5) = (   0.0624952   0.1980629   0.4424469  )
         6           Ru  tau(   6) = (   0.0623234   0.0655267   0.5697271  )
         7           Fe2 tau(   7) = (   0.1876610   0.1975943   0.5698145  )
         8           Fe1 tau(   8) = (   0.1882185   0.0650035   0.6879009  )
         9           Fe2 tau(   9) = (   0.0616632   0.1980291   0.6879420  )
        10           Fe1 tau(  10) = (   0.0653597   0.3265762   0.3172267  )
        11           Fe2 tau(  11) = (   0.1877413   0.4579090   0.3175394  )
        12           Fe1 tau(  12) = (   0.1881227   0.3296492   0.4412225  )
        13           Fe2 tau(  13) = (   0.0633903   0.4595175   0.4385688  )
        14           Fe1 tau(  14) = (   0.0628268   0.3296102   0.5678640  )
        15           Fe2 tau(  15) = (   0.1885537   0.4615096   0.5682187  )
        16           Fe1 tau(  16) = (   0.1887326   0.3305664   0.6874596  )
        17           Fe2 tau(  17) = (   0.0603308   0.4618776   0.6862421  )
        18           Fe1 tau(  18) = (   0.0648519   0.5907106   0.3145093  )
        19           Fe2 tau(  19) = (   0.1847510   0.7238107   0.3145456  )
        20           Fe1 tau(  20) = (   0.1863681   0.5909977   0.4371267  )
        21           Fe2 tau(  21) = (   0.0633682   0.7236125   0.4371464  )
        22           Fe1 tau(  22) = (   0.0615849   0.5918936   0.5662034  )
        23           Fe2 tau(  23) = (   0.1882586   0.7226899   0.5660552  )
        24           Fe1 tau(  24) = (   0.1887997   0.5925453   0.6861716  )
        25           Fe2 tau(  25) = (   0.0613274   0.7219977   0.6862125  )
        26           Fe1 tau(  26) = (   0.0618357   0.8560935   0.3172000  )
        27           Fe2 tau(  27) = (   0.1829530   0.9895025   0.3139428  )
        28           Fe1 tau(  28) = (   0.1862919   0.8555747   0.4379183  )
        29           Fe2 tau(  29) = (   0.0618572   0.9855343   0.4406165  )
        30           Fe1 tau(  30) = (   0.0613876   0.8531658   0.5679772  )
        31           Fe2 tau(  31) = (   0.1869233   0.9851356   0.5677120  )
        32           Fe1 tau(  32) = (   0.1896322   0.8527645   0.6860337  )
        33           Fe2 tau(  33) = (   0.0612834   0.9839846   0.6875207  )
        34           Fe1 tau(  34) = (   0.3076371   0.0696373   0.3122286  )
        35           Fe2 tau(  35) = (   0.4357117   0.1980603   0.3171939  )
        36           Fe1 tau(  36) = (   0.4341488   0.0657210   0.4341951  )
        37           Fe2 tau(  37) = (   0.3121648   0.1978698   0.4418603  )
        38           Fe1 tau(  38) = (   0.3124073   0.0653502   0.5666112  )
        39           Fe2 tau(  39) = (   0.4385533   0.1968925   0.5660486  )
        40           Fe1 tau(  40) = (   0.4380091   0.0657438   0.6859902  )
        41           Fe2 tau(  41) = (   0.3146724   0.1973275   0.6859048  )
        42           Fe1 tau(  42) = (   0.3112557   0.3275738   0.3170910  )
        43           Ru  tau(  43) = (   0.4354886   0.4597974   0.3147106  )
        44           Fe1 tau(  44) = (   0.4374791   0.3293042   0.4369893  )
        45           Fe2 tau(  45) = (   0.3125364   0.4604356   0.4366549  )
        46           Fe1 tau(  46) = (   0.3141732   0.3293478   0.5679259  )
        47           Fe2 tau(  47) = (   0.4390386   0.4604040   0.5632767  )
        48           Fe1 tau(  48) = (   0.4403086   0.3292951   0.6845898  )
        49           Fe2 tau(  49) = (   0.3159177   0.4625217   0.6855273  )
        50           Fe1 tau(  50) = (   0.3083587   0.5903099   0.3147277  )
        51           Fe2 tau(  51) = (   0.4339295   0.7233087   0.3130231  )
        52           Fe1 tau(  52) = (   0.4358847   0.5924128   0.4322183  )
        53           Fe2 tau(  53) = (   0.3104159   0.7228918   0.4334436  )
        54           Fe1 tau(  54) = (   0.3142966   0.5918280   0.5641361  )
        55           Fe2 tau(  55) = (   0.4385180   0.7234213   0.5598951  )
        56           Fe1 tau(  56) = (   0.4419191   0.5923939   0.6824908  )
        57           Fe2 tau(  57) = (   0.3162141   0.7223454   0.6842751  )
        58           Fe1 tau(  58) = (   0.3074024   0.8548895   0.3147790  )
        59           Fe2 tau(  59) = (   0.4344514   0.9868630   0.3150403  )
        60           Fe1 tau(  60) = (   0.4356335   0.8547100   0.4315209  )
[...]
       115           Fe2 tau( 115) = (   0.9412610   0.7242602   0.3148148  )
       116           Fe1 tau( 116) = (   0.9393584   0.5917595   0.4337111  )
       117           Fe2 tau( 117) = (   0.8139347   0.7222047   0.4324709  )
       118           Fe1 tau( 118) = (   0.8112426   0.5912370   0.5601288  )
       119           Fe2 tau( 119) = (   0.9356265   0.7227141   0.5643328  )
       120           Fe1 tau( 120) = (   0.9336551   0.5923087   0.6844350  )
       121           Fe2 tau( 121) = (   0.8078635   0.7222525   0.6825759  )
       122           Fe1 tau( 122) = (   0.8143703   0.8548553   0.3146769  )
       123           Fe2 tau( 123) = (   0.9388847   0.9870538   0.3171989  )
       124           Fe1 tau( 124) = (   0.9373427   0.8541441   0.4366752  )
       125           Fe2 tau( 125) = (   0.8125994   0.9853090   0.4370552  )
       126           Fe1 tau( 126) = (   0.8108362   0.8541803   0.5632913  )
       127           Fe2 tau( 127) = (   0.9358746   0.9851837   0.5680012  )
       128           Fe1 tau( 128) = (   0.9341019   0.8520056   0.6853792  )
       129           Fe2 tau( 129) = (   0.8094919   0.9851394   0.6846363  )

     number of k points=     1  Marzari-Vanderbilt smearing, width (Ry)=  0.0400
                       cart. coord. in units 2pi/alat
        k(    1) = (   0.0000000   0.0000000   0.0000000), wk =   1.0000000

     Check: negative core charge=   -0.000004
     Generating pointlists ...
     new r_m :   0.0707 (alat units)  1.8289 (a.u.) for type    1
     new r_m :   0.0709 (alat units)  1.8345 (a.u.) for type    2
     new r_m :   0.0710 (alat units)  1.8355 (a.u.) for type    3

     Initial potential from superposition of free atoms

     starting charge 2063.94296, renormalised to 2064.00000

     negative rho (up, down):  1.709E-04 1.724E-04
     Starting wfcs are 1290 randomized atomic wfcs
     Checking if some PAW data can be deallocated...

     Self-consistent Calculation

     iteration #  1     ecut=    71.00 Ry     beta= 0.30
[...]
   -46.1404 -46.1399 -46.1381 -46.1379 -46.1337 -46.1333 -46.1329 -46.1257
   -46.1204 -46.1158 -46.1118 -46.1089 -46.1057 -46.0995 -46.0927 -46.0886
   -46.0850 -46.0816 -46.0772 -46.0765 -46.0745 -46.0421 -45.9432 -45.8813
   -45.8705 -45.7777 -45.7631 -45.7003 -45.6974 -45.6838 -45.6732 -45.6645
   -45.6515 -45.6515 -45.6470 -45.6410 -45.6376 -45.6348 -45.6333 -45.6323
   -45.6307 -45.6292 -45.6266 -45.6262 -45.6228 -45.6221 -45.6186 -45.6134
   -45.6094 -45.6026 -45.6018 -45.6000 -45.5973 -45.5938 -45.5912 -45.5906
   -45.5864 -45.5854 -45.5834 -45.5807 -45.5804 -45.5786 -45.5759 -45.5746
   -45.5740 -45.5709 -45.5674 -45.5638 -45.5525 -45.5380 -45.5337 -45.5294
   -45.5275 -45.5201 -45.5187 -45.5040 -45.5013 -45.4958 -45.4860 -45.4809
   -45.4787 -45.4773 -45.4733 -45.4718 -45.4701 -45.4700 -45.4658 -45.4649
   -45.4618 -45.4599 -45.4571 -45.4555 -45.4542 -45.4525 -45.4489 -45.4450
   -45.4437 -45.4427 -45.4388 -45.4381 -45.4266 -45.4218 -45.4153 -45.4101
   -45.4042 -45.3983 -45.3949 -45.3940 -45.3904 -45.3903 -45.3874 -45.3635
   -45.3548 -45.3438 -45.3301 -45.3271 -45.3006 -45.2753 -44.6177 -44.5496
   -44.5267 -44.5209 -44.4839 -44.4709 -44.4594 -44.4553 -44.4469 -44.4346
   -44.4214 -44.4211 -44.4147 -44.4039 -44.4021 -44.3960 -44.3938 -44.3817
   -44.3800 -44.3757 -44.3666 -44.3641 -44.3612 -44.3580 -44.3557 -44.3530
   -44.3492 -44.3474 -44.3439 -44.3434 -44.3427 -44.3424 -44.3408 -44.3381
   -44.3360 -44.3344 -44.3329 -44.3310 -44.3289 -44.3275 -44.3219 -44.3185
   -44.3145 -44.3112 -44.3100 -44.3069 -44.3034 -44.2945 -44.2937 -44.2858
   -44.2828 -44.2825 -44.2789 -44.2655 -44.2609 -44.2550 -44.2542 -44.2510
   -44.2499 -44.2449 -44.2400 -44.2349 -44.2322 -44.2296 -44.2267 -44.2236
   -44.2102 -44.2092 -44.2078 -44.2074 -44.2058 -44.2007 -44.2001 -44.1988
   -44.1963 -44.1954 -44.1945 -44.1933 -44.1920 -44.1874 -44.1849 -44.1801
   -44.1793 -44.1778 -44.1773 -44.1759 -44.1755 -44.1724 -44.1631 -44.1522
   -44.1507 -44.1488 -44.1470 -44.1451 -44.1409 -44.1323 -44.1128 -44.0857
   -44.0528 -43.7817 -43.7773 -43.7622 -43.7608 -43.7567 -43.7507 -43.7497
   -43.7468 -43.7431 -43.7413 -43.7397 -43.7381 -43.7371 -43.7318 -43.7299
   -43.7292 -43.7267 -43.7239 -43.7229 -43.7218 -43.7214 -43.7186 -43.7153
   -43.7133 -43.7106 -43.7103 -43.7086 -43.7047 -43.7025 -43.6909 -43.6899
   -43.6888 -43.6861 -43.6804 -43.6788 -43.6743 -43.6716 -43.6680 -43.6665
   -43.6643 -43.6601 -43.6590 -43.6579 -43.6567 -43.6562 -43.6542 -43.6528
   -43.6507 -43.6480 -43.6467 -43.6461 -43.6448 -43.6435 -43.6410 -43.6384
   -43.6377 -43.6345 -43.6321 -43.6301 -43.6298 -43.6233 -43.6174 -43.6157
[...]
     9.0313   9.0355   9.0385   9.0586   9.0662   9.0719   9.0761   9.0789
     9.0839   9.0867   9.0911   9.1017   9.1090   9.1127   9.1187   9.1231
     9.1298   9.1499   9.1570   9.1627   9.1658   9.1672   9.1698   9.1761
     9.1791   9.1800   9.1970   9.2111   9.2183   9.2204   9.2404   9.2431
     9.2641   9.2687   9.2760   9.2806   9.2815   9.2886   9.2908   9.2929
     9.2934   9.2998   9.3051   9.3087   9.3184   9.3236   9.3239   9.3379
     9.3395   9.3527   9.3565   9.3600   9.3614   9.3708   9.3729   9.3785
     9.3795   9.3858   9.3917   9.4057   9.4101   9.4166   9.4288   9.4409
     9.4430   9.4627   9.4698   9.4786   9.4853   9.4915   9.4997   9.5005
     9.5077   9.5115   9.5154   9.5197   9.5243   9.5329   9.5377   9.5446
     9.5535   9.5701   9.5782   9.5831   9.5905   9.6025   9.6048   9.6276
     9.6517   9.6717   9.6822   9.7039   9.7150   9.7280   9.7333   9.7403
     9.7584   9.8620   9.8799   9.9403  10.1152  10.1511  10.4186  10.4351
    10.5436  10.5820  10.6061  10.6410  10.6534  10.6724  10.6840  10.7054
    10.7170  10.7477  10.7699  10.7761  10.8443  10.8633

 ------ SPIN DOWN ----------

          k = 0.0000 0.0000 0.0000 ( 91909 PWs)   bands (ev):

   -80.2130 -80.2097 -80.1939 -80.1814 -80.1810 -80.1803 -80.1780 -80.1736
   -80.1730 -80.1726 -80.1684 -80.1624 -80.1590 -80.1586 -80.1567 -80.1519
   -80.1500 -80.1450 -80.1429 -80.1403 -80.1365 -80.1356 -80.1333 -80.1293
   -80.1285 -80.1188 -80.1160 -80.1063 -80.0824 -80.0611 -79.7883 -79.7340
   -79.7305 -79.6773 -79.5975 -79.5561 -79.5512 -79.5371 -79.5357 -79.5333
   -79.5111 -79.5056 -79.5028 -79.4989 -79.4745 -79.4729 -79.4662 -79.4492
   -79.4390 -79.4310 -79.4189 -79.4158 -79.4151 -79.4127 -79.4089 -79.3952
   -79.3852 -79.3556 -79.3210 -79.2941 -79.2285 -79.1980 -79.0785 -78.3341
   -78.3015 -78.2931 -78.2449 -78.2374 -78.2327 -78.2307 -78.2306 -78.2294
   -78.2198 -78.2176 -78.2158 -78.2146 -78.2032 -78.1928 -78.1915 -78.1873
   -78.1792 -78.1539 -78.1535 -78.1524 -78.1498 -78.1413 -78.1373 -78.1351
   -78.1308 -78.1084 -78.1072 -78.1035 -78.0856 -78.0505 -77.8717 -77.6076
   -77.6070 -77.5921 -77.5914 -77.5862 -77.5799 -77.5789 -77.5786 -77.5755
   -77.5755 -77.5712 -77.5705 -77.5667 -77.5642 -77.5634 -77.5626 -77.5626
   -77.5613 -77.5597 -77.5548 -77.5512 -77.5504 -77.5501 -77.5495 -77.5487
   -77.5472 -77.5469 -77.5430 -77.5372 -77.5338 -77.5264 -64.7771 -64.4225
   -63.2588 -46.3735 -46.3696 -46.3401 -46.3396 -46.3380 -46.3368 -46.3359
   -46.3330 -46.3293 -46.3283 -46.3247 -46.3201 -46.3156 -46.3131 -46.3123
   -46.3121 -46.3075 -46.3062 -46.3037 -46.3030 -46.2991 -46.2980 -46.2939
   -46.2904 -46.2893 -46.2877 -46.2801 -46.2757 -46.2659 -46.2642 -46.2511
   -46.2441 -46.2440 -46.2415 -46.2403 -46.2394 -46.2379 -46.2374 -46.2368
   -46.2349 -46.2348 -46.2311 -46.2237 -46.2179 -46.2160 -46.2138 -46.2056
   -46.2009 -46.1991 -46.1979 -46.1966 -46.1958 -46.1921 -46.1920 -46.1868
   -46.1845 -46.1842 -46.1780 -46.1768 -46.1698 -46.1604 -46.1589 -46.1557
   -46.1514 -46.1503 -46.1499 -46.1460 -46.1426 -46.1417 -46.1393 -46.1373
   -46.1372 -46.1347 -46.1319 -46.1314 -46.1291 -46.1283 -46.1271 -46.1241
   -46.1231 -46.1215 -46.1204 -46.1111 -46.1071 -46.1026 -46.0975 -46.0914
   -46.0902 -46.0659 -46.0535 -45.9308 -45.8876 -45.8753 -45.8405 -45.8173
   -45.8125 -45.7807 -45.7727 -45.7626 -45.7556 -45.7259 -45.7001 -45.6907
   -45.6739 -45.6649 -45.6578 -45.6481 -45.6400 -45.6393 -45.6378 -45.6296
   -45.6278 -45.6265 -45.6242 -45.6234 -45.6184 -45.6147 -45.6127 -45.6072
   -45.6031 -45.6015 -45.6005 -45.5979 -45.5969 -45.5942 -45.5891 -45.5864
   -45.5790 -45.5774 -45.5710 -45.5705 -45.5622 -45.5580 -45.5460 -45.5444
   -45.5373 -45.5361 -45.5305 -45.5270 -45.5241 -45.5164 -45.5108 -45.4986
   -45.4952 -45.4924 -45.4894 -45.4850 -45.4827 -45.4782 -45.4738 -45.4732
   -45.4725 -45.4626 -45.4607 -45.4593 -45.4554 -45.4522 -45.4511 -45.4505
   -45.4462 -45.4430 -45.4354 -45.4317 -45.4254 -45.4204 -45.4196 -45.4154
   -45.4121 -45.4098 -45.4077 -45.3943 -45.3939 -45.3894 -45.3844 -45.3787
   -45.3722 -45.3572 -45.3449 -45.3344 -45.3336 -45.3107 -45.3101 -45.2744
   -45.2605 -45.2373 -45.2325 -45.1943 -45.1377 -45.1115 -44.4531 -44.4430
   -44.4228 -44.4188 -44.4167 -44.4147 -44.4055 -44.3975 -44.3916 -44.3842
   -44.3757 -44.3738 -44.3729 -44.3712 -44.3674 -44.3646 -44.3624 -44.3590
   -44.3565 -44.3542 -44.3524 -44.3515 -44.3499 -44.3488 -44.3477 -44.3462
   -44.3447 -44.3437 -44.3426 -44.3367 -44.3345 -44.3336 -44.3325 -44.3307
   -44.3279 -44.3264 -44.3254 -44.3230 -44.3223 -44.3219 -44.3175 -44.3153
   -44.3139 -44.3074 -44.3032 -44.3009 -44.2942 -44.2895 -44.2695 -44.2657
   -44.2638 -44.2628 -44.2536 -44.2505 -44.2457 -44.2435 -44.2407 -44.2368
   -44.2265 -44.2230 -44.2229 -44.2211 -44.2183 -44.2169 -44.2149 -44.2138
   -44.2103 -44.2046 -44.2012 -44.2004 -44.2004 -44.1997 -44.1957 -44.1953
   -44.1926 -44.1889 -44.1871 -44.1850 -44.1832 -44.1818 -44.1805 -44.1793
   -44.1789 -44.1778 -44.1707 -44.1680 -44.1646 -44.1564 -44.1551 -44.1447
   -44.1410 -44.1406 -44.1342 -44.0144 -43.9462 -43.8439 -43.7878 -43.7861
   -43.7653 -43.7606 -43.7529 -43.7517 -43.7493 -43.7447 -43.7431 -43.7430
   -43.7417 -43.7413 -43.7338 -43.7331 -43.7296 -43.7292 -43.7288 -43.7254
   -43.7232 -43.7230 -43.7168 -43.7145 -43.7137 -43.7127 -43.7114 -43.7100
   -43.7065 -43.7055 -43.7045 -43.6995 -43.6976 -43.6949 -43.6941 -43.6892
   -43.6831 -43.6795 -43.6740 -43.6719 -43.6674 -43.6672 -43.6658 -43.6638
   -43.6613 -43.6586 -43.6553 -43.6552 -43.6546 -43.6524 -43.6501 -43.6475
   -43.6461 -43.6445 -43.6426 -43.6415 -43.6385 -43.6379 -43.6363 -43.6360
   -43.6340 -43.6287 -43.6255 -43.6205 -43.6204 -43.6200 -43.6173 -43.6120
[...]
     9.0485   9.0555   9.0651   9.0765   9.0814   9.0819   9.0932   9.1001
     9.1026   9.1092   9.1114   9.1182   9.1246   9.1271   9.1358   9.1451
     9.1607   9.1623   9.1671   9.1740   9.1746   9.1779   9.1817   9.1896
     9.1940   9.2035   9.2068   9.2228   9.2307   9.2359   9.2511   9.2626
     9.2751   9.2809   9.2910   9.2989   9.2996   9.3039   9.3060   9.3079
     9.3123   9.3169   9.3215   9.3286   9.3346   9.3471   9.3524   9.3580
     9.3641   9.3643   9.3661   9.3698   9.3759   9.3794   9.3895   9.3946
     9.3988   9.4075   9.4095   9.4214   9.4287   9.4379   9.4446   9.4506
     9.4602   9.4625   9.4748   9.4893   9.4990   9.5021   9.5145   9.5195
     9.5228   9.5306   9.5338   9.5417   9.5430   9.5443   9.5562   9.5625
     9.5688   9.5712   9.5839   9.6025   9.6224   9.6296   9.6407   9.6534
     9.6748   9.6921   9.7017   9.7058   9.7191   9.7412   9.7443   9.7634
     9.8542   9.8863   9.9358  10.0438  10.1288  10.2118  10.4277  10.4553
    10.5588  10.5941  10.6209  10.6255  10.6551  10.6667  10.6994  10.7252
    10.7339  10.7484  10.7891  10.7915  10.8516  10.8699

     the Fermi energy is     8.2889 ev

!    total energy              =  -42776.19065344 Ry

     total all-electron energy =   -347921.090413 Ry
     estimated scf accuracy    <          7.6E-09 Ry
     smearing contrib. (-TS)   =       0.01848549 Ry
     internal energy E=F+TS    =  -42776.20913892 Ry

     The total energy is F=E-TS. E is the sum of the following terms:
     one-electron contribution =  -97904.76051618 Ry
     hartree contribution      =   49474.05999881 Ry
     xc contribution           =   -3576.67299509 Ry
     ewald contribution        =   20374.66585367 Ry
     one-center paw contrib.   =  -11143.50148013 Ry

     total magnetization       =     3.33 Bohr mag/cell
     absolute magnetization    =   226.63 Bohr mag/cell

     convergence has been achieved in  88 iterations

     negative rho (up, down):  1.691E-03 1.825E-03

     Forces acting on atoms (cartesian axes, Ry/au):

     atom    1 type  3   force =     0.01262945   -0.00921146    0.10614049
     atom    2 type  1   force =     0.02766807    0.01099661   -0.04277576
     atom    3 type  2   force =    -0.01653371   -0.02261349   -0.03635810
     atom    4 type  1   force =     0.02102721    0.00693711   -0.02504983
     atom    5 type  2   force =     0.00410154    0.01031764   -0.01507604
     atom    6 type  3   force =     0.00255394   -0.00099115   -0.00436181
     atom    7 type  2   force =     0.01296530    0.01668307    0.00095335
     atom    8 type  1   force =     0.03168797    0.00029439    0.02591608
     atom    9 type  2   force =    -0.00251879    0.01653799    0.01540259
     atom   10 type  1   force =     0.00194746   -0.00383272   -0.00601865
     atom   11 type  2   force =    -0.00293858    0.00278256   -0.00519203
     atom   12 type  1   force =    -0.00185866   -0.00181756    0.00134858
     atom   13 type  2   force =     0.00048887    0.00024815   -0.00093684
     atom   14 type  1   force =    -0.00132462    0.00224999    0.00245824
     atom   15 type  2   force =    -0.00517086    0.00057221    0.00286774
     atom   16 type  1   force =     0.00045696   -0.00016936   -0.00042421
     atom   17 type  2   force =     0.00010023   -0.00025258    0.00079429
     atom   18 type  1   force =    -0.00013965   -0.00013768    0.00019098
     atom   19 type  2   force =     0.00023363   -0.00032731   -0.00019210
     atom   20 type  1   force =     0.00063122    0.00198806    0.00424522
     atom   21 type  2   force =    -0.00231266   -0.00205941    0.00268178
     atom   22 type  1   force =     0.00165487   -0.00012148    0.00110144
     atom   23 type  2   force =    -0.00106851    0.00032494    0.00095978
     atom   24 type  1   force =    -0.00021407   -0.00134283   -0.00324282
     atom   25 type  2   force =    -0.00003138    0.00069255   -0.00153072
     atom   26 type  1   force =     0.00413883   -0.00018681   -0.00282609
     atom   27 type  2   force =     0.00143538    0.00771914   -0.01477994
     atom   28 type  1   force =    -0.00087622    0.00146561   -0.00166704
     atom   29 type  2   force =     0.00044612   -0.01101500   -0.01242294
     atom   30 type  1   force =     0.00259589   -0.00081594   -0.00221857
     atom   31 type  2   force =     0.01702204   -0.01760356    0.00241077
     atom   32 type  1   force =    -0.00025846    0.00102318   -0.00027355
     atom   33 type  2   force =    -0.00033027   -0.01601878    0.01481626
     atom   34 type  1   force =    -0.00986209    0.00096589   -0.01919985
     atom   35 type  2   force =     0.00033147   -0.00493925   -0.00419615
     atom   36 type  1   force =     0.00258268    0.00164716   -0.00120223
     atom   37 type  2   force =    -0.00193782   -0.00175781   -0.00588644
     atom   38 type  1   force =     0.00098738   -0.00087653    0.00407934
     atom   39 type  2   force =     0.00195207   -0.00169421    0.00033623
     atom   40 type  1   force =     0.00400890   -0.00078982   -0.00023298
     atom   41 type  2   force =     0.00151502    0.00178165    0.00622403
     atom   42 type  1   force =    -0.01466153   -0.01183149   -0.00335721
     atom   43 type  3   force =     0.00004526   -0.00327574   -0.06740664
     atom   44 type  1   force =    -0.00105871   -0.01132968    0.00915323
     atom   45 type  2   force =    -0.01564417   -0.00173466    0.02097593
     atom   46 type  1   force =    -0.00309348    0.00321216   -0.00099764
     atom   47 type  2   force =    -0.00059986    0.00059282    0.00894357
     atom   48 type  1   force =     0.00069345    0.00425522    0.00171546
     atom   49 type  2   force =     0.00005558   -0.00177622    0.00111853
     atom   50 type  1   force =    -0.00469325    0.00821557   -0.00538714
     atom   51 type  2   force =     0.00026333    0.00325754   -0.00633134
     atom   52 type  1   force =     0.00196152    0.00720530    0.01373250
     atom   53 type  2   force =     0.00088382    0.00194414    0.00584919
     atom   54 type  1   force =    -0.00290722    0.00138101    0.00276876
     atom   55 type  2   force =    -0.00268400    0.00160908    0.00386398
     atom   56 type  1   force =    -0.00081208   -0.00228606   -0.00316102
     atom   57 type  2   force =     0.00016066   -0.00003639   -0.00031228
     atom   58 type  1   force =     0.00136448    0.00463014   -0.00187572
     atom   59 type  2   force =    -0.00180947    0.00200598   -0.00038399
     atom   60 type  1   force =     0.00207083    0.00135420   -0.00076934
[...]
     atom  115 type  2   force =    -0.00114084   -0.00335923   -0.00233521
     atom  116 type  1   force =    -0.00147984   -0.00076916    0.00392470
     atom  117 type  2   force =    -0.00329880    0.00258214   -0.00066862
     atom  118 type  1   force =     0.00211298    0.00107828    0.00289926
     atom  119 type  2   force =     0.00339719   -0.00170549    0.00139090
     atom  120 type  1   force =    -0.00005125    0.00002142   -0.00102405
     atom  121 type  2   force =     0.00040416   -0.00018241    0.00010433
     atom  122 type  1   force =     0.00002170    0.00131022   -0.00210719
     atom  123 type  2   force =     0.00338408    0.00255876   -0.00081426
     atom  124 type  1   force =     0.00136853    0.00294703    0.00232695
     atom  125 type  2   force =     0.00061210    0.00295987   -0.00402624
     atom  126 type  1   force =    -0.00060171   -0.00186814   -0.00042227
     atom  127 type  2   force =    -0.01059201   -0.01699644   -0.00227151
     atom  128 type  1   force =    -0.00131477    0.00204311    0.00184070
     atom  129 type  2   force =    -0.00188147   -0.00240425    0.00539355

     Total force =     0.187734     Total SCF correction =     0.000379

     Computing stress (Cartesian axis) and pressure

     negative rho (up, down):  1.691E-03 1.825E-03
          total   stress  (Ry/bohr**3)                   (kbar)     P=      -14.60
  -0.00010492   0.00000211  -0.00000589          -15.43        0.31       -0.87
   0.00000211  -0.00007119   0.00000524            0.31      -10.47        0.77
  -0.00000589   0.00000524  -0.00012165           -0.87        0.77      -17.90

     Writing output data file /scratch/bxp912/feruslab6.save/

     General routines

     Parallel routines

   This run was terminated on:  16: 5:50  29May2022

   JOB DONE.