     Program PWSCF v.6.7MaX starts on 29May2022 at 14:27:25

     R & G space division:  proc/nbgrp/npool/nimage =      72
     Reading input from feruslabB.in
Warning: card &CELL ignored
Warning: card CELL_DYNAMICS = 'BFGS', ignored
Warning: card CELL_FACTOR = 2.0, ignored
Warning: card PRESS = 0.0, ignored
Warning: card / ignored

     Current dimensions of program PWSCF are:
     Max number of different atomic species (ntypx) = 10
     Max number of k-points (npk) =  40000
     Max angular momentum in pseudopotentials (lmaxx) =  3
     file Fe.pbe-spn-kjpaw_psl.1.0.0.UPF: wavefunction(s)  3P 3D renormalized
     file Fe.pbe-spn-kjpaw_psl.1.0.0.UPF: wavefunction(s)  3P 3D renormalized
     file Ru.pbe-spn-kjpaw_psl.1.0.0.UPF: wavefunction(s)  4D renormalized

     gamma-point specific algorithms are used

     Subspace diagonalization in iterative solution of the eigenvalue problem:
     one sub-group per band group will be used

     bravais-lattice index     =            0
     lattice parameter (alat)  =      25.8600  a.u.
     unit-cell volume          =   18186.5006 (a.u.)^3
     number of atoms/cell      =          128
     number of atomic types    =            3
     number of electrons       =      2048.00
     number of Kohn-Sham states=         1229
     kinetic-energy cutoff     =      71.0000  Ry
     charge density cutoff     =     430.0000  Ry
     scf convergence threshold =      1.0E-08
     mixing beta               =       0.3000
     number of iterations used =           10  local-TF  mixing
     Exchange-correlation= SLA  PW   PBX  PBC
                           (   1   4   3   4   0   0   0)

     celldm(1)=  25.860000  celldm(2)=   0.000000  celldm(3)=   0.000000
     celldm(4)=   0.000000  celldm(5)=   0.000000  celldm(6)=   0.000000

     crystal axes: (cart. coord. in units of alat)
               a(1) = (   1.000000   0.000000   0.000000 )
               a(2) = (   0.000000   1.051631   0.000000 )
               a(3) = (   0.000000   0.000000   1.000000 )

     reciprocal axes: (cart. coord. in units 2 pi/alat)
               b(1) = (  1.000000  0.000000  0.000000 )
               b(2) = (  0.000000  0.950903  0.000000 )
               b(3) = (  0.000000  0.000000  1.000000 )

     PseudoPot. # 1 for Fe read from file:
     /rds/homes/b/bxp912/pp/Fe.pbe-spn-kjpaw_psl.1.0.0.UPF
     MD5 check sum: 42f43b795421b414b0dc916aa790dbcb
     Pseudo is Projector augmented-wave + core cor, Zval = 16.0
     Generated using &quot;atomic&quot; code by A. Dal Corso  v.6.3
     Shape of augmentation charge: PSQ
     Using radial grid of 1191 points,  6 beta functions with:
                l(1) =   0
                l(2) =   0
                l(3) =   1
                l(4) =   1
                l(5) =   2
                l(6) =   2
     Q(r) pseudized with 0 coefficients

     PseudoPot. # 2 for Fe read from file:
     /rds/homes/b/bxp912/pp/Fe.pbe-spn-kjpaw_psl.1.0.0.UPF
     MD5 check sum: 42f43b795421b414b0dc916aa790dbcb
     Pseudo is Projector augmented-wave + core cor, Zval = 16.0
     Generated using &quot;atomic&quot; code by A. Dal Corso  v.6.3
     Shape of augmentation charge: PSQ
     Using radial grid of 1191 points,  6 beta functions with:
                l(1) =   0
                l(2) =   0
                l(3) =   1
                l(4) =   1
                l(5) =   2
                l(6) =   2
     Q(r) pseudized with 0 coefficients

     PseudoPot. # 3 for Ru read from file:
     /rds/homes/b/bxp912/pp/Ru.pbe-spn-kjpaw_psl.1.0.0.UPF
     MD5 check sum: 0ae1f594dea09af7be8575c3a481d1ae
     Pseudo is Projector augmented-wave + core cor, Zval = 16.0
     Generated using "atomic" code by A. Dal Corso  v.5.1
     Shape of augmentation charge: PSQ
     Using radial grid of 1233 points,  6 beta functions with:
                l(1) =   0
                l(2) =   0
                l(3) =   1
                l(4) =   1
                l(5) =   2
                l(6) =   2
     Q(r) pseudized with 0 coefficients

     atomic species   valence    mass     pseudopotential
        Fe1           16.00    55.84500     Fe( 1.00)
        Fe2           16.00    55.84500     Fe( 1.00)
        Ru            16.00   101.07000     Ru( 1.00)

     Starting magnetic structure
     atomic species   magnetization
        Fe1          0.100
        Fe2         -0.100
        Ru           0.001

     No symmetry found

   Cartesian axes

     site n.     atom                  positions (alat units)
         1           Ru  tau(   1) = (   0.0625059   0.0657779   0.2910260  )
         2           Fe2 tau(   2) = (   0.1918897   0.2014172   0.3118918  )
         3           Fe1 tau(   3) = (   0.1882328   0.0656869   0.4358379  )
         4           Fe2 tau(   4) = (   0.0624775   0.1970719   0.4359471  )
         5           Fe1 tau(   5) = (   0.0624549   0.0656597   0.5661003  )
         6           Fe2 tau(   6) = (   0.1871430   0.1965451   0.5642273  )
         7           Fe1 tau(   7) = (   0.1889127   0.0656324   0.6868723  )
         8           Fe2 tau(   8) = (   0.0625044   0.1953941   0.6845946  )
         9           Fe1 tau(   9) = (   0.0624492   0.3290082   0.3162931  )
        10           Fe2 tau(  10) = (   0.1878214   0.4592247   0.3140372  )
        11           Fe1 tau(  11) = (   0.1883843   0.3293589   0.4358220  )
        12           Fe2 tau(  12) = (   0.0624760   0.4596378   0.4342728  )
        13           Fe1 tau(  13) = (   0.0624920   0.3282674   0.5642399  )
        14           Fe2 tau(  14) = (   0.1874818   0.4600075   0.5644807  )
        15           Fe1 tau(  15) = (   0.1868970   0.3281618   0.6858748  )
        16           Fe2 tau(  16) = (   0.0624936   0.4605212   0.6849404  )
        17           Fe1 tau(  17) = (   0.0625024   0.5915716   0.3157343  )
        18           Fe2 tau(  18) = (   0.1879142   0.7239319   0.3139752  )
        19           Fe1 tau(  19) = (   0.1872820   0.5915469   0.4358293  )
        20           Fe2 tau(  20) = (   0.0624835   0.7235138   0.4342323  )
        21           Fe1 tau(  21) = (   0.0624907   0.5915302   0.5645538  )
        22           Fe2 tau(  22) = (   0.1874919   0.7231202   0.5644793  )
        23           Fe1 tau(  23) = (   0.1874063   0.5915279   0.6856542  )
        24           Fe2 tau(  24) = (   0.0625142   0.7225942   0.6849283  )
        25           Fe1 tau(  25) = (   0.0624543   0.8539987   0.3163316  )
        26           Fe2 tau(  26) = (   0.1918142   0.9816207   0.3118943  )
        27           Fe1 tau(  27) = (   0.1884013   0.8536921   0.4358345  )
        28           Fe2 tau(  28) = (   0.0624649   0.9860452   0.4359182  )
        29           Fe1 tau(  29) = (   0.0624985   0.8547814   0.5642264  )
        30           Fe2 tau(  30) = (   0.1871332   0.9865130   0.5642305  )
        31           Fe1 tau(  31) = (   0.1869002   0.8548778   0.6858783  )
        32           Fe2 tau(  32) = (   0.0624558   0.9876052   0.6846415  )
        33           Fe1 tau(  33) = (   0.3125283   0.0656767   0.3153241  )
        34           Fe2 tau(  34) = (   0.4366043   0.1971699   0.3142072  )
        35           Fe1 tau(  35) = (   0.4374422   0.0657131   0.4355769  )
        36           Fe2 tau(  36) = (   0.3125894   0.1975774   0.4358271  )
        37           Fe1 tau(  37) = (   0.3120225   0.0656827   0.5647659  )
        38           Fe2 tau(  38) = (   0.4378242   0.1969597   0.5645465  )
        39           Fe1 tau(  39) = (   0.4382670   0.0656506   0.6865253  )
        40           Fe2 tau(  40) = (   0.3128280   0.1968527   0.6838988  )
        41           Fe1 tau(  41) = (   0.3143566   0.3300848   0.3168881  )
        42           Fe2 tau(  42) = (   0.4380142   0.4607661   0.3143143  )
        43           Fe1 tau(  43) = (   0.4381801   0.3288131   0.4365576  )
        44           Fe2 tau(  44) = (   0.3127566   0.4604807   0.4354136  )
        45           Fe1 tau(  45) = (   0.3125129   0.3287898   0.5653541  )
        46           Fe2 tau(  46) = (   0.4375258   0.4601913   0.5648721  )
        47           Fe1 tau(  47) = (   0.4372527   0.3286868   0.6863403  )
        48           Fe2 tau(  48) = (   0.3121639   0.4602999   0.6850825  )
        49           Fe1 tau(  49) = (   0.3122461   0.5915191   0.3156420  )
        50           Fe2 tau(  50) = (   0.4379749   0.7223781   0.3143454  )
        51           Fe1 tau(  51) = (   0.4374235   0.5915294   0.4359555  )
        52           Fe2 tau(  52) = (   0.3127687   0.7226645   0.4354242  )
        53           Fe1 tau(  53) = (   0.3124200   0.5915220   0.5650306  )
        54           Fe2 tau(  54) = (   0.4375286   0.7229381   0.5648768  )
        55           Fe1 tau(  55) = (   0.4377002   0.5915143   0.6861050  )
        56           Fe2 tau(  56) = (   0.3121736   0.7228110   0.6850814  )
        57           Fe1 tau(  57) = (   0.3144103   0.8531069   0.3169355  )
        58           Fe2 tau(  58) = (   0.4366715   0.9859647   0.3142091  )
        59           Fe1 tau(  59) = (   0.4382063   0.8542513   0.4365853  )
        60           Fe2 tau(  60) = (   0.3125895   0.9855573   0.4358131  )
[...]
       114           Fe2 tau( 114) = (   0.9371598   0.7238976   0.3139999  )
       115           Fe1 tau( 115) = (   0.9377646   0.5915458   0.4358419  )
       116           Fe2 tau( 116) = (   0.8122153   0.7226557   0.4354428  )
       117           Fe1 tau( 117) = (   0.8125580   0.5915265   0.5650413  )
       118           Fe2 tau( 118) = (   0.9375705   0.7231224   0.5644911  )
       119           Fe1 tau( 119) = (   0.9376433   0.5915402   0.6856562  )
       120           Fe2 tau( 120) = (   0.8128215   0.7228073   0.6850820  )
       121           Fe1 tau( 121) = (   0.8106770   0.8530522   0.3170121  )
       122           Fe2 tau( 122) = (   0.9331251   0.9816405   0.3118907  )
       123           Fe1 tau( 123) = (   0.9366253   0.8537026   0.4358875  )
       124           Fe2 tau( 124) = (   0.8123694   0.9855677   0.4358403  )
       125           Fe1 tau( 125) = (   0.8124209   0.8542355   0.5653886  )
       126           Fe2 tau( 126) = (   0.9378693   0.9865197   0.5642632  )
       127           Fe1 tau( 127) = (   0.9381364   0.8548433   0.6858883  )
       128           Fe2 tau( 128) = (   0.8121443   0.9862056   0.6839159  )

     number of k points=     1  Marzari-Vanderbilt smearing, width (Ry)=  0.0400
                       cart. coord. in units 2pi/alat
        k(    1) = (   0.0000000   0.0000000   0.0000000), wk =   1.0000000

     Check: negative core charge=   -0.000004
     Generating pointlists ...
     new r_m :   0.0710 (alat units)  1.8364 (a.u.) for type    1
     new r_m :   0.0713 (alat units)  1.8431 (a.u.) for type    2
     new r_m :   0.0778 (alat units)  2.0119 (a.u.) for type    3

     Initial potential from superposition of free atoms

     starting charge 2047.94379, renormalised to 2048.00000

     negative rho (up, down):  2.063E-04 2.061E-04
     Starting wfcs are 1280 randomized atomic wfcs
     Checking if some PAW data can be deallocated...

     Self-consistent Calculation

     iteration #  1     ecut=    71.00 Ry     beta= 0.30
[...]
   -46.3335 -46.3321 -46.3240 -46.3230 -46.3226 -46.3216 -46.2955 -46.2879
   -46.2870 -46.2858 -46.2844 -46.2796 -46.2716 -46.2714 -46.2686 -46.2549
   -46.2533 -46.2497 -46.2486 -46.2461 -46.2448 -46.2355 -46.2338 -46.1993
   -46.1987 -46.0721 -46.0713 -45.8958 -45.8887 -45.8880 -45.8875 -45.8813
   -45.8803 -45.8799 -45.8755 -45.8739 -45.8715 -45.8709 -45.8696 -45.8671
   -45.8664 -45.8653 -45.8632 -45.8378 -45.8361 -45.8351 -45.8342 -45.8327
   -45.8305 -45.8273 -45.8266 -45.8243 -45.8234 -45.8232 -45.8227 -45.8213
   -45.8205 -45.8021 -45.8015 -45.7998 -45.7990 -45.7942 -45.7922 -45.7917
   -45.7901 -45.7873 -45.7866 -45.7865 -45.7788 -45.6771 -45.6761 -45.6682
   -45.6675 -45.6670 -45.6651 -45.6609 -45.6604 -45.6477 -45.6467 -45.6413
   -45.6404 -45.6359 -45.6311 -45.6307 -45.6298 -45.6289 -45.6263 -45.6218
   -45.6195 -45.6184 -45.6179 -45.6173 -45.6127 -45.6121 -45.6105 -45.6094
   -45.6071 -45.6066 -45.6055 -45.5985 -45.5978 -45.5942 -45.5827 -45.5816
   -45.5766 -45.5749 -45.5744 -45.5734 -45.4998 -45.4970 -45.4428 -45.4400
   -45.4291 -45.4257 -45.0680 -45.0274 -44.9621 -44.7015 -44.6956 -44.6700
   -44.6645 -44.6316 -44.6270 -44.6264 -44.6261 -44.6244 -44.6223 -44.6155
   -44.6149 -44.6120 -44.6108 -44.5911 -44.5893 -44.5886 -44.5848 -44.5841
   -44.5825 -44.5800 -44.5785 -44.5691 -44.5666 -44.5656 -44.5636 -44.5632
   -44.5613 -44.5610 -44.5598 -44.5577 -44.5560 -44.5462 -44.5451 -44.5426
   -44.5411 -44.5408 -44.5406 -44.5395 -44.5364 -44.5361 -44.5344 -44.4706
   -44.4676 -44.4668 -44.4647 -44.4598 -44.4574 -44.4496 -44.4484 -44.4466
   -44.4452 -44.4428 -44.4426 -44.4410 -44.4400 -44.4371 -44.4366 -44.4310
   -44.4295 -44.4265 -44.4256 -44.4081 -44.4078 -44.4068 -44.4063 -44.4052
   -44.4039 -44.4024 -44.4017 -44.3977 -44.3957 -44.3954 -44.3945 -44.3911
   -44.3882 -44.3862 -44.3816 -44.3802 -44.3784 -44.3765 -44.3759 -44.3753
   -44.3743 -44.3739 -44.3732 -44.3690 -44.3683 -44.3666 -44.3646 -44.2365
   -44.2354 -44.2117 -44.2109 -44.1867 -44.1856 -43.9511 -43.9505 -43.9498
   -43.9493 -43.9449 -43.9442 -43.9406 -43.9395 -43.9391 -43.9382 -43.9354
   -43.9346 -43.9342 -43.9338 -43.9296 -43.9280 -43.9266 -43.9263 -43.9234
   -43.9226 -43.9221 -43.9214 -43.9212 -43.9202 -43.9193 -43.9191 -43.9189
   -43.9180 -43.8846 -43.8840 -43.8837 -43.8832 -43.8737 -43.8732 -43.8727
   -43.8721 -43.8625 -43.8618 -43.8593 -43.8588 -43.8571 -43.8569 -43.8563
   -43.8560 -43.8553 -43.8546 -43.8541 -43.8532 -43.8529 -43.8520 -43.8519
   -43.8515 -43.8512 -43.8508 -43.8505 -43.8499 -43.8428 -43.8417 -43.8405
   -43.8403 -43.8098 -43.8095 -43.8093 -43.8090 -43.8040 -43.8031 -43.8001
[...]
     8.8459   8.8577   8.8731   8.8786   8.8831   8.8837   8.8862   8.8965
     8.9047   8.9098   8.9107   8.9132   8.9244   8.9305   8.9400   8.9426
     8.9496   8.9584   8.9676   8.9723   8.9777   8.9824   8.9870   8.9912
     8.9922   9.0069   9.0091   9.0139   9.0295   9.0444   9.0520   9.0524
     9.0680   9.0715   9.0774   9.0851   9.0883   9.0895   9.0976   9.1023
     9.1053   9.1084   9.1226   9.1261   9.1274   9.1478   9.1586   9.1603
     9.1643   9.1675   9.1678   9.1692   9.1761   9.1767   9.1851   9.1914
     9.1999   9.2035   9.2055   9.2116   9.2210   9.2345   9.2366   9.2485
     9.2552   9.2632   9.2710   9.2878   9.2884   9.3034   9.3049   9.3053
     9.3090   9.3135   9.3160   9.3229   9.3349   9.3515   9.3574   9.3597
     9.3637   9.3735   9.3832   9.3986   9.4081   9.4275   9.4374   9.4497
     9.4595   9.4859   9.4970   9.5063   9.5168   9.5211   9.5362   9.5794
     9.6563   9.7060   9.9077   9.9241  10.1244  10.2245  10.2460  10.3488
    10.3697  10.3996  10.4256  10.4531  10.4566  10.4784  10.5043  10.5331
    10.5381  10.5566  10.5913  10.6462  10.6508

 ------ SPIN DOWN ----------

          k = 0.0000 0.0000 0.0000 ( 91909 PWs)   bands (ev):

   -80.4652 -80.4649 -80.4648 -80.4642 -80.4024 -80.4015 -80.4012 -80.4004
   -80.3960 -80.3957 -80.3950 -80.3946 -80.3854 -80.3850 -80.3846 -80.3844
   -80.3122 -80.3119 -80.3116 -80.3112 -80.3100 -80.3095 -80.3073 -80.3071
   -80.3026 -80.3022 -80.2982 -80.2974 -80.2946 -80.2942 -80.2940 -80.2934
   -79.9664 -79.9658 -79.7549 -79.7548 -79.7546 -79.7542 -79.7540 -79.7539
   -79.7535 -79.7530 -79.7459 -79.7454 -79.7452 -79.7448 -79.7174 -79.7163
   -79.7155 -79.7150 -79.6090 -79.6085 -79.6047 -79.6038 -79.5731 -79.5720
   -79.5315 -79.5298 -79.5107 -79.5079 -79.5074 -79.5067 -79.4203 -79.4142
   -78.9493 -78.5915 -78.5891 -78.4518 -78.4511 -78.4508 -78.4489 -78.4474
   -78.4463 -78.4357 -78.4356 -78.4353 -78.4204 -78.4149 -78.4013 -78.4008
   -78.3562 -78.3557 -78.3531 -78.3526 -78.3481 -78.3467 -78.3024 -78.3009
   -78.2996 -78.2989 -78.2988 -78.2985 -78.2904 -78.2895 -78.1578 -78.1577
   -77.8242 -77.8233 -77.8233 -77.8224 -77.7950 -77.7935 -77.7864 -77.7799
   -77.7790 -77.7768 -77.7766 -77.7686 -77.7681 -77.7667 -77.7667 -77.7622
   -77.7617 -77.7598 -77.7593 -77.7574 -77.7572 -77.7566 -77.7566 -77.7562
   -77.7562 -77.7550 -77.7509 -77.7489 -77.7485 -77.7484 -77.7480 -64.2978
   -46.5946 -46.5937 -46.5922 -46.5916 -46.5594 -46.5579 -46.5566 -46.5553
   -46.5510 -46.5498 -46.5479 -46.5472 -46.5446 -46.5439 -46.5434 -46.5428
   -46.5401 -46.5389 -46.5370 -46.5363 -46.4753 -46.4732 -46.4716 -46.4702
   -46.4682 -46.4670 -46.4644 -46.4637 -46.4623 -46.4604 -46.4595 -46.4588
   -46.4583 -46.4577 -46.4570 -46.4563 -46.4556 -46.4541 -46.4531 -46.4523
   -46.4518 -46.4506 -46.4493 -46.4483 -46.4455 -46.4438 -46.4432 -46.4410
   -46.4376 -46.4361 -46.4328 -46.4322 -46.3834 -46.3827 -46.3816 -46.3811
   -46.3806 -46.3796 -46.3791 -46.3783 -46.3773 -46.3764 -46.3753 -46.3751
   -46.3705 -46.3681 -46.3675 -46.3661 -46.3654 -46.3652 -46.3645 -46.3643
   -46.3634 -46.3629 -46.3627 -46.3623 -46.3619 -46.3594 -46.3582 -46.3567
   -46.2983 -46.2953 -46.2948 -46.2911 -46.2898 -46.2886 -46.2864 -46.2851
   -46.2828 -46.2820 -46.2799 -46.2787 -46.2773 -46.2761 -46.2734 -46.2710
   -46.0666 -46.0640 -46.0195 -46.0176 -46.0069 -46.0058 -45.8621 -45.8572
   -45.8532 -45.8529 -45.8514 -45.8469 -45.8463 -45.8458 -45.8448 -45.8443
   -45.8392 -45.8349 -45.8340 -45.8285 -45.8280 -45.8278 -45.8259 -45.8243
   -45.8238 -45.8234 -45.8211 -45.8205 -45.8186 -45.8179 -45.8173 -45.8170
   -45.8167 -45.8128 -45.7976 -45.7961 -45.7951 -45.7945 -45.7921 -45.7913
   -45.7892 -45.7881 -45.7879 -45.7867 -45.7865 -45.7858 -45.7850 -45.7849
   -45.7824 -45.7797 -45.7360 -45.7334 -45.7305 -45.7291 -45.6614 -45.6608
   -45.6551 -45.6544 -45.6515 -45.6503 -45.6483 -45.6468 -45.6363 -45.6350
   -45.6270 -45.6218 -45.6212 -45.6202 -45.6180 -45.6171 -45.5998 -45.5987
   -45.5915 -45.5907 -45.5851 -45.5843 -45.5834 -45.5822 -45.5811 -45.5789
   -45.5588 -45.5568 -45.5553 -45.5539 -45.5526 -45.5522 -45.5389 -45.5367
   -45.5363 -45.5358 -45.5177 -45.5125 -45.4615 -45.4565 -45.4548 -45.4481
   -45.1054 -44.9845 -44.9708 -44.7158 -44.7131 -44.6944 -44.6923 -44.6438
   -44.6417 -44.5787 -44.5766 -44.5765 -44.5751 -44.5703 -44.5690 -44.5680
   -44.5676 -44.5667 -44.5656 -44.5652 -44.5644 -44.5641 -44.5619 -44.5593
   -44.5570 -44.5568 -44.5545 -44.5543 -44.5513 -44.5508 -44.5504 -44.5492
   -44.5418 -44.5412 -44.5401 -44.5393 -44.5369 -44.5354 -44.5319 -44.5312
   -44.5289 -44.5288 -44.5258 -44.5235 -44.5210 -44.5130 -44.5092 -44.5089
   -44.4688 -44.4680 -44.4673 -44.4663 -44.4572 -44.4569 -44.4139 -44.4122
   -44.4108 -44.4102 -44.4091 -44.4077 -44.4067 -44.4062 -44.4060 -44.4031
   -44.4024 -44.4018 -44.3952 -44.3945 -44.3897 -44.3889 -44.3876 -44.3868
   -44.3836 -44.3826 -44.3815 -44.3810 -44.3782 -44.3779 -44.3751 -44.3750
   -44.3652 -44.3636 -44.3593 -44.3566 -44.3523 -44.3518 -44.3510 -44.3504
   -44.3414 -44.3407 -44.2683 -44.2675 -44.2561 -44.2555 -44.2239 -44.2227
   -44.0017 -44.0008 -44.0007 -43.9997 -43.9624 -43.9608 -43.9579 -43.9577
   -43.9566 -43.9351 -43.9347 -43.9346 -43.9344 -43.9268 -43.9267 -43.9260
   -43.9257 -43.9248 -43.9247 -43.9241 -43.9222 -43.9215 -43.9195 -43.9190
   -43.9189 -43.9182 -43.9177 -43.9122 -43.9115 -43.9112 -43.9111 -43.9108
   -43.9103 -43.9102 -43.9101 -43.8891 -43.8873 -43.8784 -43.8759 -43.8748
   -43.8634 -43.8627 -43.8582 -43.8575 -43.8556 -43.8552 -43.8522 -43.8519
   -43.8476 -43.8476 -43.8447 -43.8446 -43.8441 -43.8435 -43.8434 -43.8432
   -43.8407 -43.8401 -43.8347 -43.8342 -43.8340 -43.8336 -43.8257 -43.8246
[...]
     8.8193   8.8293   8.8370   8.8540   8.8554   8.8680   8.8689   8.8790
     8.8795   8.8892   8.8909   8.9033   8.9050   8.9067   8.9138   8.9143
     8.9295   8.9422   8.9523   8.9544   8.9557   8.9601   8.9718   8.9730
     8.9737   8.9750   8.9833   8.9853   9.0065   9.0078   9.0313   9.0451
     9.0499   9.0529   9.0592   9.0665   9.0711   9.0768   9.0777   9.0796
     9.0833   9.0844   9.0869   9.0950   9.0968   9.1296   9.1375   9.1409
     9.1498   9.1556   9.1576   9.1601   9.1615   9.1672   9.1697   9.1763
     9.1774   9.1796   9.1811   9.2012   9.2021   9.2023   9.2046   9.2319
     9.2389   9.2415   9.2479   9.2619   9.2707   9.2825   9.2828   9.2933
     9.2992   9.3017   9.3019   9.3022   9.3086   9.3195   9.3206   9.3278
     9.3291   9.3464   9.3529   9.3543   9.3760   9.3870   9.4151   9.4241
     9.4339   9.4527   9.4888   9.4957   9.5016   9.5056   9.5353   9.5420
     9.6281   9.6791   9.8821   9.8968  10.1117  10.2028  10.2223  10.3275
    10.3461  10.3872  10.4226  10.4391  10.4453  10.4624  10.4976  10.5185
    10.5337  10.5364  10.5742  10.6311  10.6339

     the Fermi energy is     8.0859 ev

!    total energy              =  -42242.29757157 Ry

     total all-electron energy =   -332342.469468 Ry
     estimated scf accuracy    <          8.5E-09 Ry
     smearing contrib. (-TS)   =       0.01855975 Ry
     internal energy E=F+TS    =  -42242.31613132 Ry

     The total energy is F=E-TS. E is the sum of the following terms:
     one-electron contribution =  -98066.19984742 Ry
     hartree contribution      =   49534.96590237 Ry
     xc contribution           =   -3545.93058967 Ry
     ewald contribution        =   20586.80039168 Ry
     one-center paw contrib.   =  -10751.95198828 Ry

     total magnetization       =    -3.68 Bohr mag/cell
     absolute magnetization    =   228.65 Bohr mag/cell

     convergence has been achieved in 100 iterations

     negative rho (up, down):  1.165E-03 1.300E-03

     Forces acting on atoms (cartesian axes, Ry/au):

     atom    1 type  3   force =    -0.00003279   -0.00004105    0.04971430
     atom    2 type  2   force =    -0.01117131   -0.01309756    0.00004855
     atom    3 type  1   force =    -0.01326995    0.00000496   -0.01517542
     atom    4 type  2   force =    -0.00000465   -0.00823617   -0.00773691
     atom    5 type  1   force =    -0.00003508   -0.00002047    0.00079040
     atom    6 type  2   force =    -0.00092652   -0.00008084   -0.00099672
     atom    7 type  1   force =     0.00109628   -0.00000634   -0.00044161
     atom    8 type  2   force =     0.00001760   -0.00008441   -0.00133182
     atom    9 type  1   force =     0.00001222   -0.00122477   -0.00426195
     atom   10 type  2   force =     0.00022967    0.00104271    0.00004041
     atom   11 type  1   force =    -0.00044135   -0.00071263    0.00138219
     atom   12 type  2   force =     0.00000916    0.00017438   -0.00010248
     atom   13 type  1   force =     0.00000089    0.00153145    0.00025666
     atom   14 type  2   force =    -0.00008958    0.00027882    0.00011539
     atom   15 type  1   force =     0.00009524    0.00015737    0.00036253
     atom   16 type  2   force =     0.00001785   -0.00055820   -0.00040246
     atom   17 type  1   force =    -0.00000183   -0.00000585   -0.00037663
     atom   18 type  2   force =     0.00025099   -0.00103251    0.00003194
     atom   19 type  1   force =     0.00003746   -0.00000507   -0.00004767
     atom   20 type  2   force =     0.00000297   -0.00014605   -0.00010615
     atom   21 type  1   force =     0.00000476    0.00000202   -0.00001585
     atom   22 type  2   force =    -0.00009939   -0.00027802    0.00011992
     atom   23 type  1   force =    -0.00030332   -0.00000037    0.00030896
     atom   24 type  2   force =     0.00001001    0.00056174   -0.00038665
     atom   25 type  1   force =    -0.00000616    0.00122579   -0.00426312
     atom   26 type  2   force =    -0.01113529    0.01312722    0.00008318
     atom   27 type  1   force =    -0.00043415    0.00072214    0.00136803
     atom   28 type  2   force =    -0.00001087    0.00824196   -0.00769172
     atom   29 type  1   force =    -0.00001798   -0.00159188    0.00026792
     atom   30 type  2   force =    -0.00090317    0.00011548   -0.00102041
     atom   31 type  1   force =     0.00009355   -0.00013205    0.00034079
     atom   32 type  2   force =     0.00001383    0.00004479   -0.00139515
     atom   33 type  1   force =    -0.00385992    0.00001619   -0.00357859
     atom   34 type  2   force =     0.00054722   -0.00000213    0.00019774
     atom   35 type  1   force =    -0.00059192    0.00000983   -0.00010019
     atom   36 type  2   force =     0.00118604   -0.00006478    0.00136457
     atom   37 type  1   force =     0.00282815    0.00000678    0.00137147
     atom   38 type  2   force =    -0.00005630    0.00055898   -0.00018491
     atom   39 type  1   force =    -0.00088814    0.00001458   -0.00004986
     atom   40 type  2   force =     0.00053822    0.00058202    0.00096658
     atom   41 type  1   force =     0.00001127    0.00065634   -0.00232678
     atom   42 type  2   force =     0.00030371    0.00003072    0.00018758
     atom   43 type  1   force =     0.00023162    0.00012094    0.00036286
     atom   44 type  2   force =     0.00018225    0.00043188    0.00027940
     atom   45 type  1   force =    -0.00015470    0.00000672    0.00013979
     atom   46 type  2   force =    -0.00026889   -0.00021041    0.00019008
     atom   47 type  1   force =    -0.00001308   -0.00045671   -0.00001654
     atom   48 type  2   force =    -0.00020255   -0.00025770   -0.00020728
     atom   49 type  1   force =     0.00015532   -0.00002382    0.00028135
     atom   50 type  2   force =     0.00029517   -0.00000809    0.00016866
     atom   51 type  1   force =     0.00036459   -0.00000835    0.00063623
     atom   52 type  2   force =     0.00018857   -0.00044478    0.00030737
     atom   53 type  1   force =     0.00005996   -0.00001221    0.00040432
     atom   54 type  2   force =    -0.00026382    0.00020482    0.00020051
     atom   55 type  1   force =    -0.00044855   -0.00000755    0.00011433
     atom   56 type  2   force =    -0.00021061    0.00027373   -0.00020836
     atom   57 type  1   force =     0.00003463   -0.00064885   -0.00234936
     atom   58 type  2   force =     0.00054139    0.00003599    0.00020891
     atom   59 type  1   force =     0.00025888   -0.00013390    0.00036347
     atom   60 type  2   force =     0.00123759    0.00001683    0.00139642
[...]
     atom  114 type  2   force =    -0.00025699   -0.00104686    0.00007079
     atom  115 type  1   force =    -0.00004161   -0.00000760   -0.00003561
     atom  116 type  2   force =    -0.00018228   -0.00043344    0.00030697
     atom  117 type  1   force =    -0.00005817   -0.00001445    0.00040398
     atom  118 type  2   force =     0.00009235   -0.00029357    0.00013186
     atom  119 type  1   force =     0.00031002   -0.00002172    0.00033733
     atom  120 type  2   force =     0.00019442    0.00024490   -0.00023151
     atom  121 type  1   force =     0.00002693   -0.00059579   -0.00239248
     atom  122 type  2   force =     0.01123922    0.01318241    0.00019759
     atom  123 type  1   force =     0.00044852    0.00071343    0.00138497
     atom  124 type  2   force =    -0.00124203   -0.00002137    0.00137114
     atom  125 type  1   force =     0.00012497   -0.00002289    0.00013745
     atom  126 type  2   force =     0.00092224    0.00009868   -0.00105016
     atom  127 type  1   force =    -0.00014605   -0.00014111    0.00034014
     atom  128 type  2   force =    -0.00055971   -0.00057526    0.00091918

     Total force =     0.070288     Total SCF correction =     0.000267

     Computing stress (Cartesian axis) and pressure

     negative rho (up, down):  1.165E-03 1.300E-03
          total   stress  (Ry/bohr**3)                   (kbar)     P=      -22.27
  -0.00016143  -0.00000000   0.00000005          -23.75       -0.00        0.01
  -0.00000000  -0.00011678   0.00000028           -0.00      -17.18        0.04
   0.00000005   0.00000028  -0.00017603            0.01        0.04      -25.89

     Writing output data file /scratch/bxp912/feruslab2.save/

     General routines

     Parallel routines

   This run was terminated on:  15: 8: 4  29May2022

   JOB DONE.