     Program PWSCF v.6.7MaX starts on 29May2022 at 13:53:45

     R & G space division:  proc/nbgrp/npool/nimage =      72
     Reading input from feruslabDr3.in
Warning: card &CELL ignored
Warning: card CELL_DYNAMICS = 'BFGS', ignored
Warning: card CELL_FACTOR = 2.0, ignored
Warning: card PRESS = 0.0, ignored
Warning: card / ignored

     Current dimensions of program PWSCF are:
     Max number of different atomic species (ntypx) = 10
     Max number of k-points (npk) =  40000
     Max angular momentum in pseudopotentials (lmaxx) =  3
     file Fe.pbe-spn-kjpaw_psl.1.0.0.UPF: wavefunction(s)  3P 3D renormalized
     file Fe.pbe-spn-kjpaw_psl.1.0.0.UPF: wavefunction(s)  3P 3D renormalized
     file Ru.pbe-spn-kjpaw_psl.1.0.0.UPF: wavefunction(s)  4D renormalized

     gamma-point specific algorithms are used

     Subspace diagonalization in iterative solution of the eigenvalue problem:
     one sub-group per band group will be used

     bravais-lattice index     =            0
     lattice parameter (alat)  =      25.8600  a.u.
     unit-cell volume          =   18186.5006 (a.u.)^3
     number of atoms/cell      =          129
     number of atomic types    =            3
     number of electrons       =      2064.00
     number of Kohn-Sham states=         1238
     kinetic-energy cutoff     =      71.0000  Ry
     charge density cutoff     =     430.0000  Ry
     scf convergence threshold =      1.0E-08
     mixing beta               =       0.3000
     number of iterations used =           10  local-TF  mixing
     Exchange-correlation= SLA  PW   PBX  PBC
                           (   1   4   3   4   0   0   0)

     celldm(1)=  25.860000  celldm(2)=   0.000000  celldm(3)=   0.000000
     celldm(4)=   0.000000  celldm(5)=   0.000000  celldm(6)=   0.000000

     crystal axes: (cart. coord. in units of alat)
               a(1) = (   1.000000   0.000000   0.000000 )
               a(2) = (   0.000000   1.051631   0.000000 )
               a(3) = (   0.000000   0.000000   1.000000 )

     reciprocal axes: (cart. coord. in units 2 pi/alat)
               b(1) = (  1.000000  0.000000  0.000000 )
               b(2) = (  0.000000  0.950903  0.000000 )
               b(3) = (  0.000000  0.000000  1.000000 )

     PseudoPot. # 1 for Fe read from file:
     /rds/homes/b/bxp912/pp/Fe.pbe-spn-kjpaw_psl.1.0.0.UPF
     MD5 check sum: 42f43b795421b414b0dc916aa790dbcb
     Pseudo is Projector augmented-wave + core cor, Zval = 16.0
     Generated using &quot;atomic&quot; code by A. Dal Corso  v.6.3
     Shape of augmentation charge: PSQ
     Using radial grid of 1191 points,  6 beta functions with:
                l(1) =   0
                l(2) =   0
                l(3) =   1
                l(4) =   1
                l(5) =   2
                l(6) =   2
     Q(r) pseudized with 0 coefficients

     PseudoPot. # 2 for Fe read from file:
     /rds/homes/b/bxp912/pp/Fe.pbe-spn-kjpaw_psl.1.0.0.UPF
     MD5 check sum: 42f43b795421b414b0dc916aa790dbcb
     Pseudo is Projector augmented-wave + core cor, Zval = 16.0
     Generated using &quot;atomic&quot; code by A. Dal Corso  v.6.3
     Shape of augmentation charge: PSQ
     Using radial grid of 1191 points,  6 beta functions with:
                l(1) =   0
                l(2) =   0
                l(3) =   1
                l(4) =   1
                l(5) =   2
                l(6) =   2
     Q(r) pseudized with 0 coefficients

     PseudoPot. # 3 for Ru read from file:
     /rds/homes/b/bxp912/pp/Ru.pbe-spn-kjpaw_psl.1.0.0.UPF
     MD5 check sum: 0ae1f594dea09af7be8575c3a481d1ae
     Pseudo is Projector augmented-wave + core cor, Zval = 16.0
     Generated using "atomic" code by A. Dal Corso  v.5.1
     Shape of augmentation charge: PSQ
     Using radial grid of 1233 points,  6 beta functions with:
                l(1) =   0
                l(2) =   0
                l(3) =   1
                l(4) =   1
                l(5) =   2
                l(6) =   2
     Q(r) pseudized with 0 coefficients

     atomic species   valence    mass     pseudopotential
        Fe1           16.00    55.84500     Fe( 1.00)
        Fe2           16.00    55.84500     Fe( 1.00)
        Ru            16.00   101.07000     Ru( 1.00)

     Starting magnetic structure
     atomic species   magnetization
        Fe1          0.100
        Fe2         -0.100
        Ru           0.001

     No symmetry found

   Cartesian axes

     site n.     atom                  positions (alat units)
         1           Ru  tau(   1) = (   0.1394683   0.1107793   0.1744294  )
         2           Fe1 tau(   2) = (   0.0587515   0.0653881   0.3211198  )
         3           Fe2 tau(   3) = (   0.1884265   0.2002713   0.3214448  )
         4           Fe1 tau(   4) = (   0.1868213   0.0655646   0.4421276  )
         5           Fe2 tau(   5) = (   0.0624952   0.1980629   0.4424469  )
         6           Fe1 tau(   6) = (   0.0623234   0.0655267   0.5697271  )
         7           Fe2 tau(   7) = (   0.1876610   0.1975943   0.5698145  )
         8           Fe1 tau(   8) = (   0.1882185   0.0650035   0.6879009  )
         9           Fe2 tau(   9) = (   0.0616632   0.1980291   0.6879420  )
        10           Fe1 tau(  10) = (   0.0653597   0.3265762   0.3172267  )
        11           Fe2 tau(  11) = (   0.1877413   0.4579090   0.3175394  )
        12           Fe1 tau(  12) = (   0.1881227   0.3296492   0.4412225  )
        13           Fe2 tau(  13) = (   0.0633903   0.4595175   0.4385688  )
        14           Fe1 tau(  14) = (   0.0628268   0.3296102   0.5678640  )
        15           Fe2 tau(  15) = (   0.1885537   0.4615096   0.5682187  )
        16           Fe1 tau(  16) = (   0.1887326   0.3305664   0.6874596  )
        17           Fe2 tau(  17) = (   0.0603308   0.4618776   0.6862421  )
        18           Fe1 tau(  18) = (   0.0648519   0.5907106   0.3145093  )
        19           Fe2 tau(  19) = (   0.1847510   0.7238107   0.3145456  )
        20           Fe1 tau(  20) = (   0.1863681   0.5909977   0.4371267  )
        21           Fe2 tau(  21) = (   0.0633682   0.7236125   0.4371464  )
        22           Fe1 tau(  22) = (   0.0615849   0.5918936   0.5662034  )
        23           Fe2 tau(  23) = (   0.1882586   0.7226899   0.5660552  )
        24           Fe1 tau(  24) = (   0.1887997   0.5925453   0.6861716  )
        25           Fe2 tau(  25) = (   0.0613274   0.7219977   0.6862125  )
        26           Fe1 tau(  26) = (   0.0618357   0.8560935   0.3172000  )
        27           Fe2 tau(  27) = (   0.1829530   0.9895025   0.3139428  )
        28           Fe1 tau(  28) = (   0.1862919   0.8555747   0.4379183  )
        29           Fe2 tau(  29) = (   0.0618572   0.9855343   0.4406165  )
        30           Fe1 tau(  30) = (   0.0613876   0.8531658   0.5679772  )
        31           Fe2 tau(  31) = (   0.1869233   0.9851356   0.5677120  )
        32           Fe1 tau(  32) = (   0.1896322   0.8527645   0.6860337  )
        33           Fe2 tau(  33) = (   0.0612834   0.9839846   0.6875207  )
        34           Fe1 tau(  34) = (   0.3076371   0.0696373   0.3122286  )
        35           Fe2 tau(  35) = (   0.4357117   0.1980603   0.3171939  )
        36           Fe1 tau(  36) = (   0.4341488   0.0657210   0.4341951  )
        37           Fe2 tau(  37) = (   0.3121648   0.1978698   0.4418603  )
        38           Fe1 tau(  38) = (   0.3124073   0.0653502   0.5666112  )
        39           Fe2 tau(  39) = (   0.4385533   0.1968925   0.5660486  )
        40           Fe1 tau(  40) = (   0.4380091   0.0657438   0.6859902  )
        41           Fe2 tau(  41) = (   0.3146724   0.1973275   0.6859048  )
        42           Fe1 tau(  42) = (   0.3112557   0.3275738   0.3170910  )
        43           Fe2 tau(  43) = (   0.4354886   0.4597974   0.3147106  )
        44           Fe1 tau(  44) = (   0.4374791   0.3293042   0.4369893  )
        45           Fe2 tau(  45) = (   0.3125364   0.4604356   0.4366549  )
        46           Fe1 tau(  46) = (   0.3141732   0.3293478   0.5679259  )
        47           Fe2 tau(  47) = (   0.4390386   0.4604040   0.5632767  )
        48           Fe1 tau(  48) = (   0.4403086   0.3292951   0.6845898  )
        49           Fe2 tau(  49) = (   0.3159177   0.4625217   0.6855273  )
        50           Fe1 tau(  50) = (   0.3083587   0.5903099   0.3147277  )
        51           Fe2 tau(  51) = (   0.4339295   0.7233087   0.3130231  )
        52           Fe1 tau(  52) = (   0.4358847   0.5924128   0.4322183  )
        53           Fe2 tau(  53) = (   0.3104159   0.7228918   0.4334436  )
        54           Fe1 tau(  54) = (   0.3142966   0.5918280   0.5641361  )
        55           Fe2 tau(  55) = (   0.4385180   0.7234213   0.5598951  )
        56           Fe1 tau(  56) = (   0.4419191   0.5923939   0.6824908  )
        57           Fe2 tau(  57) = (   0.3162141   0.7223454   0.6842751  )
        58           Fe1 tau(  58) = (   0.3074024   0.8548895   0.3147790  )
        59           Fe2 tau(  59) = (   0.4344514   0.9868630   0.3150403  )
        60           Fe1 tau(  60) = (   0.4356335   0.8547100   0.4315209  )
[...]
       115           Fe2 tau( 115) = (   0.9412610   0.7242602   0.3148148  )
       116           Fe1 tau( 116) = (   0.9393584   0.5917595   0.4337111  )
       117           Fe2 tau( 117) = (   0.8139347   0.7222047   0.4324709  )
       118           Fe1 tau( 118) = (   0.8112426   0.5912370   0.5601288  )
       119           Fe2 tau( 119) = (   0.9356265   0.7227141   0.5643328  )
       120           Fe1 tau( 120) = (   0.9336551   0.5923087   0.6844350  )
       121           Fe2 tau( 121) = (   0.8078635   0.7222525   0.6825759  )
       122           Fe1 tau( 122) = (   0.8143703   0.8548553   0.3146769  )
       123           Fe2 tau( 123) = (   0.9388847   0.9870538   0.3171989  )
       124           Fe1 tau( 124) = (   0.9373427   0.8541441   0.4366752  )
       125           Fe2 tau( 125) = (   0.8125994   0.9853090   0.4370552  )
       126           Fe1 tau( 126) = (   0.8108362   0.8541803   0.5632913  )
       127           Fe2 tau( 127) = (   0.9358746   0.9851837   0.5680012  )
       128           Fe1 tau( 128) = (   0.9341019   0.8520056   0.6853792  )
       129           Fe2 tau( 129) = (   0.8094919   0.9851394   0.6846363  )

     number of k points=     1  Marzari-Vanderbilt smearing, width (Ry)=  0.0400
                       cart. coord. in units 2pi/alat
        k(    1) = (   0.0000000   0.0000000   0.0000000), wk =   1.0000000

     Check: negative core charge=   -0.000004
     Generating pointlists ...
     new r_m :   0.0707 (alat units)  1.8289 (a.u.) for type    1
     new r_m :   0.0709 (alat units)  1.8345 (a.u.) for type    2
     new r_m :   0.0716 (alat units)  1.8505 (a.u.) for type    3

     Initial potential from superposition of free atoms

     starting charge 2063.94336, renormalised to 2064.00000

     negative rho (up, down):  1.761E-04 1.760E-04
     Starting wfcs are 1290 randomized atomic wfcs
     Checking if some PAW data can be deallocated...

     Self-consistent Calculation

     iteration #  1     ecut=    71.00 Ry     beta= 0.30
[...]
   -46.2253 -46.2238 -46.2231 -46.2217 -46.2206 -46.2187 -46.2175 -46.2174
   -46.2119 -46.2075 -46.2051 -46.2048 -46.1964 -46.1929 -46.1889 -46.1873
   -46.1757 -46.1724 -46.1666 -46.1644 -46.1576 -46.1397 -46.0026 -45.9415
   -45.9219 -45.8643 -45.8379 -45.7677 -45.7652 -45.7567 -45.7512 -45.7454
   -45.7316 -45.7284 -45.7259 -45.7215 -45.7186 -45.7158 -45.7113 -45.7110
   -45.7105 -45.7099 -45.7079 -45.7056 -45.7024 -45.7003 -45.6976 -45.6967
   -45.6908 -45.6867 -45.6835 -45.6803 -45.6780 -45.6772 -45.6750 -45.6741
   -45.6739 -45.6713 -45.6696 -45.6663 -45.6623 -45.6549 -45.6530 -45.6524
   -45.6487 -45.6473 -45.6419 -45.6407 -45.6378 -45.6343 -45.6294 -45.6233
   -45.6013 -45.5963 -45.5953 -45.5868 -45.5851 -45.5779 -45.5762 -45.5736
   -45.5692 -45.5637 -45.5619 -45.5614 -45.5573 -45.5536 -45.5520 -45.5455
   -45.5441 -45.5403 -45.5329 -45.5322 -45.5288 -45.5151 -45.5130 -45.5100
   -45.5087 -45.5069 -45.5055 -45.5043 -45.5038 -45.5029 -45.5015 -45.5013
   -45.4942 -45.4869 -45.4844 -45.4842 -45.4800 -45.4761 -45.4696 -45.4585
   -45.4569 -45.4563 -45.4510 -45.4447 -45.4417 -45.4403 -45.4231 -45.4207
   -45.3897 -44.5318 -44.5120 -44.4928 -44.4906 -44.4890 -44.4865 -44.4800
   -44.4764 -44.4708 -44.4694 -44.4689 -44.4665 -44.4657 -44.4593 -44.4584
   -44.4576 -44.4570 -44.4541 -44.4533 -44.4480 -44.4451 -44.4438 -44.4412
   -44.4403 -44.4399 -44.4388 -44.4362 -44.4353 -44.4336 -44.4317 -44.4295
   -44.4267 -44.4254 -44.4251 -44.4248 -44.4187 -44.4127 -44.4108 -44.4094
   -44.4085 -44.4054 -44.4037 -44.4021 -44.3992 -44.3968 -44.3948 -44.3933
   -44.3925 -44.3841 -44.3766 -44.3743 -44.3721 -44.3704 -44.3511 -44.3462
   -44.3408 -44.3373 -44.3327 -44.3219 -44.3167 -44.3153 -44.3145 -44.3139
   -44.3125 -44.3102 -44.3095 -44.3037 -44.3019 -44.2991 -44.2936 -44.2906
   -44.2902 -44.2898 -44.2866 -44.2863 -44.2818 -44.2806 -44.2758 -44.2728
   -44.2710 -44.2684 -44.2677 -44.2647 -44.2641 -44.2635 -44.2615 -44.2588
   -44.2571 -44.2457 -44.2447 -44.2436 -44.2422 -44.2421 -44.2399 -44.2325
   -44.2286 -44.2042 -44.1294 -44.0939 -43.8714 -43.8678 -43.8476 -43.8446
   -43.8438 -43.8372 -43.8348 -43.8342 -43.8297 -43.8297 -43.8265 -43.8244
   -43.8238 -43.8187 -43.8168 -43.8161 -43.8158 -43.8138 -43.8094 -43.8059
   -43.8056 -43.7990 -43.7974 -43.7971 -43.7919 -43.7910 -43.7906 -43.7902
   -43.7830 -43.7800 -43.7789 -43.7780 -43.7722 -43.7659 -43.7628 -43.7596
   -43.7590 -43.7572 -43.7498 -43.7490 -43.7460 -43.7456 -43.7442 -43.7427
   -43.7411 -43.7404 -43.7372 -43.7363 -43.7362 -43.7342 -43.7316 -43.7301
   -43.7288 -43.7261 -43.7230 -43.7215 -43.7209 -43.7200 -43.7179 -43.7167
[...]
     8.9436   8.9477   8.9496   8.9563   8.9750   8.9878   8.9929   8.9941
     8.9947   9.0004   9.0040   9.0069   9.0179   9.0284   9.0331   9.0354
     9.0431   9.0662   9.0709   9.0744   9.0772   9.0801   9.0853   9.0887
     9.0909   9.0922   9.0935   9.0967   9.1027   9.1355   9.1466   9.1666
     9.1735   9.1793   9.1857   9.1904   9.1923   9.1959   9.1994   9.2016
     9.2029   9.2095   9.2103   9.2146   9.2194   9.2304   9.2457   9.2510
     9.2666   9.2668   9.2737   9.2744   9.2782   9.2842   9.2850   9.2864
     9.2890   9.2957   9.2990   9.3048   9.3065   9.3200   9.3259   9.3387
     9.3423   9.3553   9.3724   9.3819   9.3852   9.3929   9.4072   9.4122
     9.4183   9.4217   9.4228   9.4245   9.4286   9.4305   9.4324   9.4404
     9.4426   9.4519   9.4625   9.4675   9.4768   9.4919   9.5050   9.5225
     9.5427   9.5599   9.5762   9.5984   9.6086   9.6225   9.6455   9.6484
     9.6554   9.7585   9.7818   9.8361  10.0122  10.0481  10.3142  10.3241
    10.4363  10.4637  10.4984  10.5328  10.5405  10.5575  10.5644  10.5786
    10.5869  10.6460  10.6582  10.6620  10.7334  10.7493

 ------ SPIN DOWN ----------

          k = 0.0000 0.0000 0.0000 ( 91909 PWs)   bands (ev):

   -80.2900 -80.2897 -80.2807 -80.2796 -80.2759 -80.2757 -80.2670 -80.2664
   -80.2660 -80.2639 -80.2607 -80.2517 -80.2515 -80.2509 -80.2472 -80.2437
   -80.2350 -80.2341 -80.2325 -80.2258 -80.2254 -80.2204 -80.2171 -80.2169
   -80.2154 -80.1994 -80.1991 -80.1971 -80.1905 -80.1602 -80.1556 -79.8121
   -79.7707 -79.7322 -79.6907 -79.6676 -79.6486 -79.6433 -79.6285 -79.6160
   -79.6130 -79.6083 -79.6068 -79.5824 -79.5675 -79.5614 -79.5503 -79.5386
   -79.5359 -79.5327 -79.5215 -79.5152 -79.5127 -79.5091 -79.4997 -79.4986
   -79.4798 -79.4743 -79.4564 -79.4544 -79.4367 -79.4183 -79.4059 -79.3702
   -78.4024 -78.3749 -78.3613 -78.3576 -78.3514 -78.3450 -78.3409 -78.3295
   -78.3101 -78.2975 -78.2967 -78.2955 -78.2930 -78.2892 -78.2870 -78.2846
   -78.2781 -78.2654 -78.2521 -78.2515 -78.2442 -78.2426 -78.2334 -78.2289
   -78.2272 -78.2253 -78.2232 -78.1977 -78.1939 -78.1899 -78.1832 -78.1317
   -77.9905 -77.7004 -77.6920 -77.6747 -77.6739 -77.6705 -77.6680 -77.6672
   -77.6593 -77.6586 -77.6572 -77.6560 -77.6529 -77.6513 -77.6508 -77.6507
   -77.6491 -77.6449 -77.6435 -77.6424 -77.6388 -77.6370 -77.6367 -77.6334
   -77.6324 -77.6321 -77.6321 -77.6297 -77.6292 -77.6222 -77.6194 -77.6176
   -63.3193 -46.4481 -46.4467 -46.4367 -46.4322 -46.4306 -46.4295 -46.4264
   -46.4206 -46.4178 -46.4122 -46.4120 -46.4110 -46.4097 -46.4033 -46.3998
   -46.3963 -46.3946 -46.3935 -46.3885 -46.3882 -46.3866 -46.3811 -46.3807
   -46.3759 -46.3715 -46.3675 -46.3567 -46.3556 -46.3532 -46.3504 -46.3485
   -46.3485 -46.3425 -46.3413 -46.3372 -46.3333 -46.3301 -46.3285 -46.3261
   -46.3254 -46.3227 -46.3183 -46.3171 -46.3132 -46.3109 -46.3108 -46.3087
   -46.2994 -46.2984 -46.2925 -46.2894 -46.2876 -46.2868 -46.2841 -46.2817
   -46.2742 -46.2678 -46.2653 -46.2622 -46.2608 -46.2601 -46.2552 -46.2510
   -46.2494 -46.2482 -46.2455 -46.2414 -46.2399 -46.2339 -46.2335 -46.2295
   -46.2281 -46.2275 -46.2258 -46.2251 -46.2251 -46.2238 -46.2152 -46.2132
   -46.2094 -46.2068 -46.2047 -46.1994 -46.1974 -46.1957 -46.1931 -46.1891
   -46.1816 -46.1804 -46.1780 -46.1705 -46.1474 -46.1416 -45.9909 -45.9366
   -45.8970 -45.8388 -45.8320 -45.8052 -45.7872 -45.7719 -45.7662 -45.7597
   -45.7584 -45.7567 -45.7524 -45.7498 -45.7428 -45.7386 -45.7236 -45.7233
   -45.7210 -45.7202 -45.7153 -45.7130 -45.7096 -45.7079 -45.7032 -45.7010
   -45.7005 -45.6967 -45.6904 -45.6865 -45.6858 -45.6838 -45.6790 -45.6782
   -45.6774 -45.6759 -45.6738 -45.6718 -45.6701 -45.6689 -45.6499 -45.6492
   -45.6476 -45.6416 -45.6392 -45.6358 -45.6327 -45.6294 -45.6263 -45.6151
   -45.6000 -45.5968 -45.5953 -45.5879 -45.5821 -45.5789 -45.5769 -45.5740
   -45.5733 -45.5683 -45.5618 -45.5590 -45.5560 -45.5546 -45.5510 -45.5476
   -45.5417 -45.5352 -45.5325 -45.5319 -45.5296 -45.5276 -45.5160 -45.5148
   -45.5134 -45.5128 -45.5106 -45.5092 -45.5085 -45.5063 -45.5053 -45.4981
   -45.4926 -45.4920 -45.4898 -45.4866 -45.4824 -45.4697 -45.4693 -45.4663
   -45.4659 -45.4618 -45.4601 -45.4561 -45.4476 -45.4307 -45.4227 -45.4134
   -45.3952 -44.5209 -44.5119 -44.4977 -44.4956 -44.4863 -44.4832 -44.4816
   -44.4809 -44.4786 -44.4748 -44.4729 -44.4724 -44.4719 -44.4674 -44.4607
   -44.4595 -44.4590 -44.4581 -44.4549 -44.4498 -44.4476 -44.4460 -44.4455
   -44.4437 -44.4431 -44.4415 -44.4404 -44.4340 -44.4323 -44.4279 -44.4268
   -44.4218 -44.4202 -44.4157 -44.4155 -44.4125 -44.4117 -44.4108 -44.4086
   -44.4067 -44.4048 -44.4036 -44.4013 -44.4000 -44.3987 -44.3976 -44.3967
   -44.3947 -44.3817 -44.3757 -44.3682 -44.3596 -44.3589 -44.3564 -44.3428
   -44.3383 -44.3382 -44.3367 -44.3342 -44.3257 -44.3187 -44.3124 -44.3113
   -44.3082 -44.3077 -44.3054 -44.3037 -44.3024 -44.3014 -44.2981 -44.2931
   -44.2912 -44.2897 -44.2876 -44.2867 -44.2849 -44.2784 -44.2775 -44.2763
   -44.2738 -44.2708 -44.2679 -44.2668 -44.2658 -44.2651 -44.2613 -44.2596
   -44.2579 -44.2542 -44.2471 -44.2440 -44.2397 -44.2335 -44.2313 -44.2199
   -44.1870 -44.1297 -44.0564 -43.9598 -43.8813 -43.8711 -43.8482 -43.8477
   -43.8399 -43.8393 -43.8388 -43.8300 -43.8295 -43.8288 -43.8216 -43.8207
   -43.8205 -43.8200 -43.8154 -43.8146 -43.8123 -43.8098 -43.8062 -43.8038
   -43.8015 -43.7989 -43.7972 -43.7953 -43.7926 -43.7920 -43.7917 -43.7904
   -43.7805 -43.7797 -43.7785 -43.7778 -43.7776 -43.7609 -43.7588 -43.7579
   -43.7575 -43.7559 -43.7528 -43.7464 -43.7416 -43.7415 -43.7409 -43.7405
   -43.7383 -43.7371 -43.7358 -43.7348 -43.7319 -43.7306 -43.7306 -43.7288
   -43.7278 -43.7270 -43.7237 -43.7219 -43.7210 -43.7206 -43.7195 -43.7129
[...]
     8.9487   8.9583   8.9620   8.9728   8.9873   8.9929   8.9949   8.9997
     9.0043   9.0061   9.0136   9.0197   9.0302   9.0329   9.0392   9.0426
     9.0532   9.0688   9.0738   9.0784   9.0811   9.0839   9.0862   9.0899
     9.0908   9.0928   9.0965   9.1034   9.1084   9.1407   9.1472   9.1714
     9.1812   9.1838   9.1895   9.1946   9.1973   9.1985   9.2015   9.2048
     9.2108   9.2141   9.2188   9.2253   9.2297   9.2367   9.2481   9.2608
     9.2661   9.2721   9.2727   9.2760   9.2802   9.2857   9.2870   9.2896
     9.2958   9.2989   9.3006   9.3036   9.3158   9.3214   9.3264   9.3409
     9.3422   9.3593   9.3724   9.3816   9.3915   9.3985   9.4071   9.4183
     9.4191   9.4230   9.4236   9.4300   9.4324   9.4358   9.4409   9.4418
     9.4532   9.4580   9.4659   9.4759   9.4923   9.4948   9.5166   9.5247
     9.5470   9.5588   9.5820   9.6015   9.6178   9.6458   9.6489   9.6531
     9.6672   9.7675   9.7877   9.9220  10.0183  10.0905  10.3242  10.3288
    10.4499  10.4674  10.5046  10.5373  10.5388  10.5546  10.5732  10.5757
    10.6169  10.6459  10.6595  10.6776  10.7300  10.7663

     the Fermi energy is     8.2021 ev

!    total energy              =  -42571.41340388 Ry

     total all-electron energy =   -334887.881834 Ry
     estimated scf accuracy    <          8.0E-09 Ry
     smearing contrib. (-TS)   =       0.01814759 Ry
     internal energy E=F+TS    =  -42571.43155147 Ry

     The total energy is F=E-TS. E is the sum of the following terms:
     one-electron contribution =  -98095.72112663 Ry
     hartree contribution      =   49562.51044713 Ry
     xc contribution           =   -3573.59914890 Ry
     ewald contribution        =   20370.13090006 Ry
     one-center paw contrib.   =  -10834.75262314 Ry

     total magnetization       =     1.40 Bohr mag/cell
     absolute magnetization    =   230.23 Bohr mag/cell

     convergence has been achieved in  77 iterations

     negative rho (up, down):  1.693E-03 1.867E-03

     Forces acting on atoms (cartesian axes, Ry/au):

     atom    1 type  3   force =     0.01450356   -0.00723274    0.10712014
     atom    2 type  1   force =     0.02753140    0.00999444   -0.04154729
     atom    3 type  2   force =    -0.01720430   -0.02308690   -0.03803401
     atom    4 type  1   force =    -0.00165004    0.00571951   -0.00304289
     atom    5 type  2   force =     0.00304182   -0.00301692   -0.00241092
     atom    6 type  1   force =     0.00144657   -0.00067936    0.00023705
     atom    7 type  2   force =    -0.00140055    0.00112537    0.00077735
     atom    8 type  1   force =     0.00226136    0.00016834    0.00076210
     atom    9 type  2   force =    -0.00232566    0.00030169    0.00086142
     atom   10 type  1   force =     0.00040338   -0.00201085   -0.00513849
     atom   11 type  2   force =    -0.00386619    0.00197259   -0.00238784
     atom   12 type  1   force =     0.00043109   -0.00137582   -0.00086867
     atom   13 type  2   force =    -0.00022628   -0.00025130   -0.00114019
     atom   14 type  1   force =    -0.00191600    0.00154954    0.00399109
     atom   15 type  2   force =    -0.00230004    0.00034195   -0.00042047
     atom   16 type  1   force =     0.00013113   -0.00012391    0.00020204
     atom   17 type  2   force =     0.00052946   -0.00065252   -0.00030373
     atom   18 type  1   force =    -0.00008204   -0.00001991   -0.00000251
     atom   19 type  2   force =     0.00002784   -0.00007609    0.00000834
     atom   20 type  1   force =     0.00266390    0.00172042    0.00267560
     atom   21 type  2   force =    -0.00267730   -0.00171604    0.00279434
     atom   22 type  1   force =     0.00121300   -0.00009046    0.00124305
     atom   23 type  2   force =    -0.00108622    0.00027591    0.00094340
     atom   24 type  1   force =    -0.00009650   -0.00107667   -0.00234316
     atom   25 type  2   force =    -0.00008323    0.00118981   -0.00207302
     atom   26 type  1   force =     0.00431140   -0.00054252   -0.00270134
     atom   27 type  2   force =     0.00045565    0.00841193   -0.01515560
     atom   28 type  1   force =    -0.00035872    0.00082945   -0.00189263
     atom   29 type  2   force =     0.00040595    0.00189990    0.00010317
     atom   30 type  1   force =     0.00258457    0.00006447   -0.00080092
     atom   31 type  2   force =     0.00202266   -0.00134338    0.00303072
     atom   32 type  1   force =    -0.00058964    0.00087903   -0.00030187
     atom   33 type  2   force =    -0.00014401   -0.00002914    0.00046120
     atom   34 type  1   force =    -0.00933005   -0.00052967   -0.01700968
     atom   35 type  2   force =    -0.00050140   -0.00357655   -0.00082949
     atom   36 type  1   force =     0.00258180    0.00116943   -0.00069874
     atom   37 type  2   force =    -0.00222154   -0.00089919   -0.00773352
     atom   38 type  1   force =     0.00028539   -0.00069913    0.00317478
     atom   39 type  2   force =     0.00180081    0.00049756   -0.00088756
     atom   40 type  1   force =     0.00433996   -0.00094391    0.00009105
     atom   41 type  2   force =     0.00028706    0.00155527    0.00574517
     atom   42 type  1   force =    -0.00726113   -0.00449870   -0.00017917
     atom   43 type  2   force =    -0.00004899   -0.00105293   -0.00200965
     atom   44 type  1   force =    -0.00057836   -0.00322334   -0.00375456
     atom   45 type  2   force =    -0.00037144   -0.00230226    0.00274497
     atom   46 type  1   force =    -0.00435651    0.00202795   -0.00157044
     atom   47 type  2   force =    -0.00046414    0.00102351    0.00020338
     atom   48 type  1   force =     0.00082228    0.00205303    0.00480876
     atom   49 type  2   force =     0.00124461   -0.00188428    0.00172573
     atom   50 type  1   force =     0.00087377    0.00284393   -0.00265757
     atom   51 type  2   force =     0.00020072    0.00173317   -0.00323524
     atom   52 type  1   force =     0.00254858   -0.00253658   -0.00046601
     atom   53 type  2   force =     0.00144328    0.00132048    0.00395238
     atom   54 type  1   force =    -0.00341366    0.00176685    0.00142407
     atom   55 type  2   force =    -0.00246444   -0.00088953    0.00287558
     atom   56 type  1   force =    -0.00072679   -0.00002872   -0.00023039
     atom   57 type  2   force =    -0.00004325    0.00019192   -0.00066787
     atom   58 type  1   force =     0.00079401    0.00451912   -0.00132924
     atom   59 type  2   force =    -0.00177335    0.00206313   -0.00080756
     atom   60 type  1   force =     0.00223277    0.00173584    0.00017409
[...]
     atom  115 type  2   force =    -0.00110023   -0.00296150   -0.00233932
     atom  116 type  1   force =    -0.00164427   -0.00090886    0.00415588
     atom  117 type  2   force =    -0.00267819    0.00286838   -0.00066753
     atom  118 type  1   force =     0.00235193    0.00103159    0.00305546
     atom  119 type  2   force =     0.00346303   -0.00147634    0.00138445
     atom  120 type  1   force =    -0.00001444    0.00008226   -0.00071251
     atom  121 type  2   force =     0.00072009    0.00017038   -0.00010876
     atom  122 type  1   force =    -0.00009520    0.00105167   -0.00192478
     atom  123 type  2   force =     0.00407781    0.00293097   -0.00056183
     atom  124 type  1   force =     0.00101218    0.00258256    0.00198047
     atom  125 type  2   force =     0.00116144    0.00298127   -0.00396025
     atom  126 type  1   force =     0.00024405   -0.00101416    0.00026062
     atom  127 type  2   force =     0.00379544   -0.00165569   -0.00187665
     atom  128 type  1   force =    -0.00096928    0.00204631    0.00165535
     atom  129 type  2   force =    -0.00091276   -0.00213463    0.00502572

     Total force =     0.137499     Total SCF correction =     0.000404

     Computing stress (Cartesian axis) and pressure

     negative rho (up, down):  1.693E-03 1.867E-03
          total   stress  (Ry/bohr**3)                   (kbar)     P=      -21.14
  -0.00015404   0.00000174  -0.00000661          -22.66        0.26       -0.97
   0.00000174  -0.00010743   0.00000418            0.26      -15.80        0.62
  -0.00000661   0.00000418  -0.00016956           -0.97        0.62      -24.94

     Writing output data file /scratch/bxp912/feruslab4r3.save/

     General routines

     Parallel routines

   This run was terminated on:  14:25:39  29May2022

   JOB DONE.