     Program PWSCF v.6.7MaX starts on  3Jan2022 at 20:35:25

     R & G space division:  proc/nbgrp/npool/nimage =      72
     Reading input from ru_110_2.in

     Current dimensions of program PWSCF are:
     Max number of different atomic species (ntypx) = 10
     Max number of k-points (npk) =  40000
     Max angular momentum in pseudopotentials (lmaxx) =  3
     file Ru.pbe-spn-kjpaw_psl.1.0.0.UPF: wavefunction(s)  4D renormalized

     Subspace diagonalization in iterative solution of the eigenvalue problem:
     one sub-group per band group will be used

     Message from routine setup:
     using ibrav=0 with symmetry is DISCOURAGED, use correct ibrav instead

     bravais-lattice index     =            0
     lattice parameter (alat)  =      14.4007  a.u.
     unit-cell volume          =    2986.4454 (a.u.)^3
     number of atoms/cell      =           33
     number of atomic types    =            1
     number of electrons       =       528.00
     number of Kohn-Sham states=          317
     kinetic-energy cutoff     =      71.0000  Ry
     charge density cutoff     =     430.0000  Ry
     scf convergence threshold =      1.0E-06
     mixing beta               =       0.1000
     number of iterations used =           10  TF        mixing
     energy convergence thresh.=      1.0E-04
     force convergence thresh. =      1.0E-03
     press convergence thresh. =      5.0E-01
     Exchange-correlation= SLA  PW   PBX  PBC
                           (   1   4   3   4   0   0   0)
     nstep                     =           40

     celldm(1)=  14.400742  celldm(2)=   0.000000  celldm(3)=   0.000000
     celldm(4)=   0.000000  celldm(5)=   0.000000  celldm(6)=   0.000000

     crystal axes: (cart. coord. in units of alat)
               a(1) = (   1.000000   0.000000   0.000000 )
               a(2) = (   0.000000   1.000000   0.000000 )
               a(3) = (   0.000000   0.000000   1.000000 )

     reciprocal axes: (cart. coord. in units 2 pi/alat)
               b(1) = (  1.000000  0.000000  0.000000 )
               b(2) = (  0.000000  1.000000  0.000000 )
               b(3) = (  0.000000  0.000000  1.000000 )

     PseudoPot. # 1 for Ru read from file:
     /rds/homes/b/bxp912/pp/Ru.pbe-spn-kjpaw_psl.1.0.0.UPF
     MD5 check sum: 0ae1f594dea09af7be8575c3a481d1ae
     Pseudo is Projector augmented-wave + core cor, Zval = 16.0
     Generated using "atomic" code by A. Dal Corso  v.5.1
     Shape of augmentation charge: PSQ
     Using radial grid of 1233 points,  6 beta functions with:
                l(1) =   0
                l(2) =   0
                l(3) =   1
                l(4) =   1
                l(5) =   2
                l(6) =   2
     Q(r) pseudized with 0 coefficients

     atomic species   valence    mass     pseudopotential
        Ru            16.00   101.07000     Ru( 1.00)

      8 Sym. Ops., with inversion, found ( 4 have fractional translation)

   Cartesian axes

     site n.     atom                  positions (alat units)
         1           Ru  tau(   1) = (   0.0000000   0.0000000   0.0000000  )
         2           Ru  tau(   2) = (   0.2500000   0.2500000   0.0000000  )
         3           Ru  tau(   3) = (   0.2500000   0.0000000   0.2500000  )
         4           Ru  tau(   4) = (   0.0000000   0.1000000   0.1000000  )
         5           Ru  tau(   5) = (   0.0000000   0.4000000   0.4000000  )
         6           Ru  tau(   6) = (   0.0000000   0.0000000   0.5000000  )
         7           Ru  tau(   7) = (   0.2500000   0.2500000   0.5000000  )
         8           Ru  tau(   8) = (   0.2500000   0.0000000   0.7500000  )
         9           Ru  tau(   9) = (   0.0000000   0.2500000   0.7500000  )
        10           Ru  tau(  10) = (   0.0000000   0.5000000   0.0000000  )
        11           Ru  tau(  11) = (   0.2500000   0.7500000   0.0000000  )
        12           Ru  tau(  12) = (   0.2500000   0.5000000   0.2500000  )
        13           Ru  tau(  13) = (   0.0000000   0.7500000   0.2500000  )
        14           Ru  tau(  14) = (   0.0000000   0.5000000   0.5000000  )
        15           Ru  tau(  15) = (   0.2500000   0.7500000   0.5000000  )
        16           Ru  tau(  16) = (   0.2500000   0.5000000   0.7500000  )
        17           Ru  tau(  17) = (   0.0000000   0.7500000   0.7500000  )
        18           Ru  tau(  18) = (   0.5000000   0.0000000   0.0000000  )
        19           Ru  tau(  19) = (   0.7500000   0.2500000   0.0000000  )
        20           Ru  tau(  20) = (   0.7500000   0.0000000   0.2500000  )
        21           Ru  tau(  21) = (   0.5000000   0.2500000   0.2500000  )
        22           Ru  tau(  22) = (   0.5000000   0.0000000   0.5000000  )
        23           Ru  tau(  23) = (   0.7500000   0.2500000   0.5000000  )
        24           Ru  tau(  24) = (   0.7500000   0.0000000   0.7500000  )
        25           Ru  tau(  25) = (   0.5000000   0.2500000   0.7500000  )
        26           Ru  tau(  26) = (   0.5000000   0.5000000   0.0000000  )
        27           Ru  tau(  27) = (   0.7500000   0.7500000   0.0000000  )
        28           Ru  tau(  28) = (   0.7500000   0.5000000   0.2500000  )
        29           Ru  tau(  29) = (   0.5000000   0.7500000   0.2500000  )
        30           Ru  tau(  30) = (   0.5000000   0.5000000   0.5000000  )
        31           Ru  tau(  31) = (   0.7500000   0.7500000   0.5000000  )
        32           Ru  tau(  32) = (   0.7500000   0.5000000   0.7500000  )
        33           Ru  tau(  33) = (   0.5000000   0.7500000   0.7500000  )

     number of k points=   125  Marzari-Vanderbilt smearing, width (Ry)=  0.0400

     Number of k-points >= 100: set verbosity='high' to print them.

     Check: negative core charge=   -0.000002

     Initial potential from superposition of free atoms

     starting charge  527.97896, renormalised to  528.00000
     Starting wfcs are  330 randomized atomic wfcs
     Checking if some PAW data can be deallocated...

     Self-consistent Calculation

     iteration #  1     ecut=    71.00 Ry     beta= 0.10
     Davidson diagonalization with overlap
     ethr =  1.00E-02,  avg # of iterations =  5.1

     total energy              =  -14224.59605423 Ry
     estimated scf accuracy    <       6.28967595 Ry

[...]

     iteration #  8     ecut=    71.00 Ry     beta= 0.10
     Davidson diagonalization with overlap
     c_bands:  1 eigenvalues not converged
     c_bands:  1 eigenvalues not converged
     c_bands:  1 eigenvalues not converged
     ethr =  4.48E-06,  avg # of iterations =  7.2

[...]

     End of self-consistent calculation

     Number of k-points >= 100: set verbosity='high' to print the bands.

     the Fermi energy is    24.1895 ev

!    total energy              =  -14223.83390487 Ry

     total all-electron energy =   -299030.736442 Ry
     estimated scf accuracy    <       0.00000055 Ry
     smearing contrib. (-TS)   =       0.01056751 Ry
     internal energy E=F+TS    =  -14223.84447238 Ry

     The total energy is F=E-TS. E is the sum of the following terms:
     one-electron contribution =   -1266.19790553 Ry
     hartree contribution      =    1070.93552137 Ry
     xc contribution           =    -966.00987652 Ry
     ewald contribution        =   -5235.08188634 Ry
     one-center paw contrib.   =   -7827.49032537 Ry

     convergence has been achieved in  18 iterations

     Forces acting on atoms (cartesian axes, Ry/au):

     atom    1 type  1   force =     0.00000000  -18.91696017  -18.91696017
     atom    2 type  1   force =     0.19187093    0.11871922   -0.05169542
     atom    3 type  1   force =     0.19187093   -0.05169542    0.11871922
     atom    4 type  1   force =     0.00000000   18.88800674   18.88800674
     atom    5 type  1   force =     0.00000000  -18.88800674  -18.88800674
     atom    6 type  1   force =     0.00000000    0.00256282   -0.00256282
     atom    7 type  1   force =     0.19187093   -0.11871922    0.05169542
     atom    8 type  1   force =     0.03368699   -0.00574218   -0.03097448
     atom    9 type  1   force =     0.00000000    0.00000000    0.00000000
     atom   10 type  1   force =     0.00000000   -0.00256282    0.00256282
     atom   11 type  1   force =     0.03368699   -0.03097448   -0.00574218
     atom   12 type  1   force =     0.19187093    0.05169542   -0.11871922
     atom   13 type  1   force =     0.00000000    0.00000000    0.00000000
     atom   14 type  1   force =    -0.00000000   18.91696017   18.91696017
     atom   15 type  1   force =     0.03368699    0.03097448    0.00574218
     atom   16 type  1   force =     0.03368699    0.00574218    0.03097448
     atom   17 type  1   force =     0.00000000    0.00000000    0.00000000
     atom   18 type  1   force =     0.00000000    0.00065868    0.00065868
     atom   19 type  1   force =    -0.19187093    0.11871922   -0.05169542
     atom   20 type  1   force =    -0.19187093   -0.05169542    0.11871922
     atom   21 type  1   force =     0.00000000    0.00000000    0.00000000
     atom   22 type  1   force =     0.00000000   -0.00682546    0.00682546
     atom   23 type  1   force =    -0.19187093   -0.11871922    0.05169542
     atom   24 type  1   force =    -0.03368699   -0.00574218   -0.03097448
     atom   25 type  1   force =     0.00000000    0.00000000    0.00000000
     atom   26 type  1   force =     0.00000000    0.00682546   -0.00682546
     atom   27 type  1   force =    -0.03368699   -0.03097448   -0.00574218
     atom   28 type  1   force =    -0.19187093    0.05169542   -0.11871922
     atom   29 type  1   force =     0.00000000    0.00000000    0.00000000
     atom   30 type  1   force =     0.00000000   -0.00065868   -0.00065868
     atom   31 type  1   force =    -0.03368699    0.03097448    0.00574218
     atom   32 type  1   force =    -0.03368699    0.00574218    0.03097448
     atom   33 type  1   force =     0.00000000    0.00000000    0.00000000

     Total force =    53.468482     Total SCF correction =     0.006724

     Computing stress (Cartesian axis) and pressure

          total   stress  (Ry/bohr**3)                   (kbar)     P=     1997.53
   0.00213412   0.00000000   0.00000000          313.94        0.00        0.00
   0.00000000   0.01930136   0.01790518            0.00     2839.33     2633.94
   0.00000000   0.01790518   0.01930136            0.00     2633.94     2839.33

     BFGS Geometry Optimization
     Energy error            =      0.0E+00
     Gradient error          =      1.9E+01
     Cell gradient error     =      1.9E-02

     number of scf cycles    =   1
     number of bfgs steps    =   0

     enthalpy new            =  -14223.8339048696 Ry

     new trust radius        =       0.5000000000 bohr
     new conv_thr            =       0.0000010000 Ry

     new unit-cell volume =   3043.37711 a.u.^3 (   450.98196 Ang^3 )
     density =     12.28079 g/cm^3

CELL_PARAMETERS (alat= 14.40074160)
   1.000997156   0.000000000   0.000000000
   0.000000000   1.009018444   0.008366088
   0.000000000   0.008366088   1.009018444

ATOMIC_POSITIONS (crystal)
Ru            0.0000000000       -0.0245510544       -0.0245510544
[...]
Ru            0.2702953419        0.5083257356        0.2454803990
Ru           -0.0000000000        0.7500000000        0.2500000000
Ru           -0.0000000000        0.5420793777        0.5420793777
Ru            0.2526803703        0.7537457044        0.4994232010
Ru            0.2526803703        0.4994232010        0.7537457044
Ru            0.0000000000        0.7500000000        0.7500000000
Ru            0.5000000000       -0.0042230997       -0.0042230997
Ru            0.7297046581        0.2545196010       -0.0083257356
Ru            0.7297046581       -0.0083257356        0.2545196010
Ru            0.5000000000        0.2500000000        0.2500000000
Ru            0.5000000000        0.0025531631        0.4974468369
Ru            0.7297046581        0.2454803990        0.5083257356
Ru            0.7473196297        0.0005767990        0.7462542956
Ru            0.5000000000        0.2500000000        0.7500000000
Ru            0.5000000000        0.4974468369        0.0025531631
Ru            0.7473196297        0.7462542956        0.0005767990
Ru            0.7297046581        0.5083257356        0.2454803990
Ru            0.5000000000        0.7500000000        0.2500000000
Ru            0.5000000000        0.5042230997        0.5042230997
Ru            0.7473196297        0.7537457044        0.4994232010
Ru            0.7473196297        0.4994232010        0.7537457044
Ru            0.5000000000        0.7500000000        0.7500000000

     Writing output data file /scratch/ru1102.save/
     NEW-OLD atomic charge density approx. for the potential

     Check: negative core charge=   -0.000004
     extrapolated charge  528.01428, renormalised to  528.00000

[...]

     Threshold (ethr) on eigenvalues was too large:
     Diagonalizing with lowered threshold

     Davidson diagonalization with overlap
     ethr =  2.85E-09,  avg # of iterations =  4.2

[...]

     Energy error            =      9.7E-06
     Gradient error          =      3.4E-04
     Cell gradient error     =      2.5E-06

     bfgs converged in  17 scf cycles and  16 bfgs steps
     (criteria: energy <  1.0E-04 Ry, force <  1.0E-03Ry/Bohr, cell <  5.0E-01kbar)

     End of BFGS Geometry Optimization

     Final enthalpy =  -14244.4523480437 Ry

     File /scratch/ru1102.bfgs deleted, as requested
Begin final coordinates
     new unit-cell volume =   3159.96113 a.u.^3 (   468.25793 Ang^3 )
     density =     11.82770 g/cm^3

CELL_PARAMETERS (alat= 14.40074160)
   1.016347873   0.000000000   0.000000000
   0.000000000   1.020612098   0.023820639
   0.000000000   0.023820639   1.020612098

ATOMIC_POSITIONS (crystal)
Ru           -0.0000000000       -0.0420793777       -0.0420793777
Ru            0.2702953419        0.2545196010       -0.0083257356
Ru            0.2702953419       -0.0083257356        0.2545196010
Ru           -0.0000000000        0.1549474815        0.1549474815
Ru           -0.0000000000        0.3450525185        0.3450525185
Ru           -0.0000000000        0.0137575188        0.4862424812
Ru            0.2702953419        0.2454803990        0.5083257356
Ru            0.2526803703        0.0005767990        0.7462542956
Ru            0.0000000000        0.2500000000        0.7500000000
Ru           -0.0000000000        0.4862424812        0.0137575188
Ru            0.2526803703        0.7462542956        0.0005767990
Ru            0.2702953419        0.5083257356        0.2454803990
Ru           -0.0000000000        0.7500000000        0.2500000000
Ru           -0.0000000000        0.5420793777        0.5420793777
Ru            0.2526803703        0.7537457044        0.4994232010
Ru            0.2526803703        0.4994232010        0.7537457044
Ru            0.0000000000        0.7500000000        0.7500000000
Ru            0.5000000000       -0.0042230997       -0.0042230997
Ru            0.7297046581        0.2545196010       -0.0083257356
Ru            0.7297046581       -0.0083257356        0.2545196010
Ru            0.5000000000        0.2500000000        0.2500000000
Ru            0.5000000000        0.0025531631        0.4974468369
Ru            0.7297046581        0.2454803990        0.5083257356
Ru            0.7473196297        0.0005767990        0.7462542956
Ru            0.5000000000        0.2500000000        0.7500000000
Ru            0.5000000000        0.4974468369        0.0025531631
Ru            0.7473196297        0.7462542956        0.0005767990
Ru            0.7297046581        0.5083257356        0.2454803990
Ru            0.5000000000        0.7500000000        0.2500000000
Ru            0.5000000000        0.5042230997        0.5042230997
Ru            0.7473196297        0.7537457044        0.4994232010
Ru            0.7473196297        0.4994232010        0.7537457044
Ru            0.5000000000        0.7500000000        0.7500000000
End final coordinates

     Writing output data file /scratch/ru1102.save/

     Final scf calculation at the relaxed structure.
     The G-vectors are recalculated for the final unit cell
     Results may differ from those at the preceding step.

     bravais-lattice index     =            0
     lattice parameter (alat)  =      14.4007  a.u.
     unit-cell volume          =    3159.9611 (a.u.)^3
     number of atoms/cell      =           33
     number of atomic types    =            1
     number of electrons       =       528.00
     number of Kohn-Sham states=          317
     kinetic-energy cutoff     =      71.0000  Ry
     charge density cutoff     =     430.0000  Ry
     scf convergence threshold =      1.0E-08
     mixing beta               =       0.1000
     number of iterations used =           10  TF        mixing
     press convergence thresh. =      5.0E-01
     Exchange-correlation= SLA  PW   PBX  PBC
                           (   1   4   3   4   0   0   0)

     celldm(1)=  14.400742  celldm(2)=   0.000000  celldm(3)=   0.000000
     celldm(4)=   0.000000  celldm(5)=   0.000000  celldm(6)=   0.000000

     crystal axes: (cart. coord. in units of alat)
               a(1) = (   1.016348   0.000000   0.000000 )
               a(2) = (   0.000000   1.020612   0.023821 )
               a(3) = (   0.000000   0.023821   1.020612 )

     reciprocal axes: (cart. coord. in units 2 pi/alat)
               b(1) = (  0.983915  0.000000  0.000000 )
               b(2) = (  0.000000  0.980338 -0.022881 )
               b(3) = (  0.000000 -0.022881  0.980338 )

     PseudoPot. # 1 for Ru read from file:
     /rds/homes/b/bxp912/pp/Ru.pbe-spn-kjpaw_psl.1.0.0.UPF
     MD5 check sum: 0ae1f594dea09af7be8575c3a481d1ae
     Pseudo is Projector augmented-wave + core cor, Zval = 16.0
     Generated using "atomic" code by A. Dal Corso  v.5.1
     Shape of augmentation charge: PSQ
     Using radial grid of 1233 points,  6 beta functions with:
                l(1) =   0
                l(2) =   0
                l(3) =   1
                l(4) =   1
                l(5) =   2
                l(6) =   2
     Q(r) pseudized with 0 coefficients

     atomic species   valence    mass     pseudopotential
        Ru            16.00   101.07000     Ru( 1.00)

      8 Sym. Ops., with inversion, found ( 4 have fractional translation)

   Cartesian axes

     site n.     atom                  positions (alat units)
         1           Ru  tau(   1) = (  -0.0000000  -0.0439491  -0.0439491  )
         2           Ru  tau(   2) = (   0.2747141   0.2595675  -0.0024345  )
         3           Ru  tau(   3) = (   0.2747141  -0.0024345   0.2595675  )
         4           Ru  tau(   4) = (  -0.0000000   0.1618322   0.1618322  )
         5           Ru  tau(   5) = (  -0.0000000   0.3603841   0.3603841  )
         6           Ru  tau(   6) = (  -0.0000000   0.0256237   0.4965927  )
         7           Ru  tau(   7) = (   0.2747141   0.2626489   0.5246509  )
         8           Ru  tau(   8) = (   0.2568112   0.0183649   0.7616499  )
         9           Ru  tau(   9) = (   0.0000000   0.2730185   0.7714142  )
        10           Ru  tau(  10) = (  -0.0000000   0.4965927   0.0256237  )
        11           Ru  tau(  11) = (   0.2568112   0.7616499   0.0183649  )
        12           Ru  tau(  12) = (   0.2747141   0.5246509   0.2626489  )
        13           Ru  tau(  13) = (  -0.0000000   0.7714142   0.2730185  )
        14           Ru  tau(  14) = (  -0.0000000   0.5661654   0.5661654  )
        15           Ru  tau(  15) = (   0.2568112   0.7811786   0.5276721  )
        16           Ru  tau(  16) = (   0.2568112   0.5276721   0.7811786  )
        17           Ru  tau(  17) = (   0.0000000   0.7833246   0.7833246  )
        18           Ru  tau(  18) = (   0.5081739  -0.0044107  -0.0044107  )
        19           Ru  tau(  19) = (   0.7416338   0.2595675  -0.0024345  )
        20           Ru  tau(  20) = (   0.7416338  -0.0024345   0.2595675  )
        21           Ru  tau(  21) = (   0.5081739   0.2611082   0.2611082  )
        22           Ru  tau(  22) = (   0.5081739   0.0144553   0.5077611  )
        23           Ru  tau(  23) = (   0.7416338   0.2626489   0.5246509  )
        24           Ru  tau(  24) = (   0.7595367   0.0183649   0.7616499  )
        25           Ru  tau(  25) = (   0.5081739   0.2730185   0.7714142  )
        26           Ru  tau(  26) = (   0.5081739   0.5077611   0.0144553  )
        27           Ru  tau(  27) = (   0.7595367   0.7616499   0.0183649  )
        28           Ru  tau(  28) = (   0.7416338   0.5246509   0.2626489  )
        29           Ru  tau(  29) = (   0.5081739   0.7714142   0.2730185  )
        30           Ru  tau(  30) = (   0.5081739   0.5266271   0.5266271  )
        31           Ru  tau(  31) = (   0.7595367   0.7811786   0.5276721  )
        32           Ru  tau(  32) = (   0.7595367   0.5276721   0.7811786  )
        33           Ru  tau(  33) = (   0.5081739   0.7833246   0.7833246  )

     number of k points=   125  Marzari-Vanderbilt smearing, width (Ry)=  0.0400

     Number of k-points >= 100: set verbosity='high' to print them.

     Check: negative core charge=   -0.000002

     Initial potential from superposition of free atoms

     starting charge  527.97896, renormalised to  528.00000
     Starting wfcs are  330 randomized atomic wfcs
     Checking if some PAW data can be deallocated...

     Self-consistent Calculation

     iteration #  1     ecut=    71.00 Ry     beta= 0.10
     Davidson diagonalization with overlap
     c_bands:  2 eigenvalues not converged
     c_bands:  1 eigenvalues not converged
     c_bands:  1 eigenvalues not converged
     c_bands:  1 eigenvalues not converged
     c_bands:  1 eigenvalues not converged
     c_bands:  1 eigenvalues not converged
     c_bands:  1 eigenvalues not converged
     c_bands:  1 eigenvalues not converged
     c_bands:  1 eigenvalues not converged
     c_bands:  1 eigenvalues not converged
     c_bands:  1 eigenvalues not converged
     c_bands:  1 eigenvalues not converged
     c_bands:  1 eigenvalues not converged
     c_bands:  1 eigenvalues not converged
     c_bands:  1 eigenvalues not converged
     c_bands:  1 eigenvalues not converged
     c_bands:  1 eigenvalues not converged
     c_bands:  2 eigenvalues not converged
     c_bands:  2 eigenvalues not converged
     c_bands:  1 eigenvalues not converged
     c_bands:  1 eigenvalues not converged
     c_bands:  1 eigenvalues not converged
     c_bands:  1 eigenvalues not converged
     c_bands:  1 eigenvalues not converged
     c_bands:  1 eigenvalues not converged
     c_bands:  1 eigenvalues not converged
     c_bands:  1 eigenvalues not converged
     c_bands:  1 eigenvalues not converged
     c_bands:  1 eigenvalues not converged
     c_bands:  1 eigenvalues not converged
     c_bands:  1 eigenvalues not converged
     c_bands:  2 eigenvalues not converged
     c_bands:  1 eigenvalues not converged
     c_bands:  1 eigenvalues not converged
     c_bands:  1 eigenvalues not converged
     c_bands:  1 eigenvalues not converged
     c_bands:  1 eigenvalues not converged
     c_bands:  1 eigenvalues not converged
     c_bands:  1 eigenvalues not converged
     c_bands:  1 eigenvalues not converged
     c_bands:  1 eigenvalues not converged
     c_bands:  2 eigenvalues not converged
     c_bands:  2 eigenvalues not converged
     c_bands:  1 eigenvalues not converged
     c_bands:  1 eigenvalues not converged
     ethr =  1.00E-06,  avg # of iterations = 17.2

[...]

     total energy              =  -14244.46229541 Ry
     estimated scf accuracy    <       0.00000002 Ry

     iteration # 18     ecut=    71.00 Ry     beta= 0.10
     Davidson diagonalization with overlap
     ethr =  3.74E-12,  avg # of iterations =  2.0

     End of self-consistent calculation

     Number of k-points >= 100: set verbosity='high' to print the bands.

     the Fermi energy is    22.5182 ev

!    total energy              =  -14244.46229591 Ry

     total all-electron energy =   -299051.364833 Ry
     estimated scf accuracy    <          5.4E-09 Ry
     smearing contrib. (-TS)   =      -0.00244272 Ry
     internal energy E=F+TS    =  -14244.45985320 Ry

     The total energy is F=E-TS. E is the sum of the following terms:
     one-electron contribution =   -1137.94231482 Ry
     hartree contribution      =     987.02391748 Ry
     xc contribution           =    -956.86901454 Ry
     ewald contribution        =   -5310.07026619 Ry
     one-center paw contrib.   =   -7826.60217513 Ry

     convergence has been achieved in  18 iterations

     Forces acting on atoms (cartesian axes, Ry/au):

     atom    1 type  1   force =     0.00000000   -0.00031107   -0.00031107
     atom    2 type  1   force =     0.00027756    0.00016786   -0.00003647
     atom    3 type  1   force =     0.00027756   -0.00003647    0.00016786
     atom    4 type  1   force =     0.00000000   -0.00002583   -0.00002583
     atom    5 type  1   force =     0.00000000    0.00002583    0.00002583
     atom    6 type  1   force =     0.00000000    0.00001002   -0.00001002
     atom    7 type  1   force =     0.00027756   -0.00016786    0.00003647
     atom    8 type  1   force =    -0.00032351    0.00007759   -0.00031340
     atom    9 type  1   force =     0.00000000    0.00000000    0.00000000
     atom   10 type  1   force =     0.00000000   -0.00001002    0.00001002
     atom   11 type  1   force =    -0.00032351   -0.00031340    0.00007759
     atom   12 type  1   force =     0.00027756    0.00003647   -0.00016786
     atom   13 type  1   force =     0.00000000    0.00000000    0.00000000
     atom   14 type  1   force =     0.00000000    0.00031107    0.00031107
     atom   15 type  1   force =    -0.00032351    0.00031340   -0.00007759
     atom   16 type  1   force =    -0.00032351   -0.00007759    0.00031340
     atom   17 type  1   force =     0.00000000    0.00000000    0.00000000
     atom   18 type  1   force =     0.00000000   -0.00000186   -0.00000186
     atom   19 type  1   force =    -0.00027756    0.00016786   -0.00003647
     atom   20 type  1   force =    -0.00027756   -0.00003647    0.00016786
     atom   21 type  1   force =     0.00000000    0.00000000    0.00000000
     atom   22 type  1   force =     0.00000000    0.00030040   -0.00030040
     atom   23 type  1   force =    -0.00027756   -0.00016786    0.00003647
     atom   24 type  1   force =     0.00032351    0.00007759   -0.00031340
     atom   25 type  1   force =     0.00000000    0.00000000    0.00000000
     atom   26 type  1   force =     0.00000000   -0.00030040    0.00030040
     atom   27 type  1   force =     0.00032351   -0.00031340    0.00007759
     atom   28 type  1   force =    -0.00027756    0.00003647   -0.00016786
     atom   29 type  1   force =     0.00000000    0.00000000    0.00000000
     atom   30 type  1   force =     0.00000000    0.00000186    0.00000186
     atom   31 type  1   force =     0.00032351    0.00031340   -0.00007759
     atom   32 type  1   force =     0.00032351   -0.00007759    0.00031340
     atom   33 type  1   force =     0.00000000    0.00000000    0.00000000

     Total force =     0.001810     Total SCF correction =     0.000297
     SCF correction compared to forces is large: reduce conv_thr to get better values

     Computing stress (Cartesian axis) and pressure

          total   stress  (Ry/bohr**3)                   (kbar)     P=        1.71
   0.00001248   0.00000000   0.00000000            1.84        0.00        0.00
   0.00000000   0.00001124   0.00000691            0.00        1.65        1.02
   0.00000000   0.00000691   0.00001124            0.00        1.02        1.65

     Writing output data file /scratch/ru1102.save/

     General routines

     Parallel routines

   This run was terminated on:   5:32:28   4Jan2022

   JOB DONE.