     Program PWSCF v.6.7MaX starts on  2Jan2022 at 21:10:33

     R & G space division:  proc/nbgrp/npool/nimage =      72
     Reading input from ru_100_1.in
Warning: card &CELL ignored
Warning: card CELL_DYNAMICS = 'BFGS', ignored
Warning: card CELL_FACTOR = 2.0, ignored
Warning: card PRESS = 0.0, ignored
Warning: card / ignored

     Current dimensions of program PWSCF are:
     Max number of different atomic species (ntypx) = 10
     Max number of k-points (npk) =  40000
     Max angular momentum in pseudopotentials (lmaxx) =  3
     file Ru.pbe-spn-kjpaw_psl.1.0.0.UPF: wavefunction(s)  4D renormalized

     Subspace diagonalization in iterative solution of the eigenvalue problem:
     one sub-group per band group will be used

     Message from routine setup:
     using ibrav=0 with symmetry is DISCOURAGED, use correct ibrav instead

     bravais-lattice index     =            0
     lattice parameter (alat)  =      14.4007  a.u.
     unit-cell volume          =    2986.4454 (a.u.)^3
     number of atoms/cell      =           33
     number of atomic types    =            1
     number of electrons       =       528.00
     number of Kohn-Sham states=          317
     kinetic-energy cutoff     =      71.0000  Ry
     charge density cutoff     =     430.0000  Ry
     scf convergence threshold =      1.0E-06
     mixing beta               =       0.1000
     number of iterations used =           10  TF        mixing
     Exchange-correlation= SLA  PW   PBX  PBC
                           (   1   4   3   4   0   0   0)

     celldm(1)=  14.400742  celldm(2)=   0.000000  celldm(3)=   0.000000
     celldm(4)=   0.000000  celldm(5)=   0.000000  celldm(6)=   0.000000

     crystal axes: (cart. coord. in units of alat)
               a(1) = (   1.000000   0.000000   0.000000 )
               a(2) = (   0.000000   1.000000   0.000000 )
               a(3) = (   0.000000   0.000000   1.000000 )

     reciprocal axes: (cart. coord. in units 2 pi/alat)
               b(1) = (  1.000000  0.000000  0.000000 )
               b(2) = (  0.000000  1.000000  0.000000 )
               b(3) = (  0.000000  0.000000  1.000000 )

     PseudoPot. # 1 for Ru read from file:
     /rds/homes/b/bxp912/pp/Ru.pbe-spn-kjpaw_psl.1.0.0.UPF
     MD5 check sum: 0ae1f594dea09af7be8575c3a481d1ae
     Pseudo is Projector augmented-wave + core cor, Zval = 16.0
     Generated using "atomic" code by A. Dal Corso  v.5.1
     Shape of augmentation charge: PSQ
     Using radial grid of 1233 points,  6 beta functions with:
                l(1) =   0
                l(2) =   0
                l(3) =   1
                l(4) =   1
                l(5) =   2
                l(6) =   2
     Q(r) pseudized with 0 coefficients

     atomic species   valence    mass     pseudopotential
        Ru            16.00   101.07000     Ru( 1.00)

     16 Sym. Ops., with inversion, found (14 have fractional translation)

   Cartesian axes

     site n.     atom                  positions (alat units)
         1           Ru  tau(   1) = (   0.0000000   0.0000000   0.0000000  )
         2           Ru  tau(   2) = (   0.2500000   0.2500000   0.0000000  )
         3           Ru  tau(   3) = (   0.2500000   0.0000000   0.2500000  )
         4           Ru  tau(   4) = (   0.0000000   0.1000000   0.2500000  )
         5           Ru  tau(   5) = (   0.0000000   0.4000000   0.2500000  )
         6           Ru  tau(   6) = (   0.0000000   0.0000000   0.5000000  )
         7           Ru  tau(   7) = (   0.2500000   0.2500000   0.5000000  )
         8           Ru  tau(   8) = (   0.2500000   0.0000000   0.7500000  )
         9           Ru  tau(   9) = (   0.0000000   0.2500000   0.7500000  )
        10           Ru  tau(  10) = (   0.0000000   0.5000000   0.0000000  )
        11           Ru  tau(  11) = (   0.2500000   0.7500000   0.0000000  )
        12           Ru  tau(  12) = (   0.2500000   0.5000000   0.2500000  )
        13           Ru  tau(  13) = (   0.0000000   0.7500000   0.2500000  )
        14           Ru  tau(  14) = (   0.0000000   0.5000000   0.5000000  )
        15           Ru  tau(  15) = (   0.2500000   0.7500000   0.5000000  )
        16           Ru  tau(  16) = (   0.2500000   0.5000000   0.7500000  )
        17           Ru  tau(  17) = (   0.0000000   0.7500000   0.7500000  )
        18           Ru  tau(  18) = (   0.5000000   0.0000000   0.0000000  )
        19           Ru  tau(  19) = (   0.7500000   0.2500000   0.0000000  )
        20           Ru  tau(  20) = (   0.7500000   0.0000000   0.2500000  )
        21           Ru  tau(  21) = (   0.5000000   0.2500000   0.2500000  )
        22           Ru  tau(  22) = (   0.5000000   0.0000000   0.5000000  )
        23           Ru  tau(  23) = (   0.7500000   0.2500000   0.5000000  )
        24           Ru  tau(  24) = (   0.7500000   0.0000000   0.7500000  )
        25           Ru  tau(  25) = (   0.5000000   0.2500000   0.7500000  )
        26           Ru  tau(  26) = (   0.5000000   0.5000000   0.0000000  )
        27           Ru  tau(  27) = (   0.7500000   0.7500000   0.0000000  )
        28           Ru  tau(  28) = (   0.7500000   0.5000000   0.2500000  )
        29           Ru  tau(  29) = (   0.5000000   0.7500000   0.2500000  )
        30           Ru  tau(  30) = (   0.5000000   0.5000000   0.5000000  )
        31           Ru  tau(  31) = (   0.7500000   0.7500000   0.5000000  )
        32           Ru  tau(  32) = (   0.7500000   0.5000000   0.7500000  )
        33           Ru  tau(  33) = (   0.5000000   0.7500000   0.7500000  )

     number of k points=    75  Marzari-Vanderbilt smearing, width (Ry)=  0.0400
                       cart. coord. in units 2pi/alat
        k(    1) = (   0.0555556   0.0555556   0.0555556), wk =   0.0219479
        k(    2) = (   0.0555556   0.0555556   0.1666667), wk =   0.0438957
        k(    3) = (   0.0555556   0.0555556   0.2777778), wk =   0.0438957
        k(    4) = (   0.0555556   0.0555556   0.3888889), wk =   0.0438957
        k(    5) = (   0.0555556   0.0555556  -0.5000000), wk =   0.0219479
        k(    6) = (   0.0555556   0.1666667   0.1666667), wk =   0.0438957
        k(    7) = (   0.0555556   0.1666667   0.2777778), wk =   0.0438957
        k(    8) = (   0.0555556   0.1666667   0.3888889), wk =   0.0438957
        k(    9) = (   0.0555556   0.1666667  -0.5000000), wk =   0.0219479
        k(   10) = (   0.0555556   0.2777778   0.2777778), wk =   0.0438957
        k(   11) = (   0.0555556   0.2777778   0.3888889), wk =   0.0438957
        k(   12) = (   0.0555556   0.2777778  -0.5000000), wk =   0.0219479
        k(   13) = (   0.0555556   0.3888889   0.3888889), wk =   0.0438957
        k(   14) = (   0.0555556   0.3888889  -0.5000000), wk =   0.0219479
        k(   15) = (   0.0555556  -0.5000000  -0.5000000), wk =   0.0109739
        k(   16) = (   0.1666667   0.1666667   0.1666667), wk =   0.0219479
        k(   17) = (   0.1666667   0.1666667   0.2777778), wk =   0.0438957
        k(   18) = (   0.1666667   0.1666667   0.3888889), wk =   0.0438957
        k(   19) = (   0.1666667   0.1666667  -0.5000000), wk =   0.0219479
        k(   20) = (   0.1666667   0.2777778   0.2777778), wk =   0.0438957
        k(   21) = (   0.1666667   0.2777778   0.3888889), wk =   0.0438957
        k(   22) = (   0.1666667   0.2777778  -0.5000000), wk =   0.0219479
        k(   23) = (   0.1666667   0.3888889   0.3888889), wk =   0.0438957
        k(   24) = (   0.1666667   0.3888889  -0.5000000), wk =   0.0219479
        k(   25) = (   0.1666667  -0.5000000  -0.5000000), wk =   0.0109739
        k(   26) = (   0.2777778   0.2777778   0.2777778), wk =   0.0219479
        k(   27) = (   0.2777778   0.2777778   0.3888889), wk =   0.0438957
        k(   28) = (   0.2777778   0.2777778  -0.5000000), wk =   0.0219479
        k(   29) = (   0.2777778   0.3888889   0.3888889), wk =   0.0438957
        k(   30) = (   0.2777778   0.3888889  -0.5000000), wk =   0.0219479
        k(   31) = (   0.2777778  -0.5000000  -0.5000000), wk =   0.0109739
        k(   32) = (   0.3888889   0.3888889   0.3888889), wk =   0.0219479
        k(   33) = (   0.3888889   0.3888889  -0.5000000), wk =   0.0219479
        k(   34) = (   0.3888889  -0.5000000  -0.5000000), wk =   0.0109739
        k(   35) = (  -0.5000000  -0.5000000  -0.5000000), wk =   0.0027435
        k(   36) = (   0.0555556   0.1666667   0.0555556), wk =   0.0219479
        k(   37) = (   0.0555556   0.2777778   0.0555556), wk =   0.0219479
        k(   38) = (   0.0555556   0.3888889   0.0555556), wk =   0.0219479
        k(   39) = (   0.0555556  -0.5000000   0.0555556), wk =   0.0109739
        k(   40) = (   0.1666667   0.0555556   0.1666667), wk =   0.0219479
        k(   41) = (   0.1666667   0.2777778   0.0555556), wk =   0.0438957
        k(   42) = (   0.2777778   0.0555556   0.1666667), wk =   0.0438957
        k(   43) = (   0.1666667   0.3888889   0.0555556), wk =   0.0438957
        k(   44) = (   0.3888889   0.0555556   0.1666667), wk =   0.0438957
        k(   45) = (   0.1666667  -0.5000000   0.0555556), wk =   0.0219479
        k(   46) = (  -0.5000000   0.0555556   0.1666667), wk =   0.0219479
        k(   47) = (   0.2777778   0.0555556   0.2777778), wk =   0.0219479
        k(   48) = (   0.2777778   0.3888889   0.0555556), wk =   0.0438957
        k(   49) = (   0.3888889   0.0555556   0.2777778), wk =   0.0438957
        k(   50) = (   0.2777778  -0.5000000   0.0555556), wk =   0.0219479
        k(   51) = (  -0.5000000   0.0555556   0.2777778), wk =   0.0219479
        k(   52) = (   0.3888889   0.0555556   0.3888889), wk =   0.0219479
        k(   53) = (   0.3888889  -0.5000000   0.0555556), wk =   0.0219479
        k(   54) = (  -0.5000000   0.0555556   0.3888889), wk =   0.0219479
        k(   55) = (  -0.5000000   0.0555556  -0.5000000), wk =   0.0054870
        k(   56) = (   0.1666667   0.2777778   0.1666667), wk =   0.0219479
        k(   57) = (   0.1666667   0.3888889   0.1666667), wk =   0.0219479
        k(   58) = (   0.1666667  -0.5000000   0.1666667), wk =   0.0109739
        k(   59) = (   0.2777778   0.1666667   0.2777778), wk =   0.0219479
        k(   60) = (   0.2777778   0.3888889   0.1666667), wk =   0.0438957
        k(   61) = (   0.3888889   0.1666667   0.2777778), wk =   0.0438957
        k(   62) = (   0.2777778  -0.5000000   0.1666667), wk =   0.0219479
        k(   63) = (  -0.5000000   0.1666667   0.2777778), wk =   0.0219479
        k(   64) = (   0.3888889   0.1666667   0.3888889), wk =   0.0219479
        k(   65) = (   0.3888889  -0.5000000   0.1666667), wk =   0.0219479
        k(   66) = (  -0.5000000   0.1666667   0.3888889), wk =   0.0219479
        k(   67) = (  -0.5000000   0.1666667  -0.5000000), wk =   0.0054870
        k(   68) = (   0.2777778   0.3888889   0.2777778), wk =   0.0219479
        k(   69) = (   0.2777778  -0.5000000   0.2777778), wk =   0.0109739
        k(   70) = (   0.3888889   0.2777778   0.3888889), wk =   0.0219479
        k(   71) = (   0.3888889  -0.5000000   0.2777778), wk =   0.0219479
        k(   72) = (  -0.5000000   0.2777778   0.3888889), wk =   0.0219479
        k(   73) = (  -0.5000000   0.2777778  -0.5000000), wk =   0.0054870
        k(   74) = (   0.3888889  -0.5000000   0.3888889), wk =   0.0109739
        k(   75) = (  -0.5000000   0.3888889  -0.5000000), wk =   0.0054870

     Check: negative core charge=   -0.000002

     Initial potential from superposition of free atoms

     starting charge  527.97896, renormalised to  528.00000
     Starting wfcs are  330 randomized atomic wfcs
     Checking if some PAW data can be deallocated...

     Self-consistent Calculation

     iteration #  1     ecut=    71.00 Ry     beta= 0.10
     Davidson diagonalization with overlap
     ethr =  1.00E-02,  avg # of iterations =  4.1

     Threshold (ethr) on eigenvalues was too large:
     Diagonalizing with lowered threshold

     Davidson diagonalization with overlap
     ethr =  3.19E-04,  avg # of iterations =  4.7

     total energy              =  -14243.82826098 Ry
     estimated scf accuracy    <       1.84631192 Ry

[...]

     iteration #  4     ecut=    71.00 Ry     beta= 0.10
     Davidson diagonalization with overlap
     c_bands:  1 eigenvalues not converged
     c_bands:  2 eigenvalues not converged
     ethr =  3.98E-05,  avg # of iterations =  4.2

[...]

     total energy              =  -14243.65674280 Ry
     estimated scf accuracy    <       0.00000249 Ry

     iteration # 15     ecut=    71.00 Ry     beta= 0.10
     Davidson diagonalization with overlap
     ethr =  4.73E-10,  avg # of iterations =  2.0

     End of self-consistent calculation

          k = 0.0556 0.0556 0.0556 ( 30224 PWs)   bands (ev):

   -50.9043 -50.7551 -49.1396 -49.1396 -49.1354 -49.1354 -49.1030 -49.0979
   -49.0184 -48.9747 -48.8643 -48.8093 -48.7867 -48.7825 -48.7679 -48.7664
   -48.7641 -48.7519 -48.7434 -48.7420 -48.7401 -48.7400 -48.7295 -48.7118
   -48.7117 -48.7102 -48.7017 -48.6864 -48.6795 -48.6681 -48.6558 -48.6558
   -48.6433 -22.1615 -22.1615 -22.0724 -22.0724 -21.6323 -20.8928 -19.5703
   -19.5252 -19.4594 -19.3741 -19.3733 -19.3631 -19.2944 -19.2726 -19.2316
   -19.2303 -19.2224 -19.1817 -19.1808 -19.1182 -19.1155 -19.1141 -19.1017
   -19.0948 -19.0822 -19.0785 -19.0750 -19.0554 -19.0274 -19.0225 -18.9888
   -18.9824 -18.9747 -18.9725 -18.9687 -18.9546 -18.9334 -18.9294 -18.9158
   -18.8753 -18.8706 -18.8526 -18.8444 -18.8429 -18.8304 -18.8148 -18.8118
   -18.7995 -18.7928 -18.7646 -18.7645 -18.7601 -18.7138 -18.7099 -18.7040
   -18.6997 -18.6927 -18.6916 -18.6902 -18.6877 -18.6837 -18.6668 -18.6647
   -18.6385 -18.6280 -18.6220 -18.6184 -18.5645 -18.5624 -18.5577 -18.5545
   -18.5482 -18.5305 -18.5274 -18.5242 -18.5214 -18.5173 -18.5172 -18.4843
   -18.4810 -18.4767 -18.4753 -18.4691 -18.4664 -18.4648 -18.4591 -18.4578
   -18.4513 -18.4495 -18.4467 -18.4454 -18.4420 -18.3843 -18.3819 -18.3594
   -18.3065 -18.3058 -18.2916 -18.2891  15.8806  15.9328  16.2110  16.2995
    16.5192  16.5213  16.7609  17.3764  17.5257  17.5332  17.7331  17.8655
    17.9051  17.9562  18.0930  18.3077  18.3444  18.3451  18.3927  18.5691
    18.6041  18.6465  18.7284  18.7442  18.7966  18.9359  19.1002  19.1130
    19.2111  19.2916  19.3125  19.4505  19.4801  19.5519  19.6072  19.6239
    19.6375  19.7060  19.7664  19.7885  19.8065  19.8975  19.9058  19.9807
    19.9808  20.0413  20.0662  20.0939  20.2141  20.2876  20.3317  20.3323
    20.3774  20.3885  20.4115  20.4252  20.4532  20.4714  20.5045  20.5332
    20.5570  20.6158  20.6298  20.7053  20.7215  20.7304  20.7585  20.7935
    20.8170  20.8369  20.8383  20.8656  20.9095  20.9311  20.9671  20.9791
    21.0725  21.1209  21.1665  21.1716  21.3566  21.3834  21.3958  21.4064
    21.4141  21.4333  21.4770  21.7228  21.8538  21.8907  21.9872  22.0202
    22.0494  22.1609  22.2160  22.3817  22.4382  22.6105  22.6191  22.7028
    22.7417  22.7480  22.7516  22.8405  22.8569  22.8570  22.8797  22.8813
    22.9532  23.0023  23.0286  23.0329  23.1282  23.1781  23.2965  23.3324
    23.3732  23.4001  23.4326  23.4590  23.4785  23.5109  23.5186  23.5438
    23.5759  23.6064  23.6226  23.6792  23.7012  23.7449  23.7570  23.8296
    23.8307  23.8613  23.9406  24.1240  24.2095  24.3041  24.3287  24.3952
    24.4328  24.5814  24.6520  24.6524  24.7360  24.8049  24.8074  24.8509
    25.1677  25.2141  25.3429  25.4250  25.5057  25.5149  25.5654  25.6374
    25.6441  25.6924  25.6937  25.8072  25.8519  25.8559  25.9298  26.0531
    26.0978  26.1350  26.1460  26.2043  26.2107  26.2369  26.2508  26.3265
    26.3373  26.4986  26.5228  26.6483  27.5152  27.5528  27.6697  27.6998
    27.7411  27.9621  27.9663  28.1752  28.1903

[...]

          k =-0.5000-0.5000-0.5000 ( 30280 PWs)   bands (ev):

[...]

          k = 0.3889-0.5000 0.3889 ( 30162 PWs)   bands (ev):

[...]

          k =-0.5000 0.3889-0.5000 ( 30188 PWs)   bands (ev):

   -50.9037 -50.7556 -49.1437 -49.1437 -49.1405 -49.1405 -49.0961 -49.0959
   -48.9949 -48.9798 -48.8574 -48.8248 -48.7958 -48.7958 -48.7812 -48.7812
   -48.7609 -48.7545 -48.7269 -48.7269 -48.7264 -48.7125 -48.7123 -48.7102
   -48.7081 -48.7081 -48.7052 -48.7022 -48.7022 -48.6647 -48.6553 -48.6553
   -48.6533 -22.1618 -22.1618 -22.0753 -22.0753 -21.6521 -20.8531 -19.5637
   -19.5051 -19.3600 -19.3389 -19.3283 -19.2760 -19.2760 -19.2633 -19.2633
   -19.2507 -19.2138 -19.2138 -19.2135 -19.1727 -19.1699 -19.1641 -19.1607
   -19.1501 -19.1501 -19.1497 -19.1345 -19.1345 -19.0746 -19.0527 -19.0257
   -19.0257 -18.9454 -18.9293 -18.9240 -18.9240 -18.9062 -18.8715 -18.8542
   -18.8433 -18.8433 -18.8380 -18.8176 -18.8152 -18.8152 -18.7818 -18.7667
   -18.7667 -18.7450 -18.7304 -18.7280 -18.7205 -18.7028 -18.7028 -18.7013
   -18.7013 -18.6983 -18.6796 -18.6796 -18.6764 -18.6564 -18.6564 -18.6545
   -18.6545 -18.6464 -18.6164 -18.6096 -18.6037 -18.6037 -18.5887 -18.5886
   -18.5764 -18.5764 -18.5764 -18.5645 -18.5635 -18.5576 -18.5576 -18.5427
   -18.4937 -18.4937 -18.4724 -18.4534 -18.4534 -18.4494 -18.4290 -18.4290
   -18.4245 -18.4241 -18.4060 -18.4060 -18.4058 -18.4006 -18.3971 -18.3959
   -18.3082 -18.3082 -18.2820 -18.2820  16.0101  16.2062  16.3472  16.3472
    16.5204  16.9453  17.0830  17.4850  17.6365  17.6365  17.7256  17.8875
    17.8875  18.0208  18.0523  18.3079  18.3079  18.3148  18.7331  18.7331
    18.7944  18.7944  18.8169  18.8427  18.8553  18.8553  18.8823  18.8958
    18.9202  18.9364  19.0123  19.1691  19.1830  19.1830  19.2718  19.2718
    19.3134  19.3930  19.3930  19.5196  19.5314  19.6133  19.7419  19.7419
    19.7571  19.7791  19.7791  19.8332  19.8473  19.8624  19.9687  19.9687
    20.1017  20.1193  20.1663  20.1757  20.1757  20.4148  20.4148  20.4476
    20.5577  20.7094  20.7457  20.7457  20.7611  21.1835  21.1900  21.1900
    21.3247  21.4106  21.4106  21.5038  21.5672  21.6076  21.6076  21.6840
    21.6840  21.6863  21.7320  21.7565  21.7591  21.7888  21.7888  21.8758
    21.8878  21.8944  21.8946  21.8946  21.9294  21.9352  21.9383  21.9770
    21.9833  21.9833  22.0000  22.0000  22.0985  22.1318  22.1318  22.1447
    22.1855  22.2809  22.3394  22.3394  22.4285  22.4285  22.4656  22.6030
    22.6715  22.7504  22.7504  22.9373  22.9585  22.9775  22.9916  23.0648
    23.0648  23.1033  23.1655  23.1655  23.2195  23.4694  23.5272  23.5272
    23.5586  23.6145  23.6145  23.6304  23.6489  23.7859  23.8269  23.8326
    23.8819  23.8837  23.8837  23.9482  23.9482  23.9547  24.0751  24.0751
    24.4036  24.6204  24.6612  24.6612  24.8516  24.8516  25.0873  25.4221
    25.4221  25.4252  25.4730  25.5587  25.6734  25.6910  25.6937  25.6937
    25.7162  25.7240  25.7388  25.8096  25.8096  25.8377  25.8571  25.8571
    25.8904  25.9006  25.9006  25.9183  26.1573  26.1573  26.3554  26.6395
    27.1006  28.0737  28.0867  28.0867  28.3081  28.7894  28.8405  28.8405
    28.8863  28.9807  28.9807  29.0112  29.1178

     the Fermi energy is    24.1201 ev

!    total energy              =  -14243.65674433 Ry

     total all-electron energy =   -299050.559282 Ry
     estimated scf accuracy    <       0.00000007 Ry
     smearing contrib. (-TS)   =       0.01857354 Ry
     internal energy E=F+TS    =  -14243.67531787 Ry

     The total energy is F=E-TS. E is the sum of the following terms:
     one-electron contribution =   -1061.33746789 Ry
     hartree contribution      =     977.78384600 Ry
     xc contribution           =    -959.86735195 Ry
     ewald contribution        =   -5373.52820564 Ry
     one-center paw contrib.   =   -7826.72613839 Ry

     convergence has been achieved in  15 iterations

     Forces acting on atoms (cartesian axes, Ry/au):

     atom    1 type  1   force =     0.00000000   -0.14453223   -0.41814758
     atom    2 type  1   force =     0.01302442    0.00000000   -0.01302442
     atom    3 type  1   force =     0.41814758   -0.14453223    0.00000000
     atom    4 type  1   force =     0.00000000    0.47049089    0.00000000
     atom    5 type  1   force =    -0.00000000   -0.47049089    0.00000000
     atom    6 type  1   force =     0.00000000   -0.14453223    0.41814758
     atom    7 type  1   force =     0.01302442    0.00000000    0.01302442
     atom    8 type  1   force =    -0.00277483   -0.00334693    0.00000000
     atom    9 type  1   force =     0.00000000    0.00000000    0.00000000
     atom   10 type  1   force =     0.00000000    0.14453223   -0.41814758
     atom   11 type  1   force =     0.01999596    0.00000000   -0.01999596
     atom   12 type  1   force =     0.41814758    0.14453223   -0.00000000
     atom   13 type  1   force =     0.00000000    0.00000000    0.00000000
     atom   14 type  1   force =     0.00000000    0.14453223    0.41814758
     atom   15 type  1   force =     0.01999596    0.00000000    0.01999596
     atom   16 type  1   force =    -0.00277483    0.00334693    0.00000000
     atom   17 type  1   force =     0.00000000    0.00000000    0.00000000
     atom   18 type  1   force =     0.00000000   -0.00334693    0.00277483
     atom   19 type  1   force =    -0.01302442    0.00000000   -0.01302442
     atom   20 type  1   force =    -0.41814758   -0.14453223   -0.00000000
     atom   21 type  1   force =     0.00000000    0.00000000    0.00000000
     atom   22 type  1   force =    -0.00000000   -0.00334693   -0.00277483
     atom   23 type  1   force =    -0.01302442    0.00000000    0.01302442
     atom   24 type  1   force =     0.00277483   -0.00334693    0.00000000
     atom   25 type  1   force =     0.00000000    0.00000000    0.00000000
     atom   26 type  1   force =     0.00000000    0.00334693    0.00277483
     atom   27 type  1   force =    -0.01999596    0.00000000   -0.01999596
     atom   28 type  1   force =    -0.41814758    0.14453223    0.00000000
     atom   29 type  1   force =     0.00000000    0.00000000    0.00000000
     atom   30 type  1   force =     0.00000000    0.00334693   -0.00277483
     atom   31 type  1   force =    -0.01999596    0.00000000    0.01999596
     atom   32 type  1   force =     0.00277483    0.00334693    0.00000000
     atom   33 type  1   force =     0.00000000    0.00000000    0.00000000

     Total force =     1.418917     Total SCF correction =     0.000961

     Computing stress (Cartesian axis) and pressure

          total   stress  (Ry/bohr**3)                   (kbar)     P=      283.83
   0.00215265   0.00000000   0.00000000          316.67        0.00        0.00
   0.00000000   0.00148310   0.00000000            0.00      218.17        0.00
   0.00000000   0.00000000   0.00215265            0.00        0.00      316.67

     Writing output data file /scratch/ru1001.save/

     General routines

     Parallel routines

   This run was terminated on:  21:30:19   2Jan2022

   JOB DONE.