     Program PWSCF v.6.7MaX starts on  2Jan2022 at 21:46:25

     R & G space division:  proc/nbgrp/npool/nimage =      72
     Reading input from ru_111_1.in
Warning: card &CELL ignored
Warning: card CELL_DYNAMICS = 'BFGS', ignored
Warning: card CELL_FACTOR = 2.0, ignored
Warning: card PRESS = 0.0, ignored
Warning: card / ignored

     Current dimensions of program PWSCF are:
     Max number of different atomic species (ntypx) = 10
     Max number of k-points (npk) =  40000
     Max angular momentum in pseudopotentials (lmaxx) =  3
     file Ru.pbe-spn-kjpaw_psl.1.0.0.UPF: wavefunction(s)  4D renormalized

     Subspace diagonalization in iterative solution of the eigenvalue problem:
     one sub-group per band group will be used

     Message from routine setup:
     using ibrav=0 with symmetry is DISCOURAGED, use correct ibrav instead

     bravais-lattice index     =            0
     lattice parameter (alat)  =      14.4007  a.u.
     unit-cell volume          =    2986.4454 (a.u.)^3
     number of atoms/cell      =           33
     number of atomic types    =            1
     number of electrons       =       528.00
     number of Kohn-Sham states=          317
     kinetic-energy cutoff     =      71.0000  Ry
     charge density cutoff     =     430.0000  Ry
     scf convergence threshold =      1.0E-06
     mixing beta               =       0.1000
     number of iterations used =           10  TF        mixing
     Exchange-correlation= SLA  PW   PBX  PBC
                           (   1   4   3   4   0   0   0)

     celldm(1)=  14.400742  celldm(2)=   0.000000  celldm(3)=   0.000000
     celldm(4)=   0.000000  celldm(5)=   0.000000  celldm(6)=   0.000000

     crystal axes: (cart. coord. in units of alat)
               a(1) = (   1.000000   0.000000   0.000000 )
               a(2) = (   0.000000   1.000000   0.000000 )
               a(3) = (   0.000000   0.000000   1.000000 )

     reciprocal axes: (cart. coord. in units 2 pi/alat)
               b(1) = (  1.000000  0.000000  0.000000 )
               b(2) = (  0.000000  1.000000  0.000000 )
               b(3) = (  0.000000  0.000000  1.000000 )

     PseudoPot. # 1 for Ru read from file:
     /rds/homes/b/bxp912/pp/Ru.pbe-spn-kjpaw_psl.1.0.0.UPF
     MD5 check sum: 0ae1f594dea09af7be8575c3a481d1ae
     Pseudo is Projector augmented-wave + core cor, Zval = 16.0
     Generated using "atomic" code by A. Dal Corso  v.5.1
     Shape of augmentation charge: PSQ
     Using radial grid of 1233 points,  6 beta functions with:
                l(1) =   0
                l(2) =   0
                l(3) =   1
                l(4) =   1
                l(5) =   2
                l(6) =   2
     Q(r) pseudized with 0 coefficients

     atomic species   valence    mass     pseudopotential
        Ru            16.00   101.07000     Ru( 1.00)

     12 Sym. Ops., with inversion, found

   Cartesian axes

     site n.     atom                  positions (alat units)
         1           Ru  tau(   1) = (   0.1250000   0.1250000   0.1250000  )
         2           Ru  tau(   2) = (   0.8750000   0.8750000   0.8750000  )
         3           Ru  tau(   3) = (   0.2500000   0.2500000   0.0000000  )
         4           Ru  tau(   4) = (   0.2500000   0.0000000   0.2500000  )
         5           Ru  tau(   5) = (   0.0000000   0.2500000   0.2500000  )
         6           Ru  tau(   6) = (   0.0000000   0.0000000   0.5000000  )
         7           Ru  tau(   7) = (   0.2500000   0.2500000   0.5000000  )
         8           Ru  tau(   8) = (   0.2500000   0.0000000   0.7500000  )
         9           Ru  tau(   9) = (   0.0000000   0.2500000   0.7500000  )
        10           Ru  tau(  10) = (   0.0000000   0.5000000   0.0000000  )
        11           Ru  tau(  11) = (   0.2500000   0.7500000   0.0000000  )
        12           Ru  tau(  12) = (   0.2500000   0.5000000   0.2500000  )
        13           Ru  tau(  13) = (   0.0000000   0.7500000   0.2500000  )
        14           Ru  tau(  14) = (   0.0000000   0.5000000   0.5000000  )
        15           Ru  tau(  15) = (   0.2500000   0.7500000   0.5000000  )
        16           Ru  tau(  16) = (   0.2500000   0.5000000   0.7500000  )
        17           Ru  tau(  17) = (   0.0000000   0.7500000   0.7500000  )
        18           Ru  tau(  18) = (   0.5000000   0.0000000   0.0000000  )
        19           Ru  tau(  19) = (   0.7500000   0.2500000   0.0000000  )
        20           Ru  tau(  20) = (   0.7500000   0.0000000   0.2500000  )
        21           Ru  tau(  21) = (   0.5000000   0.2500000   0.2500000  )
        22           Ru  tau(  22) = (   0.5000000   0.0000000   0.5000000  )
        23           Ru  tau(  23) = (   0.7500000   0.2500000   0.5000000  )
        24           Ru  tau(  24) = (   0.7500000   0.0000000   0.7500000  )
        25           Ru  tau(  25) = (   0.5000000   0.2500000   0.7500000  )
        26           Ru  tau(  26) = (   0.5000000   0.5000000   0.0000000  )
        27           Ru  tau(  27) = (   0.7500000   0.7500000   0.0000000  )
        28           Ru  tau(  28) = (   0.7500000   0.5000000   0.2500000  )
        29           Ru  tau(  29) = (   0.5000000   0.7500000   0.2500000  )
        30           Ru  tau(  30) = (   0.5000000   0.5000000   0.5000000  )
        31           Ru  tau(  31) = (   0.7500000   0.7500000   0.5000000  )
        32           Ru  tau(  32) = (   0.7500000   0.5000000   0.7500000  )
        33           Ru  tau(  33) = (   0.5000000   0.7500000   0.7500000  )

     number of k points=    85  Marzari-Vanderbilt smearing, width (Ry)=  0.0400
                       cart. coord. in units 2pi/alat
        k(    1) = (   0.0555556   0.0555556   0.0555556), wk =   0.0054870
        k(    2) = (   0.0555556   0.0555556   0.1666667), wk =   0.0164609
        k(    3) = (   0.0555556   0.0555556   0.2777778), wk =   0.0164609
        k(    4) = (   0.0555556   0.0555556   0.3888889), wk =   0.0164609
        k(    5) = (   0.0555556   0.0555556  -0.5000000), wk =   0.0164609
        k(    6) = (   0.0555556   0.1666667   0.1666667), wk =   0.0164609
        k(    7) = (   0.0555556   0.1666667   0.2777778), wk =   0.0329218
        k(    8) = (   0.0555556   0.1666667   0.3888889), wk =   0.0329218
        k(    9) = (   0.0555556   0.1666667  -0.5000000), wk =   0.0329218
        k(   10) = (   0.0555556   0.2777778   0.2777778), wk =   0.0164609
        k(   11) = (   0.0555556   0.2777778   0.3888889), wk =   0.0329218
        k(   12) = (   0.0555556   0.2777778  -0.5000000), wk =   0.0329218
        k(   13) = (   0.0555556   0.3888889   0.3888889), wk =   0.0164609
        k(   14) = (   0.0555556   0.3888889  -0.5000000), wk =   0.0329218
        k(   15) = (   0.0555556  -0.5000000  -0.5000000), wk =   0.0164609
        k(   16) = (   0.1666667   0.1666667   0.1666667), wk =   0.0054870
        k(   17) = (   0.1666667   0.1666667   0.2777778), wk =   0.0164609
        k(   18) = (   0.1666667   0.1666667   0.3888889), wk =   0.0164609
        k(   19) = (   0.1666667   0.1666667  -0.5000000), wk =   0.0164609
        k(   20) = (   0.1666667   0.2777778   0.2777778), wk =   0.0164609
        k(   21) = (   0.1666667   0.2777778   0.3888889), wk =   0.0329218
        k(   22) = (   0.1666667   0.2777778  -0.5000000), wk =   0.0329218
        k(   23) = (   0.1666667   0.3888889   0.3888889), wk =   0.0164609
        k(   24) = (   0.1666667   0.3888889  -0.5000000), wk =   0.0329218
        k(   25) = (   0.1666667  -0.5000000  -0.5000000), wk =   0.0164609
        k(   26) = (   0.2777778   0.2777778   0.2777778), wk =   0.0054870
        k(   27) = (   0.2777778   0.2777778   0.3888889), wk =   0.0164609
        k(   28) = (   0.2777778   0.2777778  -0.5000000), wk =   0.0164609
        k(   29) = (   0.2777778   0.3888889   0.3888889), wk =   0.0164609
        k(   30) = (   0.2777778   0.3888889  -0.5000000), wk =   0.0329218
        k(   31) = (   0.2777778  -0.5000000  -0.5000000), wk =   0.0164609
        k(   32) = (   0.3888889   0.3888889   0.3888889), wk =   0.0054870
        k(   33) = (   0.3888889   0.3888889  -0.5000000), wk =   0.0164609
        k(   34) = (   0.3888889  -0.5000000  -0.5000000), wk =   0.0164609
        k(   35) = (  -0.5000000  -0.5000000  -0.5000000), wk =   0.0027435
        k(   36) = (  -0.0555556   0.0555556   0.0555556), wk =   0.0164609
        k(   37) = (  -0.0555556   0.1666667   0.0555556), wk =   0.0329218
        k(   38) = (   0.0555556  -0.1666667   0.0555556), wk =   0.0164609
        k(   39) = (  -0.0555556   0.2777778   0.0555556), wk =   0.0329218
        k(   40) = (   0.0555556  -0.2777778   0.0555556), wk =   0.0164609
        k(   41) = (  -0.0555556   0.3888889   0.0555556), wk =   0.0329218
        k(   42) = (   0.0555556  -0.3888889   0.0555556), wk =   0.0164609
        k(   43) = (  -0.0555556  -0.5000000   0.0555556), wk =   0.0164609
        k(   44) = (  -0.0555556   0.1666667   0.1666667), wk =   0.0164609
        k(   45) = (   0.0555556   0.1666667  -0.1666667), wk =   0.0329218
        k(   46) = (  -0.0555556   0.2777778   0.1666667), wk =   0.0329218
        k(   47) = (   0.0555556   0.2777778  -0.1666667), wk =   0.0329218
        k(   48) = (   0.0555556  -0.2777778   0.1666667), wk =   0.0329218
        k(   49) = (  -0.0555556   0.3888889   0.1666667), wk =   0.0329218
        k(   50) = (   0.0555556   0.3888889  -0.1666667), wk =   0.0329218
        k(   51) = (   0.0555556  -0.3888889   0.1666667), wk =   0.0329218
        k(   52) = (  -0.0555556  -0.5000000   0.1666667), wk =   0.0329218
        k(   53) = (  -0.0555556   0.2777778   0.2777778), wk =   0.0164609
        k(   54) = (   0.0555556   0.2777778  -0.2777778), wk =   0.0329218
        k(   55) = (  -0.0555556   0.3888889   0.2777778), wk =   0.0329218
        k(   56) = (   0.0555556   0.3888889  -0.2777778), wk =   0.0329218
        k(   57) = (   0.0555556  -0.3888889   0.2777778), wk =   0.0329218
        k(   58) = (  -0.0555556  -0.5000000   0.2777778), wk =   0.0329218
        k(   59) = (  -0.0555556   0.3888889   0.3888889), wk =   0.0164609
        k(   60) = (   0.0555556   0.3888889  -0.3888889), wk =   0.0329218
[...]
        k(   71) = (   0.1666667   0.3888889  -0.2777778), wk =   0.0329218
        k(   72) = (   0.1666667  -0.3888889   0.2777778), wk =   0.0329218
        k(   73) = (  -0.1666667  -0.5000000   0.2777778), wk =   0.0329218
        k(   74) = (  -0.1666667   0.3888889   0.3888889), wk =   0.0164609
        k(   75) = (   0.1666667   0.3888889  -0.3888889), wk =   0.0329218
        k(   76) = (  -0.1666667  -0.5000000   0.3888889), wk =   0.0329218
        k(   77) = (  -0.2777778   0.2777778   0.2777778), wk =   0.0164609
        k(   78) = (  -0.2777778   0.3888889   0.2777778), wk =   0.0329218
        k(   79) = (   0.2777778  -0.3888889   0.2777778), wk =   0.0164609
        k(   80) = (  -0.2777778  -0.5000000   0.2777778), wk =   0.0164609
        k(   81) = (  -0.2777778   0.3888889   0.3888889), wk =   0.0164609
        k(   82) = (   0.2777778   0.3888889  -0.3888889), wk =   0.0329218
        k(   83) = (  -0.2777778  -0.5000000   0.3888889), wk =   0.0329218
        k(   84) = (  -0.3888889   0.3888889   0.3888889), wk =   0.0164609
        k(   85) = (  -0.3888889  -0.5000000   0.3888889), wk =   0.0164609

     Check: negative core charge=   -0.000002

     Initial potential from superposition of free atoms

     starting charge  527.97896, renormalised to  528.00000
     Starting wfcs are  330 randomized atomic wfcs
     Checking if some PAW data can be deallocated...

     Self-consistent Calculation

     iteration #  1     ecut=    71.00 Ry     beta= 0.10
     Davidson diagonalization with overlap
     ethr =  1.00E-02,  avg # of iterations =  4.4

     Threshold (ethr) on eigenvalues was too large:
     Diagonalizing with lowered threshold

     Davidson diagonalization with overlap
     ethr =  6.25E-04,  avg # of iterations =  2.5

     total energy              =  -14240.03449931 Ry
     estimated scf accuracy    <       3.57206224 Ry

[...]

     iteration #  6     ecut=    71.00 Ry     beta= 0.10
     Davidson diagonalization with overlap
     c_bands:  1 eigenvalues not converged
     c_bands:  1 eigenvalues not converged
     ethr =  1.61E-05,  avg # of iterations =  4.2

[...]

     iteration #  7     ecut=    71.00 Ry     beta= 0.10
     Davidson diagonalization with overlap
     c_bands:  1 eigenvalues not converged
     ethr =  5.46E-06,  avg # of iterations =  4.8

[...]

     total energy              =  -14239.67679866 Ry
     estimated scf accuracy    <       0.00000325 Ry

     iteration # 16     ecut=    71.00 Ry     beta= 0.10
     Davidson diagonalization with overlap
     ethr =  6.16E-10,  avg # of iterations =  2.0

     End of self-consistent calculation

          k = 0.0556 0.0556 0.0556 ( 30224 PWs)   bands (ev):

   -55.7241 -55.7233 -50.3474 -50.3474 -50.3472 -50.3472 -48.8039 -48.7269
   -48.7269 -48.7097 -48.7097 -48.6810 -48.6801 -48.6757 -48.6757 -48.6663
   -48.6602 -48.6404 -48.6200 -48.6200 -48.6144 -48.6144 -48.5928 -48.5676
   -48.5676 -48.5663 -48.5612 -48.5612 -48.5556 -48.5348 -48.5346 -48.5346
   -48.5274 -28.3130 -28.3130 -28.3120 -28.3120 -24.9080 -24.8917 -20.0035
   -19.9656 -19.8738 -19.8738 -19.7890 -19.7890 -19.7085 -19.7085 -19.6993
   -19.6993 -19.4753 -19.4467 -19.1820 -19.1272 -19.1272 -19.1056 -19.0717
   -19.0511 -19.0511 -18.9345 -18.9345 -18.9230 -18.9101 -18.9030 -18.9030
   -18.8869 -18.8743 -18.8743 -18.8622 -18.8459 -18.8459 -18.8347 -18.8347
   -18.8148 -18.7551 -18.7486 -18.7486 -18.6929 -18.6929 -18.6825 -18.6669
   -18.6604 -18.6604 -18.6374 -18.6374 -18.6298 -18.6221 -18.6221 -18.6038
   -18.6038 -18.6029 -18.5778 -18.5778 -18.5763 -18.5711 -18.5631 -18.5631
   -18.5513 -18.5043 -18.4900 -18.4900 -18.4532 -18.4532 -18.4411 -18.4372
   -18.4372 -18.4261 -18.4261 -18.4166 -18.4166 -18.3840 -18.3784 -18.3784
   -18.3703 -18.3681 -18.3681 -18.3622 -18.3564 -18.3422 -18.3422 -18.3219
   -18.3219 -18.3216 -18.3158 -18.3043 -18.2423 -18.2423 -18.2105 -18.1583
   -16.6073 -16.6073 -16.6014 -16.6014  12.3699  12.3699  12.4596  12.4596
    13.9068  14.1321  14.1321  14.2294  14.3429  14.3429  16.1475  17.6908
    17.9662  17.9662  18.1875  18.2885  18.3220  18.3316  18.3316  18.5146
    18.5554  18.5554  18.6563  18.6563  18.8079  18.8079  18.9303  18.9882
    19.2506  19.2506  19.4366  19.5576  19.5576  19.5709  19.6530  19.7663
    19.7896  19.7896  19.8430  19.8430  19.9193  19.9193  19.9522  20.0167
    20.0167  20.0615  20.1495  20.1495  20.1574  20.2060  20.2060  20.3086
    20.3223  20.4586  20.4630  20.4630  20.5449  20.5932  20.5932  20.6474
    20.6474  20.6787  20.7175  20.7175  20.7300  20.7300  20.8227  20.8227
    20.8421  20.9114  20.9114  20.9559  20.9951  21.0175  21.0175  21.1121
    21.1200  21.1747  21.2133  21.2133  21.3127  21.3127  21.5296  21.5331
    21.5331  21.7879  21.7879  21.8281  21.8281  21.9015  21.9015  21.9266
    21.9648  22.0003  22.0003  22.1091  22.3569  22.5181  22.5181  22.5698
    22.5698  22.8584  22.8584  22.9093  22.9381  22.9869  22.9869  23.0896
    23.1083  23.1083  23.1153  23.1487  23.2520  23.2520  23.3795  23.3795
    23.4168  23.4474  23.4698  23.4698  23.4940  23.5600  23.5600  23.6223
    23.6223  23.7445  23.7566  23.7566  23.7930  23.7930  23.8625  23.8642
    24.0811  24.1415  24.1415  24.2357  24.3997  24.3997  24.4038  24.4431
    24.5939  24.5939  24.6581  24.6581  24.7880  24.8311  24.8311  25.1169
    25.1468  25.2993  25.2993  25.4120  25.4120  25.7392  25.7392  25.7460
    25.7983  25.8590  25.8590  25.9461  26.0076  26.0607  26.0607  26.2256
    26.3058  26.3157  26.3157  26.3818  26.5968  26.5968  27.0951  27.0951
    27.4081  27.4081  27.5958  27.7578  27.7578  27.8382  27.9114  27.9114
    27.9706  28.4613  28.4990  28.4991  28.5487

[...]

          k =-0.5000-0.5000-0.5000 ( 30280 PWs)   bands (ev):

[...]

          k = 0.2778 0.3889-0.3889 ( 30147 PWs)   bands (ev):

[...]

          k =-0.3889-0.5000 0.3889 ( 30162 PWs)   bands (ev):

   -55.7241 -55.7233 -50.3475 -50.3474 -50.3472 -50.3472 -48.7661 -48.7501
   -48.7477 -48.7223 -48.7038 -48.7037 -48.6813 -48.6762 -48.6640 -48.6627
   -48.6354 -48.6342 -48.6259 -48.6239 -48.6058 -48.6054 -48.5994 -48.5811
   -48.5797 -48.5782 -48.5465 -48.5452 -48.5421 -48.5413 -48.5388 -48.5360
   -48.5316 -28.3132 -28.3132 -28.3117 -28.3117 -24.9087 -24.8910 -19.9880
   -19.9723 -19.8578 -19.8535 -19.8112 -19.8069 -19.7148 -19.7147 -19.6946
   -19.6939 -19.5023 -19.4419 -19.0756 -19.0743 -19.0666 -19.0612 -19.0479
   -19.0420 -19.0314 -19.0212 -19.0163 -19.0007 -18.9968 -18.9844 -18.9473
   -18.9395 -18.9368 -18.9210 -18.9098 -18.8983 -18.8429 -18.7922 -18.7891
   -18.7468 -18.7103 -18.6876 -18.6718 -18.6704 -18.6611 -18.6563 -18.6435
   -18.6381 -18.6348 -18.6295 -18.6257 -18.6070 -18.5984 -18.5917 -18.5893
   -18.5835 -18.5773 -18.5710 -18.5677 -18.5515 -18.5484 -18.5409 -18.5408
   -18.5368 -18.5136 -18.5133 -18.5064 -18.5006 -18.4940 -18.4937 -18.4881
   -18.4873 -18.4787 -18.4716 -18.4243 -18.4232 -18.4027 -18.4015 -18.3988
   -18.3934 -18.3814 -18.3718 -18.3424 -18.3413 -18.3387 -18.3134 -18.3014
   -18.2958 -18.2834 -18.2829 -18.2751 -18.2736 -18.2721 -18.1865 -18.1777
   -16.6105 -16.6102 -16.5993 -16.5991  12.3961  12.3986  12.4321  12.4357
    13.9647  14.1154  14.1198  14.2388  14.3499  14.3571  17.3194  17.6165
    17.8901  18.0874  18.1828  18.2295  18.2770  18.2930  18.6528  18.7105
    18.7264  18.7580  18.8190  18.8361  18.8539  18.8921  18.9155  18.9273
    18.9765  19.0262  19.0754  19.1149  19.1772  19.2153  19.2572  19.2596
    19.2871  19.2988  19.3108  19.3273  19.5260  19.5485  19.6898  19.7149
    19.7601  19.8399  19.8444  19.8584  19.9614  19.9801  20.0214  20.0423
    20.1833  20.1979  20.2206  20.3188  20.4033  20.4565  20.5641  20.6042
    20.8312  20.8339  20.8705  20.8708  21.0361  21.0512  21.2042  21.2761
    21.3502  21.3789  21.4795  21.5064  21.5477  21.5666  21.6436  21.6607
    21.6673  21.7342  21.7604  21.7850  21.8073  21.8222  21.8787  21.8822
    21.8965  21.9338  21.9383  21.9874  21.9900  22.0143  22.0372  22.0654
    22.0685  22.1056  22.1313  22.1351  22.1632  22.2087  22.2340  22.2604
    22.2864  22.3275  22.3816  22.4298  22.4335  22.5791  22.5981  22.6443
    22.7251  22.7516  22.8399  22.8445  23.0581  23.1156  23.1250  23.1564
    23.1887  23.2205  23.2720  23.3010  23.3993  23.4154  23.4945  23.5281
    23.5727  23.6153  23.6370  23.7056  23.7516  23.8104  23.9371  23.9816
    24.0165  24.0545  24.0704  24.0969  24.1574  24.1964  24.3876  24.4025
    24.5291  24.5359  24.7150  24.7153  24.8093  24.8604  25.0531  25.2106
    25.2617  25.3964  25.4921  25.7029  25.7326  25.7850  25.7882  25.8381
    25.8416  25.8637  25.9031  25.9136  25.9500  25.9576  25.9999  26.0187
    26.2169  26.6873  26.6980  27.1085  27.2242  27.5674  27.6569  27.8226
    27.9080  28.0387  28.1257  28.1701  28.3568  28.6258  28.6586  28.6977
    28.8064  29.1147  29.1998  29.2253  29.3018

     the Fermi energy is    24.1930 ev

!    total energy              =  -14239.67679918 Ry

     total all-electron energy =   -299046.579336 Ry
     estimated scf accuracy    <       0.00000090 Ry
     smearing contrib. (-TS)   =       0.01194319 Ry
     internal energy E=F+TS    =  -14239.68874237 Ry

     The total energy is F=E-TS. E is the sum of the following terms:
     one-electron contribution =   -1196.57250125 Ry
     hartree contribution      =    1042.82208005 Ry
     xc contribution           =    -962.93851639 Ry
     ewald contribution        =   -5296.10085580 Ry
     one-center paw contrib.   =   -7826.89894898 Ry

     convergence has been achieved in  16 iterations

     Forces acting on atoms (cartesian axes, Ry/au):

     atom    1 type  1   force =    -1.19321910   -1.19321910   -1.19321910
     atom    2 type  1   force =     1.19321910    1.19321910    1.19321910
     atom    3 type  1   force =     1.19725653    1.19725653   -1.23012815
     atom    4 type  1   force =     1.19725653   -1.23012815    1.19725653
     atom    5 type  1   force =    -1.23012815    1.19725653    1.19725653
     atom    6 type  1   force =    -0.00000000   -0.00000000    0.00000000
     atom    7 type  1   force =     0.01074747    0.01074747    0.02306604
     atom    8 type  1   force =     0.01809367    0.00000000   -0.01809367
     atom    9 type  1   force =     0.00000000    0.01809367   -0.01809367
     atom   10 type  1   force =    -0.00000000    0.00000000    0.00000000
     atom   11 type  1   force =     0.01809367   -0.01809367   -0.00000000
     atom   12 type  1   force =     0.01074747    0.02306604    0.01074747
     atom   13 type  1   force =     0.00000000   -0.01809367    0.01809367
     atom   14 type  1   force =    -0.00000000   -0.00000000    0.00000000
     atom   15 type  1   force =     0.02121296   -0.02121296    0.00000000
     atom   16 type  1   force =     0.02121296    0.00000000   -0.02121296
     atom   17 type  1   force =     1.23012815   -1.19725653   -1.19725653
     atom   18 type  1   force =     0.00000000   -0.00000000    0.00000000
     atom   19 type  1   force =    -0.01809367    0.01809367    0.00000000
     atom   20 type  1   force =    -0.01809367   -0.00000000    0.01809367
     atom   21 type  1   force =     0.02306604    0.01074747    0.01074747
     atom   22 type  1   force =     0.00000000    0.00000000   -0.00000000
     atom   23 type  1   force =    -0.02121296    0.02121296    0.00000000
     atom   24 type  1   force =    -1.19725653    1.23012815   -1.19725653
     atom   25 type  1   force =    -0.00000000    0.02121296   -0.02121296
     atom   26 type  1   force =     0.00000000    0.00000000    0.00000000
     atom   27 type  1   force =    -1.19725653   -1.19725653    1.23012815
     atom   28 type  1   force =    -0.02121296   -0.00000000    0.02121296
     atom   29 type  1   force =    -0.00000000   -0.02121296    0.02121296
     atom   30 type  1   force =     0.00000000    0.00000000    0.00000000
     atom   31 type  1   force =    -0.01074747   -0.01074747   -0.02306604
     atom   32 type  1   force =    -0.01074747   -0.02306604   -0.01074747
     atom   33 type  1   force =    -0.02306604   -0.01074747   -0.01074747

     Total force =     5.902280     Total SCF correction =     0.002862

     Computing stress (Cartesian axis) and pressure

          total   stress  (Ry/bohr**3)                   (kbar)     P=      728.58
   0.00495280  -0.00148790  -0.00148790          728.58     -218.88     -218.88
  -0.00148790   0.00495280  -0.00148790         -218.88      728.58     -218.88
  -0.00148790  -0.00148790   0.00495280         -218.88     -218.88      728.58

     Writing output data file /scratch/ru1111.save/

     General routines

     Parallel routines

   This run was terminated on:  22: 9:28   2Jan2022

   JOB DONE.