     Program PWSCF v.6.7MaX starts on  3Jan2022 at 20:35:27

     R & G space division:  proc/nbgrp/npool/nimage =      72
     Reading input from ru_crowdion_3.in
Warning: card &CELL ignored
Warning: card CELL_DYNAMICS = 'BFGS', ignored
Warning: card CELL_FACTOR = 2.0, ignored
Warning: card PRESS = 0.0, ignored
Warning: card / ignored

     Current dimensions of program PWSCF are:
     Max number of different atomic species (ntypx) = 10
     Max number of k-points (npk) =  40000
     Max angular momentum in pseudopotentials (lmaxx) =  3
     file Ru.pbe-spn-kjpaw_psl.1.0.0.UPF: wavefunction(s)  4D renormalized

     Subspace diagonalization in iterative solution of the eigenvalue problem:
     one sub-group per band group will be used

     Message from routine setup:
     using ibrav=0 with symmetry is DISCOURAGED, use correct ibrav instead

     bravais-lattice index     =            0
     lattice parameter (alat)  =      14.4007  a.u.
     unit-cell volume          =    2986.4454 (a.u.)^3
     number of atoms/cell      =           33
     number of atomic types    =            1
     number of electrons       =       528.00
     number of Kohn-Sham states=          317
     kinetic-energy cutoff     =      71.0000  Ry
     charge density cutoff     =     430.0000  Ry
     scf convergence threshold =      1.0E-06
     mixing beta               =       0.1000
     number of iterations used =           10  TF        mixing
     Exchange-correlation= SLA  PW   PBX  PBC
                           (   1   4   3   4   0   0   0)

     celldm(1)=  14.400742  celldm(2)=   0.000000  celldm(3)=   0.000000
     celldm(4)=   0.000000  celldm(5)=   0.000000  celldm(6)=   0.000000

     crystal axes: (cart. coord. in units of alat)
               a(1) = (   1.000000   0.000000   0.000000 )
               a(2) = (   0.000000   1.000000   0.000000 )
               a(3) = (   0.000000   0.000000   1.000000 )

     reciprocal axes: (cart. coord. in units 2 pi/alat)
               b(1) = (  1.000000  0.000000  0.000000 )
               b(2) = (  0.000000  1.000000  0.000000 )
               b(3) = (  0.000000  0.000000  1.000000 )

     PseudoPot. # 1 for Ru read from file:
     /rds/homes/b/bxp912/pp/Ru.pbe-spn-kjpaw_psl.1.0.0.UPF
     MD5 check sum: 0ae1f594dea09af7be8575c3a481d1ae
     Pseudo is Projector augmented-wave + core cor, Zval = 16.0
     Generated using "atomic" code by A. Dal Corso  v.5.1
     Shape of augmentation charge: PSQ
     Using radial grid of 1233 points,  6 beta functions with:
                l(1) =   0
                l(2) =   0
                l(3) =   1
                l(4) =   1
                l(5) =   2
                l(6) =   2
     Q(r) pseudized with 0 coefficients

     atomic species   valence    mass     pseudopotential
        Ru            16.00   101.07000     Ru( 1.00)

      8 Sym. Ops. (no inversion) found

   Cartesian axes

     site n.     atom                  positions (alat units)
         1           Ru  tau(   1) = (   0.0000000   0.0000000   0.0000000  )
         2           Ru  tau(   2) = (   0.3330000   0.0000000   0.0000000  )
         3           Ru  tau(   3) = (   0.6660000   0.0000000   0.0000000  )
         4           Ru  tau(   4) = (   0.2500000   0.2500000   0.0000000  )
         5           Ru  tau(   5) = (   0.2500000   0.0000000   0.2500000  )
         6           Ru  tau(   6) = (   0.0000000   0.2500000   0.2500000  )
         7           Ru  tau(   7) = (   0.0000000   0.0000000   0.5000000  )
         8           Ru  tau(   8) = (   0.2500000   0.2500000   0.5000000  )
         9           Ru  tau(   9) = (   0.2500000   0.0000000   0.7500000  )
        10           Ru  tau(  10) = (   0.0000000   0.2500000   0.7500000  )
        11           Ru  tau(  11) = (   0.0000000   0.5000000   0.0000000  )
        12           Ru  tau(  12) = (   0.2500000   0.7500000   0.0000000  )
        13           Ru  tau(  13) = (   0.2500000   0.5000000   0.2500000  )
        14           Ru  tau(  14) = (   0.0000000   0.7500000   0.2500000  )
        15           Ru  tau(  15) = (   0.0000000   0.5000000   0.5000000  )
        16           Ru  tau(  16) = (   0.2500000   0.7500000   0.5000000  )
        17           Ru  tau(  17) = (   0.2500000   0.5000000   0.7500000  )
        18           Ru  tau(  18) = (   0.0000000   0.7500000   0.7500000  )
        19           Ru  tau(  19) = (   0.7500000   0.2500000   0.0000000  )
        20           Ru  tau(  20) = (   0.7500000   0.0000000   0.2500000  )
        21           Ru  tau(  21) = (   0.5000000   0.2500000   0.2500000  )
        22           Ru  tau(  22) = (   0.5000000   0.0000000   0.5000000  )
        23           Ru  tau(  23) = (   0.7500000   0.2500000   0.5000000  )
        24           Ru  tau(  24) = (   0.7500000   0.0000000   0.7500000  )
        25           Ru  tau(  25) = (   0.5000000   0.2500000   0.7500000  )
        26           Ru  tau(  26) = (   0.5000000   0.5000000   0.0000000  )
        27           Ru  tau(  27) = (   0.7500000   0.7500000   0.0000000  )
        28           Ru  tau(  28) = (   0.7500000   0.5000000   0.2500000  )
        29           Ru  tau(  29) = (   0.5000000   0.7500000   0.2500000  )
        30           Ru  tau(  30) = (   0.5000000   0.5000000   0.5000000  )
        31           Ru  tau(  31) = (   0.7500000   0.7500000   0.5000000  )
        32           Ru  tau(  32) = (   0.7500000   0.5000000   0.7500000  )
        33           Ru  tau(  33) = (   0.5000000   0.7500000   0.7500000  )

     number of k points=    75  Marzari-Vanderbilt smearing, width (Ry)=  0.0400
                       cart. coord. in units 2pi/alat
        k(    1) = (   0.0555556   0.0555556   0.0555556), wk =   0.0219479
        k(    2) = (   0.0555556   0.0555556   0.1666667), wk =   0.0438957
        k(    3) = (   0.0555556   0.0555556   0.2777778), wk =   0.0438957
        k(    4) = (   0.0555556   0.0555556   0.3888889), wk =   0.0438957
        k(    5) = (   0.0555556   0.0555556  -0.5000000), wk =   0.0219479
        k(    6) = (   0.0555556   0.1666667   0.1666667), wk =   0.0219479
        k(    7) = (   0.0555556   0.1666667   0.2777778), wk =   0.0438957
        k(    8) = (   0.0555556   0.1666667   0.3888889), wk =   0.0438957
        k(    9) = (   0.0555556   0.1666667  -0.5000000), wk =   0.0219479
        k(   10) = (   0.0555556   0.2777778   0.2777778), wk =   0.0219479
        k(   11) = (   0.0555556   0.2777778   0.3888889), wk =   0.0438957
        k(   12) = (   0.0555556   0.2777778  -0.5000000), wk =   0.0219479
        k(   13) = (   0.0555556   0.3888889   0.3888889), wk =   0.0219479
        k(   14) = (   0.0555556   0.3888889  -0.5000000), wk =   0.0219479
        k(   15) = (   0.0555556  -0.5000000  -0.5000000), wk =   0.0054870
        k(   16) = (   0.1666667   0.1666667   0.1666667), wk =   0.0219479
        k(   17) = (   0.1666667   0.1666667   0.2777778), wk =   0.0438957
        k(   18) = (   0.1666667   0.1666667   0.3888889), wk =   0.0438957
        k(   19) = (   0.1666667   0.1666667  -0.5000000), wk =   0.0219479
        k(   20) = (   0.1666667   0.2777778   0.2777778), wk =   0.0219479
        k(   21) = (   0.1666667   0.2777778   0.3888889), wk =   0.0438957
        k(   22) = (   0.1666667   0.2777778  -0.5000000), wk =   0.0219479
        k(   23) = (   0.1666667   0.3888889   0.3888889), wk =   0.0219479
        k(   24) = (   0.1666667   0.3888889  -0.5000000), wk =   0.0219479
        k(   25) = (   0.1666667  -0.5000000  -0.5000000), wk =   0.0054870
        k(   26) = (   0.2777778   0.2777778   0.2777778), wk =   0.0219479
        k(   27) = (   0.2777778   0.2777778   0.3888889), wk =   0.0438957
        k(   28) = (   0.2777778   0.2777778  -0.5000000), wk =   0.0219479
        k(   29) = (   0.2777778   0.3888889   0.3888889), wk =   0.0219479
        k(   30) = (   0.2777778   0.3888889  -0.5000000), wk =   0.0219479
        k(   31) = (   0.2777778  -0.5000000  -0.5000000), wk =   0.0054870
        k(   32) = (   0.3888889   0.3888889   0.3888889), wk =   0.0219479
        k(   33) = (   0.3888889   0.3888889  -0.5000000), wk =   0.0219479
        k(   34) = (   0.3888889  -0.5000000  -0.5000000), wk =   0.0054870
        k(   35) = (  -0.5000000  -0.5000000  -0.5000000), wk =   0.0027435
        k(   36) = (   0.1666667  -0.0555556   0.0555556), wk =   0.0219479
        k(   37) = (   0.2777778  -0.0555556   0.0555556), wk =   0.0219479
        k(   38) = (   0.3888889  -0.0555556   0.0555556), wk =   0.0219479
        k(   39) = (  -0.5000000  -0.0555556   0.0555556), wk =   0.0109739
        k(   40) = (   0.1666667  -0.1666667   0.0555556), wk =   0.0438957
        k(   41) = (   0.2777778  -0.1666667   0.0555556), wk =   0.0438957
        k(   42) = (   0.1666667   0.2777778   0.0555556), wk =   0.0438957
        k(   43) = (   0.3888889  -0.1666667   0.0555556), wk =   0.0438957
        k(   44) = (   0.1666667   0.3888889   0.0555556), wk =   0.0438957
        k(   45) = (  -0.5000000  -0.1666667   0.0555556), wk =   0.0219479
        k(   46) = (   0.1666667  -0.5000000   0.0555556), wk =   0.0219479
        k(   47) = (   0.2777778  -0.2777778   0.0555556), wk =   0.0438957
        k(   48) = (   0.3888889  -0.2777778   0.0555556), wk =   0.0438957
        k(   49) = (   0.2777778   0.3888889   0.0555556), wk =   0.0438957
        k(   50) = (  -0.5000000  -0.2777778   0.0555556), wk =   0.0219479
        k(   51) = (   0.2777778  -0.5000000   0.0555556), wk =   0.0219479
        k(   52) = (   0.3888889  -0.3888889   0.0555556), wk =   0.0438957
        k(   53) = (  -0.5000000  -0.3888889   0.0555556), wk =   0.0219479
        k(   54) = (   0.3888889  -0.5000000   0.0555556), wk =   0.0219479
        k(   55) = (  -0.5000000   0.5000000   0.0555556), wk =   0.0109739
        k(   56) = (   0.2777778  -0.1666667   0.1666667), wk =   0.0219479
        k(   57) = (   0.3888889  -0.1666667   0.1666667), wk =   0.0219479
        k(   58) = (  -0.5000000  -0.1666667   0.1666667), wk =   0.0109739
        k(   59) = (   0.2777778  -0.2777778   0.1666667), wk =   0.0438957
        k(   60) = (   0.3888889  -0.2777778   0.1666667), wk =   0.0438957
        k(   61) = (   0.2777778   0.3888889   0.1666667), wk =   0.0438957
        k(   62) = (  -0.5000000  -0.2777778   0.1666667), wk =   0.0219479
        k(   63) = (   0.2777778  -0.5000000   0.1666667), wk =   0.0219479
        k(   64) = (   0.3888889  -0.3888889   0.1666667), wk =   0.0438957
        k(   65) = (  -0.5000000  -0.3888889   0.1666667), wk =   0.0219479
        k(   66) = (   0.3888889  -0.5000000   0.1666667), wk =   0.0219479
        k(   67) = (  -0.5000000   0.5000000   0.1666667), wk =   0.0109739
        k(   68) = (   0.3888889  -0.2777778   0.2777778), wk =   0.0219479
        k(   69) = (  -0.5000000  -0.2777778   0.2777778), wk =   0.0109739
        k(   70) = (   0.3888889  -0.3888889   0.2777778), wk =   0.0438957
        k(   71) = (  -0.5000000  -0.3888889   0.2777778), wk =   0.0219479
        k(   72) = (   0.3888889  -0.5000000   0.2777778), wk =   0.0219479
        k(   73) = (  -0.5000000   0.5000000   0.2777778), wk =   0.0109739
        k(   74) = (  -0.5000000  -0.3888889   0.3888889), wk =   0.0109739
        k(   75) = (  -0.5000000   0.5000000   0.3888889), wk =   0.0109739

     Check: negative core charge=   -0.000002

     Initial potential from superposition of free atoms

     starting charge  527.97896, renormalised to  528.00000
     Starting wfcs are  330 randomized atomic wfcs
     Checking if some PAW data can be deallocated...

     Self-consistent Calculation

     iteration #  1     ecut=    71.00 Ry     beta= 0.10
     Davidson diagonalization with overlap
     ethr =  1.00E-02,  avg # of iterations =  4.0

     Threshold (ethr) on eigenvalues was too large:
     Diagonalizing with lowered threshold

     Davidson diagonalization with overlap
     ethr =  3.31E-04,  avg # of iterations =  4.3

     total energy              =  -14243.56773162 Ry
     estimated scf accuracy    <       1.90796113 Ry

[...]

     iteration #  3     ecut=    71.00 Ry     beta= 0.10
     Davidson diagonalization with overlap
     c_bands:  1 eigenvalues not converged
     ethr =  2.07E-04,  avg # of iterations =  2.1

[...]

     iteration #  4     ecut=    71.00 Ry     beta= 0.10
     Davidson diagonalization with overlap
     c_bands:  2 eigenvalues not converged
     ethr =  4.49E-05,  avg # of iterations =  4.4

[...]

     total energy              =  -14243.38841769 Ry
     estimated scf accuracy    <       0.00000546 Ry

     iteration # 15     ecut=    71.00 Ry     beta= 0.10
     Davidson diagonalization with overlap
     ethr =  7.77E-10,  avg # of iterations =  2.0

     End of self-consistent calculation

          k = 0.0556 0.0556 0.0556 ( 30224 PWs)   bands (ev):

   -51.2021 -51.1492 -49.1909 -49.1909 -49.1863 -49.1863 -49.1493 -49.1442
   -49.0091 -48.9794 -48.8553 -48.8089 -48.7957 -48.7631 -48.7593 -48.7484
   -48.7466 -48.7464 -48.7426 -48.7361 -48.7228 -48.7228 -48.7021 -48.6934
   -48.6865 -48.6852 -48.6849 -48.6739 -48.6640 -48.6115 -48.6033 -48.6032
   -48.5910 -22.7169 -22.7169 -22.6666 -22.6666 -21.4963 -21.2405 -19.7038
   -19.6627 -19.4582 -19.4354 -19.3820 -19.3819 -19.3416 -19.3048 -19.2317
   -19.2238 -19.2227 -19.1843 -19.1823 -19.1338 -19.1239 -19.1196 -19.1132
   -19.1088 -19.0939 -19.0781 -19.0719 -19.0529 -19.0091 -19.0041 -18.9833
   -18.9765 -18.9670 -18.9609 -18.9514 -18.9506 -18.9421 -18.9151 -18.9115
   -18.9023 -18.8649 -18.8586 -18.8387 -18.8380 -18.8287 -18.8152 -18.8122
   -18.8023 -18.7956 -18.7748 -18.7606 -18.7560 -18.7253 -18.6851 -18.6832
   -18.6793 -18.6788 -18.6737 -18.6682 -18.6579 -18.6538 -18.6481 -18.6449
   -18.6202 -18.6101 -18.6063 -18.6052 -18.5918 -18.5563 -18.5545 -18.5458
   -18.5317 -18.5146 -18.4940 -18.4923 -18.4864 -18.4852 -18.4789 -18.4654
   -18.4652 -18.4496 -18.4484 -18.4468 -18.4461 -18.4450 -18.4445 -18.4359
   -18.4342 -18.4287 -18.4168 -18.4141 -18.4131 -18.3532 -18.3502 -18.3376
   -18.2138 -18.2130 -18.1938 -18.1922  15.5200  15.7480  15.8533  16.2777
    16.4439  16.4824  16.4919  16.8293  17.0748  17.0798  17.5849  17.7423
    17.8858  17.9364  18.0814  18.2872  18.2917  18.3201  18.4076  18.5439
    18.5887  18.6571  18.6590  18.6964  18.8323  18.9011  19.0836  19.0936
    19.2389  19.2772  19.3100  19.4835  19.4876  19.5508  19.5922  19.6048
    19.6143  19.7451  19.7798  19.8158  19.8247  19.9058  19.9082  19.9801
    19.9821  20.0384  20.0470  20.1018  20.2442  20.2924  20.3252  20.3304
    20.3688  20.3734  20.3969  20.3994  20.4410  20.4524  20.5139  20.5279
    20.5579  20.6044  20.6414  20.7090  20.7198  20.7350  20.7653  20.7810
    20.8204  20.8395  20.8506  20.8744  20.9210  20.9676  20.9862  21.0022
    21.0892  21.1310  21.1859  21.1914  21.3763  21.4012  21.4177  21.4356
    21.4552  21.5377  21.5988  21.7013  21.8636  21.9399  21.9821  22.0956
    22.1075  22.1342  22.1819  22.3960  22.4365  22.6148  22.6312  22.7225
    22.7303  22.7453  22.7649  22.7671  22.8498  22.8844  22.9021  22.9106
    22.9455  22.9687  23.0328  23.0351  23.1466  23.1957  23.2486  23.3637
    23.3762  23.3924  23.4167  23.4665  23.4714  23.5072  23.5108  23.5552
    23.5732  23.5906  23.6235  23.7030  23.7284  23.7591  23.7681  23.8467
    23.8580  23.8900  23.9606  24.0272  24.2828  24.3513  24.3604  24.4159
    24.4731  24.6663  24.7351  24.7504  24.7885  24.8099  24.8343  24.9746
    24.9762  25.0913  25.2155  25.4811  25.5524  25.5651  25.6349  25.6433
    25.6521  25.6924  25.7033  25.8267  25.8447  25.9003  25.9349  26.1039
    26.1543  26.1745  26.1987  26.2273  26.2303  26.2531  26.2600  26.3148
    26.3878  26.5446  26.6547  26.8277  27.5271  27.5486  27.6608  27.7052
    27.7675  27.9498  27.9552  28.1676  28.2140

[...]

          k =-0.5000-0.5000-0.5000 ( 30280 PWs)   bands (ev):

[...]

          k = 0.3889-0.5000 0.2778 ( 30178 PWs)   bands (ev):

[...]

          k =-0.5000 0.5000 0.3889 ( 30188 PWs)   bands (ev):

   -51.2011 -51.1501 -49.1939 -49.1935 -49.1909 -49.1905 -49.1446 -49.1418
   -48.9864 -48.9857 -48.8497 -48.8075 -48.8064 -48.7762 -48.7744 -48.7696
   -48.7694 -48.7380 -48.7107 -48.7075 -48.7050 -48.7049 -48.7032 -48.6936
   -48.6935 -48.6934 -48.6821 -48.6807 -48.6786 -48.6087 -48.6024 -48.6013
   -48.5991 -22.7174 -22.7172 -22.6689 -22.6688 -21.5475 -21.1752 -19.6892
   -19.6533 -19.4072 -19.3568 -19.3555 -19.3294 -19.2971 -19.2939 -19.2664
   -19.2614 -19.2103 -19.2082 -19.2079 -19.1614 -19.1481 -19.1478 -19.1444
   -19.1400 -19.1268 -19.1223 -19.1213 -19.1187 -19.1020 -19.0839 -19.0517
   -19.0505 -18.9636 -18.9157 -18.9030 -18.8954 -18.8933 -18.8890 -18.8832
   -18.8545 -18.8427 -18.8414 -18.8216 -18.8075 -18.8052 -18.8049 -18.7689
   -18.7574 -18.7527 -18.7508 -18.7390 -18.7232 -18.7056 -18.7056 -18.6850
   -18.6743 -18.6647 -18.6615 -18.6574 -18.6505 -18.6416 -18.6349 -18.6261
   -18.6260 -18.6221 -18.6058 -18.6056 -18.6002 -18.5990 -18.5688 -18.5681
   -18.5667 -18.5558 -18.5426 -18.5409 -18.5408 -18.5321 -18.5295 -18.5225
   -18.4493 -18.4471 -18.4467 -18.4450 -18.4402 -18.4283 -18.4107 -18.4066
   -18.3928 -18.3859 -18.3850 -18.3844 -18.3799 -18.3777 -18.3709 -18.3698
   -18.2022 -18.2022 -18.1963 -18.1956  15.5832  15.6801  16.2225  16.2353
    16.5852  16.6389  16.8937  16.9269  17.3368  17.3662  17.7207  17.8895
    17.8960  18.0263  18.0668  18.1917  18.2569  18.3093  18.7461  18.7503
    18.7515  18.7529  18.7861  18.7941  18.8480  18.8599  18.8914  18.9245
    18.9554  18.9596  18.9814  19.1930  19.2112  19.2112  19.2297  19.2444
    19.3052  19.3332  19.3424  19.4431  19.4900  19.4918  19.7019  19.7345
    19.7451  19.7968  19.8528  19.8712  19.8756  19.9112  19.9261  19.9694
    20.0918  20.1542  20.1565  20.2134  20.2217  20.3778  20.3835  20.4779
    20.5332  20.5991  20.6552  20.6999  20.8066  21.1541  21.1973  21.2723
    21.3303  21.4007  21.4138  21.4427  21.5802  21.6069  21.6140  21.6244
    21.6570  21.6968  21.7102  21.7191  21.7630  21.7673  21.7993  21.8312
    21.8444  21.8800  21.9055  21.9108  21.9212  21.9234  21.9459  21.9723
    21.9976  22.0380  22.0395  22.1014  22.1181  22.1418  22.1618  22.1782
    22.2081  22.2847  22.3878  22.3978  22.4263  22.4452  22.5399  22.6126
    22.6441  22.6886  22.8087  22.8500  22.9454  22.9988  23.0624  23.0834
    23.1200  23.1794  23.2706  23.2787  23.3323  23.4167  23.4367  23.5074
    23.5593  23.5608  23.6191  23.6248  23.6740  23.6768  23.7553  23.7799
    23.7940  23.8820  23.9820  24.0097  24.0309  24.0873  24.2233  24.2256
    24.2391  24.8226  24.8287  24.8526  24.8741  24.9375  25.1094  25.2116
    25.4257  25.5065  25.5390  25.5778  25.5974  25.6660  25.6727  25.6873
    25.7101  25.7360  25.7809  25.8350  25.8588  25.8756  25.8852  25.8976
    25.9051  25.9430  25.9494  25.9516  26.0540  26.0997  26.3512  27.0175
    27.1259  28.2507  28.2824  28.3754  28.4053  28.5102  28.5115  28.7837
    28.8422  28.9733  29.1008  29.1293  29.1903

     the Fermi energy is    24.1438 ev

!    total energy              =  -14243.38841952 Ry

     total all-electron energy =   -299050.290957 Ry
     estimated scf accuracy    <       0.00000017 Ry
     smearing contrib. (-TS)   =       0.01571373 Ry
     internal energy E=F+TS    =  -14243.40413325 Ry

     The total energy is F=E-TS. E is the sum of the following terms:
     one-electron contribution =   -1076.71171151 Ry
     hartree contribution      =     985.30946216 Ry
     xc contribution           =    -960.15551200 Ry
     ewald contribution        =   -5365.10944516 Ry
     one-center paw contrib.   =   -7826.73692673 Ry

     convergence has been achieved in  15 iterations

     Forces acting on atoms (cartesian axes, Ry/au):

     atom    1 type  1   force =    -0.00224980    0.00000000    0.00000000
     atom    2 type  1   force =     0.63899408    0.00000000    0.00000000
     atom    3 type  1   force =    -0.63673700    0.00000000    0.00000000
     atom    4 type  1   force =    -0.14911941    0.50480901    0.00000000
     atom    5 type  1   force =    -0.14911941    0.00000000    0.50480901
     atom    6 type  1   force =    -0.00000980    0.02378208    0.02378208
     atom    7 type  1   force =     0.00025961    0.00000000    0.00000000
     atom    8 type  1   force =    -0.00293619    0.00239867    0.00000000
     atom    9 type  1   force =    -0.14911941    0.00000000   -0.50480901
     atom   10 type  1   force =    -0.00000980    0.02378208   -0.02378208
     atom   11 type  1   force =     0.00025961    0.00000000    0.00000000
     atom   12 type  1   force =    -0.14911941   -0.50480901    0.00000000
     atom   13 type  1   force =    -0.00293619    0.00000000    0.00239867
     atom   14 type  1   force =    -0.00000980   -0.02378208    0.02378208
     atom   15 type  1   force =    -0.00001924    0.00000000    0.00000000
     atom   16 type  1   force =    -0.00293619   -0.00239867    0.00000000
     atom   17 type  1   force =    -0.00293619    0.00000000   -0.00239867
     atom   18 type  1   force =    -0.00000980   -0.02378208   -0.02378208
     atom   19 type  1   force =     0.14876347    0.49949480    0.00000000
     atom   20 type  1   force =     0.14876347    0.00000000    0.49949480
     atom   21 type  1   force =     0.00016429    0.01951893    0.01951893
     atom   22 type  1   force =     0.00007321    0.00000000    0.00000000
     atom   23 type  1   force =     0.00297930    0.00197138    0.00000000
     atom   24 type  1   force =     0.14876347    0.00000000   -0.49949480
     atom   25 type  1   force =     0.00016429    0.01951893   -0.01951893
     atom   26 type  1   force =     0.00007321    0.00000000    0.00000000
     atom   27 type  1   force =     0.14876347   -0.49949480    0.00000000
     atom   28 type  1   force =     0.00297930    0.00000000    0.00197138
     atom   29 type  1   force =     0.00016429   -0.01951893    0.01951893
     atom   30 type  1   force =    -0.00002037    0.00000000    0.00000000
     atom   31 type  1   force =     0.00297930   -0.00197138    0.00000000
     atom   32 type  1   force =     0.00297930    0.00000000   -0.00197138
     atom   33 type  1   force =     0.00016429   -0.01951893   -0.01951893

     Total force =     1.736724     Total SCF correction =     0.002585

     Computing stress (Cartesian axis) and pressure

          total   stress  (Ry/bohr**3)                   (kbar)     P=      317.69
   0.00132083   0.00000000   0.00000000          194.30        0.00        0.00
   0.00000000   0.00257896   0.00000000            0.00      379.38        0.00
   0.00000000   0.00000000   0.00257896            0.00        0.00      379.38

     Writing output data file /scratch/rucrowdion3.save/

     General routines

     Parallel routines

   This run was terminated on:  20:54:58   3Jan2022

   JOB DONE.