     Program PWSCF v.6.7MaX starts on  2Jan2022 at 22: 0:19

     R & G space division:  proc/nbgrp/npool/nimage =      72
     Reading input from ru_octa_2.in

     Current dimensions of program PWSCF are:
     Max number of different atomic species (ntypx) = 10
     Max number of k-points (npk) =  40000
     Max angular momentum in pseudopotentials (lmaxx) =  3
     file Ru.pbe-spn-kjpaw_psl.1.0.0.UPF: wavefunction(s)  4D renormalized

     Subspace diagonalization in iterative solution of the eigenvalue problem:
     one sub-group per band group will be used

     Message from routine setup:
     using ibrav=0 with symmetry is DISCOURAGED, use correct ibrav instead

     bravais-lattice index     =            0
     lattice parameter (alat)  =      14.4007  a.u.
     unit-cell volume          =    2986.4454 (a.u.)^3
     number of atoms/cell      =           33
     number of atomic types    =            1
     number of electrons       =       528.00
     number of Kohn-Sham states=          317
     kinetic-energy cutoff     =      71.0000  Ry
     charge density cutoff     =     430.0000  Ry
     scf convergence threshold =      1.0E-06
     mixing beta               =       0.1000
     number of iterations used =           10  TF        mixing
     energy convergence thresh.=      1.0E-04
     force convergence thresh. =      1.0E-03
     press convergence thresh. =      5.0E-01
     Exchange-correlation= SLA  PW   PBX  PBC
                           (   1   4   3   4   0   0   0)
     nstep                     =           40

     celldm(1)=  14.400742  celldm(2)=   0.000000  celldm(3)=   0.000000
     celldm(4)=   0.000000  celldm(5)=   0.000000  celldm(6)=   0.000000

     crystal axes: (cart. coord. in units of alat)
               a(1) = (   1.000000   0.000000   0.000000 )
               a(2) = (   0.000000   1.000000   0.000000 )
               a(3) = (   0.000000   0.000000   1.000000 )

     reciprocal axes: (cart. coord. in units 2 pi/alat)
               b(1) = (  1.000000  0.000000  0.000000 )
               b(2) = (  0.000000  1.000000  0.000000 )
               b(3) = (  0.000000  0.000000  1.000000 )

     PseudoPot. # 1 for Ru read from file:
     /rds/homes/b/bxp912/pp/Ru.pbe-spn-kjpaw_psl.1.0.0.UPF
     MD5 check sum: 0ae1f594dea09af7be8575c3a481d1ae
     Pseudo is Projector augmented-wave + core cor, Zval = 16.0
     Generated using "atomic" code by A. Dal Corso  v.5.1
     Shape of augmentation charge: PSQ
     Using radial grid of 1233 points,  6 beta functions with:
                l(1) =   0
                l(2) =   0
                l(3) =   1
                l(4) =   1
                l(5) =   2
                l(6) =   2
     Q(r) pseudized with 0 coefficients

     atomic species   valence    mass     pseudopotential
        Ru            16.00   101.07000     Ru( 1.00)

     48 Sym. Ops., with inversion, found (42 have fractional translation)

   Cartesian axes

     site n.     atom                  positions (alat units)
         1           Ru  tau(   1) = (   0.2500000   0.2500000   0.2500000  )
         2           Ru  tau(   2) = (   0.0000000   0.0000000   0.0000000  )
         3           Ru  tau(   3) = (   0.2500000   0.2500000   0.0000000  )
         4           Ru  tau(   4) = (   0.2500000   0.0000000   0.2500000  )
         5           Ru  tau(   5) = (   0.0000000   0.2500000   0.2500000  )
         6           Ru  tau(   6) = (   0.0000000   0.0000000   0.5000000  )
         7           Ru  tau(   7) = (   0.2500000   0.2500000   0.5000000  )
         8           Ru  tau(   8) = (   0.2500000   0.0000000   0.7500000  )
         9           Ru  tau(   9) = (   0.0000000   0.2500000   0.7500000  )
        10           Ru  tau(  10) = (   0.0000000   0.5000000   0.0000000  )
        11           Ru  tau(  11) = (   0.2500000   0.7500000   0.0000000  )
        12           Ru  tau(  12) = (   0.2500000   0.5000000   0.2500000  )
        13           Ru  tau(  13) = (   0.0000000   0.7500000   0.2500000  )
        14           Ru  tau(  14) = (   0.0000000   0.5000000   0.5000000  )
        15           Ru  tau(  15) = (   0.2500000   0.7500000   0.5000000  )
        16           Ru  tau(  16) = (   0.2500000   0.5000000   0.7500000  )
        17           Ru  tau(  17) = (   0.0000000   0.7500000   0.7500000  )
        18           Ru  tau(  18) = (   0.5000000   0.0000000   0.0000000  )
        19           Ru  tau(  19) = (   0.7500000   0.2500000   0.0000000  )
        20           Ru  tau(  20) = (   0.7500000   0.0000000   0.2500000  )
        21           Ru  tau(  21) = (   0.5000000   0.2500000   0.2500000  )
        22           Ru  tau(  22) = (   0.5000000   0.0000000   0.5000000  )
        23           Ru  tau(  23) = (   0.7500000   0.2500000   0.5000000  )
        24           Ru  tau(  24) = (   0.7500000   0.0000000   0.7500000  )
        25           Ru  tau(  25) = (   0.5000000   0.2500000   0.7500000  )
        26           Ru  tau(  26) = (   0.5000000   0.5000000   0.0000000  )
        27           Ru  tau(  27) = (   0.7500000   0.7500000   0.0000000  )
        28           Ru  tau(  28) = (   0.7500000   0.5000000   0.2500000  )
        29           Ru  tau(  29) = (   0.5000000   0.7500000   0.2500000  )
        30           Ru  tau(  30) = (   0.5000000   0.5000000   0.5000000  )
        31           Ru  tau(  31) = (   0.7500000   0.7500000   0.5000000  )
        32           Ru  tau(  32) = (   0.7500000   0.5000000   0.7500000  )
        33           Ru  tau(  33) = (   0.5000000   0.7500000   0.7500000  )

     number of k points=    35  Marzari-Vanderbilt smearing, width (Ry)=  0.0400
                       cart. coord. in units 2pi/alat
        k(    1) = (   0.0555556   0.0555556   0.0555556), wk =   0.0219479
        k(    2) = (   0.0555556   0.0555556   0.1666667), wk =   0.0658436
        k(    3) = (   0.0555556   0.0555556   0.2777778), wk =   0.0658436
        k(    4) = (   0.0555556   0.0555556   0.3888889), wk =   0.0658436
        k(    5) = (   0.0555556   0.0555556  -0.5000000), wk =   0.0329218
        k(    6) = (   0.0555556   0.1666667   0.1666667), wk =   0.0658436
        k(    7) = (   0.0555556   0.1666667   0.2777778), wk =   0.1316872
        k(    8) = (   0.0555556   0.1666667   0.3888889), wk =   0.1316872
        k(    9) = (   0.0555556   0.1666667  -0.5000000), wk =   0.0658436
        k(   10) = (   0.0555556   0.2777778   0.2777778), wk =   0.0658436
        k(   11) = (   0.0555556   0.2777778   0.3888889), wk =   0.1316872
        k(   12) = (   0.0555556   0.2777778  -0.5000000), wk =   0.0658436
        k(   13) = (   0.0555556   0.3888889   0.3888889), wk =   0.0658436
        k(   14) = (   0.0555556   0.3888889  -0.5000000), wk =   0.0658436
        k(   15) = (   0.0555556  -0.5000000  -0.5000000), wk =   0.0164609
        k(   16) = (   0.1666667   0.1666667   0.1666667), wk =   0.0219479
        k(   17) = (   0.1666667   0.1666667   0.2777778), wk =   0.0658436
        k(   18) = (   0.1666667   0.1666667   0.3888889), wk =   0.0658436
        k(   19) = (   0.1666667   0.1666667  -0.5000000), wk =   0.0329218
        k(   20) = (   0.1666667   0.2777778   0.2777778), wk =   0.0658436
        k(   21) = (   0.1666667   0.2777778   0.3888889), wk =   0.1316872
        k(   22) = (   0.1666667   0.2777778  -0.5000000), wk =   0.0658436
        k(   23) = (   0.1666667   0.3888889   0.3888889), wk =   0.0658436
        k(   24) = (   0.1666667   0.3888889  -0.5000000), wk =   0.0658436
        k(   25) = (   0.1666667  -0.5000000  -0.5000000), wk =   0.0164609
        k(   26) = (   0.2777778   0.2777778   0.2777778), wk =   0.0219479
        k(   27) = (   0.2777778   0.2777778   0.3888889), wk =   0.0658436
        k(   28) = (   0.2777778   0.2777778  -0.5000000), wk =   0.0329218
        k(   29) = (   0.2777778   0.3888889   0.3888889), wk =   0.0658436
        k(   30) = (   0.2777778   0.3888889  -0.5000000), wk =   0.0658436
        k(   31) = (   0.2777778  -0.5000000  -0.5000000), wk =   0.0164609
        k(   32) = (   0.3888889   0.3888889   0.3888889), wk =   0.0219479
        k(   33) = (   0.3888889   0.3888889  -0.5000000), wk =   0.0329218
        k(   34) = (   0.3888889  -0.5000000  -0.5000000), wk =   0.0164609
        k(   35) = (  -0.5000000  -0.5000000  -0.5000000), wk =   0.0027435

     Check: negative core charge=   -0.000002

     Initial potential from superposition of free atoms

     starting charge  527.97896, renormalised to  528.00000
     Starting wfcs are  330 randomized atomic wfcs
     Checking if some PAW data can be deallocated...

     Self-consistent Calculation

     iteration #  1     ecut=    71.00 Ry     beta= 0.10
     Davidson diagonalization with overlap
     ethr =  1.00E-02,  avg # of iterations =  4.3

     Threshold (ethr) on eigenvalues was too large:
     Diagonalizing with lowered threshold

     Davidson diagonalization with overlap
     ethr =  8.18E-04,  avg # of iterations =  2.7

     total energy              =  -14243.09783913 Ry
     estimated scf accuracy    <       4.49773994 Ry

[...]

     iteration #  5     ecut=    71.00 Ry     beta= 0.10
     Davidson diagonalization with overlap
     c_bands:  2 eigenvalues not converged
     ethr =  1.05E-05,  avg # of iterations =  6.6

[...]

     End of self-consistent calculation

          k = 0.0556 0.0556 0.0556 ( 30224 PWs)   bands (ev):

   -53.4896 -49.3308 -49.3308 -49.3308 -49.2647 -49.2647 -48.9730 -48.9007
   -48.8421 -48.8421 -48.8357 -48.8281 -48.8281 -48.8053 -48.7968 -48.7963
   -48.7963 -48.7796 -48.7796 -48.7762 -48.7697 -48.7697 -48.7534 -48.7532
   -48.7522 -48.7522 -48.7388 -48.7388 -48.7213 -48.7186 -48.7186 -48.7186
   -48.7088 -25.0853 -25.0853 -25.0853 -20.0945 -20.0945 -19.9801 -19.5129
   -19.5129 -19.5113 -19.3280 -19.3271 -19.3271 -19.2526 -19.2275 -19.2275
   -19.2183 -19.2179 -19.2096 -19.2096 -19.1725 -19.1725 -19.1657 -19.1145
   -19.1022 -19.1022 -19.0538 -19.0538 -19.0369 -19.0332 -19.0253 -19.0253
   -19.0182 -19.0182 -19.0074 -18.9873 -18.9873 -18.9311 -18.9173 -18.9173
   -18.9031 -18.8885 -18.8885 -18.8668 -18.8668 -18.8552 -18.8531 -18.8459
   -18.8442 -18.8442 -18.7730 -18.7730 -18.7565 -18.7443 -18.7443 -18.7428
   -18.7405 -18.7405 -18.7384 -18.7214 -18.7211 -18.7211 -18.6565 -18.6565
   -18.6526 -18.6526 -18.6503 -18.6280 -18.6200 -18.6200 -18.5775 -18.5775
   -18.5726 -18.5595 -18.5536 -18.5536 -18.5328 -18.5328 -18.5282 -18.5273
   -18.5195 -18.5195 -18.5104 -18.5104 -18.5093 -18.4995 -18.4995 -18.4958
   -18.4913 -18.4913 -18.4891 -18.4851 -18.4851 -18.4704 -18.3930 -18.3870
   -18.3870 -17.9873 -17.9863 -17.9863  13.5213  13.5213  13.5213  14.9187
    14.9187  16.1025  17.6976  17.6976  17.7870  17.8015  17.8059  17.8059
    17.9099  18.3793  18.4393  18.4393  18.5688  18.5688  18.5698  18.5791
    18.6855  18.6855  19.1142  19.1165  19.1165  19.2947  19.3787  19.3787
    19.4081  19.5038  19.5098  19.5098  19.5810  19.5810  19.6366  19.6366
    19.6381  19.7322  19.7592  19.7592  19.8131  19.8961  19.8961  19.9905
    20.0756  20.0756  20.2098  20.2551  20.2551  20.3129  20.3252  20.3252
[...]
Ru            0.7500000000        0.2500000000        0.5121974582
Ru            0.7500000000        0.0076957800        0.7500000000
Ru            0.5121974582        0.2500000000        0.7500000000
Ru            0.5023455514        0.5023455514       -0.0023455514
Ru            0.7500000000        0.7500000000        0.0076957800
Ru            0.7500000000        0.5121974582        0.2500000000
Ru            0.5121974582        0.7500000000        0.2500000000
Ru            0.5023455514        0.5023455514        0.5023455514
Ru            0.7500000000        0.7500000000        0.4923042200
Ru            0.7500000000        0.4923042200        0.7500000000
Ru            0.4923042200        0.7500000000        0.7500000000
End final coordinates

     Writing output data file /scratch/ruocta2.save/

     Final scf calculation at the relaxed structure.
     The G-vectors are recalculated for the final unit cell
     Results may differ from those at the preceding step.

     bravais-lattice index     =            0
     lattice parameter (alat)  =      14.4007  a.u.
     unit-cell volume          =    3162.0813 (a.u.)^3
     number of atoms/cell      =           33
     number of atomic types    =            1
     number of electrons       =       528.00
     number of Kohn-Sham states=          317
     kinetic-energy cutoff     =      71.0000  Ry
     charge density cutoff     =     430.0000  Ry
     scf convergence threshold =      1.6E-08
     mixing beta               =       0.1000
     number of iterations used =           10  TF        mixing
     press convergence thresh. =      5.0E-01
     Exchange-correlation= SLA  PW   PBX  PBC
                           (   1   4   3   4   0   0   0)

     celldm(1)=  14.400742  celldm(2)=   0.000000  celldm(3)=   0.000000
     celldm(4)=   0.000000  celldm(5)=   0.000000  celldm(6)=   0.000000

     crystal axes: (cart. coord. in units of alat)
               a(1) = (   1.019231   0.000000   0.000000 )
               a(2) = (   0.000000   1.019231   0.000000 )
               a(3) = (   0.000000   0.000000   1.019231 )

     reciprocal axes: (cart. coord. in units 2 pi/alat)
               b(1) = (  0.981131  0.000000  0.000000 )
               b(2) = (  0.000000  0.981131  0.000000 )
               b(3) = (  0.000000  0.000000  0.981131 )

     PseudoPot. # 1 for Ru read from file:
     /rds/homes/b/bxp912/pp/Ru.pbe-spn-kjpaw_psl.1.0.0.UPF
     MD5 check sum: 0ae1f594dea09af7be8575c3a481d1ae
     Pseudo is Projector augmented-wave + core cor, Zval = 16.0
     Generated using "atomic" code by A. Dal Corso  v.5.1
     Shape of augmentation charge: PSQ
     Using radial grid of 1233 points,  6 beta functions with:
                l(1) =   0
                l(2) =   0
                l(3) =   1
                l(4) =   1
                l(5) =   2
                l(6) =   2
     Q(r) pseudized with 0 coefficients

     atomic species   valence    mass     pseudopotential
        Ru            16.00   101.07000     Ru( 1.00)

     48 Sym. Ops., with inversion, found (42 have fractional translation)

   Cartesian axes

     site n.     atom                  positions (alat units)
         1           Ru  tau(   1) = (   0.2548079   0.2548079   0.2548079  )
         2           Ru  tau(   2) = (  -0.0023907  -0.0023907  -0.0023907  )
         3           Ru  tau(   3) = (   0.2548079   0.2548079  -0.0547237  )
         4           Ru  tau(   4) = (   0.2548079  -0.0547237   0.2548079  )
         5           Ru  tau(   5) = (  -0.0547237   0.2548079   0.2548079  )
         6           Ru  tau(   6) = (  -0.0023907  -0.0023907   0.5120064  )
         7           Ru  tau(   7) = (   0.2548079   0.2548079   0.5643395  )
         8           Ru  tau(   8) = (   0.2548079  -0.0124320   0.7644236  )
         9           Ru  tau(   9) = (  -0.0124320   0.2548079   0.7644236  )
        10           Ru  tau(  10) = (  -0.0023907   0.5120064  -0.0023907  )
        11           Ru  tau(  11) = (   0.2548079   0.7644236  -0.0124320  )
        12           Ru  tau(  12) = (   0.2548079   0.5643395   0.2548079  )
        13           Ru  tau(  13) = (  -0.0124320   0.7644236   0.2548079  )
        14           Ru  tau(  14) = (  -0.0023907   0.5120064   0.5120064  )
        15           Ru  tau(  15) = (   0.2548079   0.7644236   0.5220478  )
        16           Ru  tau(  16) = (   0.2548079   0.5220478   0.7644236  )
        17           Ru  tau(  17) = (   0.0078438   0.7644236   0.7644236  )
        18           Ru  tau(  18) = (   0.5120064  -0.0023907  -0.0023907  )
        19           Ru  tau(  19) = (   0.7644236   0.2548079  -0.0124320  )
        20           Ru  tau(  20) = (   0.7644236  -0.0124320   0.2548079  )
        21           Ru  tau(  21) = (   0.5643395   0.2548079   0.2548079  )
        22           Ru  tau(  22) = (   0.5120064  -0.0023907   0.5120064  )
        23           Ru  tau(  23) = (   0.7644236   0.2548079   0.5220478  )
        24           Ru  tau(  24) = (   0.7644236   0.0078438   0.7644236  )
        25           Ru  tau(  25) = (   0.5220478   0.2548079   0.7644236  )
        26           Ru  tau(  26) = (   0.5120064   0.5120064  -0.0023907  )
        27           Ru  tau(  27) = (   0.7644236   0.7644236   0.0078438  )
        28           Ru  tau(  28) = (   0.7644236   0.5220478   0.2548079  )
        29           Ru  tau(  29) = (   0.5220478   0.7644236   0.2548079  )
        30           Ru  tau(  30) = (   0.5120064   0.5120064   0.5120064  )
        31           Ru  tau(  31) = (   0.7644236   0.7644236   0.5017719  )
        32           Ru  tau(  32) = (   0.7644236   0.5017719   0.7644236  )
        33           Ru  tau(  33) = (   0.5017719   0.7644236   0.7644236  )

     number of k points=    35  Marzari-Vanderbilt smearing, width (Ry)=  0.0400
                       cart. coord. in units 2pi/alat
        k(    1) = (   0.0545073   0.0545073   0.0545073), wk =   0.0219479
        k(    2) = (   0.0545073   0.0545073   0.1635219), wk =   0.0658436
        k(    3) = (   0.0545073   0.0545073   0.2725365), wk =   0.0658436
        k(    4) = (   0.0545073   0.0545073   0.3815511), wk =   0.0658436
        k(    5) = (   0.0545073   0.0545073  -0.4905657), wk =   0.0329218
        k(    6) = (   0.0545073   0.1635219   0.1635219), wk =   0.0658436
        k(    7) = (   0.0545073   0.1635219   0.2725365), wk =   0.1316872
        k(    8) = (   0.0545073   0.1635219   0.3815511), wk =   0.1316872
        k(    9) = (   0.0545073   0.1635219  -0.4905657), wk =   0.0658436
        k(   10) = (   0.0545073   0.2725365   0.2725365), wk =   0.0658436
        k(   11) = (   0.0545073   0.2725365   0.3815511), wk =   0.1316872
        k(   12) = (   0.0545073   0.2725365  -0.4905657), wk =   0.0658436
        k(   13) = (   0.0545073   0.3815511   0.3815511), wk =   0.0658436
        k(   14) = (   0.0545073   0.3815511  -0.4905657), wk =   0.0658436
        k(   15) = (   0.0545073  -0.4905657  -0.4905657), wk =   0.0164609
        k(   16) = (   0.1635219   0.1635219   0.1635219), wk =   0.0219479
        k(   17) = (   0.1635219   0.1635219   0.2725365), wk =   0.0658436
        k(   18) = (   0.1635219   0.1635219   0.3815511), wk =   0.0658436
        k(   19) = (   0.1635219   0.1635219  -0.4905657), wk =   0.0329218
        k(   20) = (   0.1635219   0.2725365   0.2725365), wk =   0.0658436
        k(   21) = (   0.1635219   0.2725365   0.3815511), wk =   0.1316872
        k(   22) = (   0.1635219   0.2725365  -0.4905657), wk =   0.0658436
        k(   23) = (   0.1635219   0.3815511   0.3815511), wk =   0.0658436
        k(   24) = (   0.1635219   0.3815511  -0.4905657), wk =   0.0658436
        k(   25) = (   0.1635219  -0.4905657  -0.4905657), wk =   0.0164609
        k(   26) = (   0.2725365   0.2725365   0.2725365), wk =   0.0219479
        k(   27) = (   0.2725365   0.2725365   0.3815511), wk =   0.0658436
        k(   28) = (   0.2725365   0.2725365  -0.4905657), wk =   0.0329218
        k(   29) = (   0.2725365   0.3815511   0.3815511), wk =   0.0658436
        k(   30) = (   0.2725365   0.3815511  -0.4905657), wk =   0.0658436
        k(   31) = (   0.2725365  -0.4905657  -0.4905657), wk =   0.0164609
        k(   32) = (   0.3815511   0.3815511   0.3815511), wk =   0.0219479
        k(   33) = (   0.3815511   0.3815511  -0.4905657), wk =   0.0329218
        k(   34) = (   0.3815511  -0.4905657  -0.4905657), wk =   0.0164609
        k(   35) = (  -0.4905657  -0.4905657  -0.4905657), wk =   0.0027435

     Check: negative core charge=   -0.000002

     Initial potential from superposition of free atoms

     starting charge  527.97896, renormalised to  528.00000
     Starting wfcs are  330 randomized atomic wfcs
     Checking if some PAW data can be deallocated...

     Self-consistent Calculation

     iteration #  1     ecut=    71.00 Ry     beta= 0.10
     Davidson diagonalization with overlap
     c_bands:  1 eigenvalues not converged
     c_bands:  1 eigenvalues not converged
     c_bands:  1 eigenvalues not converged
     c_bands:  1 eigenvalues not converged
     c_bands:  1 eigenvalues not converged
     c_bands:  2 eigenvalues not converged
     c_bands:  2 eigenvalues not converged
     c_bands:  1 eigenvalues not converged
     ethr =  1.00E-06,  avg # of iterations = 16.8

[...]

     total energy              =  -14244.54668689 Ry
     estimated scf accuracy    <       0.00000005 Ry

     iteration # 19     ecut=    71.00 Ry     beta= 0.10
     Davidson diagonalization with overlap
     ethr =  8.77E-12,  avg # of iterations =  1.9

     End of self-consistent calculation

[...]

          k = 0.3816-0.4906-0.4906 ( 31952 PWs)   bands (ev):

[...]

          k =-0.4906-0.4906-0.4906 ( 32104 PWs)   bands (ev):

   -51.0934 -50.5791 -50.5791 -50.5791 -50.5769 -50.5769 -50.5769 -50.5065
   -50.5065 -50.5065 -50.4786 -50.4786 -50.4786 -50.4475 -50.4226 -50.4226
   -50.3951 -50.3951 -50.3951 -50.3949 -50.3949 -50.3948 -50.3880 -50.3880
   -50.3880 -50.2266 -50.2266 -50.2266 -50.2252 -50.2252 -50.2252 -50.2251
   -50.2220 -21.5628 -21.5628 -21.5628 -21.0205 -21.0205 -21.0205 -20.8701
   -20.8701 -20.8701 -20.8619 -20.8619 -20.8619 -20.8305 -20.8305 -20.8226
   -20.8102 -20.8102 -20.8102 -20.7848 -20.7561 -20.7561 -20.6881 -20.6881
   -20.6881 -20.6814 -20.6814 -20.6814 -20.6018 -20.6018 -20.6018 -20.5658
   -20.5658 -20.5330 -20.5330 -20.5330 -20.5306 -20.5306 -20.5306 -20.4862
   -20.4862 -20.4862 -20.4758 -20.4758 -20.4427 -20.3810 -20.3647 -20.2921
   -20.2921 -20.2921 -20.2910 -20.2910 -20.2868 -20.2694 -20.2694 -20.2694
   -20.2433 -20.2433 -20.2433 -20.2405 -20.2405 -20.2405 -20.2287 -20.2287
   -20.2287 -20.2173 -20.2173 -20.2007 -20.2007 -20.2007 -20.1936 -20.1936
   -20.1936 -20.1863 -20.1863 -20.1863 -20.1596 -20.1581 -20.1543 -20.1543
   -20.1543 -20.0601 -20.0601 -20.0544 -20.0544 -20.0544 -20.0536 -20.0536
   -20.0536 -20.0417 -20.0417 -20.0282 -20.0282 -20.0282 -20.0056 -20.0056
   -20.0056 -19.9947 -19.9947 -19.9947  16.3785  16.3785  16.3785  16.4914
    16.4914  16.4914  16.6853  16.7422  16.7422  16.7422  16.7626  17.2667
    17.2667  17.2667  17.2976  17.2976  17.3239  17.3239  17.3239  17.3344
    17.3344  17.4211  17.4211  17.4211  17.4456  17.5594  17.5594  17.5594
    17.8292  17.8292  17.8292  17.8328  17.8414  17.8414  17.8664  17.8664
    17.8664  18.0438  18.0438  18.0438  18.2297  18.2297  18.2297  18.3502
    18.3502  18.4662  18.4662  18.4662  18.6655  18.6655  18.6655  18.7419
    18.7419  18.7419  18.7761  18.8383  18.9579  18.9579  19.2594  19.2594
    19.2594  19.3647  19.3647  19.3647  19.5159  19.5159  19.5159  19.7305
    19.7305  19.8607  19.8607  19.9485  19.9485  19.9485  19.9541  19.9541
    19.9541  19.9906  20.0577  20.1928  20.1928  20.1928  20.3473  20.3898
    20.3898  20.3898  20.4799  20.4799  20.4828  20.4828  20.5383  20.5383
    20.5383  20.5421  20.5421  20.5421  20.5514  20.5514  20.5514  20.7581
    20.7581  20.7581  20.8868  20.8868  20.8868  20.8961  21.1456  21.1456
    21.1456  21.2599  21.2599  21.2599  21.2621  21.3785  21.4801  21.4801
    21.4801  21.5789  21.5789  21.7861  21.7861  21.7861  21.8093  21.8093
    21.8093  22.1332  22.1332  22.1332  22.1821  22.1821  22.1821  22.2759
    22.2759  22.2759  22.3043  22.3043  22.3043  22.3085  22.3085  22.6304
    22.6304  22.6304  22.6760  22.6760  23.2224  23.2224  23.2224  23.7847
    23.7847  23.8290  23.8290  23.8290  23.8683  23.9376  23.9376  23.9376
    23.9549  23.9549  23.9549  24.0041  24.0041  24.0262  24.0262  24.0262
    24.0530  24.0530  24.0530  24.0927  24.0927  24.0927  24.7007  24.7110
    24.7110  26.8148  26.8148  26.8148  26.8702  26.8702  26.8702  26.9304
    26.9304  26.9304  27.2310  27.2310  27.2310

     the Fermi energy is    22.4946 ev

!    total energy              =  -14244.54668728 Ry

     total all-electron energy =   -299051.449225 Ry
     estimated scf accuracy    <       0.00000001 Ry
     smearing contrib. (-TS)   =      -0.00245324 Ry
     internal energy E=F+TS    =  -14244.54423404 Ry

     The total energy is F=E-TS. E is the sum of the following terms:
     one-electron contribution =   -1148.08309683 Ry
     hartree contribution      =     992.06446881 Ry
     xc contribution           =    -956.90590537 Ry
     ewald contribution        =   -5305.01790260 Ry
     one-center paw contrib.   =   -7826.60179806 Ry

     convergence has been achieved in  19 iterations

     Forces acting on atoms (cartesian axes, Ry/au):

     atom    1 type  1   force =     0.00000000    0.00000000    0.00000000
     atom    2 type  1   force =     0.00003554    0.00003554    0.00003554
     atom    3 type  1   force =     0.00000000    0.00000000   -0.00002248
     atom    4 type  1   force =     0.00000000   -0.00002248    0.00000000
     atom    5 type  1   force =    -0.00002248    0.00000000   -0.00000000
     atom    6 type  1   force =     0.00003554    0.00003554   -0.00003554
     atom    7 type  1   force =     0.00000000    0.00000000    0.00002248
     atom    8 type  1   force =     0.00000000    0.00004863    0.00000000
     atom    9 type  1   force =     0.00004863   -0.00000000   -0.00000000
     atom   10 type  1   force =     0.00003554   -0.00003554    0.00003554
     atom   11 type  1   force =    -0.00000000    0.00000000    0.00004863
     atom   12 type  1   force =     0.00000000    0.00002248    0.00000000
     atom   13 type  1   force =     0.00004863    0.00000000   -0.00000000
     atom   14 type  1   force =     0.00003554   -0.00003554   -0.00003554
     atom   15 type  1   force =     0.00000000    0.00000000   -0.00004863
     atom   16 type  1   force =     0.00000000   -0.00004863    0.00000000
     atom   17 type  1   force =     0.00015650    0.00000000   -0.00000000
     atom   18 type  1   force =    -0.00003554    0.00003554    0.00003554
     atom   19 type  1   force =     0.00000000    0.00000000    0.00004863
     atom   20 type  1   force =     0.00000000    0.00004863    0.00000000
     atom   21 type  1   force =     0.00002248    0.00000000   -0.00000000
     atom   22 type  1   force =    -0.00003554    0.00003554   -0.00003554
     atom   23 type  1   force =     0.00000000    0.00000000   -0.00004863
     atom   24 type  1   force =     0.00000000    0.00015650   -0.00000000
     atom   25 type  1   force =    -0.00004863   -0.00000000   -0.00000000
     atom   26 type  1   force =    -0.00003554   -0.00003554    0.00003554
     atom   27 type  1   force =    -0.00000000    0.00000000    0.00015650
     atom   28 type  1   force =     0.00000000   -0.00004863    0.00000000
     atom   29 type  1   force =    -0.00004863    0.00000000    0.00000000
     atom   30 type  1   force =    -0.00003554   -0.00003554   -0.00003554
     atom   31 type  1   force =    -0.00000000    0.00000000   -0.00015650
     atom   32 type  1   force =     0.00000000   -0.00015650   -0.00000000
     atom   33 type  1   force =    -0.00015650    0.00000000   -0.00000000

     Total force =     0.000457     Total SCF correction =     0.000111
     SCF correction compared to forces is large: reduce conv_thr to get better values

     Computing stress (Cartesian axis) and pressure

          total   stress  (Ry/bohr**3)                   (kbar)     P=        1.55
   0.00001056   0.00000000   0.00000000            1.55        0.00        0.00
   0.00000000   0.00001056   0.00000000            0.00        1.55        0.00
   0.00000000   0.00000000   0.00001056            0.00        0.00        1.55

     Writing output data file /scratch/ruocta2.save/

     General routines

     Parallel routines

   This run was terminated on:  23:41: 8   2Jan2022

   JOB DONE.