     Program PWSCF v.6.7MaX starts on  2Jan2022 at 21:50:50

     R & G space division:  proc/nbgrp/npool/nimage =      72
     Reading input from ru_octa_1.in
Warning: card &CELL ignored
Warning: card CELL_DYNAMICS = 'BFGS', ignored
Warning: card CELL_FACTOR = 2.0, ignored
Warning: card PRESS = 0.0, ignored
Warning: card / ignored

     Current dimensions of program PWSCF are:
     Max number of different atomic species (ntypx) = 10
     Max number of k-points (npk) =  40000
     Max angular momentum in pseudopotentials (lmaxx) =  3
     file Ru.pbe-spn-kjpaw_psl.1.0.0.UPF: wavefunction(s)  4D renormalized

     Subspace diagonalization in iterative solution of the eigenvalue problem:
     one sub-group per band group will be used

     Message from routine setup:
     using ibrav=0 with symmetry is DISCOURAGED, use correct ibrav instead

     bravais-lattice index     =            0
     lattice parameter (alat)  =      14.4007  a.u.
     unit-cell volume          =    2986.4454 (a.u.)^3
     number of atoms/cell      =           33
     number of atomic types    =            1
     number of electrons       =       528.00
     number of Kohn-Sham states=          317
     kinetic-energy cutoff     =      71.0000  Ry
     charge density cutoff     =     430.0000  Ry
     scf convergence threshold =      1.0E-06
     mixing beta               =       0.1000
     number of iterations used =           10  TF        mixing
     Exchange-correlation= SLA  PW   PBX  PBC
                           (   1   4   3   4   0   0   0)

     celldm(1)=  14.400742  celldm(2)=   0.000000  celldm(3)=   0.000000
     celldm(4)=   0.000000  celldm(5)=   0.000000  celldm(6)=   0.000000

     crystal axes: (cart. coord. in units of alat)
               a(1) = (   1.000000   0.000000   0.000000 )
               a(2) = (   0.000000   1.000000   0.000000 )
               a(3) = (   0.000000   0.000000   1.000000 )

     reciprocal axes: (cart. coord. in units 2 pi/alat)
               b(1) = (  1.000000  0.000000  0.000000 )
               b(2) = (  0.000000  1.000000  0.000000 )
               b(3) = (  0.000000  0.000000  1.000000 )

     PseudoPot. # 1 for Ru read from file:
     /rds/homes/b/bxp912/pp/Ru.pbe-spn-kjpaw_psl.1.0.0.UPF
     MD5 check sum: 0ae1f594dea09af7be8575c3a481d1ae
     Pseudo is Projector augmented-wave + core cor, Zval = 16.0
     Generated using "atomic" code by A. Dal Corso  v.5.1
     Shape of augmentation charge: PSQ
     Using radial grid of 1233 points,  6 beta functions with:
                l(1) =   0
                l(2) =   0
                l(3) =   1
                l(4) =   1
                l(5) =   2
                l(6) =   2
     Q(r) pseudized with 0 coefficients

     atomic species   valence    mass     pseudopotential
        Ru            16.00   101.07000     Ru( 1.00)

     48 Sym. Ops., with inversion, found (42 have fractional translation)

   Cartesian axes

     site n.     atom                  positions (alat units)
         1           Ru  tau(   1) = (   0.2500000   0.2500000   0.2500000  )
         2           Ru  tau(   2) = (   0.0000000   0.0000000   0.0000000  )
         3           Ru  tau(   3) = (   0.2500000   0.2500000   0.0000000  )
         4           Ru  tau(   4) = (   0.2500000   0.0000000   0.2500000  )
         5           Ru  tau(   5) = (   0.0000000   0.2500000   0.2500000  )
         6           Ru  tau(   6) = (   0.0000000   0.0000000   0.5000000  )
         7           Ru  tau(   7) = (   0.2500000   0.2500000   0.5000000  )
         8           Ru  tau(   8) = (   0.2500000   0.0000000   0.7500000  )
         9           Ru  tau(   9) = (   0.0000000   0.2500000   0.7500000  )
        10           Ru  tau(  10) = (   0.0000000   0.5000000   0.0000000  )
        11           Ru  tau(  11) = (   0.2500000   0.7500000   0.0000000  )
        12           Ru  tau(  12) = (   0.2500000   0.5000000   0.2500000  )
        13           Ru  tau(  13) = (   0.0000000   0.7500000   0.2500000  )
        14           Ru  tau(  14) = (   0.0000000   0.5000000   0.5000000  )
        15           Ru  tau(  15) = (   0.2500000   0.7500000   0.5000000  )
        16           Ru  tau(  16) = (   0.2500000   0.5000000   0.7500000  )
        17           Ru  tau(  17) = (   0.0000000   0.7500000   0.7500000  )
        18           Ru  tau(  18) = (   0.5000000   0.0000000   0.0000000  )
        19           Ru  tau(  19) = (   0.7500000   0.2500000   0.0000000  )
        20           Ru  tau(  20) = (   0.7500000   0.0000000   0.2500000  )
        21           Ru  tau(  21) = (   0.5000000   0.2500000   0.2500000  )
        22           Ru  tau(  22) = (   0.5000000   0.0000000   0.5000000  )
        23           Ru  tau(  23) = (   0.7500000   0.2500000   0.5000000  )
        24           Ru  tau(  24) = (   0.7500000   0.0000000   0.7500000  )
        25           Ru  tau(  25) = (   0.5000000   0.2500000   0.7500000  )
        26           Ru  tau(  26) = (   0.5000000   0.5000000   0.0000000  )
        27           Ru  tau(  27) = (   0.7500000   0.7500000   0.0000000  )
        28           Ru  tau(  28) = (   0.7500000   0.5000000   0.2500000  )
        29           Ru  tau(  29) = (   0.5000000   0.7500000   0.2500000  )
        30           Ru  tau(  30) = (   0.5000000   0.5000000   0.5000000  )
        31           Ru  tau(  31) = (   0.7500000   0.7500000   0.5000000  )
        32           Ru  tau(  32) = (   0.7500000   0.5000000   0.7500000  )
        33           Ru  tau(  33) = (   0.5000000   0.7500000   0.7500000  )

     number of k points=    35  Marzari-Vanderbilt smearing, width (Ry)=  0.0400
                       cart. coord. in units 2pi/alat
        k(    1) = (   0.0555556   0.0555556   0.0555556), wk =   0.0219479
        k(    2) = (   0.0555556   0.0555556   0.1666667), wk =   0.0658436
        k(    3) = (   0.0555556   0.0555556   0.2777778), wk =   0.0658436
        k(    4) = (   0.0555556   0.0555556   0.3888889), wk =   0.0658436
        k(    5) = (   0.0555556   0.0555556  -0.5000000), wk =   0.0329218
        k(    6) = (   0.0555556   0.1666667   0.1666667), wk =   0.0658436
        k(    7) = (   0.0555556   0.1666667   0.2777778), wk =   0.1316872
        k(    8) = (   0.0555556   0.1666667   0.3888889), wk =   0.1316872
        k(    9) = (   0.0555556   0.1666667  -0.5000000), wk =   0.0658436
        k(   10) = (   0.0555556   0.2777778   0.2777778), wk =   0.0658436
        k(   11) = (   0.0555556   0.2777778   0.3888889), wk =   0.1316872
        k(   12) = (   0.0555556   0.2777778  -0.5000000), wk =   0.0658436
        k(   13) = (   0.0555556   0.3888889   0.3888889), wk =   0.0658436
        k(   14) = (   0.0555556   0.3888889  -0.5000000), wk =   0.0658436
        k(   15) = (   0.0555556  -0.5000000  -0.5000000), wk =   0.0164609
        k(   16) = (   0.1666667   0.1666667   0.1666667), wk =   0.0219479
        k(   17) = (   0.1666667   0.1666667   0.2777778), wk =   0.0658436
        k(   18) = (   0.1666667   0.1666667   0.3888889), wk =   0.0658436
        k(   19) = (   0.1666667   0.1666667  -0.5000000), wk =   0.0329218
        k(   20) = (   0.1666667   0.2777778   0.2777778), wk =   0.0658436
        k(   21) = (   0.1666667   0.2777778   0.3888889), wk =   0.1316872
        k(   22) = (   0.1666667   0.2777778  -0.5000000), wk =   0.0658436
        k(   23) = (   0.1666667   0.3888889   0.3888889), wk =   0.0658436
        k(   24) = (   0.1666667   0.3888889  -0.5000000), wk =   0.0658436
        k(   25) = (   0.1666667  -0.5000000  -0.5000000), wk =   0.0164609
        k(   26) = (   0.2777778   0.2777778   0.2777778), wk =   0.0219479
        k(   27) = (   0.2777778   0.2777778   0.3888889), wk =   0.0658436
        k(   28) = (   0.2777778   0.2777778  -0.5000000), wk =   0.0329218
        k(   29) = (   0.2777778   0.3888889   0.3888889), wk =   0.0658436
        k(   30) = (   0.2777778   0.3888889  -0.5000000), wk =   0.0658436
        k(   31) = (   0.2777778  -0.5000000  -0.5000000), wk =   0.0164609
        k(   32) = (   0.3888889   0.3888889   0.3888889), wk =   0.0219479
        k(   33) = (   0.3888889   0.3888889  -0.5000000), wk =   0.0329218
        k(   34) = (   0.3888889  -0.5000000  -0.5000000), wk =   0.0164609
        k(   35) = (  -0.5000000  -0.5000000  -0.5000000), wk =   0.0027435

     Check: negative core charge=   -0.000002

     Initial potential from superposition of free atoms

     starting charge  527.97896, renormalised to  528.00000
     Starting wfcs are  330 randomized atomic wfcs
     Checking if some PAW data can be deallocated...

     Self-consistent Calculation

     iteration #  1     ecut=    71.00 Ry     beta= 0.10
     Davidson diagonalization with overlap
     ethr =  1.00E-02,  avg # of iterations =  4.3

     Threshold (ethr) on eigenvalues was too large:
     Diagonalizing with lowered threshold

     Davidson diagonalization with overlap
     ethr =  8.18E-04,  avg # of iterations =  2.7

     total energy              =  -14243.09783913 Ry
     estimated scf accuracy    <       4.49773994 Ry

[...]

     iteration #  5     ecut=    71.00 Ry     beta= 0.10
     Davidson diagonalization with overlap
     c_bands:  2 eigenvalues not converged
     ethr =  1.05E-05,  avg # of iterations =  6.6

[...]

     total energy              =  -14242.88184235 Ry
     estimated scf accuracy    <       0.00000243 Ry

     iteration # 15     ecut=    71.00 Ry     beta= 0.10
     Davidson diagonalization with overlap
     ethr =  4.60E-10,  avg # of iterations =  2.0

     End of self-consistent calculation

          k = 0.0556 0.0556 0.0556 ( 30224 PWs)   bands (ev):

   -53.4896 -49.3308 -49.3308 -49.3308 -49.2647 -49.2647 -48.9730 -48.9007
   -48.8421 -48.8421 -48.8357 -48.8281 -48.8281 -48.8053 -48.7968 -48.7963
   -48.7963 -48.7796 -48.7796 -48.7762 -48.7697 -48.7697 -48.7534 -48.7532
   -48.7522 -48.7522 -48.7388 -48.7388 -48.7213 -48.7186 -48.7186 -48.7186
   -48.7088 -25.0853 -25.0853 -25.0853 -20.0945 -20.0945 -19.9801 -19.5129
   -19.5129 -19.5113 -19.3280 -19.3271 -19.3271 -19.2526 -19.2275 -19.2275
   -19.2183 -19.2179 -19.2096 -19.2096 -19.1725 -19.1725 -19.1657 -19.1145
   -19.1022 -19.1022 -19.0538 -19.0538 -19.0369 -19.0332 -19.0253 -19.0253
   -19.0182 -19.0182 -19.0074 -18.9873 -18.9873 -18.9311 -18.9173 -18.9173
   -18.9031 -18.8885 -18.8885 -18.8668 -18.8668 -18.8552 -18.8531 -18.8459
   -18.8442 -18.8442 -18.7730 -18.7730 -18.7565 -18.7443 -18.7443 -18.7428
   -18.7405 -18.7405 -18.7384 -18.7214 -18.7211 -18.7211 -18.6565 -18.6565
   -18.6526 -18.6526 -18.6503 -18.6280 -18.6200 -18.6200 -18.5775 -18.5775
   -18.5726 -18.5595 -18.5536 -18.5536 -18.5328 -18.5328 -18.5282 -18.5273
   -18.5195 -18.5195 -18.5104 -18.5104 -18.5093 -18.4995 -18.4995 -18.4958
   -18.4913 -18.4913 -18.4891 -18.4851 -18.4851 -18.4704 -18.3930 -18.3870
   -18.3870 -17.9873 -17.9863 -17.9863  13.5213  13.5213  13.5213  14.9187
    14.9187  16.1025  17.6976  17.6976  17.7870  17.8015  17.8059  17.8059
    17.9099  18.3793  18.4393  18.4393  18.5688  18.5688  18.5698  18.5791
    18.6855  18.6855  19.1142  19.1165  19.1165  19.2947  19.3787  19.3787
    19.4081  19.5038  19.5098  19.5098  19.5810  19.5810  19.6366  19.6366
    19.6381  19.7322  19.7592  19.7592  19.8131  19.8961  19.8961  19.9905
    20.0756  20.0756  20.2098  20.2551  20.2551  20.3129  20.3252  20.3252
    20.3778  20.4358  20.4358  20.4669  20.5123  20.5306  20.5306  20.5732
    20.5732  20.6750  20.7142  20.7142  20.7676  20.7676  20.7868  20.8093
    20.8093  20.8363  20.8554  20.8936  20.8936  20.9533  20.9533  20.9823
    21.2122  21.2122  21.2382  21.2496  21.2614  21.2614  21.3489  21.3689
    21.3689  21.4021  21.4021  21.4043  21.4886  21.4886  22.3008  22.4734
    22.4734  22.4852  22.5262  22.5262  22.6187  22.6187  22.6633  22.6883
    22.7094  22.7094  22.7619  22.7645  22.7645  22.7877  22.7877  22.8268
    22.8268  22.8405  22.8493  22.9512  23.0775  23.0775  23.1588  23.1588
    23.2909  23.3079  23.4039  23.4039  23.4640  23.4640  23.4790  23.5144
    23.5525  23.5525  23.6006  23.6006  23.6017  23.6495  23.6917  23.6917
    23.7005  23.7005  23.7370  23.8487  23.8487  23.9555  24.1086  24.1086
    24.4765  24.4765  24.6013  24.6484  24.7114  24.7114  24.8089  24.9028
    25.3618  25.3618  25.5204  25.5204  25.5437  25.5832  25.6062  25.6062
    25.6643  25.6643  25.7267  25.8091  25.8091  25.8217  26.0012  26.0679
    26.0679  26.1417  26.1781  26.1781  26.1897  26.1897  26.2159  26.5010
    26.5010  26.5142  27.2405  27.2405  27.5256  27.6747  27.6747  27.6952
    27.8033  27.8033  28.0138  28.0138  28.0139

[...]

          k = 0.3889-0.5000-0.5000 ( 30188 PWs)   bands (ev):

[...]

          k =-0.5000-0.5000-0.5000 ( 30280 PWs)   bands (ev):

   -53.4896 -49.3338 -49.3338 -49.3338 -49.2616 -49.2616 -48.9365 -48.8936
   -48.8717 -48.8717 -48.8717 -48.8218 -48.8218 -48.8218 -48.7937 -48.7937
   -48.7762 -48.7762 -48.7762 -48.7489 -48.7489 -48.7489 -48.7487 -48.7487
   -48.7487 -48.7420 -48.7373 -48.7322 -48.7322 -48.7322 -48.7318 -48.7318
   -48.7318 -25.0861 -25.0861 -25.0861 -20.0811 -20.0811 -19.9586 -19.4584
   -19.4584 -19.4584 -19.3047 -19.3047 -19.3047 -19.2915 -19.2915 -19.2915
   -19.2184 -19.2184 -19.2184 -19.2029 -19.1999 -19.1999 -19.1999 -19.1870
   -19.1870 -19.1370 -19.1370 -19.1358 -19.1358 -19.1358 -18.9596 -18.9596
   -18.9596 -18.9327 -18.9327 -18.9327 -18.9311 -18.9311 -18.9311 -18.9306
   -18.9267 -18.9267 -18.9267 -18.8753 -18.7925 -18.7925 -18.7925 -18.7685
   -18.7685 -18.7572 -18.7572 -18.7572 -18.7562 -18.7457 -18.7430 -18.7430
   -18.7430 -18.6887 -18.6887 -18.6887 -18.6857 -18.6857 -18.6857 -18.6785
   -18.6785 -18.6785 -18.6740 -18.6740 -18.6239 -18.6239 -18.6239 -18.6164
   -18.6057 -18.6057 -18.5990 -18.5990 -18.5990 -18.5974 -18.5974 -18.5974
   -18.5947 -18.5297 -18.5297 -18.5297 -18.4567 -18.4567 -18.4540 -18.4540
   -18.4540 -18.4513 -18.4513 -18.4513 -18.4247 -18.4247 -18.4170 -18.4170
   -18.4170 -17.9808 -17.9808 -17.9808  13.5201  13.5201  13.5201  15.1031
    15.1031  17.5522  17.7858  17.7858  17.7858  17.9535  18.0613  18.0613
    18.0613  18.5391  18.5391  18.5391  18.6569  18.6845  18.6845  18.6845
    18.7122  18.7122  18.8929  18.8929  18.8929  18.9015  18.9015  18.9069
    18.9069  18.9069  18.9284  18.9284  18.9284  19.0374  19.3692  19.3692
    19.3692  19.6604  19.6604  19.6604  19.7880  19.7880  19.8011  19.8011
    19.8011  19.8244  19.9337  19.9337  19.9337  19.9342  19.9342  19.9342
    19.9489  19.9489  19.9489  19.9522  19.9522  20.2782  20.5094  20.5094
    20.5094  21.0896  21.1353  21.1353  21.1353  21.1924  21.1924  21.1924
    21.3790  21.5198  21.5198  21.5198  21.7004  21.7004  21.7004  21.7184
    21.7184  21.7184  21.7754  21.7754  21.7754  21.8022  21.8022  21.8795
    21.9111  21.9111  21.9111  21.9305  21.9305  21.9305  21.9810  21.9810
    21.9878  21.9878  21.9878  22.0010  22.0040  22.0040  22.0211  22.0211
    22.0211  22.0255  22.0255  22.0255  22.1660  22.1660  22.9613  22.9613
    22.9613  23.0495  23.0977  23.0977  23.0977  23.2074  23.2074  23.2187
    23.2187  23.2187  23.2429  23.2429  23.2429  23.2440  23.2588  23.2588
    23.2588  23.2669  23.2669  23.2669  23.4948  23.4948  23.6259  23.6259
    23.6259  23.9154  23.9154  23.9154  23.9499  23.9499  23.9499  24.0560
    24.0560  24.0863  24.0863  24.0863  25.1980  25.1980  25.5555  25.5555
    25.5555  25.5662  25.5662  25.5662  25.6198  25.6198  25.6198  25.7000
    25.7000  25.7000  25.7798  25.8061  25.8061  25.8818  25.8941  25.8941
    25.8941  25.8982  25.8982  25.8982  26.0658  26.0658  26.0658  27.9616
    27.9616  29.0704  29.0704  29.0704  29.0765  29.0766  29.0767  29.0800
    29.0890  29.0891  29.0895  29.1992  29.2063

     the Fermi energy is    24.0743 ev

!    total energy              =  -14242.88184369 Ry

     total all-electron energy =   -299049.784381 Ry
     estimated scf accuracy    <       0.00000008 Ry
     smearing contrib. (-TS)   =       0.02010336 Ry
     internal energy E=F+TS    =  -14242.90194705 Ry

     The total energy is F=E-TS. E is the sum of the following terms:
     one-electron contribution =   -1116.26534753 Ry
     hartree contribution      =    1004.60857248 Ry
     xc contribution           =    -960.28322817 Ry
     ewald contribution        =   -5344.21191552 Ry
     one-center paw contrib.   =   -7826.75002830 Ry

     convergence has been achieved in  15 iterations

     Forces acting on atoms (cartesian axes, Ry/au):

     atom    1 type  1   force =     0.00000000    0.00000000    0.00000000
     atom    2 type  1   force =    -0.02382788   -0.02382788   -0.02382788
     atom    3 type  1   force =     0.00000000    0.00000000   -0.86261697
     atom    4 type  1   force =     0.00000000   -0.86261697    0.00000000
     atom    5 type  1   force =    -0.86261697    0.00000000    0.00000000
     atom    6 type  1   force =    -0.02382788   -0.02382788    0.02382788
     atom    7 type  1   force =     0.00000000    0.00000000    0.86261697
     atom    8 type  1   force =     0.00000000   -0.01806218    0.00000000
     atom    9 type  1   force =    -0.01806218    0.00000000   -0.00000000
     atom   10 type  1   force =    -0.02382788    0.02382788   -0.02382788
     atom   11 type  1   force =     0.00000000    0.00000000   -0.01806218
     atom   12 type  1   force =     0.00000000    0.86261697    0.00000000
     atom   13 type  1   force =    -0.01806218    0.00000000   -0.00000000
     atom   14 type  1   force =    -0.02382788    0.02382788    0.02382788
     atom   15 type  1   force =     0.00000000    0.00000000    0.01806218
     atom   16 type  1   force =     0.00000000    0.01806218    0.00000000
     atom   17 type  1   force =     0.00282743    0.00000000   -0.00000000
     atom   18 type  1   force =     0.02382788   -0.02382788   -0.02382788
     atom   19 type  1   force =     0.00000000    0.00000000   -0.01806218
     atom   20 type  1   force =     0.00000000   -0.01806218    0.00000000
     atom   21 type  1   force =     0.86261697    0.00000000   -0.00000000
     atom   22 type  1   force =     0.02382788   -0.02382788    0.02382788
     atom   23 type  1   force =     0.00000000    0.00000000    0.01806218
     atom   24 type  1   force =     0.00000000    0.00282743   -0.00000000
     atom   25 type  1   force =     0.01806218    0.00000000    0.00000000
     atom   26 type  1   force =     0.02382788    0.02382788   -0.02382788
     atom   27 type  1   force =     0.00000000    0.00000000    0.00282743
     atom   28 type  1   force =     0.00000000    0.01806218    0.00000000
     atom   29 type  1   force =     0.01806218    0.00000000   -0.00000000
     atom   30 type  1   force =     0.02382788    0.02382788    0.02382788
     atom   31 type  1   force =     0.00000000    0.00000000   -0.00282743
     atom   32 type  1   force =     0.00000000   -0.00282743    0.00000000
     atom   33 type  1   force =    -0.00282743    0.00000000    0.00000000

     Total force =     2.117130     Total SCF correction =     0.000645

     Computing stress (Cartesian axis) and pressure

          total   stress  (Ry/bohr**3)                   (kbar)     P=      352.58
   0.00239681   0.00000000   0.00000000          352.58        0.00        0.00
   0.00000000   0.00239681   0.00000000            0.00      352.58        0.00
   0.00000000   0.00000000   0.00239681            0.00        0.00      352.58

     Writing output data file /scratch/ruocta1.save/

     General routines

     Parallel routines

   This run was terminated on:  22: 0:14   2Jan2022

   JOB DONE.