     Program PWSCF v.6.7MaX starts on  2Jan2022 at 23:41:13

     R & G space division:  proc/nbgrp/npool/nimage =      72
     Reading input from ru_tetra_1.in
Warning: card &CELL ignored
Warning: card CELL_DYNAMICS = 'BFGS', ignored
Warning: card CELL_FACTOR = 2.0, ignored
Warning: card PRESS = 0.0, ignored
Warning: card / ignored

     Current dimensions of program PWSCF are:
     Max number of different atomic species (ntypx) = 10
     Max number of k-points (npk) =  40000
     Max angular momentum in pseudopotentials (lmaxx) =  3
     file Ru.pbe-spn-kjpaw_psl.1.0.0.UPF: wavefunction(s)  4D renormalized

     Subspace diagonalization in iterative solution of the eigenvalue problem:
     one sub-group per band group will be used

     Message from routine setup:
     using ibrav=0 with symmetry is DISCOURAGED, use correct ibrav instead

     bravais-lattice index     =            0
     lattice parameter (alat)  =      14.4007  a.u.
     unit-cell volume          =    2986.4454 (a.u.)^3
     number of atoms/cell      =           33
     number of atomic types    =            1
     number of electrons       =       528.00
     number of Kohn-Sham states=          317
     kinetic-energy cutoff     =      71.0000  Ry
     charge density cutoff     =     430.0000  Ry
     scf convergence threshold =      1.0E-06
     mixing beta               =       0.1000
     number of iterations used =           10  TF        mixing
     Exchange-correlation= SLA  PW   PBX  PBC
                           (   1   4   3   4   0   0   0)

     celldm(1)=  14.400742  celldm(2)=   0.000000  celldm(3)=   0.000000
     celldm(4)=   0.000000  celldm(5)=   0.000000  celldm(6)=   0.000000

     crystal axes: (cart. coord. in units of alat)
               a(1) = (   1.000000   0.000000   0.000000 )
               a(2) = (   0.000000   1.000000   0.000000 )
               a(3) = (   0.000000   0.000000   1.000000 )

     reciprocal axes: (cart. coord. in units 2 pi/alat)
               b(1) = (  1.000000  0.000000  0.000000 )
               b(2) = (  0.000000  1.000000  0.000000 )
               b(3) = (  0.000000  0.000000  1.000000 )

     PseudoPot. # 1 for Ru read from file:
     /rds/homes/b/bxp912/pp/Ru.pbe-spn-kjpaw_psl.1.0.0.UPF
     MD5 check sum: 0ae1f594dea09af7be8575c3a481d1ae
     Pseudo is Projector augmented-wave + core cor, Zval = 16.0
     Generated using "atomic" code by A. Dal Corso  v.5.1
     Shape of augmentation charge: PSQ
     Using radial grid of 1233 points,  6 beta functions with:
                l(1) =   0
                l(2) =   0
                l(3) =   1
                l(4) =   1
                l(5) =   2
                l(6) =   2
     Q(r) pseudized with 0 coefficients

     atomic species   valence    mass     pseudopotential
        Ru            16.00   101.07000     Ru( 1.00)

     24 Sym. Ops. (no inversion) found (18 have fractional translation)

   Cartesian axes

     site n.     atom                  positions (alat units)
         1           Ru  tau(   1) = (   0.1250000   0.1250000   0.1250000  )
         2           Ru  tau(   2) = (   0.0000000   0.0000000   0.0000000  )
         3           Ru  tau(   3) = (   0.2500000   0.2500000   0.0000000  )
         4           Ru  tau(   4) = (   0.2500000   0.0000000   0.2500000  )
         5           Ru  tau(   5) = (   0.0000000   0.2500000   0.2500000  )
         6           Ru  tau(   6) = (   0.0000000   0.0000000   0.5000000  )
         7           Ru  tau(   7) = (   0.2500000   0.2500000   0.5000000  )
         8           Ru  tau(   8) = (   0.2500000   0.0000000   0.7500000  )
         9           Ru  tau(   9) = (   0.0000000   0.2500000   0.7500000  )
        10           Ru  tau(  10) = (   0.0000000   0.5000000   0.0000000  )
        11           Ru  tau(  11) = (   0.2500000   0.7500000   0.0000000  )
        12           Ru  tau(  12) = (   0.2500000   0.5000000   0.2500000  )
        13           Ru  tau(  13) = (   0.0000000   0.7500000   0.2500000  )
        14           Ru  tau(  14) = (   0.0000000   0.5000000   0.5000000  )
        15           Ru  tau(  15) = (   0.2500000   0.7500000   0.5000000  )
        16           Ru  tau(  16) = (   0.2500000   0.5000000   0.7500000  )
        17           Ru  tau(  17) = (   0.0000000   0.7500000   0.7500000  )
        18           Ru  tau(  18) = (   0.5000000   0.0000000   0.0000000  )
        19           Ru  tau(  19) = (   0.7500000   0.2500000   0.0000000  )
        20           Ru  tau(  20) = (   0.7500000   0.0000000   0.2500000  )
        21           Ru  tau(  21) = (   0.5000000   0.2500000   0.2500000  )
        22           Ru  tau(  22) = (   0.5000000   0.0000000   0.5000000  )
        23           Ru  tau(  23) = (   0.7500000   0.2500000   0.5000000  )
        24           Ru  tau(  24) = (   0.7500000   0.0000000   0.7500000  )
        25           Ru  tau(  25) = (   0.5000000   0.2500000   0.7500000  )
        26           Ru  tau(  26) = (   0.5000000   0.5000000   0.0000000  )
        27           Ru  tau(  27) = (   0.7500000   0.7500000   0.0000000  )
        28           Ru  tau(  28) = (   0.7500000   0.5000000   0.2500000  )
        29           Ru  tau(  29) = (   0.5000000   0.7500000   0.2500000  )
        30           Ru  tau(  30) = (   0.5000000   0.5000000   0.5000000  )
        31           Ru  tau(  31) = (   0.7500000   0.7500000   0.5000000  )
        32           Ru  tau(  32) = (   0.7500000   0.5000000   0.7500000  )
        33           Ru  tau(  33) = (   0.5000000   0.7500000   0.7500000  )

     number of k points=    35  Marzari-Vanderbilt smearing, width (Ry)=  0.0400
                       cart. coord. in units 2pi/alat
        k(    1) = (   0.0555556   0.0555556   0.0555556), wk =   0.0219479
        k(    2) = (   0.0555556   0.0555556   0.1666667), wk =   0.0658436
        k(    3) = (   0.0555556   0.0555556   0.2777778), wk =   0.0658436
        k(    4) = (   0.0555556   0.0555556   0.3888889), wk =   0.0658436
        k(    5) = (   0.0555556   0.0555556  -0.5000000), wk =   0.0329218
        k(    6) = (   0.0555556   0.1666667   0.1666667), wk =   0.0658436
        k(    7) = (   0.0555556   0.1666667   0.2777778), wk =   0.1316872
        k(    8) = (   0.0555556   0.1666667   0.3888889), wk =   0.1316872
        k(    9) = (   0.0555556   0.1666667  -0.5000000), wk =   0.0658436
        k(   10) = (   0.0555556   0.2777778   0.2777778), wk =   0.0658436
        k(   11) = (   0.0555556   0.2777778   0.3888889), wk =   0.1316872
        k(   12) = (   0.0555556   0.2777778  -0.5000000), wk =   0.0658436
        k(   13) = (   0.0555556   0.3888889   0.3888889), wk =   0.0658436
        k(   14) = (   0.0555556   0.3888889  -0.5000000), wk =   0.0658436
        k(   15) = (   0.0555556  -0.5000000  -0.5000000), wk =   0.0164609
        k(   16) = (   0.1666667   0.1666667   0.1666667), wk =   0.0219479
        k(   17) = (   0.1666667   0.1666667   0.2777778), wk =   0.0658436
        k(   18) = (   0.1666667   0.1666667   0.3888889), wk =   0.0658436
        k(   19) = (   0.1666667   0.1666667  -0.5000000), wk =   0.0329218
        k(   20) = (   0.1666667   0.2777778   0.2777778), wk =   0.0658436
        k(   21) = (   0.1666667   0.2777778   0.3888889), wk =   0.1316872
        k(   22) = (   0.1666667   0.2777778  -0.5000000), wk =   0.0658436
        k(   23) = (   0.1666667   0.3888889   0.3888889), wk =   0.0658436
        k(   24) = (   0.1666667   0.3888889  -0.5000000), wk =   0.0658436
        k(   25) = (   0.1666667  -0.5000000  -0.5000000), wk =   0.0164609
        k(   26) = (   0.2777778   0.2777778   0.2777778), wk =   0.0219479
        k(   27) = (   0.2777778   0.2777778   0.3888889), wk =   0.0658436
        k(   28) = (   0.2777778   0.2777778  -0.5000000), wk =   0.0329218
        k(   29) = (   0.2777778   0.3888889   0.3888889), wk =   0.0658436
        k(   30) = (   0.2777778   0.3888889  -0.5000000), wk =   0.0658436
        k(   31) = (   0.2777778  -0.5000000  -0.5000000), wk =   0.0164609
        k(   32) = (   0.3888889   0.3888889   0.3888889), wk =   0.0219479
        k(   33) = (   0.3888889   0.3888889  -0.5000000), wk =   0.0329218
        k(   34) = (   0.3888889  -0.5000000  -0.5000000), wk =   0.0164609
        k(   35) = (  -0.5000000  -0.5000000  -0.5000000), wk =   0.0027435

     Check: negative core charge=   -0.000002

     Initial potential from superposition of free atoms

     starting charge  527.97896, renormalised to  528.00000
     Starting wfcs are  330 randomized atomic wfcs
     Checking if some PAW data can be deallocated...

     Self-consistent Calculation

     iteration #  1     ecut=    71.00 Ry     beta= 0.10
     Davidson diagonalization with overlap
     ethr =  1.00E-02,  avg # of iterations =  4.3

     Threshold (ethr) on eigenvalues was too large:
     Diagonalizing with lowered threshold

     Davidson diagonalization with overlap
     ethr =  9.44E-04,  avg # of iterations =  1.8

     total energy              =  -14241.53827007 Ry
     estimated scf accuracy    <       5.27612093 Ry

[...]

     iteration #  5     ecut=    71.00 Ry     beta= 0.10
     Davidson diagonalization with overlap
     c_bands:  1 eigenvalues not converged
     ethr =  5.68E-05,  avg # of iterations =  5.1

[...]

     total energy              =  -14241.17847666 Ry
     estimated scf accuracy    <       0.00000103 Ry

     iteration # 16     ecut=    71.00 Ry     beta= 0.10
     Davidson diagonalization with overlap
     ethr =  1.94E-10,  avg # of iterations =  2.3

     End of self-consistent calculation

          k = 0.0556 0.0556 0.0556 ( 30224 PWs)   bands (ev):

   -56.9280 -50.1950 -50.1950 -50.1950 -48.9578 -48.8717 -48.8717 -48.8588
   -48.8528 -48.8528 -48.8226 -48.8182 -48.8182 -48.8172 -48.8129 -48.8129
   -48.8113 -48.8019 -48.7926 -48.7923 -48.7923 -48.7804 -48.7804 -48.7495
   -48.7493 -48.7493 -48.7324 -48.7321 -48.7321 -48.7257 -48.7256 -48.7256
   -48.3170 -28.7761 -28.7761 -28.7761 -19.9711 -19.8380 -19.8380 -19.8379
   -19.7455 -19.7455 -19.4146 -19.4146 -19.4127 -19.3377 -19.3036 -19.3036
   -19.3034 -19.2493 -19.2354 -19.2354 -19.0948 -19.0948 -19.0868 -19.0868
   -19.0863 -19.0751 -19.0692 -19.0692 -19.0594 -19.0495 -19.0495 -19.0267
   -19.0265 -19.0085 -19.0085 -18.9650 -18.9650 -18.9480 -18.9358 -18.9358
   -18.9294 -18.9184 -18.9016 -18.9016 -18.8254 -18.8254 -18.8194 -18.8010
   -18.7920 -18.7920 -18.7751 -18.7751 -18.7686 -18.7637 -18.7577 -18.7577
   -18.7465 -18.7465 -18.7445 -18.7419 -18.7387 -18.7387 -18.7118 -18.7117
   -18.7117 -18.6182 -18.6182 -18.6153 -18.6085 -18.6052 -18.6052 -18.5955
   -18.5955 -18.5581 -18.5569 -18.5569 -18.5347 -18.5347 -18.5293 -18.5290
   -18.5245 -18.5245 -18.5184 -18.5184 -18.5161 -18.5142 -18.5142 -18.5133
   -18.5069 -18.5069 -18.5021 -18.4956 -18.4956 -18.4866 -18.3990 -18.3927
   -18.3927 -16.7118 -16.7118 -16.7118  11.4142  11.4142  12.5515  12.5519
    12.5519  15.9251  17.6311  17.7569  17.7647  17.7647  18.0645  18.0670
    18.0670  18.1751  18.3384  18.3384  18.5138  18.5174  18.5174  18.6290
    18.6926  18.6926  19.0382  19.0399  19.0399  19.2724  19.2746  19.2746
    19.4613  19.5493  19.5493  19.6580  19.7136  19.7136  19.7981  19.7981
    19.8013  19.8029  19.8562  19.8562  19.8690  19.8908  19.8908  20.0075
    20.0075  20.0671  20.2495  20.2495  20.2507  20.3682  20.4002  20.4002
    20.4436  20.4436  20.4611  20.4928  20.4928  20.4950  20.5554  20.5554
    20.5918  20.6012  20.6064  20.6064  20.6717  20.7025  20.7025  20.7999
    20.7999  20.8659  20.8844  20.8908  20.8908  20.9186  20.9186  20.9398
    21.1218  21.1218  21.2598  21.2598  21.2711  21.2717  21.3064  21.3064
    21.5045  21.5346  21.5346  21.6593  21.6735  21.6735  21.9256  21.9256
    21.9773  22.1325  22.1408  22.1408  22.5397  22.5397  22.6109  22.7263
    22.7263  22.7454  22.8047  22.8047  22.8271  22.9577  22.9577  23.0308
    23.0442  23.0886  23.0886  23.1379  23.2187  23.2187  23.2534  23.3080
    23.3080  23.3416  23.3608  23.3608  23.4614  23.4895  23.4895  23.5440
    23.5440  23.5764  23.6722  23.6743  23.6743  23.7309  23.7313  23.7313
    23.7915  23.7917  23.7917  23.8587  23.8587  23.9755  24.3820  24.3820
    24.4587  24.4587  24.4862  24.4968  24.5924  24.5924  24.7810  24.8166
    24.8166  24.9180  25.1352  25.2840  25.3163  25.3163  25.6338  25.6338
    25.6502  25.7695  25.7695  25.8874  25.8874  25.9877  25.9877  26.0390
    26.0494  26.1347  26.1434  26.1434  26.2032  26.2032  26.2049  27.2119
    27.2129  27.2129  27.4428  27.4428  27.6859  27.6859  27.8138  27.9709
    28.0994  28.0994  28.1214  28.3331  28.5008

[...]

          k = 0.3889-0.5000-0.5000 ( 30188 PWs)   bands (ev):

[...]

          k =-0.5000-0.5000-0.5000 ( 30280 PWs)   bands (ev):

   -56.9280 -50.1950 -50.1950 -50.1950 -48.8986 -48.8986 -48.8986 -48.8962
   -48.8611 -48.8611 -48.8611 -48.8089 -48.8015 -48.8015 -48.8015 -48.8014
   -48.8014 -48.7861 -48.7861 -48.7861 -48.7711 -48.7711 -48.7711 -48.7686
   -48.7435 -48.7435 -48.7435 -48.7360 -48.7360 -48.7357 -48.7357 -48.7357
   -48.3162 -28.7761 -28.7761 -28.7761 -19.9634 -19.8277 -19.8277 -19.8277
   -19.7456 -19.7456 -19.4411 -19.4411 -19.4411 -19.2176 -19.2176 -19.2154
   -19.2154 -19.2154 -19.2113 -19.2113 -19.2113 -19.2001 -19.1964 -19.1964
   -19.1964 -19.1877 -19.1877 -19.1877 -19.0590 -19.0590 -19.0590 -19.0325
   -19.0325 -19.0325 -18.9662 -18.9608 -18.9608 -18.8900 -18.8522 -18.8522
   -18.8522 -18.8094 -18.8057 -18.8057 -18.8057 -18.7782 -18.7782 -18.7782
   -18.7704 -18.7500 -18.7500 -18.7500 -18.7499 -18.7499 -18.7495 -18.7495
   -18.7495 -18.7362 -18.7362 -18.7362 -18.7269 -18.7269 -18.7269 -18.6692
   -18.6692 -18.6692 -18.6635 -18.6635 -18.6504 -18.6324 -18.6324 -18.6289
   -18.6289 -18.6289 -18.6230 -18.6230 -18.6230 -18.6018 -18.6018 -18.6018
   -18.5744 -18.5419 -18.5419 -18.5419 -18.4707 -18.4707 -18.4618 -18.4618
   -18.4618 -18.4511 -18.4511 -18.4511 -18.4319 -18.4319 -18.4319 -18.4316
   -18.4316 -16.7123 -16.7123 -16.7123  11.4093  11.4093  12.5665  12.5665
    12.5665  16.9078  17.8428  17.8428  17.8428  18.0228  18.0228  18.0228
    18.0950  18.5682  18.5682  18.5682  18.7667  18.7667  18.7667  18.7761
    18.8041  18.8041  18.8910  18.8910  18.8910  18.9091  18.9091  18.9091
    18.9159  18.9159  18.9159  19.1098  19.1098  19.1098  19.2823  19.3319
    19.3319  19.5274  19.5274  19.5274  19.7710  19.7710  19.7710  19.7979
    19.7979  19.8076  19.8818  19.8818  19.8818  19.9416  19.9416  19.9416
    19.9605  19.9605  19.9605  20.2668  20.2952  20.2952  20.8556  20.8556
    20.8556  20.9498  21.2509  21.2509  21.2509  21.2924  21.2924  21.2924
    21.3624  21.5995  21.5995  21.5995  21.7315  21.7315  21.7315  21.7466
    21.7466  21.7466  21.7532  21.7532  21.8789  21.8789  21.8789  21.8813
    21.8813  21.9109  21.9109  21.9109  21.9672  21.9672  21.9743  21.9743
    21.9743  21.9970  22.0059  22.0059  22.0059  22.0237  22.0237  22.0237
    22.0442  22.0442  22.0442  22.2713  22.2713  22.2713  22.5921  22.5921
    22.6465  22.6465  22.6465  23.1177  23.1177  23.1177  23.2107  23.2107
    23.2107  23.2117  23.2117  23.2118  23.2406  23.2406  23.2406  23.2515
    23.3205  23.3205  23.3205  23.4545  23.4545  23.4545  23.6293  23.6293
    23.8762  23.8762  23.8762  23.9747  24.0288  24.0288  24.0583  24.0583
    24.0583  24.0600  24.0600  24.0600  24.6655  24.6655  24.6655  25.2025
    25.2025  25.2025  25.7060  25.7060  25.7687  25.7687  25.7687  25.7987
    25.7987  25.7987  25.8570  25.8687  25.8687  25.8705  25.8705  25.8705
    25.8832  25.8832  25.8832  25.9024  27.7037  27.7037  27.8082  27.8082
    27.8082  28.8980  28.9826  28.9826  28.9826  28.9887  28.9887  28.9887
    29.1638  29.1638  29.1810  29.1810  29.1810

     the Fermi energy is    24.0547 ev

!    total energy              =  -14241.17847739 Ry

     total all-electron energy =   -299048.081015 Ry
     estimated scf accuracy    <       0.00000020 Ry
     smearing contrib. (-TS)   =       0.01910366 Ry
     internal energy E=F+TS    =  -14241.19758105 Ry

     The total energy is F=E-TS. E is the sum of the following terms:
     one-electron contribution =   -1149.54683883 Ry
     hartree contribution      =    1020.17645151 Ry
     xc contribution           =    -961.26653956 Ry
     ewald contribution        =   -5323.74741106 Ry
     one-center paw contrib.   =   -7826.81324312 Ry

     convergence has been achieved in  16 iterations

     Forces acting on atoms (cartesian axes, Ry/au):

     atom    1 type  1   force =     0.00000000    0.00000000    0.00000000
     atom    2 type  1   force =    -1.29565102   -1.29565102   -1.29565102
     atom    3 type  1   force =     1.29565102    1.29565102   -1.29565102
     atom    4 type  1   force =     1.29565102   -1.29565102    1.29565102
     atom    5 type  1   force =    -1.29565102    1.29565102    1.29565102
     atom    6 type  1   force =    -0.01062693   -0.01062693    0.02726442
     atom    7 type  1   force =     0.01062693    0.01062693    0.02726442
     atom    8 type  1   force =     0.01062693   -0.01062693   -0.02726442
     atom    9 type  1   force =    -0.01062693    0.01062693   -0.02726442
     atom   10 type  1   force =    -0.01062693    0.02726442   -0.01062693
     atom   11 type  1   force =     0.01062693   -0.02726442   -0.01062693
     atom   12 type  1   force =     0.01062693    0.02726442    0.01062693
     atom   13 type  1   force =    -0.01062693   -0.02726442    0.01062693
     atom   14 type  1   force =    -0.00025406    0.02079353    0.02079353
     atom   15 type  1   force =     0.00025406   -0.02079353    0.02079353
     atom   16 type  1   force =     0.00025406    0.02079353   -0.02079353
     atom   17 type  1   force =    -0.00025406   -0.02079353   -0.02079353
     atom   18 type  1   force =     0.02726442   -0.01062693   -0.01062693
     atom   19 type  1   force =    -0.02726442    0.01062693   -0.01062693
     atom   20 type  1   force =    -0.02726442   -0.01062693    0.01062693
     atom   21 type  1   force =     0.02726442    0.01062693    0.01062693
     atom   22 type  1   force =     0.02079353   -0.00025406    0.02079353
     atom   23 type  1   force =    -0.02079353    0.00025406    0.02079353
     atom   24 type  1   force =    -0.02079353   -0.00025406   -0.02079353
     atom   25 type  1   force =     0.02079353    0.00025406   -0.02079353
     atom   26 type  1   force =     0.02079353    0.02079353   -0.00025406
     atom   27 type  1   force =    -0.02079353   -0.02079353   -0.00025406
     atom   28 type  1   force =    -0.02079353    0.02079353    0.00025406
     atom   29 type  1   force =     0.02079353   -0.02079353    0.00025406
     atom   30 type  1   force =     0.00141335    0.00141335    0.00141335
     atom   31 type  1   force =    -0.00141335   -0.00141335    0.00141335
     atom   32 type  1   force =    -0.00141335    0.00141335   -0.00141335
     atom   33 type  1   force =     0.00141335   -0.00141335   -0.00141335

     Total force =     4.490721     Total SCF correction =     0.001192

     Computing stress (Cartesian axis) and pressure

          total   stress  (Ry/bohr**3)                   (kbar)     P=      514.45
   0.00349719   0.00000000   0.00000000          514.45        0.00        0.00
   0.00000000   0.00349719   0.00000000            0.00      514.45        0.00
   0.00000000   0.00000000   0.00349719            0.00        0.00      514.45

     Writing output data file /scratch/rutetra1.save/

     General routines

     Parallel routines

   This run was terminated on:  23:50:55   2Jan2022

   JOB DONE.