     Program PWSCF v.6.7MaX starts on  3Jan2022 at  1:46:59

     R & G space division:  proc/nbgrp/npool/nimage =      72
     Reading input from ru_vacancy_1.in
Warning: card &CELL ignored
Warning: card CELL_DYNAMICS = 'BFGS', ignored
Warning: card CELL_FACTOR = 2.0, ignored
Warning: card PRESS = 0.0, ignored
Warning: card / ignored

     Current dimensions of program PWSCF are:
     Max number of different atomic species (ntypx) = 10
     Max number of k-points (npk) =  40000
     Max angular momentum in pseudopotentials (lmaxx) =  3
     file Ru.pbe-spn-kjpaw_psl.1.0.0.UPF: wavefunction(s)  4D renormalized

     Subspace diagonalization in iterative solution of the eigenvalue problem:
     one sub-group per band group will be used

     Message from routine setup:
     using ibrav=0 with symmetry is DISCOURAGED, use correct ibrav instead

     bravais-lattice index     =            0
     lattice parameter (alat)  =      14.4007  a.u.
     unit-cell volume          =    2986.4454 (a.u.)^3
     number of atoms/cell      =           31
     number of atomic types    =            1
     number of electrons       =       496.00
     number of Kohn-Sham states=          298
     kinetic-energy cutoff     =      71.0000  Ry
     charge density cutoff     =     430.0000  Ry
     scf convergence threshold =      1.0E-06
     mixing beta               =       0.1000
     number of iterations used =           10  TF        mixing
     Exchange-correlation= SLA  PW   PBX  PBC
                           (   1   4   3   4   0   0   0)

     celldm(1)=  14.400742  celldm(2)=   0.000000  celldm(3)=   0.000000
     celldm(4)=   0.000000  celldm(5)=   0.000000  celldm(6)=   0.000000

     crystal axes: (cart. coord. in units of alat)
               a(1) = (   1.000000   0.000000   0.000000 )
               a(2) = (   0.000000   1.000000   0.000000 )
               a(3) = (   0.000000   0.000000   1.000000 )

     reciprocal axes: (cart. coord. in units 2 pi/alat)
               b(1) = (  1.000000  0.000000  0.000000 )
               b(2) = (  0.000000  1.000000  0.000000 )
               b(3) = (  0.000000  0.000000  1.000000 )

     PseudoPot. # 1 for Ru read from file:
     /rds/homes/b/bxp912/pp/Ru.pbe-spn-kjpaw_psl.1.0.0.UPF
     MD5 check sum: 0ae1f594dea09af7be8575c3a481d1ae
     Pseudo is Projector augmented-wave + core cor, Zval = 16.0
     Generated using "atomic" code by A. Dal Corso  v.5.1
     Shape of augmentation charge: PSQ
     Using radial grid of 1233 points,  6 beta functions with:
                l(1) =   0
                l(2) =   0
                l(3) =   1
                l(4) =   1
                l(5) =   2
                l(6) =   2
     Q(r) pseudized with 0 coefficients

     atomic species   valence    mass     pseudopotential
        Ru            16.00   101.07000     Ru( 1.00)

     48 Sym. Ops., with inversion, found

   Cartesian axes

     site n.     atom                  positions (alat units)
         1           Ru  tau(   1) = (   0.2500000   0.2500000   0.0000000  )
         2           Ru  tau(   2) = (   0.2500000   0.0000000   0.2500000  )
         3           Ru  tau(   3) = (   0.0000000   0.2500000   0.2500000  )
         4           Ru  tau(   4) = (   0.0000000   0.0000000   0.5000000  )
         5           Ru  tau(   5) = (   0.2500000   0.2500000   0.5000000  )
         6           Ru  tau(   6) = (   0.2500000   0.0000000   0.7500000  )
         7           Ru  tau(   7) = (   0.0000000   0.2500000   0.7500000  )
         8           Ru  tau(   8) = (   0.0000000   0.5000000   0.0000000  )
         9           Ru  tau(   9) = (   0.2500000   0.7500000   0.0000000  )
        10           Ru  tau(  10) = (   0.2500000   0.5000000   0.2500000  )
        11           Ru  tau(  11) = (   0.0000000   0.7500000   0.2500000  )
        12           Ru  tau(  12) = (   0.0000000   0.5000000   0.5000000  )
        13           Ru  tau(  13) = (   0.2500000   0.7500000   0.5000000  )
        14           Ru  tau(  14) = (   0.2500000   0.5000000   0.7500000  )
        15           Ru  tau(  15) = (   0.0000000   0.7500000   0.7500000  )
        16           Ru  tau(  16) = (   0.5000000   0.0000000   0.0000000  )
        17           Ru  tau(  17) = (   0.7500000   0.2500000   0.0000000  )
        18           Ru  tau(  18) = (   0.7500000   0.0000000   0.2500000  )
        19           Ru  tau(  19) = (   0.5000000   0.2500000   0.2500000  )
        20           Ru  tau(  20) = (   0.5000000   0.0000000   0.5000000  )
        21           Ru  tau(  21) = (   0.7500000   0.2500000   0.5000000  )
        22           Ru  tau(  22) = (   0.7500000   0.0000000   0.7500000  )
        23           Ru  tau(  23) = (   0.5000000   0.2500000   0.7500000  )
        24           Ru  tau(  24) = (   0.5000000   0.5000000   0.0000000  )
        25           Ru  tau(  25) = (   0.7500000   0.7500000   0.0000000  )
        26           Ru  tau(  26) = (   0.7500000   0.5000000   0.2500000  )
        27           Ru  tau(  27) = (   0.5000000   0.7500000   0.2500000  )
        28           Ru  tau(  28) = (   0.5000000   0.5000000   0.5000000  )
        29           Ru  tau(  29) = (   0.7500000   0.7500000   0.5000000  )
        30           Ru  tau(  30) = (   0.7500000   0.5000000   0.7500000  )
        31           Ru  tau(  31) = (   0.5000000   0.7500000   0.7500000  )

     number of k points=    35  Marzari-Vanderbilt smearing, width (Ry)=  0.0400
                       cart. coord. in units 2pi/alat
        k(    1) = (   0.0555556   0.0555556   0.0555556), wk =   0.0219479
        k(    2) = (   0.0555556   0.0555556   0.1666667), wk =   0.0658436
        k(    3) = (   0.0555556   0.0555556   0.2777778), wk =   0.0658436
        k(    4) = (   0.0555556   0.0555556   0.3888889), wk =   0.0658436
        k(    5) = (   0.0555556   0.0555556  -0.5000000), wk =   0.0329218
        k(    6) = (   0.0555556   0.1666667   0.1666667), wk =   0.0658436
        k(    7) = (   0.0555556   0.1666667   0.2777778), wk =   0.1316872
        k(    8) = (   0.0555556   0.1666667   0.3888889), wk =   0.1316872
        k(    9) = (   0.0555556   0.1666667  -0.5000000), wk =   0.0658436
        k(   10) = (   0.0555556   0.2777778   0.2777778), wk =   0.0658436
        k(   11) = (   0.0555556   0.2777778   0.3888889), wk =   0.1316872
        k(   12) = (   0.0555556   0.2777778  -0.5000000), wk =   0.0658436
        k(   13) = (   0.0555556   0.3888889   0.3888889), wk =   0.0658436
        k(   14) = (   0.0555556   0.3888889  -0.5000000), wk =   0.0658436
        k(   15) = (   0.0555556  -0.5000000  -0.5000000), wk =   0.0164609
        k(   16) = (   0.1666667   0.1666667   0.1666667), wk =   0.0219479
        k(   17) = (   0.1666667   0.1666667   0.2777778), wk =   0.0658436
        k(   18) = (   0.1666667   0.1666667   0.3888889), wk =   0.0658436
        k(   19) = (   0.1666667   0.1666667  -0.5000000), wk =   0.0329218
        k(   20) = (   0.1666667   0.2777778   0.2777778), wk =   0.0658436
        k(   21) = (   0.1666667   0.2777778   0.3888889), wk =   0.1316872
        k(   22) = (   0.1666667   0.2777778  -0.5000000), wk =   0.0658436
        k(   23) = (   0.1666667   0.3888889   0.3888889), wk =   0.0658436
        k(   24) = (   0.1666667   0.3888889  -0.5000000), wk =   0.0658436
        k(   25) = (   0.1666667  -0.5000000  -0.5000000), wk =   0.0164609
        k(   26) = (   0.2777778   0.2777778   0.2777778), wk =   0.0219479
        k(   27) = (   0.2777778   0.2777778   0.3888889), wk =   0.0658436
        k(   28) = (   0.2777778   0.2777778  -0.5000000), wk =   0.0329218
        k(   29) = (   0.2777778   0.3888889   0.3888889), wk =   0.0658436
        k(   30) = (   0.2777778   0.3888889  -0.5000000), wk =   0.0658436
        k(   31) = (   0.2777778  -0.5000000  -0.5000000), wk =   0.0164609
        k(   32) = (   0.3888889   0.3888889   0.3888889), wk =   0.0219479
        k(   33) = (   0.3888889   0.3888889  -0.5000000), wk =   0.0329218
        k(   34) = (   0.3888889  -0.5000000  -0.5000000), wk =   0.0164609
        k(   35) = (  -0.5000000  -0.5000000  -0.5000000), wk =   0.0027435

     Check: negative core charge=   -0.000002

     Initial potential from superposition of free atoms

     starting charge  495.98023, renormalised to  496.00000
     Starting wfcs are  310 randomized atomic wfcs
     Checking if some PAW data can be deallocated...

     Self-consistent Calculation

     iteration #  1     ecut=    71.00 Ry     beta= 0.10
     Davidson diagonalization with overlap
     ethr =  1.00E-02,  avg # of iterations =  3.6

     Threshold (ethr) on eigenvalues was too large:
     Diagonalizing with lowered threshold

     Davidson diagonalization with overlap
     ethr =  1.30E-04,  avg # of iterations =  6.2

     total energy              =  -13381.61130416 Ry
     estimated scf accuracy    <       0.83945491 Ry

[...]

     total energy              =  -13381.43882086 Ry
     estimated scf accuracy    <       0.00001044 Ry

     iteration # 15     ecut=    71.00 Ry     beta= 0.10
     Davidson diagonalization with overlap
     ethr =  1.53E-09,  avg # of iterations =  2.0

     End of self-consistent calculation

          k = 0.0556 0.0556 0.0556 ( 30224 PWs)   bands (ev):

   -50.7846 -50.7219 -50.7219 -50.6735 -50.6690 -50.6662 -50.6662 -50.6454
   -50.6454 -50.6364 -50.6315 -50.6315 -50.6315 -50.6106 -50.6102 -50.6102
   -50.5800 -50.5800 -50.5769 -50.5534 -50.5516 -50.5516 -50.5365 -50.5308
   -50.5308 -50.5307 -50.4968 -50.4968 -50.4968 -50.4917 -50.4917 -21.1672
   -21.1652 -21.1652 -21.1616 -21.1055 -21.1055 -21.1052 -20.9259 -20.9255
   -20.9255 -20.8978 -20.8976 -20.8976 -20.8876 -20.8876 -20.8782 -20.8735
   -20.8735 -20.8649 -20.8642 -20.8571 -20.8571 -20.8302 -20.8302 -20.8098
   -20.8043 -20.7943 -20.7943 -20.7813 -20.7746 -20.7746 -20.6801 -20.6801
   -20.6518 -20.6234 -20.6234 -20.6061 -20.6061 -20.5990 -20.5879 -20.5859
   -20.5859 -20.5817 -20.5776 -20.5679 -20.5679 -20.5532 -20.5532 -20.5531
   -20.5423 -20.5342 -20.5342 -20.5274 -20.5186 -20.5186 -20.5154 -20.5065
   -20.5065 -20.4228 -20.4228 -20.4197 -20.3718 -20.3682 -20.3682 -20.3564
   -20.3531 -20.3531 -20.3528 -20.3528 -20.3472 -20.3384 -20.3384 -20.3352
   -20.3348 -20.3263 -20.3263 -20.3032 -20.3032 -20.3029 -20.2979 -20.2979
   -20.2928 -20.2886 -20.2886 -20.2873 -20.2494 -20.2494 -20.2400 -20.2400
   -20.2389 -20.1789 -20.1723 -20.1723  14.6007  16.0549  16.1716  16.1716
    16.3822  16.3946  16.3946  16.4119  16.6477  16.6501  16.6501  16.8014
    16.8014  16.8638  16.9776  16.9776  17.2195  17.4438  17.4911  17.4911
    17.4923  17.7800  17.7800  17.8133  17.8133  17.8513  18.0430  18.0430
    18.0982  18.0982  18.1058  18.1343  18.1490  18.1627  18.1627  18.2101
    18.2101  18.2921  18.2921  18.2995  18.6079  18.6317  18.6493  18.6493
    18.7011  18.7011  18.7928  18.7928  18.8004  18.8039  18.8372  18.8372
    18.8867  18.9314  18.9314  18.9392  19.0519  19.0519  19.1152  19.1381
    19.1381  19.1397  19.1555  19.1703  19.1818  19.1818  19.2304  19.2304
    19.3711  19.3711  19.3929  19.4314  19.4314  19.4451  19.5123  19.5242
    19.5242  19.6519  19.6519  19.6838  19.6860  19.7170  19.7170  20.0226
    20.0226  20.5116  20.5489  20.5489  20.7789  20.7789  20.8936  20.9379
    20.9379  20.9447  21.0233  21.0459  21.0459  21.0464  21.0849  21.0849
    21.0987  21.1126  21.1126  21.1766  21.3677  21.4674  21.4674  21.5508
    21.5508  21.5591  21.5591  21.6825  21.7349  21.7891  21.7891  21.8205
    21.8481  21.8481  21.8502  21.8938  21.9021  21.9021  21.9562  21.9978
    21.9978  22.0610  22.0610  22.1125  22.1218  22.1218  22.1884  22.1884
    22.2508  22.6400  22.6400  22.8994  22.9082  22.9852  22.9852  23.0534
    23.0799  23.0799  23.2882  23.4541  23.4541  23.6321  23.6546  23.6546
    23.9042  23.9153  23.9153  23.9706  24.1109  24.1109  24.2657  24.2756
    24.2756  24.2956  24.2956  24.3214  24.3896  24.3896  24.4168  24.4392
    24.4418  24.4418  25.7406  25.7406  25.8004  26.1097  26.1097  26.1751
    26.1784  26.1784

[...]

          k = 0.3889-0.5000-0.5000 ( 30188 PWs)   bands (ev):

[...]

          k =-0.5000-0.5000-0.5000 ( 30280 PWs)   bands (ev):

   -50.7383 -50.7383 -50.7383 -50.7101 -50.6805 -50.6805 -50.6805 -50.6404
   -50.6404 -50.6404 -50.6036 -50.6036 -50.6036 -50.6036 -50.6036 -50.5989
   -50.5989 -50.5989 -50.5869 -50.5858 -50.5335 -50.5335 -50.5335 -50.5189
   -50.5189 -50.5189 -50.5039 -50.5039 -50.5039 -50.5039 -50.5039 -21.0571
   -21.0571 -21.0395 -21.0395 -21.0395 -21.0238 -21.0238 -21.0238 -21.0017
   -21.0017 -21.0017 -20.9968 -20.9968 -20.9968 -20.9905 -20.9898 -20.9896
   -20.9896 -20.9896 -20.9832 -20.9832 -20.8622 -20.8622 -20.8622 -20.7256
   -20.6838 -20.6838 -20.6838 -20.6463 -20.6398 -20.6398 -20.6398 -20.6235
   -20.5850 -20.5850 -20.5850 -20.5831 -20.5831 -20.5831 -20.5827 -20.5827
   -20.5622 -20.5622 -20.5622 -20.5550 -20.5550 -20.5550 -20.5321 -20.5255
   -20.5255 -20.5201 -20.5201 -20.5201 -20.5157 -20.5157 -20.5157 -20.4606
   -20.4606 -20.4606 -20.4542 -20.4525 -20.4525 -20.4321 -20.4321 -20.4321
   -20.4062 -20.4062 -20.4062 -20.4020 -20.4020 -20.4020 -20.3860 -20.3860
   -20.3706 -20.3524 -20.3524 -20.3524 -20.2570 -20.2570 -20.2455 -20.2455
   -20.2455 -20.2345 -20.2345 -20.2345 -20.2293 -20.2293 -20.2293 -20.2230
   -20.2230 -20.2230 -20.2060 -20.2060  16.2718  16.3233  16.3233  16.3233
    16.3338  16.3338  16.3338  16.7269  17.1232  17.1232  17.1232  17.1289
    17.1289  17.1289  17.1313  17.1313  17.1522  17.1522  17.1522  17.1572
    17.1658  17.1658  17.1658  17.1811  17.1811  17.1811  17.3969  17.3969
    17.5469  17.5469  17.5469  17.8072  18.1501  18.1501  18.1555  18.1555
    18.1555  18.1574  18.1574  18.1574  18.1779  18.1779  18.1779  18.1803
    18.1985  18.1985  18.1985  18.2041  18.3623  18.3623  18.3623  18.5720
    18.5720  18.5720  19.1508  19.1508  19.5737  19.5737  19.5737  19.5895
    19.6015  19.6015  19.6015  19.6309  20.1167  20.1167  20.1167  20.1309
    20.1309  20.1409  20.1409  20.1409  20.1491  20.1491  20.1491  20.1919
    20.1919  20.1919  20.2224  20.2224  20.2467  20.2467  20.2467  20.2529
    20.2529  20.2529  20.2553  20.2553  20.2553  20.2691  20.2691  20.2731
    20.2799  20.2799  20.2799  20.4773  20.4773  20.5972  20.5972  20.5972
    20.6553  21.1206  21.1206  21.1206  21.4153  21.4153  21.4153  21.4369
    21.4369  21.4463  21.4859  21.4859  21.4859  21.5006  21.5057  21.5057
    21.5057  21.5061  21.5061  21.5061  21.5693  21.5693  21.5693  21.9805
    21.9805  22.0962  22.0962  22.0962  22.2741  22.2741  22.2757  22.2757
    22.2757  22.3331  22.3331  22.3331  22.3602  22.3602  22.3602  23.3380
    23.3380  23.3380  23.6705  23.6705  24.0419  24.0419  24.0419  24.0795
    24.0795  24.0862  24.0862  24.0862  24.0943  24.1015  24.1015  24.1015
    24.1030  24.1030  24.1030  24.1035  24.1243  24.1243  24.1243  26.9668
    26.9669  26.9670  27.1873  27.1877  27.4527  27.4583  27.4684  27.4748
    27.4788  27.4831

     the Fermi energy is    22.2341 ev

!    total energy              =  -13381.43882321 Ry

     total all-electron energy =   -280927.316964 Ry
     estimated scf accuracy    <       0.00000067 Ry
     smearing contrib. (-TS)   =       0.00836444 Ry
     internal energy E=F+TS    =  -13381.44718765 Ry

     The total energy is F=E-TS. E is the sum of the following terms:
     one-electron contribution =   -1158.96803101 Ry
     hartree contribution      =     969.06838996 Ry
     xc contribution           =    -898.58741639 Ry
     ewald contribution        =   -4940.70594345 Ry
     one-center paw contrib.   =   -7352.25418676 Ry

     convergence has been achieved in  15 iterations

     Forces acting on atoms (cartesian axes, Ry/au):

     atom    1 type  1   force =    -0.00468571   -0.00468571    0.00000000
     atom    2 type  1   force =    -0.00468571   -0.00000000   -0.00468571
     atom    3 type  1   force =     0.00000000   -0.00468571   -0.00468571
     atom    4 type  1   force =     0.00000000    0.00000000    0.00000000
     atom    5 type  1   force =     0.00015627    0.00015627    0.00000000
     atom    6 type  1   force =    -0.00468571    0.00000000    0.00468571
     atom    7 type  1   force =    -0.00000000   -0.00468571    0.00468571
     atom    8 type  1   force =     0.00000000    0.00000000    0.00000000
     atom    9 type  1   force =    -0.00468571    0.00468571    0.00000000
     atom   10 type  1   force =     0.00015627    0.00000000    0.00015627
     atom   11 type  1   force =     0.00000000    0.00468571   -0.00468571
     atom   12 type  1   force =     0.00000000    0.00000000    0.00000000
     atom   13 type  1   force =     0.00015627   -0.00015627    0.00000000
     atom   14 type  1   force =     0.00015627    0.00000000   -0.00015627
     atom   15 type  1   force =     0.00000000    0.00468571    0.00468571
     atom   16 type  1   force =     0.00000000    0.00000000    0.00000000
     atom   17 type  1   force =     0.00468571   -0.00468571    0.00000000
     atom   18 type  1   force =     0.00468571   -0.00000000   -0.00468571
     atom   19 type  1   force =     0.00000000    0.00015627    0.00015627
     atom   20 type  1   force =     0.00000000    0.00000000    0.00000000
     atom   21 type  1   force =    -0.00015627    0.00015627    0.00000000
     atom   22 type  1   force =     0.00468571   -0.00000000    0.00468571
     atom   23 type  1   force =     0.00000000    0.00015627   -0.00015627
     atom   24 type  1   force =     0.00000000    0.00000000    0.00000000
     atom   25 type  1   force =     0.00468571    0.00468571    0.00000000
     atom   26 type  1   force =    -0.00015627    0.00000000    0.00015627
     atom   27 type  1   force =    -0.00000000   -0.00015627    0.00015627
     atom   28 type  1   force =     0.00000000    0.00000000    0.00000000
     atom   29 type  1   force =    -0.00015627   -0.00015627    0.00000000
     atom   30 type  1   force =    -0.00015627    0.00000000   -0.00015627
     atom   31 type  1   force =    -0.00000000   -0.00015627   -0.00015627

     Total force =     0.022968     Total SCF correction =     0.003576
     SCF correction compared to forces is large: reduce conv_thr to get better values

     Computing stress (Cartesian axis) and pressure

          total   stress  (Ry/bohr**3)                   (kbar)     P=      -30.70
  -0.00020867   0.00000000   0.00000000          -30.70        0.00        0.00
   0.00000000  -0.00020867   0.00000000            0.00      -30.70        0.00
   0.00000000   0.00000000  -0.00020867            0.00        0.00      -30.70

     Writing output data file /scratch/ruvacancy1.save/

     General routines

     Parallel routines

   This run was terminated on:   1:55:42   3Jan2022

   JOB DONE.