     Program PWSCF v.6.7MaX starts on  3Jan2022 at 20:35:27

     R & G space division:  proc/nbgrp/npool/nimage =      72
     Reading input from ru_vacancy_2.in

     Current dimensions of program PWSCF are:
     Max number of different atomic species (ntypx) = 10
     Max number of k-points (npk) =  40000
     Max angular momentum in pseudopotentials (lmaxx) =  3
     file Ru.pbe-spn-kjpaw_psl.1.0.0.UPF: wavefunction(s)  4D renormalized

     Subspace diagonalization in iterative solution of the eigenvalue problem:
     one sub-group per band group will be used

     Message from routine setup:
     using ibrav=0 with symmetry is DISCOURAGED, use correct ibrav instead

     bravais-lattice index     =            0
     lattice parameter (alat)  =      14.4007  a.u.
     unit-cell volume          =    2986.4454 (a.u.)^3
     number of atoms/cell      =           31
     number of atomic types    =            1
     number of electrons       =       496.00
     number of Kohn-Sham states=          298
     kinetic-energy cutoff     =      71.0000  Ry
     charge density cutoff     =     430.0000  Ry
     scf convergence threshold =      1.0E-06
     mixing beta               =       0.1000
     number of iterations used =           10  TF        mixing
     energy convergence thresh.=      1.0E-04
     force convergence thresh. =      1.0E-03
     press convergence thresh. =      5.0E-01
     Exchange-correlation= SLA  PW   PBX  PBC
                           (   1   4   3   4   0   0   0)
     nstep                     =           40

     celldm(1)=  14.400742  celldm(2)=   0.000000  celldm(3)=   0.000000
     celldm(4)=   0.000000  celldm(5)=   0.000000  celldm(6)=   0.000000

     crystal axes: (cart. coord. in units of alat)
               a(1) = (   1.000000   0.000000   0.000000 )
               a(2) = (   0.000000   1.000000   0.000000 )
               a(3) = (   0.000000   0.000000   1.000000 )

     reciprocal axes: (cart. coord. in units 2 pi/alat)
               b(1) = (  1.000000  0.000000  0.000000 )
               b(2) = (  0.000000  1.000000  0.000000 )
               b(3) = (  0.000000  0.000000  1.000000 )

     PseudoPot. # 1 for Ru read from file:
     /rds/homes/b/bxp912/pp/Ru.pbe-spn-kjpaw_psl.1.0.0.UPF
     MD5 check sum: 0ae1f594dea09af7be8575c3a481d1ae
     Pseudo is Projector augmented-wave + core cor, Zval = 16.0
     Generated using "atomic" code by A. Dal Corso  v.5.1
     Shape of augmentation charge: PSQ
     Using radial grid of 1233 points,  6 beta functions with:
                l(1) =   0
                l(2) =   0
                l(3) =   1
                l(4) =   1
                l(5) =   2
                l(6) =   2
     Q(r) pseudized with 0 coefficients

     atomic species   valence    mass     pseudopotential
        Ru            16.00   101.07000     Ru( 1.00)

     48 Sym. Ops., with inversion, found

   Cartesian axes

     site n.     atom                  positions (alat units)
         1           Ru  tau(   1) = (   0.2500000   0.2500000   0.0000000  )
         2           Ru  tau(   2) = (   0.2500000   0.0000000   0.2500000  )
         3           Ru  tau(   3) = (   0.0000000   0.2500000   0.2500000  )
         4           Ru  tau(   4) = (   0.0000000   0.0000000   0.5000000  )
         5           Ru  tau(   5) = (   0.2500000   0.2500000   0.5000000  )
         6           Ru  tau(   6) = (   0.2500000   0.0000000   0.7500000  )
         7           Ru  tau(   7) = (   0.0000000   0.2500000   0.7500000  )
         8           Ru  tau(   8) = (   0.0000000   0.5000000   0.0000000  )
         9           Ru  tau(   9) = (   0.2500000   0.7500000   0.0000000  )
        10           Ru  tau(  10) = (   0.2500000   0.5000000   0.2500000  )
        11           Ru  tau(  11) = (   0.0000000   0.7500000   0.2500000  )
        12           Ru  tau(  12) = (   0.0000000   0.5000000   0.5000000  )
        13           Ru  tau(  13) = (   0.2500000   0.7500000   0.5000000  )
        14           Ru  tau(  14) = (   0.2500000   0.5000000   0.7500000  )
        15           Ru  tau(  15) = (   0.0000000   0.7500000   0.7500000  )
        16           Ru  tau(  16) = (   0.5000000   0.0000000   0.0000000  )
        17           Ru  tau(  17) = (   0.7500000   0.2500000   0.0000000  )
        18           Ru  tau(  18) = (   0.7500000   0.0000000   0.2500000  )
        19           Ru  tau(  19) = (   0.5000000   0.2500000   0.2500000  )
        20           Ru  tau(  20) = (   0.5000000   0.0000000   0.5000000  )
        21           Ru  tau(  21) = (   0.7500000   0.2500000   0.5000000  )
        22           Ru  tau(  22) = (   0.7500000   0.0000000   0.7500000  )
        23           Ru  tau(  23) = (   0.5000000   0.2500000   0.7500000  )
        24           Ru  tau(  24) = (   0.5000000   0.5000000   0.0000000  )
        25           Ru  tau(  25) = (   0.7500000   0.7500000   0.0000000  )
        26           Ru  tau(  26) = (   0.7500000   0.5000000   0.2500000  )
        27           Ru  tau(  27) = (   0.5000000   0.7500000   0.2500000  )
        28           Ru  tau(  28) = (   0.5000000   0.5000000   0.5000000  )
        29           Ru  tau(  29) = (   0.7500000   0.7500000   0.5000000  )
        30           Ru  tau(  30) = (   0.7500000   0.5000000   0.7500000  )
        31           Ru  tau(  31) = (   0.5000000   0.7500000   0.7500000  )

     number of k points=    35  Marzari-Vanderbilt smearing, width (Ry)=  0.0400
                       cart. coord. in units 2pi/alat
        k(    1) = (   0.0555556   0.0555556   0.0555556), wk =   0.0219479
        k(    2) = (   0.0555556   0.0555556   0.1666667), wk =   0.0658436
        k(    3) = (   0.0555556   0.0555556   0.2777778), wk =   0.0658436
        k(    4) = (   0.0555556   0.0555556   0.3888889), wk =   0.0658436
        k(    5) = (   0.0555556   0.0555556  -0.5000000), wk =   0.0329218
        k(    6) = (   0.0555556   0.1666667   0.1666667), wk =   0.0658436
        k(    7) = (   0.0555556   0.1666667   0.2777778), wk =   0.1316872
        k(    8) = (   0.0555556   0.1666667   0.3888889), wk =   0.1316872
        k(    9) = (   0.0555556   0.1666667  -0.5000000), wk =   0.0658436
        k(   10) = (   0.0555556   0.2777778   0.2777778), wk =   0.0658436
        k(   11) = (   0.0555556   0.2777778   0.3888889), wk =   0.1316872
        k(   12) = (   0.0555556   0.2777778  -0.5000000), wk =   0.0658436
        k(   13) = (   0.0555556   0.3888889   0.3888889), wk =   0.0658436
        k(   14) = (   0.0555556   0.3888889  -0.5000000), wk =   0.0658436
        k(   15) = (   0.0555556  -0.5000000  -0.5000000), wk =   0.0164609
        k(   16) = (   0.1666667   0.1666667   0.1666667), wk =   0.0219479
        k(   17) = (   0.1666667   0.1666667   0.2777778), wk =   0.0658436
        k(   18) = (   0.1666667   0.1666667   0.3888889), wk =   0.0658436
        k(   19) = (   0.1666667   0.1666667  -0.5000000), wk =   0.0329218
        k(   20) = (   0.1666667   0.2777778   0.2777778), wk =   0.0658436
        k(   21) = (   0.1666667   0.2777778   0.3888889), wk =   0.1316872
        k(   22) = (   0.1666667   0.2777778  -0.5000000), wk =   0.0658436
        k(   23) = (   0.1666667   0.3888889   0.3888889), wk =   0.0658436
        k(   24) = (   0.1666667   0.3888889  -0.5000000), wk =   0.0658436
        k(   25) = (   0.1666667  -0.5000000  -0.5000000), wk =   0.0164609
        k(   26) = (   0.2777778   0.2777778   0.2777778), wk =   0.0219479
        k(   27) = (   0.2777778   0.2777778   0.3888889), wk =   0.0658436
        k(   28) = (   0.2777778   0.2777778  -0.5000000), wk =   0.0329218
        k(   29) = (   0.2777778   0.3888889   0.3888889), wk =   0.0658436
        k(   30) = (   0.2777778   0.3888889  -0.5000000), wk =   0.0658436
        k(   31) = (   0.2777778  -0.5000000  -0.5000000), wk =   0.0164609
        k(   32) = (   0.3888889   0.3888889   0.3888889), wk =   0.0219479
        k(   33) = (   0.3888889   0.3888889  -0.5000000), wk =   0.0329218
        k(   34) = (   0.3888889  -0.5000000  -0.5000000), wk =   0.0164609
        k(   35) = (  -0.5000000  -0.5000000  -0.5000000), wk =   0.0027435

     Check: negative core charge=   -0.000002

     Initial potential from superposition of free atoms

     starting charge  495.98023, renormalised to  496.00000
     Starting wfcs are  310 randomized atomic wfcs
     Checking if some PAW data can be deallocated...

     Self-consistent Calculation

     iteration #  1     ecut=    71.00 Ry     beta= 0.10
     Davidson diagonalization with overlap
     ethr =  1.00E-02,  avg # of iterations =  3.6

     Threshold (ethr) on eigenvalues was too large:
     Diagonalizing with lowered threshold

     Davidson diagonalization with overlap
     ethr =  1.30E-04,  avg # of iterations =  6.2

     total energy              =  -13381.61130416 Ry
     estimated scf accuracy    <       0.83945491 Ry

[...]

     End of self-consistent calculation

          k = 0.0556 0.0556 0.0556 ( 30224 PWs)   bands (ev):

   -50.7846 -50.7219 -50.7219 -50.6735 -50.6690 -50.6662 -50.6662 -50.6454
   -50.6454 -50.6364 -50.6315 -50.6315 -50.6315 -50.6106 -50.6102 -50.6102
   -50.5800 -50.5800 -50.5769 -50.5534 -50.5516 -50.5516 -50.5365 -50.5308
   -50.5308 -50.5307 -50.4968 -50.4968 -50.4968 -50.4917 -50.4917 -21.1672
   -21.1652 -21.1652 -21.1616 -21.1055 -21.1055 -21.1052 -20.9259 -20.9255
   -20.9255 -20.8978 -20.8976 -20.8976 -20.8876 -20.8876 -20.8782 -20.8735
   -20.8735 -20.8649 -20.8642 -20.8571 -20.8571 -20.8302 -20.8302 -20.8098
   -20.8043 -20.7943 -20.7943 -20.7813 -20.7746 -20.7746 -20.6801 -20.6801
   -20.6518 -20.6234 -20.6234 -20.6061 -20.6061 -20.5990 -20.5879 -20.5859
   -20.5859 -20.5817 -20.5776 -20.5679 -20.5679 -20.5532 -20.5532 -20.5531
   -20.5423 -20.5342 -20.5342 -20.5274 -20.5186 -20.5186 -20.5154 -20.5065
   -20.5065 -20.4228 -20.4228 -20.4197 -20.3718 -20.3682 -20.3682 -20.3564
   -20.3531 -20.3531 -20.3528 -20.3528 -20.3472 -20.3384 -20.3384 -20.3352
   -20.3348 -20.3263 -20.3263 -20.3032 -20.3032 -20.3029 -20.2979 -20.2979
   -20.2928 -20.2886 -20.2886 -20.2873 -20.2494 -20.2494 -20.2400 -20.2400
   -20.2389 -20.1789 -20.1723 -20.1723  14.6007  16.0549  16.1716  16.1716
    16.3822  16.3946  16.3946  16.4119  16.6477  16.6501  16.6501  16.8014
    16.8014  16.8638  16.9776  16.9776  17.2195  17.4438  17.4911  17.4911
    17.4923  17.7800  17.7800  17.8133  17.8133  17.8513  18.0430  18.0430
    18.0982  18.0982  18.1058  18.1343  18.1490  18.1627  18.1627  18.2101
    18.2101  18.2921  18.2921  18.2995  18.6079  18.6317  18.6493  18.6493
    18.7011  18.7011  18.7928  18.7928  18.8004  18.8039  18.8372  18.8372
    18.8867  18.9314  18.9314  18.9392  19.0519  19.0519  19.1152  19.1381
    19.1381  19.1397  19.1555  19.1703  19.1818  19.1818  19.2304  19.2304
    19.3711  19.3711  19.3929  19.4314  19.4314  19.4451  19.5123  19.5242
    19.5242  19.6519  19.6519  19.6838  19.6860  19.7170  19.7170  20.0226
    20.0226  20.5116  20.5489  20.5489  20.7789  20.7789  20.8936  20.9379
    20.9379  20.9447  21.0233  21.0459  21.0459  21.0464  21.0849  21.0849
[...]
Ru           -0.0000000000        0.2469634999        0.7530365001
Ru            0.0000000000        0.5000000000        0.0000000000
Ru            0.2469634999        0.7530365001       -0.0000000000
Ru            0.2505094603        0.5000000000        0.2505094603
Ru            0.0000000000        0.7530365001        0.2469634999
Ru            0.0000000000        0.5000000000        0.5000000000
Ru            0.2505094603        0.7494905397        0.5000000000
Ru            0.2505094603        0.5000000000        0.7494905397
Ru            0.0000000000        0.7530365001        0.7530365001
Ru            0.5000000000        0.0000000000        0.0000000000
Ru            0.7530365001        0.2469634999       -0.0000000000
Ru            0.7530365001       -0.0000000000        0.2469634999
Ru            0.5000000000        0.2505094603        0.2505094603
Ru            0.5000000000        0.0000000000        0.5000000000
Ru            0.7494905397        0.2505094603        0.5000000000
Ru            0.7530365001        0.0000000000        0.7530365001
Ru            0.5000000000        0.2505094603        0.7494905397
Ru            0.5000000000        0.5000000000        0.0000000000
Ru            0.7530365001        0.7530365001        0.0000000000
Ru            0.7494905397        0.5000000000        0.2505094603
Ru            0.5000000000        0.7494905397        0.2505094603
Ru            0.5000000000        0.5000000000        0.5000000000
Ru            0.7494905397        0.7494905397        0.5000000000
Ru            0.7494905397        0.5000000000        0.7494905397
Ru            0.5000000000        0.7494905397        0.7494905397
End final coordinates

     Writing output data file /scratch/ruvacancy2.save/

     Final scf calculation at the relaxed structure.
     The G-vectors are recalculated for the final unit cell
     Results may differ from those at the preceding step.

     bravais-lattice index     =            0
     lattice parameter (alat)  =      14.4007  a.u.
     unit-cell volume          =    2951.2346 (a.u.)^3
     number of atoms/cell      =           31
     number of atomic types    =            1
     number of electrons       =       496.00
     number of Kohn-Sham states=          298
     kinetic-energy cutoff     =      71.0000  Ry
     charge density cutoff     =     430.0000  Ry
     scf convergence threshold =      1.0E-08
     mixing beta               =       0.1000
     number of iterations used =           10  TF        mixing
     press convergence thresh. =      5.0E-01
     Exchange-correlation= SLA  PW   PBX  PBC
                           (   1   4   3   4   0   0   0)

     celldm(1)=  14.400742  celldm(2)=   0.000000  celldm(3)=   0.000000
     celldm(4)=   0.000000  celldm(5)=   0.000000  celldm(6)=   0.000000

     crystal axes: (cart. coord. in units of alat)
               a(1) = (   0.996054   0.000000   0.000000 )
               a(2) = (   0.000000   0.996054   0.000000 )
               a(3) = (   0.000000   0.000000   0.996054 )

     reciprocal axes: (cart. coord. in units 2 pi/alat)
               b(1) = (  1.003961  0.000000  0.000000 )
               b(2) = (  0.000000  1.003961  0.000000 )
               b(3) = (  0.000000  0.000000  1.003961 )

     PseudoPot. # 1 for Ru read from file:
     /rds/homes/b/bxp912/pp/Ru.pbe-spn-kjpaw_psl.1.0.0.UPF
     MD5 check sum: 0ae1f594dea09af7be8575c3a481d1ae
     Pseudo is Projector augmented-wave + core cor, Zval = 16.0
     Generated using "atomic" code by A. Dal Corso  v.5.1
     Shape of augmentation charge: PSQ
     Using radial grid of 1233 points,  6 beta functions with:
                l(1) =   0
                l(2) =   0
                l(3) =   1
                l(4) =   1
                l(5) =   2
                l(6) =   2
     Q(r) pseudized with 0 coefficients

     atomic species   valence    mass     pseudopotential
        Ru            16.00   101.07000     Ru( 1.00)

     48 Sym. Ops., with inversion, found

   Cartesian axes

     site n.     atom                  positions (alat units)
         1           Ru  tau(   1) = (   0.2459891   0.2459891   0.0000000  )
         2           Ru  tau(   2) = (   0.2459891  -0.0000000   0.2459891  )
         3           Ru  tau(   3) = (   0.0000000   0.2459891   0.2459891  )
         4           Ru  tau(   4) = (   0.0000000   0.0000000   0.4980272  )
         5           Ru  tau(   5) = (   0.2495210   0.2495210   0.4980272  )
         6           Ru  tau(   6) = (   0.2459891  -0.0000000   0.7500653  )
         7           Ru  tau(   7) = (  -0.0000000   0.2459891   0.7500653  )
         8           Ru  tau(   8) = (   0.0000000   0.4980272   0.0000000  )
         9           Ru  tau(   9) = (   0.2459891   0.7500653  -0.0000000  )
        10           Ru  tau(  10) = (   0.2495210   0.4980272   0.2495210  )
        11           Ru  tau(  11) = (   0.0000000   0.7500653   0.2459891  )
        12           Ru  tau(  12) = (   0.0000000   0.4980272   0.4980272  )
        13           Ru  tau(  13) = (   0.2495210   0.7465333   0.4980272  )
        14           Ru  tau(  14) = (   0.2495210   0.4980272   0.7465333  )
        15           Ru  tau(  15) = (   0.0000000   0.7500653   0.7500653  )
        16           Ru  tau(  16) = (   0.4980272   0.0000000   0.0000000  )
        17           Ru  tau(  17) = (   0.7500653   0.2459891  -0.0000000  )
        18           Ru  tau(  18) = (   0.7500653  -0.0000000   0.2459891  )
        19           Ru  tau(  19) = (   0.4980272   0.2495210   0.2495210  )
        20           Ru  tau(  20) = (   0.4980272   0.0000000   0.4980272  )
        21           Ru  tau(  21) = (   0.7465333   0.2495210   0.4980272  )
        22           Ru  tau(  22) = (   0.7500653   0.0000000   0.7500653  )
        23           Ru  tau(  23) = (   0.4980272   0.2495210   0.7465333  )
        24           Ru  tau(  24) = (   0.4980272   0.4980272   0.0000000  )
        25           Ru  tau(  25) = (   0.7500653   0.7500653   0.0000000  )
        26           Ru  tau(  26) = (   0.7465333   0.4980272   0.2495210  )
        27           Ru  tau(  27) = (   0.4980272   0.7465333   0.2495210  )
        28           Ru  tau(  28) = (   0.4980272   0.4980272   0.4980272  )
        29           Ru  tau(  29) = (   0.7465333   0.7465333   0.4980272  )
        30           Ru  tau(  30) = (   0.7465333   0.4980272   0.7465333  )
        31           Ru  tau(  31) = (   0.4980272   0.7465333   0.7465333  )

     number of k points=    35  Marzari-Vanderbilt smearing, width (Ry)=  0.0400
                       cart. coord. in units 2pi/alat
        k(    1) = (   0.0557756   0.0557756   0.0557756), wk =   0.0219479
        k(    2) = (   0.0557756   0.0557756   0.1673269), wk =   0.0658436
        k(    3) = (   0.0557756   0.0557756   0.2788781), wk =   0.0658436
        k(    4) = (   0.0557756   0.0557756   0.3904294), wk =   0.0658436
        k(    5) = (   0.0557756   0.0557756  -0.5019806), wk =   0.0329218
        k(    6) = (   0.0557756   0.1673269   0.1673269), wk =   0.0658436
        k(    7) = (   0.0557756   0.1673269   0.2788781), wk =   0.1316872
        k(    8) = (   0.0557756   0.1673269   0.3904294), wk =   0.1316872
        k(    9) = (   0.0557756   0.1673269  -0.5019806), wk =   0.0658436
        k(   10) = (   0.0557756   0.2788781   0.2788781), wk =   0.0658436
        k(   11) = (   0.0557756   0.2788781   0.3904294), wk =   0.1316872
        k(   12) = (   0.0557756   0.2788781  -0.5019806), wk =   0.0658436
        k(   13) = (   0.0557756   0.3904294   0.3904294), wk =   0.0658436
        k(   14) = (   0.0557756   0.3904294  -0.5019806), wk =   0.0658436
        k(   15) = (   0.0557756  -0.5019806  -0.5019806), wk =   0.0164609
        k(   16) = (   0.1673269   0.1673269   0.1673269), wk =   0.0219479
        k(   17) = (   0.1673269   0.1673269   0.2788781), wk =   0.0658436
        k(   18) = (   0.1673269   0.1673269   0.3904294), wk =   0.0658436
        k(   19) = (   0.1673269   0.1673269  -0.5019806), wk =   0.0329218
        k(   20) = (   0.1673269   0.2788781   0.2788781), wk =   0.0658436
        k(   21) = (   0.1673269   0.2788781   0.3904294), wk =   0.1316872
        k(   22) = (   0.1673269   0.2788781  -0.5019806), wk =   0.0658436
        k(   23) = (   0.1673269   0.3904294   0.3904294), wk =   0.0658436
        k(   24) = (   0.1673269   0.3904294  -0.5019806), wk =   0.0658436
        k(   25) = (   0.1673269  -0.5019806  -0.5019806), wk =   0.0164609
        k(   26) = (   0.2788781   0.2788781   0.2788781), wk =   0.0219479
        k(   27) = (   0.2788781   0.2788781   0.3904294), wk =   0.0658436
        k(   28) = (   0.2788781   0.2788781  -0.5019806), wk =   0.0329218
        k(   29) = (   0.2788781   0.3904294   0.3904294), wk =   0.0658436
        k(   30) = (   0.2788781   0.3904294  -0.5019806), wk =   0.0658436
        k(   31) = (   0.2788781  -0.5019806  -0.5019806), wk =   0.0164609
        k(   32) = (   0.3904294   0.3904294   0.3904294), wk =   0.0219479
        k(   33) = (   0.3904294   0.3904294  -0.5019806), wk =   0.0329218
        k(   34) = (   0.3904294  -0.5019806  -0.5019806), wk =   0.0164609
        k(   35) = (  -0.5019806  -0.5019806  -0.5019806), wk =   0.0027435

     Check: negative core charge=   -0.000002

     Initial potential from superposition of free atoms

     starting charge  495.98023, renormalised to  496.00000
     Starting wfcs are  310 randomized atomic wfcs
     Checking if some PAW data can be deallocated...

     Self-consistent Calculation

[...]

     iteration #  7     ecut=    71.00 Ry     beta= 0.10
     Davidson diagonalization with overlap
     c_bands:  1 eigenvalues not converged
     ethr =  1.05E-06,  avg # of iterations =  5.4

[...]

     total energy              =  -13381.44357605 Ry
     estimated scf accuracy    <       0.00000002 Ry

     iteration # 20     ecut=    71.00 Ry     beta= 0.10
     Davidson diagonalization with overlap
     ethr =  3.50E-12,  avg # of iterations =  2.0

     End of self-consistent calculation

[...]

          k = 0.3904-0.5020-0.5020 ( 29828 PWs)   bands (ev):

[...]

          k =-0.5020-0.5020-0.5020 ( 29824 PWs)   bands (ev):

   -50.4073 -50.4073 -50.4073 -50.3977 -50.3584 -50.3584 -50.3584 -50.3119
   -50.3119 -50.3119 -50.2955 -50.2780 -50.2780 -50.2780 -50.2780 -50.2780
   -50.2770 -50.2685 -50.2685 -50.2685 -50.2271 -50.2271 -50.2271 -50.2150
   -50.2150 -50.2150 -50.1941 -50.1941 -50.1940 -50.1940 -50.1940 -20.7462
   -20.7462 -20.7311 -20.7311 -20.7311 -20.7188 -20.7111 -20.7111 -20.7111
   -20.7010 -20.7010 -20.7010 -20.6950 -20.6950 -20.6950 -20.6932 -20.6932
   -20.6932 -20.6841 -20.6841 -20.6841 -20.5376 -20.5376 -20.5376 -20.4207
   -20.3717 -20.3717 -20.3717 -20.3336 -20.3284 -20.3284 -20.3284 -20.3230
   -20.2780 -20.2780 -20.2780 -20.2702 -20.2702 -20.2702 -20.2605 -20.2605
   -20.2560 -20.2560 -20.2560 -20.2431 -20.2263 -20.2263 -20.2263 -20.2193
   -20.2193 -20.2193 -20.2190 -20.2190 -20.2190 -20.1993 -20.1993 -20.1276
   -20.1276 -20.1276 -20.1220 -20.1220 -20.1201 -20.1117 -20.1117 -20.1117
   -20.0911 -20.0911 -20.0911 -20.0823 -20.0823 -20.0823 -20.0696 -20.0696
   -20.0373 -20.0373 -20.0373 -20.0356 -19.9350 -19.9350 -19.9305 -19.9305
   -19.9305 -19.9146 -19.9146 -19.9146 -19.9051 -19.9051 -19.9051 -19.8899
   -19.8899 -19.8899 -19.8775 -19.8775  16.5227  16.6142  16.6142  16.6142
    16.6219  16.6219  16.6219  16.9444  17.3720  17.3720  17.3720  17.3806
    17.3909  17.3909  17.3952  17.3952  17.3952  17.4350  17.4350  17.4350
    17.4443  17.4443  17.4443  17.4493  17.4493  17.4493  17.6872  17.6872
    17.8266  17.8266  17.8266  18.0307  18.3725  18.3910  18.3910  18.4385
    18.4385  18.4385  18.4645  18.4645  18.4645  18.4762  18.4762  18.4762
    18.4890  18.5115  18.5115  18.5115  18.5987  18.5987  18.5987  18.8310
    18.8310  18.8310  19.3460  19.3460  19.8002  19.8443  19.8809  19.8809
    19.8809  19.9014  19.9014  19.9014  20.4032  20.4032  20.4032  20.4051
    20.4051  20.4051  20.4240  20.4240  20.4619  20.4619  20.4619  20.4706
    20.4706  20.4706  20.5289  20.5289  20.5438  20.5438  20.5438  20.5492
    20.5492  20.5492  20.5728  20.6040  20.6040  20.6040  20.6107  20.6107
    20.6107  20.6552  20.6552  20.8357  20.8357  20.8357  20.8812  20.8995
    20.8995  21.4266  21.4266  21.4266  21.7257  21.7257  21.7257  21.7436
    21.7436  21.7436  21.7512  21.7512  21.7512  21.7589  21.7589  21.8029
    21.8029  21.8029  21.8966  21.8990  21.9863  21.9863  21.9863  22.3263
    22.3263  22.3746  22.3746  22.3746  22.5740  22.5740  22.5988  22.5988
    22.5988  22.6375  22.6375  22.6375  22.7910  22.7910  22.7910  23.6393
    23.6393  23.6393  23.9490  23.9490  24.4284  24.4284  24.4284  24.4542
    24.4542  24.4597  24.4597  24.4597  24.4644  24.4644  24.4644  24.4679
    24.4679  24.4679  24.4813  24.4893  24.4893  24.4893  24.4960  27.3844
    27.3844  27.3844  27.5485  27.5485  27.8191  27.8191  27.8194  27.8376
    27.8529  27.8541

     the Fermi energy is    22.5664 ev

!    total energy              =  -13381.44357639 Ry

     total all-electron energy =   -280927.321718 Ry
     estimated scf accuracy    <          3.7E-09 Ry
     smearing contrib. (-TS)   =       0.00845316 Ry
     internal energy E=F+TS    =  -13381.45202956 Ry

     The total energy is F=E-TS. E is the sum of the following terms:
     one-electron contribution =   -1109.11792824 Ry
     hartree contribution      =     949.92751374 Ry
     xc contribution           =    -898.96981646 Ry
     ewald contribution        =   -4971.02339090 Ry
     one-center paw contrib.   =   -7352.26840769 Ry

     convergence has been achieved in  20 iterations

     Forces acting on atoms (cartesian axes, Ry/au):

     atom    1 type  1   force =     0.00022745    0.00022745   -0.00000000
     atom    2 type  1   force =     0.00022745    0.00000000    0.00022745
     atom    3 type  1   force =     0.00000000    0.00022745    0.00022745
     atom    4 type  1   force =     0.00000000    0.00000000    0.00000000
     atom    5 type  1   force =     0.00064682    0.00064682   -0.00000000
     atom    6 type  1   force =     0.00022745    0.00000000   -0.00022745
     atom    7 type  1   force =     0.00000000    0.00022745   -0.00022745
     atom    8 type  1   force =     0.00000000    0.00000000    0.00000000
     atom    9 type  1   force =     0.00022745   -0.00022745   -0.00000000
     atom   10 type  1   force =     0.00064682   -0.00000000    0.00064682
     atom   11 type  1   force =     0.00000000   -0.00022745    0.00022745
     atom   12 type  1   force =     0.00000000    0.00000000    0.00000000
     atom   13 type  1   force =     0.00064682   -0.00064682    0.00000000
     atom   14 type  1   force =     0.00064682   -0.00000000   -0.00064682
     atom   15 type  1   force =     0.00000000   -0.00022745   -0.00022745
     atom   16 type  1   force =     0.00000000    0.00000000    0.00000000
     atom   17 type  1   force =    -0.00022745    0.00022745   -0.00000000
     atom   18 type  1   force =    -0.00022745    0.00000000    0.00022745
     atom   19 type  1   force =    -0.00000000    0.00064682    0.00064682
     atom   20 type  1   force =     0.00000000    0.00000000    0.00000000
     atom   21 type  1   force =    -0.00064682    0.00064682   -0.00000000
     atom   22 type  1   force =    -0.00022745    0.00000000   -0.00022745
     atom   23 type  1   force =     0.00000000    0.00064682   -0.00064682
     atom   24 type  1   force =     0.00000000    0.00000000    0.00000000
     atom   25 type  1   force =    -0.00022745   -0.00022745   -0.00000000
     atom   26 type  1   force =    -0.00064682   -0.00000000    0.00064682
     atom   27 type  1   force =     0.00000000   -0.00064682    0.00064682
     atom   28 type  1   force =     0.00000000    0.00000000    0.00000000
     atom   29 type  1   force =    -0.00064682   -0.00064682   -0.00000000
     atom   30 type  1   force =    -0.00064682    0.00000000   -0.00064682
     atom   31 type  1   force =    -0.00000000   -0.00064682   -0.00064682

     Total force =     0.003359     Total SCF correction =     0.000041

     Computing stress (Cartesian axis) and pressure

          total   stress  (Ry/bohr**3)                   (kbar)     P=       -0.67
  -0.00000454   0.00000000   0.00000000           -0.67        0.00        0.00
   0.00000000  -0.00000454   0.00000000            0.00       -0.67        0.00
   0.00000000   0.00000000  -0.00000454            0.00        0.00       -0.67

     Writing output data file /scratch/ruvacancy2.save/

     General routines

     Parallel routines

   This run was terminated on:  21:42:33   3Jan2022

   JOB DONE.