     Program PWSCF v.6.7MaX starts on 14Jan2022 at 10: 8:11

     R & G space division:  proc/nbgrp/npool/nimage =      72
     Reading input from relax_3.in
Warning: card &CELL ignored
Warning: card CELL_DYNAMICS = 'BFGS', ignored
Warning: card CELL_FACTOR = 2.0, ignored
Warning: card PRESS = 0.0, ignored
Warning: card / ignored

     Current dimensions of program PWSCF are:
     Max number of different atomic species (ntypx) = 10
     Max number of k-points (npk) =  40000
     Max angular momentum in pseudopotentials (lmaxx) =  3
     file Fe.pbe-spn-kjpaw_psl.1.0.0.UPF: wavefunction(s)  3P 3D renormalized
     file Fe.pbe-spn-kjpaw_psl.1.0.0.UPF: wavefunction(s)  3P 3D renormalized

     Subspace diagonalization in iterative solution of the eigenvalue problem:
     one sub-group per band group will be used

     Found symmetry operation: I + (  0.2500  0.0000  0.2500)
     This is a supercell, fractional translations are disabled
     Message from routine setup:
     using ibrav=0 with symmetry is DISCOURAGED, use correct ibrav instead

     bravais-lattice index     =            0
     lattice parameter (alat)  =      12.9382  a.u.
     unit-cell volume          =    2382.3922 (a.u.)^3
     number of atoms/cell      =           32
     number of atomic types    =            2
     number of electrons       =       512.00
     number of Kohn-Sham states=          325
     kinetic-energy cutoff     =      71.0000  Ry
     charge density cutoff     =     430.0000  Ry
     scf convergence threshold =      1.0E-07
     mixing beta               =       0.1000
     number of iterations used =           10  local-TF  mixing
     energy convergence thresh.=      1.0E-04
     force convergence thresh. =      1.0E-03
     Exchange-correlation= SLA  PW   PBX  PBC
                           (   1   4   3   4   0   0   0)
     nstep                     =           50

     celldm(1)=  12.938190  celldm(2)=   0.000000  celldm(3)=   0.000000
     celldm(4)=   0.000000  celldm(5)=   0.000000  celldm(6)=   0.000000

     crystal axes: (cart. coord. in units of alat)
               a(1) = (   1.000000   0.000000   0.000000 )
               a(2) = (   0.000000   1.100000   0.000000 )
               a(3) = (   0.000000   0.000000   1.000000 )

     reciprocal axes: (cart. coord. in units 2 pi/alat)
               b(1) = (  1.000000  0.000000  0.000000 )
               b(2) = (  0.000000  0.909091  0.000000 )
               b(3) = (  0.000000  0.000000  1.000000 )

     PseudoPot. # 1 for Fe read from file:
     /rds/homes/b/bxp912/pp/Fe.pbe-spn-kjpaw_psl.1.0.0.UPF
     MD5 check sum: 42f43b795421b414b0dc916aa790dbcb
     Pseudo is Projector augmented-wave + core cor, Zval = 16.0
     Generated using &quot;atomic&quot; code by A. Dal Corso  v.6.3
     Shape of augmentation charge: PSQ
     Using radial grid of 1191 points,  6 beta functions with:
                l(1) =   0
                l(2) =   0
                l(3) =   1
                l(4) =   1
                l(5) =   2
                l(6) =   2
     Q(r) pseudized with 0 coefficients

     PseudoPot. # 2 for Fe read from file:
     /rds/homes/b/bxp912/pp/Fe.pbe-spn-kjpaw_psl.1.0.0.UPF
     MD5 check sum: 42f43b795421b414b0dc916aa790dbcb
     Pseudo is Projector augmented-wave + core cor, Zval = 16.0
     Generated using &quot;atomic&quot; code by A. Dal Corso  v.6.3
     Shape of augmentation charge: PSQ
     Using radial grid of 1191 points,  6 beta functions with:
                l(1) =   0
                l(2) =   0
                l(3) =   1
                l(4) =   1
                l(5) =   2
                l(6) =   2
     Q(r) pseudized with 0 coefficients

     atomic species   valence    mass     pseudopotential
        Fe1           16.00    55.84500     Fe( 1.00)
        Fe2           16.00    55.84500     Fe( 1.00)

     Starting magnetic structure
     atomic species   magnetization
        Fe1          0.100
        Fe2         -0.100

      8 Sym. Ops. (no inversion) found

   Cartesian axes

     site n.     atom                  positions (alat units)
         1           Fe1 tau(   1) = (   0.0000000   0.0000000   0.0000000  )
         2           Fe2 tau(   2) = (   0.2500000   0.2500000   0.0000000  )
         3           Fe1 tau(   3) = (   0.2500000   0.0000000   0.2500000  )
         4           Fe2 tau(   4) = (   0.0000000   0.2500000   0.2500000  )
         5           Fe1 tau(   5) = (   0.0000000   0.0000000   0.5000000  )
         6           Fe2 tau(   6) = (   0.2500000   0.2500000   0.5000000  )
         7           Fe1 tau(   7) = (   0.2500000   0.0000000   0.7500000  )
         8           Fe2 tau(   8) = (   0.0000000   0.2500000   0.7500000  )
         9           Fe1 tau(   9) = (   0.0000000   0.6000000   0.0000000  )
        10           Fe2 tau(  10) = (   0.2500000   0.8500000   0.0000000  )
        11           Fe1 tau(  11) = (   0.2500000   0.6000000   0.2500000  )
        12           Fe2 tau(  12) = (   0.0000000   0.8500000   0.2500000  )
        13           Fe1 tau(  13) = (   0.0000000   0.6000000   0.5000000  )
        14           Fe2 tau(  14) = (   0.2500000   0.8500000   0.5000000  )
        15           Fe1 tau(  15) = (   0.2500000   0.6000000   0.7500000  )
        16           Fe2 tau(  16) = (   0.0000000   0.8500000   0.7500000  )
        17           Fe1 tau(  17) = (   0.5000000   0.0000000   0.0000000  )
        18           Fe2 tau(  18) = (   0.7500000   0.2500000   0.0000000  )
        19           Fe1 tau(  19) = (   0.7500000   0.0000000   0.2500000  )
        20           Fe2 tau(  20) = (   0.5000000   0.2500000   0.2500000  )
        21           Fe1 tau(  21) = (   0.5000000   0.0000000   0.5000000  )
        22           Fe2 tau(  22) = (   0.7500000   0.2500000   0.5000000  )
        23           Fe1 tau(  23) = (   0.7500000   0.0000000   0.7500000  )
        24           Fe2 tau(  24) = (   0.5000000   0.2500000   0.7500000  )
        25           Fe1 tau(  25) = (   0.5000000   0.6000000   0.0000000  )
        26           Fe2 tau(  26) = (   0.7500000   0.8500000   0.0000000  )
        27           Fe1 tau(  27) = (   0.7500000   0.6000000   0.2500000  )
        28           Fe2 tau(  28) = (   0.5000000   0.8500000   0.2500000  )
        29           Fe1 tau(  29) = (   0.5000000   0.6000000   0.5000000  )
        30           Fe2 tau(  30) = (   0.7500000   0.8500000   0.5000000  )
        31           Fe1 tau(  31) = (   0.7500000   0.6000000   0.7500000  )
        32           Fe2 tau(  32) = (   0.5000000   0.8500000   0.7500000  )

     number of k points=    75  Marzari-Vanderbilt smearing, width (Ry)=  0.0400
                       cart. coord. in units 2pi/alat
        k(    1) = (   0.0555556   0.0505051   0.0555556), wk =   0.0109739
        k(    2) = (   0.0555556   0.0505051   0.1666667), wk =   0.0219479
        k(    3) = (   0.0555556   0.0505051   0.2777778), wk =   0.0219479
        k(    4) = (   0.0555556   0.0505051   0.3888889), wk =   0.0219479
        k(    5) = (   0.0555556   0.0505051  -0.5000000), wk =   0.0109739
        k(    6) = (   0.0555556   0.1515152   0.0555556), wk =   0.0109739
        k(    7) = (   0.0555556   0.1515152   0.1666667), wk =   0.0219479
        k(    8) = (   0.0555556   0.1515152   0.2777778), wk =   0.0219479
        k(    9) = (   0.0555556   0.1515152   0.3888889), wk =   0.0219479
        k(   10) = (   0.0555556   0.1515152  -0.5000000), wk =   0.0109739
        k(   11) = (   0.0555556   0.2525253   0.0555556), wk =   0.0109739
        k(   12) = (   0.0555556   0.2525253   0.1666667), wk =   0.0219479
        k(   13) = (   0.0555556   0.2525253   0.2777778), wk =   0.0219479
        k(   14) = (   0.0555556   0.2525253   0.3888889), wk =   0.0219479
        k(   15) = (   0.0555556   0.2525253  -0.5000000), wk =   0.0109739
        k(   16) = (   0.0555556   0.3535354   0.0555556), wk =   0.0109739
        k(   17) = (   0.0555556   0.3535354   0.1666667), wk =   0.0219479
        k(   18) = (   0.0555556   0.3535354   0.2777778), wk =   0.0219479
        k(   19) = (   0.0555556   0.3535354   0.3888889), wk =   0.0219479
        k(   20) = (   0.0555556   0.3535354  -0.5000000), wk =   0.0109739
        k(   21) = (   0.0555556  -0.4545455   0.0555556), wk =   0.0054870
        k(   22) = (   0.0555556  -0.4545455   0.1666667), wk =   0.0109739
        k(   23) = (   0.0555556  -0.4545455   0.2777778), wk =   0.0109739
        k(   24) = (   0.0555556  -0.4545455   0.3888889), wk =   0.0109739
        k(   25) = (   0.0555556  -0.4545455  -0.5000000), wk =   0.0054870
        k(   26) = (   0.1666667   0.0505051   0.1666667), wk =   0.0109739
        k(   27) = (   0.1666667   0.0505051   0.2777778), wk =   0.0219479
        k(   28) = (   0.1666667   0.0505051   0.3888889), wk =   0.0219479
        k(   29) = (   0.1666667   0.0505051  -0.5000000), wk =   0.0109739
        k(   30) = (   0.1666667   0.1515152   0.1666667), wk =   0.0109739
        k(   31) = (   0.1666667   0.1515152   0.2777778), wk =   0.0219479
        k(   32) = (   0.1666667   0.1515152   0.3888889), wk =   0.0219479
        k(   33) = (   0.1666667   0.1515152  -0.5000000), wk =   0.0109739
        k(   34) = (   0.1666667   0.2525253   0.1666667), wk =   0.0109739
        k(   35) = (   0.1666667   0.2525253   0.2777778), wk =   0.0219479
        k(   36) = (   0.1666667   0.2525253   0.3888889), wk =   0.0219479
        k(   37) = (   0.1666667   0.2525253  -0.5000000), wk =   0.0109739
        k(   38) = (   0.1666667   0.3535354   0.1666667), wk =   0.0109739
        k(   39) = (   0.1666667   0.3535354   0.2777778), wk =   0.0219479
        k(   40) = (   0.1666667   0.3535354   0.3888889), wk =   0.0219479
        k(   41) = (   0.1666667   0.3535354  -0.5000000), wk =   0.0109739
        k(   42) = (   0.1666667  -0.4545455   0.1666667), wk =   0.0054870
        k(   43) = (   0.1666667  -0.4545455   0.2777778), wk =   0.0109739
        k(   44) = (   0.1666667  -0.4545455   0.3888889), wk =   0.0109739
        k(   45) = (   0.1666667  -0.4545455  -0.5000000), wk =   0.0054870
        k(   46) = (   0.2777778   0.0505051   0.2777778), wk =   0.0109739
        k(   47) = (   0.2777778   0.0505051   0.3888889), wk =   0.0219479
        k(   48) = (   0.2777778   0.0505051  -0.5000000), wk =   0.0109739
        k(   49) = (   0.2777778   0.1515152   0.2777778), wk =   0.0109739
        k(   50) = (   0.2777778   0.1515152   0.3888889), wk =   0.0219479
        k(   51) = (   0.2777778   0.1515152  -0.5000000), wk =   0.0109739
        k(   52) = (   0.2777778   0.2525253   0.2777778), wk =   0.0109739
        k(   53) = (   0.2777778   0.2525253   0.3888889), wk =   0.0219479
        k(   54) = (   0.2777778   0.2525253  -0.5000000), wk =   0.0109739
        k(   55) = (   0.2777778   0.3535354   0.2777778), wk =   0.0109739
        k(   56) = (   0.2777778   0.3535354   0.3888889), wk =   0.0219479
        k(   57) = (   0.2777778   0.3535354  -0.5000000), wk =   0.0109739
        k(   58) = (   0.2777778  -0.4545455   0.2777778), wk =   0.0054870
[...]
     new conv_thr            =       0.0000001000 Ry

ATOMIC_POSITIONS (crystal)
Fe1           0.0000000000        0.0005477882        0.0000000000
Fe2           0.2500002319        0.2326326981        0.0000000000
Fe1           0.2500006282        0.0005448497        0.2500006282
Fe2           0.0000000000        0.2326326981        0.2500002319
Fe1           0.0000000000        0.0005452225        0.5000000000
Fe2           0.2500003737        0.2326335189        0.5000000000
Fe1           0.2500006282        0.0005448497        0.7499993718
Fe2           0.0000000000        0.2326326981        0.7499997681
Fe1           0.0000000000        0.5400906179        0.0000000000
Fe2           0.2499977142        0.7721797701        0.0000000000
Fe1           0.2499979061        0.5401016178        0.2499979061
Fe2           0.0000000000        0.7721797701        0.2499977142
Fe1           0.0000000000        0.5400874969        0.5000000000
Fe2           0.2499979090        0.7721804239        0.5000000000
Fe1           0.2499979061        0.5401016178        0.7500020939
Fe2           0.0000000000        0.7721797701        0.7500022858
Fe1           0.5000000000        0.0005452225        0.0000000000
Fe2           0.7499997681        0.2326326981        0.0000000000
Fe1           0.7499993718        0.0005448497        0.2500006282
Fe2           0.5000000000        0.2326335189        0.2500003737
Fe1           0.5000000000        0.0005491803        0.5000000000
Fe2           0.7499996263        0.2326335189        0.5000000000
Fe1           0.7499993718        0.0005448497        0.7499993718
Fe2           0.5000000000        0.2326335189        0.7499996263
Fe1           0.5000000000        0.5400874969        0.0000000000
Fe2           0.7500022858        0.7721797701        0.0000000000
Fe1           0.7500020939        0.5401016178        0.2499979061
Fe2           0.5000000000        0.7721804239        0.2499979090
Fe1           0.5000000000        0.5400918248        0.5000000000
Fe2           0.7500020910        0.7721804239        0.5000000000
Fe1           0.7500020939        0.5401016178        0.7500020939
Fe2           0.5000000000        0.7721804239        0.7500020910

     Writing output data file /scratch/UJXWSfNZMAnlwNru.save/
     NEW-OLD atomic charge density approx. for the potential

     Check: negative core charge=   -0.000006

     negative rho (up, down):  0.000E+00 4.351E-04
     Generating pointlists ...

[...]

     Energy error            =      8.8E-02
     Gradient error          =      6.7E-02

[...]

     energy   old            =  -10535.9013958495 Ry
     energy   new            =  -10535.9896736103 Ry

     CASE: energy  _new < energy  _old

     WARNING: bfgs curvature condition failed, Theta= 0.910
     new trust radius        =       0.0840222711 bohr
     new conv_thr            =       0.0000000668 Ry

[...]

     Check: negative core charge=   -0.000006

     negative rho (up, down):  0.000E+00 2.818E-04
     Generating pointlists ...

[...]

     negative rho (up, down):  0.000E+00 1.063E-04
          total   stress  (Ry/bohr**3)                   (kbar)     P=      -32.32
  -0.00007429   0.00000000   0.00000000          -10.93        0.00        0.00
   0.00000000  -0.00051057   0.00000000            0.00      -75.11        0.00
   0.00000000   0.00000000  -0.00007429            0.00        0.00      -10.93

[...]

     Check: negative core charge=   -0.000006
     Generating pointlists ...

[...]

          total   stress  (Ry/bohr**3)                   (kbar)     P=      -51.42
  -0.00019350   0.00000000   0.00000000          -28.46        0.00        0.00
   0.00000000  -0.00066161   0.00000000            0.00      -97.33        0.00
   0.00000000   0.00000000  -0.00019350            0.00        0.00      -28.46

[...]

     negative rho (up, down):  0.000E+00 6.988E-05

[...]

     Total force =     0.025688     Total SCF correction =     0.000472

[...]

     iteration #  1     ecut=    71.00 Ry     beta= 0.10
     Davidson diagonalization with overlap
     c_bands:  1 eigenvalues not converged
     c_bands:  1 eigenvalues not converged
     ethr =  1.00E-06,  avg # of iterations =  7.8

[...]

     Total force =     0.000589     Total SCF correction =     0.000373
     SCF correction compared to forces is large: reduce conv_thr to get better values

[...]

     number of scf cycles    =   8
     number of bfgs steps    =   7

     energy   old            =  -10536.2434473941 Ry
     energy   new            =  -10536.2446067268 Ry

     CASE: energy  _new < energy  _old

     new trust radius        =       0.0004541693 bohr
     new conv_thr            =       0.0000000010 Ry

ATOMIC_POSITIONS (crystal)
Fe1           0.0000000000        0.0113717153        0.0000000000
Fe2           0.2500000433        0.2613569306        0.0000000000
Fe1           0.2500001734        0.0113677738        0.2500001734
Fe2           0.0000000000        0.2613569306        0.2500000433
Fe1           0.0000000000        0.0113711171        0.5000000000
Fe2           0.2500002055        0.2613575603        0.5000000000
Fe1           0.2500001734        0.0113677738        0.7499998266
Fe2           0.0000000000        0.2613569306        0.7499999567
Fe1           0.0000000000        0.5113247504        0.0000000000
Fe2           0.2499996543        0.7613810628        0.0000000000
Fe1           0.2499996171        0.5113686231        0.2499996171
Fe2           0.0000000000        0.7613810628        0.2499996543
Fe1           0.0000000000        0.5113242783        0.5000000000
Fe2           0.2499996132        0.7613809693        0.5000000000
Fe1           0.2499996171        0.5113686231        0.7500003829
Fe2           0.0000000000        0.7613810628        0.7500003457
Fe1           0.5000000000        0.0113711171        0.0000000000
Fe2           0.7499999567        0.2613569306        0.0000000000
Fe1           0.7499998266        0.0113677738        0.2500001734
Fe2           0.5000000000        0.2613575603        0.2500002055
Fe1           0.5000000000        0.0113716208        0.5000000000
Fe2           0.7499997945        0.2613575603        0.5000000000
Fe1           0.7499998266        0.0113677738        0.7499998266
Fe2           0.5000000000        0.2613575603        0.7499997945
Fe1           0.5000000000        0.5113242783        0.0000000000
Fe2           0.7500003457        0.7613810628        0.0000000000
Fe1           0.7500003829        0.5113686231        0.2499996171
Fe2           0.5000000000        0.7613809693        0.2499996132
Fe1           0.5000000000        0.5113258066        0.5000000000
Fe2           0.7500003868        0.7613809693        0.5000000000
Fe1           0.7500003829        0.5113686231        0.7500003829
Fe2           0.5000000000        0.7613809693        0.7500003868

     Writing output data file /scratch/UJXWSfNZMAnlwNru.save/
     NEW-OLD atomic charge density approx. for the potential

     Check: negative core charge=   -0.000006
     Generating pointlists ...

     Self-consistent Calculation

[...]

     Threshold (ethr) on eigenvalues was too large:
     Diagonalizing with lowered threshold

     Davidson diagonalization with overlap
     ethr =  5.22E-10,  avg # of iterations =  5.4

[...]

     total energy              =  -10536.24460730 Ry
     estimated scf accuracy    <          1.6E-09 Ry

[...]

     iteration #  9     ecut=    71.00 Ry     beta= 0.10
     Davidson diagonalization with overlap
     ethr =  3.16E-13,  avg # of iterations =  2.0

     Magnetic moment per site:
     atom:    1    charge:   14.3395    magn:    1.7201    constr:    0.0000
     atom:    2    charge:   14.3393    magn:   -1.7203    constr:    0.0000
     atom:    3    charge:   14.3387    magn:    1.7205    constr:    0.0000
     atom:    4    charge:   14.3393    magn:   -1.7203    constr:    0.0000
     atom:    5    charge:   14.3395    magn:    1.7201    constr:    0.0000
     atom:    6    charge:   14.3393    magn:   -1.7203    constr:    0.0000
     atom:    7    charge:   14.3387    magn:    1.7205    constr:    0.0000
     atom:    8    charge:   14.3393    magn:   -1.7203    constr:    0.0000
     atom:    9    charge:   14.3394    magn:    1.7206    constr:    0.0000
     atom:   10    charge:   14.3392    magn:   -1.7208    constr:    0.0000
     atom:   11    charge:   14.3386    magn:    1.7210    constr:    0.0000
     atom:   12    charge:   14.3392    magn:   -1.7208    constr:    0.0000
     atom:   13    charge:   14.3394    magn:    1.7206    constr:    0.0000
     atom:   14    charge:   14.3392    magn:   -1.7208    constr:    0.0000
     atom:   15    charge:   14.3386    magn:    1.7210    constr:    0.0000
     atom:   16    charge:   14.3392    magn:   -1.7208    constr:    0.0000
     atom:   17    charge:   14.3395    magn:    1.7201    constr:    0.0000
     atom:   18    charge:   14.3393    magn:   -1.7203    constr:    0.0000
     atom:   19    charge:   14.3387    magn:    1.7205    constr:    0.0000
     atom:   20    charge:   14.3393    magn:   -1.7203    constr:    0.0000
     atom:   21    charge:   14.3395    magn:    1.7201    constr:    0.0000
     atom:   22    charge:   14.3393    magn:   -1.7203    constr:    0.0000
     atom:   23    charge:   14.3387    magn:    1.7205    constr:    0.0000
     atom:   24    charge:   14.3393    magn:   -1.7203    constr:    0.0000
     atom:   25    charge:   14.3394    magn:    1.7206    constr:    0.0000
     atom:   26    charge:   14.3392    magn:   -1.7208    constr:    0.0000
     atom:   27    charge:   14.3386    magn:    1.7210    constr:    0.0000
     atom:   28    charge:   14.3392    magn:   -1.7208    constr:    0.0000
     atom:   29    charge:   14.3394    magn:    1.7206    constr:    0.0000
     atom:   30    charge:   14.3392    magn:   -1.7208    constr:    0.0000
     atom:   31    charge:   14.3386    magn:    1.7210    constr:    0.0000
     atom:   32    charge:   14.3392    magn:   -1.7208    constr:    0.0000

     End of self-consistent calculation

     Number of k-points >= 100: set verbosity='high' to print the bands.

     the Fermi energy is    19.1525 ev

!    total energy              =  -10536.24460730 Ry

     total all-electron energy =    -81457.733665 Ry
     estimated scf accuracy    <          6.4E-10 Ry
     smearing contrib. (-TS)   =       0.04073071 Ry
     internal energy E=F+TS    =  -10536.28533801 Ry

     The total energy is F=E-TS. E is the sum of the following terms:
     one-electron contribution =   -3420.11520504 Ry
     hartree contribution      =    2042.95567814 Ry
     xc contribution           =    -886.50588411 Ry
     ewald contribution        =   -5623.08874552 Ry
     one-center paw contrib.   =   -2649.53118148 Ry

     total magnetization       =    -0.00 Bohr mag/cell
     absolute magnetization    =    57.28 Bohr mag/cell

     convergence has been achieved in   9 iterations

     Forces acting on atoms (cartesian axes, Ry/au):

     atom    1 type  1   force =     0.00000000   -0.00008221    0.00000000
     atom    2 type  2   force =    -0.00000007   -0.00001138    0.00000000
     atom    3 type  1   force =    -0.00000044    0.00006672   -0.00000044
     atom    4 type  2   force =     0.00000000   -0.00001138   -0.00000007
     atom    5 type  1   force =     0.00000000   -0.00008003    0.00000000
     atom    6 type  2   force =    -0.00000051   -0.00001256    0.00000000
     atom    7 type  1   force =    -0.00000044    0.00006672    0.00000044
     atom    8 type  2   force =     0.00000000   -0.00001138    0.00000007
     atom    9 type  1   force =     0.00000000    0.00008866    0.00000000
     atom   10 type  2   force =     0.00000105   -0.00005745    0.00000000
     atom   11 type  1   force =     0.00000108    0.00006400    0.00000108
     atom   12 type  2   force =     0.00000000   -0.00005745    0.00000105
     atom   13 type  1   force =     0.00000000    0.00009061    0.00000000
     atom   14 type  2   force =     0.00000103   -0.00005741    0.00000000
     atom   15 type  1   force =     0.00000108    0.00006400   -0.00000108
     atom   16 type  2   force =     0.00000000   -0.00005745   -0.00000105
     atom   17 type  1   force =     0.00000000   -0.00008003    0.00000000
     atom   18 type  2   force =     0.00000007   -0.00001138    0.00000000
     atom   19 type  1   force =     0.00000044    0.00006672   -0.00000044
     atom   20 type  2   force =     0.00000000   -0.00001256   -0.00000051
     atom   21 type  1   force =     0.00000000   -0.00008212    0.00000000
     atom   22 type  2   force =     0.00000051   -0.00001256    0.00000000
     atom   23 type  1   force =     0.00000044    0.00006672    0.00000044
     atom   24 type  2   force =     0.00000000   -0.00001256    0.00000051
     atom   25 type  1   force =     0.00000000    0.00009061    0.00000000
     atom   26 type  2   force =    -0.00000105   -0.00005745    0.00000000
     atom   27 type  1   force =    -0.00000108    0.00006400    0.00000108
     atom   28 type  2   force =     0.00000000   -0.00005741    0.00000103
     atom   29 type  1   force =     0.00000000    0.00008681    0.00000000
     atom   30 type  2   force =    -0.00000103   -0.00005741    0.00000000
     atom   31 type  1   force =    -0.00000108    0.00006400   -0.00000108
     atom   32 type  2   force =     0.00000000   -0.00005741   -0.00000103

     Total force =     0.000346     Total SCF correction =     0.000296
     SCF correction compared to forces is large: reduce conv_thr to get better values

     Computing stress (Cartesian axis) and pressure

          total   stress  (Ry/bohr**3)                   (kbar)     P=      -66.39
  -0.00029308   0.00000000   0.00000000          -43.11        0.00        0.00
   0.00000000  -0.00076772   0.00000000            0.00     -112.93        0.00
   0.00000000   0.00000000  -0.00029308            0.00        0.00      -43.11

     Energy error            =      5.8E-07
     Gradient error          =      9.1E-05

     bfgs converged in   9 scf cycles and   8 bfgs steps
     (criteria: energy <  1.0E-04 Ry, force <  1.0E-03 Ry/Bohr)

     End of BFGS Geometry Optimization

     Final energy   =  -10536.2446073019 Ry

     File /scratch/UJXWSfNZMAnlwNru.bfgs deleted, as requested
Begin final coordinates

ATOMIC_POSITIONS (crystal)
Fe1           0.0000000000        0.0113717153        0.0000000000
Fe2           0.2500000433        0.2613569306        0.0000000000
Fe1           0.2500001734        0.0113677738        0.2500001734
Fe2           0.0000000000        0.2613569306        0.2500000433
Fe1           0.0000000000        0.0113711171        0.5000000000
Fe2           0.2500002055        0.2613575603        0.5000000000
Fe1           0.2500001734        0.0113677738        0.7499998266
Fe2           0.0000000000        0.2613569306        0.7499999567
Fe1           0.0000000000        0.5113247504        0.0000000000
Fe2           0.2499996543        0.7613810628        0.0000000000
Fe1           0.2499996171        0.5113686231        0.2499996171
Fe2           0.0000000000        0.7613810628        0.2499996543
Fe1           0.0000000000        0.5113242783        0.5000000000
Fe2           0.2499996132        0.7613809693        0.5000000000
Fe1           0.2499996171        0.5113686231        0.7500003829
Fe2           0.0000000000        0.7613810628        0.7500003457
Fe1           0.5000000000        0.0113711171        0.0000000000
Fe2           0.7499999567        0.2613569306        0.0000000000
Fe1           0.7499998266        0.0113677738        0.2500001734
Fe2           0.5000000000        0.2613575603        0.2500002055
Fe1           0.5000000000        0.0113716208        0.5000000000
Fe2           0.7499997945        0.2613575603        0.5000000000
Fe1           0.7499998266        0.0113677738        0.7499998266
Fe2           0.5000000000        0.2613575603        0.7499997945
Fe1           0.5000000000        0.5113242783        0.0000000000
Fe2           0.7500003457        0.7613810628        0.0000000000
Fe1           0.7500003829        0.5113686231        0.2499996171
Fe2           0.5000000000        0.7613809693        0.2499996132
Fe1           0.5000000000        0.5113258066        0.5000000000
Fe2           0.7500003868        0.7613809693        0.5000000000
Fe1           0.7500003829        0.5113686231        0.7500003829
Fe2           0.5000000000        0.7613809693        0.7500003868
End final coordinates

     Writing output data file /scratch/UJXWSfNZMAnlwNru.save/

     General routines

     Parallel routines

   This run was terminated on:  16: 0:32  14Jan2022

   JOB DONE.