     Program PWSCF v.6.7MaX starts on 16Jan2022 at  0:13: 3

     R & G space division:  proc/nbgrp/npool/nimage =      72
     Reading input from relax_8.in
Warning: card &CELL ignored
Warning: card CELL_DYNAMICS = 'BFGS', ignored
Warning: card CELL_FACTOR = 2.0, ignored
Warning: card PRESS = 0.0, ignored
Warning: card / ignored

     Current dimensions of program PWSCF are:
     Max number of different atomic species (ntypx) = 10
     Max number of k-points (npk) =  40000
     Max angular momentum in pseudopotentials (lmaxx) =  3
     file Fe.pbe-spn-kjpaw_psl.1.0.0.UPF: wavefunction(s)  3P 3D renormalized
     file Fe.pbe-spn-kjpaw_psl.1.0.0.UPF: wavefunction(s)  3P 3D renormalized

     Subspace diagonalization in iterative solution of the eigenvalue problem:
     one sub-group per band group will be used

     Found symmetry operation: I + (  0.2500  0.0000  0.2500)
     This is a supercell, fractional translations are disabled
     Message from routine setup:
     using ibrav=0 with symmetry is DISCOURAGED, use correct ibrav instead

     bravais-lattice index     =            0
     lattice parameter (alat)  =      12.9382  a.u.
     unit-cell volume          =    3465.2977 (a.u.)^3
     number of atoms/cell      =           32
     number of atomic types    =            2
     number of electrons       =       512.00
     number of Kohn-Sham states=          325
     kinetic-energy cutoff     =      71.0000  Ry
     charge density cutoff     =     430.0000  Ry
     scf convergence threshold =      1.0E-07
     mixing beta               =       0.1000
     number of iterations used =           10  local-TF  mixing
     energy convergence thresh.=      1.0E-04
     force convergence thresh. =      1.0E-03
     Exchange-correlation= SLA  PW   PBX  PBC
                           (   1   4   3   4   0   0   0)
     nstep                     =           50

     celldm(1)=  12.938190  celldm(2)=   0.000000  celldm(3)=   0.000000
     celldm(4)=   0.000000  celldm(5)=   0.000000  celldm(6)=   0.000000

     crystal axes: (cart. coord. in units of alat)
               a(1) = (   1.000000   0.000000   0.000000 )
               a(2) = (   0.000000   1.600000   0.000000 )
               a(3) = (   0.000000   0.000000   1.000000 )

     reciprocal axes: (cart. coord. in units 2 pi/alat)
               b(1) = (  1.000000  0.000000  0.000000 )
               b(2) = (  0.000000  0.625000  0.000000 )
               b(3) = (  0.000000  0.000000  1.000000 )

     PseudoPot. # 1 for Fe read from file:
     /rds/homes/b/bxp912/pp/Fe.pbe-spn-kjpaw_psl.1.0.0.UPF
     MD5 check sum: 42f43b795421b414b0dc916aa790dbcb
     Pseudo is Projector augmented-wave + core cor, Zval = 16.0
     Generated using &quot;atomic&quot; code by A. Dal Corso  v.6.3
     Shape of augmentation charge: PSQ
     Using radial grid of 1191 points,  6 beta functions with:
                l(1) =   0
                l(2) =   0
                l(3) =   1
                l(4) =   1
                l(5) =   2
                l(6) =   2
     Q(r) pseudized with 0 coefficients

     PseudoPot. # 2 for Fe read from file:
     /rds/homes/b/bxp912/pp/Fe.pbe-spn-kjpaw_psl.1.0.0.UPF
     MD5 check sum: 42f43b795421b414b0dc916aa790dbcb
     Pseudo is Projector augmented-wave + core cor, Zval = 16.0
     Generated using &quot;atomic&quot; code by A. Dal Corso  v.6.3
     Shape of augmentation charge: PSQ
     Using radial grid of 1191 points,  6 beta functions with:
                l(1) =   0
                l(2) =   0
                l(3) =   1
                l(4) =   1
                l(5) =   2
                l(6) =   2
     Q(r) pseudized with 0 coefficients

     atomic species   valence    mass     pseudopotential
        Fe1           16.00    55.84500     Fe( 1.00)
        Fe2           16.00    55.84500     Fe( 1.00)

     Starting magnetic structure
     atomic species   magnetization
        Fe1          0.100
        Fe2         -0.100

      8 Sym. Ops. (no inversion) found

   Cartesian axes

     site n.     atom                  positions (alat units)
         1           Fe1 tau(   1) = (   0.0000000   0.0000000   0.0000000  )
         2           Fe2 tau(   2) = (   0.2500000   0.2500000   0.0000000  )
         3           Fe1 tau(   3) = (   0.2500000   0.0000000   0.2500000  )
         4           Fe2 tau(   4) = (   0.0000000   0.2500000   0.2500000  )
         5           Fe1 tau(   5) = (   0.0000000   0.0000000   0.5000000  )
         6           Fe2 tau(   6) = (   0.2500000   0.2500000   0.5000000  )
         7           Fe1 tau(   7) = (   0.2500000   0.0000000   0.7500000  )
         8           Fe2 tau(   8) = (   0.0000000   0.2500000   0.7500000  )
         9           Fe1 tau(   9) = (   0.0000000   1.1000000   0.0000000  )
        10           Fe2 tau(  10) = (   0.2500000   1.3500000   0.0000000  )
        11           Fe1 tau(  11) = (   0.2500000   1.1000000   0.2500000  )
        12           Fe2 tau(  12) = (   0.0000000   1.3500000   0.2500000  )
        13           Fe1 tau(  13) = (   0.0000000   1.1000000   0.5000000  )
        14           Fe2 tau(  14) = (   0.2500000   1.3500000   0.5000000  )
        15           Fe1 tau(  15) = (   0.2500000   1.1000000   0.7500000  )
        16           Fe2 tau(  16) = (   0.0000000   1.3500000   0.7500000  )
        17           Fe1 tau(  17) = (   0.5000000   0.0000000   0.0000000  )
        18           Fe2 tau(  18) = (   0.7500000   0.2500000   0.0000000  )
        19           Fe1 tau(  19) = (   0.7500000   0.0000000   0.2500000  )
        20           Fe2 tau(  20) = (   0.5000000   0.2500000   0.2500000  )
        21           Fe1 tau(  21) = (   0.5000000   0.0000000   0.5000000  )
        22           Fe2 tau(  22) = (   0.7500000   0.2500000   0.5000000  )
        23           Fe1 tau(  23) = (   0.7500000   0.0000000   0.7500000  )
        24           Fe2 tau(  24) = (   0.5000000   0.2500000   0.7500000  )
        25           Fe1 tau(  25) = (   0.5000000   1.1000000   0.0000000  )
        26           Fe2 tau(  26) = (   0.7500000   1.3500000   0.0000000  )
        27           Fe1 tau(  27) = (   0.7500000   1.1000000   0.2500000  )
        28           Fe2 tau(  28) = (   0.5000000   1.3500000   0.2500000  )
        29           Fe1 tau(  29) = (   0.5000000   1.1000000   0.5000000  )
        30           Fe2 tau(  30) = (   0.7500000   1.3500000   0.5000000  )
        31           Fe1 tau(  31) = (   0.7500000   1.1000000   0.7500000  )
        32           Fe2 tau(  32) = (   0.5000000   1.3500000   0.7500000  )

     number of k points=    75  Marzari-Vanderbilt smearing, width (Ry)=  0.0400
                       cart. coord. in units 2pi/alat
        k(    1) = (   0.0555556   0.0347222   0.0555556), wk =   0.0109739
        k(    2) = (   0.0555556   0.0347222   0.1666667), wk =   0.0219479
        k(    3) = (   0.0555556   0.0347222   0.2777778), wk =   0.0219479
        k(    4) = (   0.0555556   0.0347222   0.3888889), wk =   0.0219479
        k(    5) = (   0.0555556   0.0347222  -0.5000000), wk =   0.0109739
        k(    6) = (   0.0555556   0.1041667   0.0555556), wk =   0.0109739
        k(    7) = (   0.0555556   0.1041667   0.1666667), wk =   0.0219479
        k(    8) = (   0.0555556   0.1041667   0.2777778), wk =   0.0219479
        k(    9) = (   0.0555556   0.1041667   0.3888889), wk =   0.0219479
        k(   10) = (   0.0555556   0.1041667  -0.5000000), wk =   0.0109739
        k(   11) = (   0.0555556   0.1736111   0.0555556), wk =   0.0109739
        k(   12) = (   0.0555556   0.1736111   0.1666667), wk =   0.0219479
        k(   13) = (   0.0555556   0.1736111   0.2777778), wk =   0.0219479
        k(   14) = (   0.0555556   0.1736111   0.3888889), wk =   0.0219479
        k(   15) = (   0.0555556   0.1736111  -0.5000000), wk =   0.0109739
        k(   16) = (   0.0555556   0.2430556   0.0555556), wk =   0.0109739
        k(   17) = (   0.0555556   0.2430556   0.1666667), wk =   0.0219479
        k(   18) = (   0.0555556   0.2430556   0.2777778), wk =   0.0219479
        k(   19) = (   0.0555556   0.2430556   0.3888889), wk =   0.0219479
        k(   20) = (   0.0555556   0.2430556  -0.5000000), wk =   0.0109739
        k(   21) = (   0.0555556  -0.3125000   0.0555556), wk =   0.0054870
        k(   22) = (   0.0555556  -0.3125000   0.1666667), wk =   0.0109739
        k(   23) = (   0.0555556  -0.3125000   0.2777778), wk =   0.0109739
        k(   24) = (   0.0555556  -0.3125000   0.3888889), wk =   0.0109739
        k(   25) = (   0.0555556  -0.3125000  -0.5000000), wk =   0.0054870
        k(   26) = (   0.1666667   0.0347222   0.1666667), wk =   0.0109739
        k(   27) = (   0.1666667   0.0347222   0.2777778), wk =   0.0219479
        k(   28) = (   0.1666667   0.0347222   0.3888889), wk =   0.0219479
        k(   29) = (   0.1666667   0.0347222  -0.5000000), wk =   0.0109739
        k(   30) = (   0.1666667   0.1041667   0.1666667), wk =   0.0109739
        k(   31) = (   0.1666667   0.1041667   0.2777778), wk =   0.0219479
        k(   32) = (   0.1666667   0.1041667   0.3888889), wk =   0.0219479
        k(   33) = (   0.1666667   0.1041667  -0.5000000), wk =   0.0109739
        k(   34) = (   0.1666667   0.1736111   0.1666667), wk =   0.0109739
        k(   35) = (   0.1666667   0.1736111   0.2777778), wk =   0.0219479
        k(   36) = (   0.1666667   0.1736111   0.3888889), wk =   0.0219479
        k(   37) = (   0.1666667   0.1736111  -0.5000000), wk =   0.0109739
        k(   38) = (   0.1666667   0.2430556   0.1666667), wk =   0.0109739
        k(   39) = (   0.1666667   0.2430556   0.2777778), wk =   0.0219479
        k(   40) = (   0.1666667   0.2430556   0.3888889), wk =   0.0219479
        k(   41) = (   0.1666667   0.2430556  -0.5000000), wk =   0.0109739
        k(   42) = (   0.1666667  -0.3125000   0.1666667), wk =   0.0054870
        k(   43) = (   0.1666667  -0.3125000   0.2777778), wk =   0.0109739
        k(   44) = (   0.1666667  -0.3125000   0.3888889), wk =   0.0109739
        k(   45) = (   0.1666667  -0.3125000  -0.5000000), wk =   0.0054870
        k(   46) = (   0.2777778   0.0347222   0.2777778), wk =   0.0109739
        k(   47) = (   0.2777778   0.0347222   0.3888889), wk =   0.0219479
        k(   48) = (   0.2777778   0.0347222  -0.5000000), wk =   0.0109739
        k(   49) = (   0.2777778   0.1041667   0.2777778), wk =   0.0109739
        k(   50) = (   0.2777778   0.1041667   0.3888889), wk =   0.0219479
        k(   51) = (   0.2777778   0.1041667  -0.5000000), wk =   0.0109739
        k(   52) = (   0.2777778   0.1736111   0.2777778), wk =   0.0109739
        k(   53) = (   0.2777778   0.1736111   0.3888889), wk =   0.0219479
        k(   54) = (   0.2777778   0.1736111  -0.5000000), wk =   0.0109739
        k(   55) = (   0.2777778   0.2430556   0.2777778), wk =   0.0109739
        k(   56) = (   0.2777778   0.2430556   0.3888889), wk =   0.0219479
        k(   57) = (   0.2777778   0.2430556  -0.5000000), wk =   0.0109739
        k(   58) = (   0.2777778  -0.3125000   0.2777778), wk =   0.0054870
[...]
   0.00000000   0.00030657   0.00000000            0.00       45.10        0.00
   0.00000000   0.00000000   0.00006919            0.00        0.00       10.18

     BFGS Geometry Optimization
     Energy error            =      0.0E+00
     Gradient error          =      2.4E-02

     number of scf cycles    =   1
     number of bfgs steps    =   0

     energy   new            =  -10534.9722917933 Ry

     new trust radius        =       0.0242490656 bohr
     new conv_thr            =       0.0000001000 Ry

ATOMIC_POSITIONS (crystal)
Fe1           0.0000000000        0.0000517162        0.0000000000
Fe2           0.2500008117        0.1574213899        0.0000000000
Fe1           0.2499989181        0.0000457140        0.2499989181
Fe2           0.0000000000        0.1574213899        0.2500008117
Fe1           0.0000000000        0.0000525632        0.5000000000
Fe2           0.2499998400        0.1574211775        0.5000000000
Fe1           0.2499989181        0.0000457140        0.7500010819
Fe2           0.0000000000        0.1574213899        0.7499991883
Fe1           0.0000000000        0.6863452376        0.0000000000
Fe2           0.2500021899        0.8436904150        0.0000000000
Fe1           0.2499994927        0.6863338296        0.2499994927
Fe2           0.0000000000        0.8436904150        0.2500021899
Fe1           0.0000000000        0.6863441976        0.5000000000
Fe2           0.2500010742        0.8436906167        0.5000000000
Fe1           0.2499994927        0.6863338296        0.7500005073
Fe2           0.0000000000        0.8436904150        0.7499978101
Fe1           0.5000000000        0.0000525632        0.0000000000
Fe2           0.7499991883        0.1574213899        0.0000000000
Fe1           0.7500010819        0.0000457140        0.2499989181
Fe2           0.5000000000        0.1574211775        0.2499998400
Fe1           0.5000000000        0.0000541306        0.5000000000
Fe2           0.7500001600        0.1574211775        0.5000000000
Fe1           0.7500010819        0.0000457140        0.7500010819
Fe2           0.5000000000        0.1574211775        0.7500001600
Fe1           0.5000000000        0.6863441976        0.0000000000
Fe2           0.7499978101        0.8436904150        0.0000000000
Fe1           0.7500005073        0.6863338296        0.2499994927
Fe2           0.5000000000        0.8436906167        0.2500010742
Fe1           0.5000000000        0.6863428239        0.5000000000
Fe2           0.7499989258        0.8436906167        0.5000000000
Fe1           0.7500005073        0.6863338296        0.7500005073
Fe2           0.5000000000        0.8436906167        0.7499989258

     Writing output data file /scratch/qIzVwoxYQMYFpMVq.save/
     NEW-OLD atomic charge density approx. for the potential

     Check: negative core charge=   -0.000005

     negative rho (up, down):  0.000E+00 3.901E-04
     Generating pointlists ...

[...]

     Energy error            =      8.9E-03
     Gradient error          =      2.2E-02

[...]

     energy   old            =  -10534.9722917933 Ry
     energy   new            =  -10534.9811568935 Ry

     CASE: energy  _new < energy  _old

     WARNING: bfgs curvature condition failed, Theta= 0.890
     new trust radius        =       0.0266739722 bohr
     new conv_thr            =       0.0000000217 Ry

[...]

     Check: negative core charge=   -0.000005
     Generating pointlists ...

[...]

          total   stress  (Ry/bohr**3)                   (kbar)     P=       11.00
   0.00000867   0.00000000   0.00000000            1.27        0.00        0.00
   0.00000000   0.00020696   0.00000000            0.00       30.44        0.00
   0.00000000   0.00000000   0.00000867            0.00        0.00        1.27

[...]

     iteration #  1     ecut=    71.00 Ry     beta= 0.10
     Davidson diagonalization with overlap
     c_bands:  1 eigenvalues not converged
     ethr =  1.00E-06,  avg # of iterations =  9.1

[...]

     Total force =     0.008623     Total SCF correction =     0.000074

[...]

     Total force =     0.000601     Total SCF correction =     0.000079
     SCF correction compared to forces is large: reduce conv_thr to get better values

[...]

     number of scf cycles    =  10
     number of bfgs steps    =   9

     energy   old            =  -10535.0320971808 Ry
     energy   new            =  -10535.0322393333 Ry

     CASE: energy  _new < energy  _old

     new trust radius        =       0.0014586399 bohr
     new conv_thr            =       0.0000000010 Ry

ATOMIC_POSITIONS (crystal)
Fe1           0.0000000000        0.0048641461        0.0000000000
Fe2           0.2499998646        0.1720169376        0.0000000000
Fe1           0.2499997233        0.0048305255        0.2499997233
Fe2           0.0000000000        0.1720169376        0.2499998646
Fe1           0.0000000000        0.0048651660        0.5000000000
Fe2           0.2499995575        0.1720169801        0.5000000000
Fe1           0.2499997233        0.0048305255        0.7500002767
Fe2          -0.0000000000        0.1720169376        0.7500001354
Fe1           0.0000000000        0.6717311681        0.0000000000
Fe2           0.2500009515        0.8389144764        0.0000000000
Fe1           0.2499994723        0.6717129598        0.2499994723
Fe2          -0.0000000000        0.8389144764        0.2500009515
Fe1           0.0000000000        0.6717283864        0.5000000000
Fe2           0.2500008080        0.8389144129        0.5000000000
Fe1           0.2499994723        0.6717129598        0.7500005277
Fe2           0.0000000000        0.8389144764        0.7499990485
Fe1           0.5000000000        0.0048651660        0.0000000000
Fe2           0.7500001354        0.1720169376        0.0000000000
Fe1           0.7500002767        0.0048305255        0.2499997233
Fe2           0.5000000000        0.1720169801        0.2499995575
Fe1           0.5000000000        0.0048666076        0.5000000000
Fe2           0.7500004425        0.1720169801        0.5000000000
Fe1           0.7500002767        0.0048305255        0.7500002767
Fe2           0.5000000000        0.1720169801        0.7500004425
Fe1           0.5000000000        0.6717283864        0.0000000000
Fe2           0.7499990485        0.8389144764        0.0000000000
Fe1           0.7500005277        0.6717129598        0.2499994723
Fe2           0.5000000000        0.8389144129        0.2500008080
Fe1           0.5000000000        0.6717258044        0.5000000000
Fe2           0.7499991920        0.8389144129        0.5000000000
Fe1           0.7500005277        0.6717129598        0.7500005277
Fe2           0.5000000000        0.8389144129        0.7499991920

     Writing output data file /scratch/qIzVwoxYQMYFpMVq.save/
     NEW-OLD atomic charge density approx. for the potential

     Check: negative core charge=   -0.000005

     negative rho (up, down):  0.000E+00 4.937E-05
     Generating pointlists ...

     Self-consistent Calculation

[...]

     Threshold (ethr) on eigenvalues was too large:
     Diagonalizing with lowered threshold

     Davidson diagonalization with overlap
     ethr =  1.02E-08,  avg # of iterations =  4.0

[...]

     total energy              =  -10535.03224118 Ry
     estimated scf accuracy    <          1.6E-09 Ry

[...]

     iteration # 14     ecut=    71.00 Ry     beta= 0.10
     Davidson diagonalization with overlap
     ethr =  3.16E-13,  avg # of iterations =  2.5

[...]

     Magnetic moment per site:
     atom:    1    charge:   14.3819    magn:    1.4878    constr:    0.0000
     atom:    2    charge:   14.2692    magn:   -2.3073    constr:    0.0000
     atom:    3    charge:   14.3812    magn:    1.4893    constr:    0.0000
     atom:    4    charge:   14.2692    magn:   -2.3073    constr:    0.0000
     atom:    5    charge:   14.3819    magn:    1.4878    constr:    0.0000
     atom:    6    charge:   14.2692    magn:   -2.3073    constr:    0.0000
     atom:    7    charge:   14.3812    magn:    1.4893    constr:    0.0000
     atom:    8    charge:   14.2692    magn:   -2.3073    constr:    0.0000
     atom:    9    charge:   14.2691    magn:    2.3074    constr:    0.0000
     atom:   10    charge:   14.3818    magn:   -1.4891    constr:    0.0000
     atom:   11    charge:   14.2684    magn:    2.3078    constr:    0.0000
     atom:   12    charge:   14.3818    magn:   -1.4891    constr:    0.0000
     atom:   13    charge:   14.2691    magn:    2.3074    constr:    0.0000
     atom:   14    charge:   14.3818    magn:   -1.4891    constr:    0.0000
     atom:   15    charge:   14.2684    magn:    2.3078    constr:    0.0000
     atom:   16    charge:   14.3818    magn:   -1.4891    constr:    0.0000
     atom:   17    charge:   14.3819    magn:    1.4878    constr:    0.0000
     atom:   18    charge:   14.2692    magn:   -2.3073    constr:    0.0000
     atom:   19    charge:   14.3812    magn:    1.4893    constr:    0.0000
     atom:   20    charge:   14.2692    magn:   -2.3073    constr:    0.0000
     atom:   21    charge:   14.3819    magn:    1.4878    constr:    0.0000
     atom:   22    charge:   14.2692    magn:   -2.3073    constr:    0.0000
     atom:   23    charge:   14.3812    magn:    1.4893    constr:    0.0000
     atom:   24    charge:   14.2692    magn:   -2.3073    constr:    0.0000
     atom:   25    charge:   14.2691    magn:    2.3074    constr:    0.0000
     atom:   26    charge:   14.3818    magn:   -1.4891    constr:    0.0000
     atom:   27    charge:   14.2684    magn:    2.3078    constr:    0.0000
     atom:   28    charge:   14.3818    magn:   -1.4891    constr:    0.0000
     atom:   29    charge:   14.2691    magn:    2.3075    constr:    0.0000
     atom:   30    charge:   14.3818    magn:   -1.4891    constr:    0.0000
     atom:   31    charge:   14.2684    magn:    2.3078    constr:    0.0000
     atom:   32    charge:   14.3818    magn:   -1.4891    constr:    0.0000

     End of self-consistent calculation

     Number of k-points >= 100: set verbosity='high' to print the bands.

     the Fermi energy is    11.8990 ev

!    total energy              =  -10535.03224122 Ry

     total all-electron energy =    -81456.521299 Ry
     estimated scf accuracy    <          5.5E-10 Ry
     smearing contrib. (-TS)   =       0.03079354 Ry
     internal energy E=F+TS    =  -10535.06303476 Ry

     The total energy is F=E-TS. E is the sum of the following terms:
     one-electron contribution =  -11571.54217968 Ry
     hartree contribution      =    5984.05834552 Ry
     xc contribution           =    -886.41769058 Ry
     ewald contribution        =   -1411.80894018 Ry
     one-center paw contrib.   =   -2649.35256983 Ry

     total magnetization       =    -0.00 Bohr mag/cell
     absolute magnetization    =    63.58 Bohr mag/cell

     convergence has been achieved in  14 iterations

     negative rho (up, down):  0.000E+00 6.069E-05

     Forces acting on atoms (cartesian axes, Ry/au):

     atom    1 type  1   force =     0.00000000    0.00006816    0.00000000
     atom    2 type  2   force =    -0.00000046   -0.00007126    0.00000000
     atom    3 type  1   force =     0.00000080   -0.00000846    0.00000080
     atom    4 type  2   force =     0.00000000   -0.00007126   -0.00000046
     atom    5 type  1   force =     0.00000000    0.00006586    0.00000000
     atom    6 type  2   force =     0.00000027   -0.00007038    0.00000000
     atom    7 type  1   force =     0.00000080   -0.00000846   -0.00000080
     atom    8 type  2   force =     0.00000000   -0.00007126    0.00000046
     atom    9 type  1   force =     0.00000000   -0.00002196    0.00000000
     atom   10 type  2   force =    -0.00000188    0.00006231    0.00000000
     atom   11 type  1   force =     0.00000039   -0.00002049    0.00000039
     atom   12 type  2   force =     0.00000000    0.00006231   -0.00000188
     atom   13 type  1   force =     0.00000000   -0.00001849    0.00000000
     atom   14 type  2   force =    -0.00000133    0.00006128    0.00000000
     atom   15 type  1   force =     0.00000039   -0.00002049   -0.00000039
     atom   16 type  2   force =     0.00000000    0.00006231    0.00000188
     atom   17 type  1   force =     0.00000000    0.00006586    0.00000000
     atom   18 type  2   force =     0.00000046   -0.00007126    0.00000000
     atom   19 type  1   force =    -0.00000080   -0.00000846    0.00000080
     atom   20 type  2   force =     0.00000000   -0.00007038    0.00000027
     atom   21 type  1   force =     0.00000000    0.00006229    0.00000000
     atom   22 type  2   force =    -0.00000027   -0.00007038    0.00000000
     atom   23 type  1   force =    -0.00000080   -0.00000846   -0.00000080
     atom   24 type  2   force =     0.00000000   -0.00007038   -0.00000027
     atom   25 type  1   force =     0.00000000   -0.00001849    0.00000000
     atom   26 type  2   force =     0.00000188    0.00006231    0.00000000
     atom   27 type  1   force =    -0.00000039   -0.00002049    0.00000039
     atom   28 type  2   force =     0.00000000    0.00006128   -0.00000133
     atom   29 type  1   force =     0.00000000   -0.00001523    0.00000000
     atom   30 type  2   force =     0.00000133    0.00006128    0.00000000
     atom   31 type  1   force =    -0.00000039   -0.00002049   -0.00000039
     atom   32 type  2   force =     0.00000000    0.00006128    0.00000133

     Total force =     0.000302     Total SCF correction =     0.000085
     SCF correction compared to forces is large: reduce conv_thr to get better values

     Computing stress (Cartesian axis) and pressure

     negative rho (up, down):  0.000E+00 6.069E-05
          total   stress  (Ry/bohr**3)                   (kbar)     P=      -36.78
  -0.00023621   0.00000000   0.00000000          -34.75        0.00        0.00
   0.00000000  -0.00027761   0.00000000            0.00      -40.84        0.00
   0.00000000   0.00000000  -0.00023621            0.00        0.00      -34.75

     Energy error            =      1.9E-06
     Gradient error          =      7.1E-05

     bfgs converged in  11 scf cycles and  10 bfgs steps
     (criteria: energy <  1.0E-04 Ry, force <  1.0E-03 Ry/Bohr)

     End of BFGS Geometry Optimization

     Final energy   =  -10535.0322412193 Ry

     File /scratch/qIzVwoxYQMYFpMVq.bfgs deleted, as requested
Begin final coordinates

ATOMIC_POSITIONS (crystal)
Fe1           0.0000000000        0.0048641461        0.0000000000
Fe2           0.2499998646        0.1720169376        0.0000000000
Fe1           0.2499997233        0.0048305255        0.2499997233
Fe2           0.0000000000        0.1720169376        0.2499998646
Fe1           0.0000000000        0.0048651660        0.5000000000
Fe2           0.2499995575        0.1720169801        0.5000000000
Fe1           0.2499997233        0.0048305255        0.7500002767
Fe2          -0.0000000000        0.1720169376        0.7500001354
Fe1           0.0000000000        0.6717311681        0.0000000000
Fe2           0.2500009515        0.8389144764        0.0000000000
Fe1           0.2499994723        0.6717129598        0.2499994723
Fe2          -0.0000000000        0.8389144764        0.2500009515
Fe1           0.0000000000        0.6717283864        0.5000000000
Fe2           0.2500008080        0.8389144129        0.5000000000
Fe1           0.2499994723        0.6717129598        0.7500005277
Fe2           0.0000000000        0.8389144764        0.7499990485
Fe1           0.5000000000        0.0048651660        0.0000000000
Fe2           0.7500001354        0.1720169376        0.0000000000
Fe1           0.7500002767        0.0048305255        0.2499997233
Fe2           0.5000000000        0.1720169801        0.2499995575
Fe1           0.5000000000        0.0048666076        0.5000000000
Fe2           0.7500004425        0.1720169801        0.5000000000
Fe1           0.7500002767        0.0048305255        0.7500002767
Fe2           0.5000000000        0.1720169801        0.7500004425
Fe1           0.5000000000        0.6717283864        0.0000000000
Fe2           0.7499990485        0.8389144764        0.0000000000
Fe1           0.7500005277        0.6717129598        0.2499994723
Fe2           0.5000000000        0.8389144129        0.2500008080
Fe1           0.5000000000        0.6717258044        0.5000000000
Fe2           0.7499991920        0.8389144129        0.5000000000
Fe1           0.7500005277        0.6717129598        0.7500005277
Fe2           0.5000000000        0.8389144129        0.7499991920
End final coordinates

     Writing output data file /scratch/qIzVwoxYQMYFpMVq.save/

     General routines

     Parallel routines

   This run was terminated on:  10:10: 8  16Jan2022

   JOB DONE.