     Program PWSCF v.6.7MaX starts on 15Jan2022 at 23:19:36

     R & G space division:  proc/nbgrp/npool/nimage =      72
     Reading input from relax_6.in
Warning: card &CELL ignored
Warning: card CELL_DYNAMICS = 'BFGS', ignored
Warning: card CELL_FACTOR = 2.0, ignored
Warning: card PRESS = 0.0, ignored
Warning: card / ignored

     Current dimensions of program PWSCF are:
     Max number of different atomic species (ntypx) = 10
     Max number of k-points (npk) =  40000
     Max angular momentum in pseudopotentials (lmaxx) =  3
     file Fe.pbe-spn-kjpaw_psl.1.0.0.UPF: wavefunction(s)  3P 3D renormalized
     file Fe.pbe-spn-kjpaw_psl.1.0.0.UPF: wavefunction(s)  3P 3D renormalized

     Subspace diagonalization in iterative solution of the eigenvalue problem:
     one sub-group per band group will be used

     Found symmetry operation: I + (  0.2500  0.0000  0.2500)
     This is a supercell, fractional translations are disabled
     Message from routine setup:
     using ibrav=0 with symmetry is DISCOURAGED, use correct ibrav instead

     bravais-lattice index     =            0
     lattice parameter (alat)  =      12.9382  a.u.
     unit-cell volume          =    3032.1355 (a.u.)^3
     number of atoms/cell      =           32
     number of atomic types    =            2
     number of electrons       =       512.00
     number of Kohn-Sham states=          325
     kinetic-energy cutoff     =      71.0000  Ry
     charge density cutoff     =     430.0000  Ry
     scf convergence threshold =      1.0E-07
     mixing beta               =       0.1000
     number of iterations used =           10  local-TF  mixing
     energy convergence thresh.=      1.0E-04
     force convergence thresh. =      1.0E-03
     Exchange-correlation= SLA  PW   PBX  PBC
                           (   1   4   3   4   0   0   0)
     nstep                     =           50

     celldm(1)=  12.938190  celldm(2)=   0.000000  celldm(3)=   0.000000
     celldm(4)=   0.000000  celldm(5)=   0.000000  celldm(6)=   0.000000

     crystal axes: (cart. coord. in units of alat)
               a(1) = (   1.000000   0.000000   0.000000 )
               a(2) = (   0.000000   1.400000   0.000000 )
               a(3) = (   0.000000   0.000000   1.000000 )

     reciprocal axes: (cart. coord. in units 2 pi/alat)
               b(1) = (  1.000000  0.000000  0.000000 )
               b(2) = (  0.000000  0.714286  0.000000 )
               b(3) = (  0.000000  0.000000  1.000000 )

     PseudoPot. # 1 for Fe read from file:
     /rds/homes/b/bxp912/pp/Fe.pbe-spn-kjpaw_psl.1.0.0.UPF
     MD5 check sum: 42f43b795421b414b0dc916aa790dbcb
     Pseudo is Projector augmented-wave + core cor, Zval = 16.0
     Generated using &quot;atomic&quot; code by A. Dal Corso  v.6.3
     Shape of augmentation charge: PSQ
     Using radial grid of 1191 points,  6 beta functions with:
                l(1) =   0
                l(2) =   0
                l(3) =   1
                l(4) =   1
                l(5) =   2
                l(6) =   2
     Q(r) pseudized with 0 coefficients

     PseudoPot. # 2 for Fe read from file:
     /rds/homes/b/bxp912/pp/Fe.pbe-spn-kjpaw_psl.1.0.0.UPF
     MD5 check sum: 42f43b795421b414b0dc916aa790dbcb
     Pseudo is Projector augmented-wave + core cor, Zval = 16.0
     Generated using &quot;atomic&quot; code by A. Dal Corso  v.6.3
     Shape of augmentation charge: PSQ
     Using radial grid of 1191 points,  6 beta functions with:
                l(1) =   0
                l(2) =   0
                l(3) =   1
                l(4) =   1
                l(5) =   2
                l(6) =   2
     Q(r) pseudized with 0 coefficients

     atomic species   valence    mass     pseudopotential
        Fe1           16.00    55.84500     Fe( 1.00)
        Fe2           16.00    55.84500     Fe( 1.00)

     Starting magnetic structure
     atomic species   magnetization
        Fe1          0.100
        Fe2         -0.100

      8 Sym. Ops. (no inversion) found

   Cartesian axes

     site n.     atom                  positions (alat units)
         1           Fe1 tau(   1) = (   0.0000000   0.0000000   0.0000000  )
         2           Fe2 tau(   2) = (   0.2500000   0.2500000   0.0000000  )
         3           Fe1 tau(   3) = (   0.2500000   0.0000000   0.2500000  )
         4           Fe2 tau(   4) = (   0.0000000   0.2500000   0.2500000  )
         5           Fe1 tau(   5) = (   0.0000000   0.0000000   0.5000000  )
         6           Fe2 tau(   6) = (   0.2500000   0.2500000   0.5000000  )
         7           Fe1 tau(   7) = (   0.2500000   0.0000000   0.7500000  )
         8           Fe2 tau(   8) = (   0.0000000   0.2500000   0.7500000  )
         9           Fe1 tau(   9) = (   0.0000000   0.9000000   0.0000000  )
        10           Fe2 tau(  10) = (   0.2500000   1.1500000   0.0000000  )
        11           Fe1 tau(  11) = (   0.2500000   0.9000000   0.2500000  )
        12           Fe2 tau(  12) = (   0.0000000   1.1500000   0.2500000  )
        13           Fe1 tau(  13) = (   0.0000000   0.9000000   0.5000000  )
        14           Fe2 tau(  14) = (   0.2500000   1.1500000   0.5000000  )
        15           Fe1 tau(  15) = (   0.2500000   0.9000000   0.7500000  )
        16           Fe2 tau(  16) = (   0.0000000   1.1500000   0.7500000  )
        17           Fe1 tau(  17) = (   0.5000000   0.0000000   0.0000000  )
        18           Fe2 tau(  18) = (   0.7500000   0.2500000   0.0000000  )
        19           Fe1 tau(  19) = (   0.7500000   0.0000000   0.2500000  )
        20           Fe2 tau(  20) = (   0.5000000   0.2500000   0.2500000  )
        21           Fe1 tau(  21) = (   0.5000000   0.0000000   0.5000000  )
        22           Fe2 tau(  22) = (   0.7500000   0.2500000   0.5000000  )
        23           Fe1 tau(  23) = (   0.7500000   0.0000000   0.7500000  )
        24           Fe2 tau(  24) = (   0.5000000   0.2500000   0.7500000  )
        25           Fe1 tau(  25) = (   0.5000000   0.9000000   0.0000000  )
        26           Fe2 tau(  26) = (   0.7500000   1.1500000   0.0000000  )
        27           Fe1 tau(  27) = (   0.7500000   0.9000000   0.2500000  )
        28           Fe2 tau(  28) = (   0.5000000   1.1500000   0.2500000  )
        29           Fe1 tau(  29) = (   0.5000000   0.9000000   0.5000000  )
        30           Fe2 tau(  30) = (   0.7500000   1.1500000   0.5000000  )
        31           Fe1 tau(  31) = (   0.7500000   0.9000000   0.7500000  )
        32           Fe2 tau(  32) = (   0.5000000   1.1500000   0.7500000  )

     number of k points=    75  Marzari-Vanderbilt smearing, width (Ry)=  0.0400
                       cart. coord. in units 2pi/alat
        k(    1) = (   0.0555556   0.0396825   0.0555556), wk =   0.0109739
        k(    2) = (   0.0555556   0.0396825   0.1666667), wk =   0.0219479
        k(    3) = (   0.0555556   0.0396825   0.2777778), wk =   0.0219479
        k(    4) = (   0.0555556   0.0396825   0.3888889), wk =   0.0219479
        k(    5) = (   0.0555556   0.0396825  -0.5000000), wk =   0.0109739
        k(    6) = (   0.0555556   0.1190476   0.0555556), wk =   0.0109739
        k(    7) = (   0.0555556   0.1190476   0.1666667), wk =   0.0219479
        k(    8) = (   0.0555556   0.1190476   0.2777778), wk =   0.0219479
        k(    9) = (   0.0555556   0.1190476   0.3888889), wk =   0.0219479
        k(   10) = (   0.0555556   0.1190476  -0.5000000), wk =   0.0109739
        k(   11) = (   0.0555556   0.1984127   0.0555556), wk =   0.0109739
        k(   12) = (   0.0555556   0.1984127   0.1666667), wk =   0.0219479
        k(   13) = (   0.0555556   0.1984127   0.2777778), wk =   0.0219479
        k(   14) = (   0.0555556   0.1984127   0.3888889), wk =   0.0219479
        k(   15) = (   0.0555556   0.1984127  -0.5000000), wk =   0.0109739
        k(   16) = (   0.0555556   0.2777778   0.0555556), wk =   0.0109739
        k(   17) = (   0.0555556   0.2777778   0.1666667), wk =   0.0219479
        k(   18) = (   0.0555556   0.2777778   0.2777778), wk =   0.0219479
        k(   19) = (   0.0555556   0.2777778   0.3888889), wk =   0.0219479
        k(   20) = (   0.0555556   0.2777778  -0.5000000), wk =   0.0109739
        k(   21) = (   0.0555556  -0.3571429   0.0555556), wk =   0.0054870
        k(   22) = (   0.0555556  -0.3571429   0.1666667), wk =   0.0109739
        k(   23) = (   0.0555556  -0.3571429   0.2777778), wk =   0.0109739
        k(   24) = (   0.0555556  -0.3571429   0.3888889), wk =   0.0109739
        k(   25) = (   0.0555556  -0.3571429  -0.5000000), wk =   0.0054870
        k(   26) = (   0.1666667   0.0396825   0.1666667), wk =   0.0109739
        k(   27) = (   0.1666667   0.0396825   0.2777778), wk =   0.0219479
        k(   28) = (   0.1666667   0.0396825   0.3888889), wk =   0.0219479
        k(   29) = (   0.1666667   0.0396825  -0.5000000), wk =   0.0109739
        k(   30) = (   0.1666667   0.1190476   0.1666667), wk =   0.0109739
        k(   31) = (   0.1666667   0.1190476   0.2777778), wk =   0.0219479
        k(   32) = (   0.1666667   0.1190476   0.3888889), wk =   0.0219479
        k(   33) = (   0.1666667   0.1190476  -0.5000000), wk =   0.0109739
        k(   34) = (   0.1666667   0.1984127   0.1666667), wk =   0.0109739
        k(   35) = (   0.1666667   0.1984127   0.2777778), wk =   0.0219479
        k(   36) = (   0.1666667   0.1984127   0.3888889), wk =   0.0219479
        k(   37) = (   0.1666667   0.1984127  -0.5000000), wk =   0.0109739
        k(   38) = (   0.1666667   0.2777778   0.1666667), wk =   0.0109739
        k(   39) = (   0.1666667   0.2777778   0.2777778), wk =   0.0219479
        k(   40) = (   0.1666667   0.2777778   0.3888889), wk =   0.0219479
        k(   41) = (   0.1666667   0.2777778  -0.5000000), wk =   0.0109739
        k(   42) = (   0.1666667  -0.3571429   0.1666667), wk =   0.0054870
        k(   43) = (   0.1666667  -0.3571429   0.2777778), wk =   0.0109739
        k(   44) = (   0.1666667  -0.3571429   0.3888889), wk =   0.0109739
        k(   45) = (   0.1666667  -0.3571429  -0.5000000), wk =   0.0054870
        k(   46) = (   0.2777778   0.0396825   0.2777778), wk =   0.0109739
        k(   47) = (   0.2777778   0.0396825   0.3888889), wk =   0.0219479
        k(   48) = (   0.2777778   0.0396825  -0.5000000), wk =   0.0109739
        k(   49) = (   0.2777778   0.1190476   0.2777778), wk =   0.0109739
        k(   50) = (   0.2777778   0.1190476   0.3888889), wk =   0.0219479
        k(   51) = (   0.2777778   0.1190476  -0.5000000), wk =   0.0109739
        k(   52) = (   0.2777778   0.1984127   0.2777778), wk =   0.0109739
        k(   53) = (   0.2777778   0.1984127   0.3888889), wk =   0.0219479
        k(   54) = (   0.2777778   0.1984127  -0.5000000), wk =   0.0109739
        k(   55) = (   0.2777778   0.2777778   0.2777778), wk =   0.0109739
        k(   56) = (   0.2777778   0.2777778   0.3888889), wk =   0.0219479
        k(   57) = (   0.2777778   0.2777778  -0.5000000), wk =   0.0109739
        k(   58) = (   0.2777778  -0.3571429   0.2777778), wk =   0.0054870
[...]
     atom   30 type  2   force =    -0.00001096   -0.00105627    0.00000000
     atom   31 type  1   force =     0.00000768   -0.03097186    0.00000768
     atom   32 type  2   force =     0.00000000   -0.00105627   -0.00001096

     Total force =     0.123887     Total SCF correction =     0.000636

     Computing stress (Cartesian axis) and pressure

     negative rho (up, down):  0.000E+00 6.592E-04
          total   stress  (Ry/bohr**3)                   (kbar)     P=       20.11
   0.00008828   0.00000000   0.00000000           12.99        0.00        0.00
   0.00000000   0.00023354   0.00000000            0.00       34.35        0.00
   0.00000000   0.00000000   0.00008828            0.00        0.00       12.99

     BFGS Geometry Optimization
     Energy error            =      0.0E+00
     Gradient error          =      3.1E-02

     number of scf cycles    =   1
     number of bfgs steps    =   0

     energy   new            =  -10535.0250520078 Ry

     new trust radius        =       0.0310070224 bohr
     new conv_thr            =       0.0000001000 Ry

ATOMIC_POSITIONS (crystal)
Fe1           0.0000000000        0.0000556550        0.0000000000
Fe2           0.2500005055        0.1802832501        0.0000000000
Fe1           0.2499989557        0.0000489939        0.2499989557
Fe2           0.0000000000        0.1802832501        0.2500005055
Fe1           0.0000000000        0.0000568088        0.5000000000
Fe2           0.2499998216        0.1802831242        0.5000000000
Fe1           0.2499989557        0.0000489939        0.7500010443
Fe2           0.0000000000        0.1802832501        0.7499994945
Fe1           0.0000000000        0.6411552462        0.0000000000
Fe2           0.2500014476        0.8213698709        0.0000000000
Fe1           0.2499994065        0.6411472624        0.2499994065
Fe2           0.0000000000        0.8213698709        0.2500014476
Fe1           0.0000000000        0.6411547637        0.5000000000
Fe2           0.2500008468        0.8213702572        0.5000000000
Fe1           0.2499994065        0.6411472624        0.7500005935
Fe2           0.0000000000        0.8213698709        0.7499985524
Fe1           0.5000000000        0.0000568088        0.0000000000
Fe2           0.7499994945        0.1802832501        0.0000000000
Fe1           0.7500010443        0.0000489939        0.2499989557
Fe2           0.5000000000        0.1802831242        0.2499998216
Fe1           0.5000000000        0.0000580093        0.5000000000
Fe2           0.7500001784        0.1802831242        0.5000000000
Fe1           0.7500010443        0.0000489939        0.7500010443
Fe2           0.5000000000        0.1802831242        0.7500001784
Fe1           0.5000000000        0.6411547637        0.0000000000
Fe2           0.7499985524        0.8213698709        0.0000000000
Fe1           0.7500005935        0.6411472624        0.2499994065
Fe2           0.5000000000        0.8213702572        0.2500008468
Fe1           0.5000000000        0.6411540524        0.5000000000
Fe2           0.7499991532        0.8213702572        0.5000000000
Fe1           0.7500005935        0.6411472624        0.7500005935
Fe2           0.5000000000        0.8213702572        0.7499991532

     Writing output data file /scratch/tMyWkzpXSQrlHLLq.save/
     NEW-OLD atomic charge density approx. for the potential

     Check: negative core charge=   -0.000005

     negative rho (up, down):  0.000E+00 7.184E-04
     Generating pointlists ...

[...]

     Energy error            =      1.5E-02
     Gradient error          =      2.8E-02

[...]

     energy   old            =  -10535.0250520078 Ry
     energy   new            =  -10535.0396612099 Ry

     CASE: energy  _new < energy  _old

     WARNING: bfgs curvature condition failed, Theta= 0.886
     new trust radius        =       0.0341077246 bohr
     new conv_thr            =       0.0000000280 Ry

[...]

          total   stress  (Ry/bohr**3)                   (kbar)     P=        4.89
   0.00000839   0.00000000   0.00000000            1.23        0.00        0.00
   0.00000000   0.00008289   0.00000000            0.00       12.19        0.00
   0.00000000   0.00000000   0.00000839            0.00        0.00        1.23

[...]

     iteration #  1     ecut=    71.00 Ry     beta= 0.10
     Davidson diagonalization with overlap
     c_bands:  1 eigenvalues not converged
     ethr =  1.00E-06,  avg # of iterations =  9.3

[...]

     number of scf cycles    =  11
     number of bfgs steps    =  10

     energy   old            =  -10535.1547994193 Ry
     energy   new            =  -10535.1550894596 Ry

     CASE: energy  _new < energy  _old

     new trust radius        =       0.0114513152 bohr
     new conv_thr            =       0.0000000010 Ry

ATOMIC_POSITIONS (crystal)
Fe1           0.0000000000        0.0107523189        0.0000000000
Fe2           0.2499997514        0.2140235734        0.0000000000
Fe1           0.2499996636        0.0107702597        0.2499996636
Fe2           0.0000000000        0.2140235734        0.2499997514
Fe1           0.0000000000        0.0107539723        0.5000000000
Fe2           0.2499996115        0.2140238823        0.5000000000
Fe1           0.2499996636        0.0107702597        0.7500003364
Fe2           0.0000000000        0.2140235734        0.7500002486
Fe1           0.0000000000        0.6075580875        0.0000000000
Fe2           0.2500006364        0.8105695615        0.0000000000
Fe1           0.2499995719        0.6074473760        0.2499995719
Fe2          -0.0000000000        0.8105695615        0.2500006364
Fe1           0.0000000000        0.6075555372        0.5000000000
Fe2           0.2500005734        0.8105700704        0.5000000000
Fe1           0.2499995719        0.6074473760        0.7500004281
Fe2           0.0000000000        0.8105695615        0.7499993636
Fe1           0.5000000000        0.0107539723        0.0000000000
Fe2           0.7500002486        0.2140235734        0.0000000000
Fe1           0.7500003364        0.0107702597        0.2499996636
Fe2           0.5000000000        0.2140238823        0.2499996115
Fe1           0.5000000000        0.0107557669        0.5000000000
Fe2           0.7500003885        0.2140238823        0.5000000000
Fe1           0.7500003364        0.0107702597        0.7500003364
Fe2           0.5000000000        0.2140238823        0.7500003885
Fe1           0.5000000000        0.6075555372        0.0000000000
Fe2           0.7499993636        0.8105695615       -0.0000000000
Fe1           0.7500004281        0.6074473760        0.2499995719
Fe2           0.5000000000        0.8105700704        0.2500005734
Fe1           0.5000000000        0.6075530579        0.5000000000
Fe2           0.7499994266        0.8105700704        0.5000000000
Fe1           0.7500004281        0.6074473760        0.7500004281
Fe2           0.5000000000        0.8105700704        0.7499994266

     Writing output data file /scratch/tMyWkzpXSQrlHLLq.save/
     NEW-OLD atomic charge density approx. for the potential

     Check: negative core charge=   -0.000005

     negative rho (up, down):  0.000E+00 6.128E-04
     Generating pointlists ...

     Self-consistent Calculation

[...]

     total energy              =  -10535.15515303 Ry
     estimated scf accuracy    <          1.2E-09 Ry

[...]

     iteration # 16     ecut=    71.00 Ry     beta= 0.10
     Davidson diagonalization with overlap
     ethr =  2.35E-13,  avg # of iterations =  2.0

[...]

     Magnetic moment per site:
     atom:    1    charge:   14.3145    magn:    1.8227    constr:    0.0000
     atom:    2    charge:   14.2268    magn:   -2.4583    constr:    0.0000
     atom:    3    charge:   14.3140    magn:    1.8231    constr:    0.0000
     atom:    4    charge:   14.2268    magn:   -2.4583    constr:    0.0000
     atom:    5    charge:   14.3145    magn:    1.8227    constr:    0.0000
     atom:    6    charge:   14.2268    magn:   -2.4583    constr:    0.0000
     atom:    7    charge:   14.3140    magn:    1.8231    constr:    0.0000
     atom:    8    charge:   14.2268    magn:   -2.4583    constr:    0.0000
     atom:    9    charge:   14.2278    magn:    2.4558    constr:    0.0000
     atom:   10    charge:   14.3150    magn:   -1.8203    constr:    0.0000
     atom:   11    charge:   14.2267    magn:    2.4571    constr:    0.0000
     atom:   12    charge:   14.3150    magn:   -1.8203    constr:    0.0000
     atom:   13    charge:   14.2278    magn:    2.4559    constr:    0.0000
     atom:   14    charge:   14.3150    magn:   -1.8203    constr:    0.0000
     atom:   15    charge:   14.2267    magn:    2.4571    constr:    0.0000
     atom:   16    charge:   14.3150    magn:   -1.8203    constr:    0.0000
     atom:   17    charge:   14.3145    magn:    1.8227    constr:    0.0000
     atom:   18    charge:   14.2268    magn:   -2.4583    constr:    0.0000
     atom:   19    charge:   14.3140    magn:    1.8231    constr:    0.0000
     atom:   20    charge:   14.2268    magn:   -2.4583    constr:    0.0000
     atom:   21    charge:   14.3145    magn:    1.8227    constr:    0.0000
     atom:   22    charge:   14.2268    magn:   -2.4583    constr:    0.0000
     atom:   23    charge:   14.3140    magn:    1.8231    constr:    0.0000
     atom:   24    charge:   14.2268    magn:   -2.4583    constr:    0.0000
     atom:   25    charge:   14.2278    magn:    2.4559    constr:    0.0000
     atom:   26    charge:   14.3150    magn:   -1.8203    constr:    0.0000
     atom:   27    charge:   14.2267    magn:    2.4571    constr:    0.0000
     atom:   28    charge:   14.3150    magn:   -1.8203    constr:    0.0000
     atom:   29    charge:   14.2278    magn:    2.4559    constr:    0.0000
     atom:   30    charge:   14.3150    magn:   -1.8203    constr:    0.0000
     atom:   31    charge:   14.2267    magn:    2.4571    constr:    0.0000
     atom:   32    charge:   14.3150    magn:   -1.8203    constr:    0.0000

     End of self-consistent calculation

     Number of k-points >= 100: set verbosity='high' to print the bands.

     the Fermi energy is    14.2775 ev

!    total energy              =  -10535.15515372 Ry

     total all-electron energy =    -81456.644212 Ry
     estimated scf accuracy    <          8.5E-10 Ry
     smearing contrib. (-TS)   =       0.04682657 Ry
     internal energy E=F+TS    =  -10535.20198029 Ry

     The total energy is F=E-TS. E is the sum of the following terms:
     one-electron contribution =   -6158.00375619 Ry
     hartree contribution      =    3322.58872113 Ry
     xc contribution           =    -886.08805661 Ry
     ewald contribution        =   -4164.38778942 Ry
     one-center paw contrib.   =   -2649.31109920 Ry

     total magnetization       =     0.01 Bohr mag/cell
     absolute magnetization    =    71.74 Bohr mag/cell

     convergence has been achieved in  16 iterations

     negative rho (up, down):  0.000E+00 6.898E-04

     Forces acting on atoms (cartesian axes, Ry/au):

     atom    1 type  1   force =     0.00000000   -0.00019152    0.00000000
     atom    2 type  2   force =    -0.00000009   -0.00004520    0.00000000
     atom    3 type  1   force =     0.00000087   -0.00010752    0.00000087
     atom    4 type  2   force =     0.00000000   -0.00004520   -0.00000009
     atom    5 type  1   force =     0.00000000   -0.00019425    0.00000000
     atom    6 type  2   force =     0.00000032   -0.00004431    0.00000000
     atom    7 type  1   force =     0.00000087   -0.00010752   -0.00000087
     atom    8 type  2   force =     0.00000000   -0.00004520    0.00000009
     atom    9 type  1   force =     0.00000000    0.00025016    0.00000000
     atom   10 type  2   force =    -0.00000104    0.00001216    0.00000000
     atom   11 type  1   force =     0.00000058    0.00011649    0.00000058
     atom   12 type  2   force =     0.00000000    0.00001216   -0.00000104
     atom   13 type  1   force =     0.00000000    0.00025216    0.00000000
     atom   14 type  2   force =    -0.00000079    0.00001053    0.00000000
     atom   15 type  1   force =     0.00000058    0.00011649   -0.00000058
     atom   16 type  2   force =     0.00000000    0.00001216    0.00000104
     atom   17 type  1   force =     0.00000000   -0.00019425    0.00000000
     atom   18 type  2   force =     0.00000009   -0.00004520    0.00000000
     atom   19 type  1   force =    -0.00000087   -0.00010752    0.00000087
     atom   20 type  2   force =     0.00000000   -0.00004431    0.00000032
     atom   21 type  1   force =     0.00000000   -0.00019721    0.00000000
     atom   22 type  2   force =    -0.00000032   -0.00004431    0.00000000
     atom   23 type  1   force =    -0.00000087   -0.00010752   -0.00000087
     atom   24 type  2   force =     0.00000000   -0.00004431   -0.00000032
     atom   25 type  1   force =     0.00000000    0.00025216    0.00000000
     atom   26 type  2   force =     0.00000104    0.00001216    0.00000000
     atom   27 type  1   force =    -0.00000058    0.00011649    0.00000058
     atom   28 type  2   force =     0.00000000    0.00001053   -0.00000079
     atom   29 type  1   force =     0.00000000    0.00025415    0.00000000
     atom   30 type  2   force =     0.00000079    0.00001053    0.00000000
     atom   31 type  1   force =    -0.00000058    0.00011649   -0.00000058
     atom   32 type  2   force =     0.00000000    0.00001053    0.00000079

     Total force =     0.000723     Total SCF correction =     0.000041

     Computing stress (Cartesian axis) and pressure

     negative rho (up, down):  0.000E+00 6.898E-04
          total   stress  (Ry/bohr**3)                   (kbar)     P=      -98.37
  -0.00045172   0.00000000   0.00000000          -66.45        0.00        0.00
   0.00000000  -0.00110267   0.00000000            0.00     -162.21        0.00
   0.00000000   0.00000000  -0.00045172            0.00        0.00      -66.45

     Energy error            =      6.4E-05
     Gradient error          =      2.5E-04

     bfgs converged in  12 scf cycles and  11 bfgs steps
     (criteria: energy <  1.0E-04 Ry, force <  1.0E-03 Ry/Bohr)

     End of BFGS Geometry Optimization

     Final energy   =  -10535.1551537193 Ry

     File /scratch/tMyWkzpXSQrlHLLq.bfgs deleted, as requested
Begin final coordinates

ATOMIC_POSITIONS (crystal)
Fe1           0.0000000000        0.0107523189        0.0000000000
Fe2           0.2499997514        0.2140235734        0.0000000000
Fe1           0.2499996636        0.0107702597        0.2499996636
Fe2           0.0000000000        0.2140235734        0.2499997514
Fe1           0.0000000000        0.0107539723        0.5000000000
Fe2           0.2499996115        0.2140238823        0.5000000000
Fe1           0.2499996636        0.0107702597        0.7500003364
Fe2           0.0000000000        0.2140235734        0.7500002486
Fe1           0.0000000000        0.6075580875        0.0000000000
Fe2           0.2500006364        0.8105695615        0.0000000000
Fe1           0.2499995719        0.6074473760        0.2499995719
Fe2          -0.0000000000        0.8105695615        0.2500006364
Fe1           0.0000000000        0.6075555372        0.5000000000
Fe2           0.2500005734        0.8105700704        0.5000000000
Fe1           0.2499995719        0.6074473760        0.7500004281
Fe2           0.0000000000        0.8105695615        0.7499993636
Fe1           0.5000000000        0.0107539723        0.0000000000
Fe2           0.7500002486        0.2140235734        0.0000000000
Fe1           0.7500003364        0.0107702597        0.2499996636
Fe2           0.5000000000        0.2140238823        0.2499996115
Fe1           0.5000000000        0.0107557669        0.5000000000
Fe2           0.7500003885        0.2140238823        0.5000000000
Fe1           0.7500003364        0.0107702597        0.7500003364
Fe2           0.5000000000        0.2140238823        0.7500003885
Fe1           0.5000000000        0.6075555372        0.0000000000
Fe2           0.7499993636        0.8105695615       -0.0000000000
Fe1           0.7500004281        0.6074473760        0.2499995719
Fe2           0.5000000000        0.8105700704        0.2500005734
Fe1           0.5000000000        0.6075530579        0.5000000000
Fe2           0.7499994266        0.8105700704        0.5000000000
Fe1           0.7500004281        0.6074473760        0.7500004281
Fe2           0.5000000000        0.8105700704        0.7499994266
End final coordinates

     Writing output data file /scratch/tMyWkzpXSQrlHLLq.save/

     General routines

     Parallel routines

   This run was terminated on:   9:24:12  16Jan2022

   JOB DONE.