     Program PWSCF v.6.7MaX starts on 16Jan2022 at 10:10:15

     R & G space division:  proc/nbgrp/npool/nimage =      72
     Reading input from relax_9.in
Warning: card &CELL ignored
Warning: card CELL_DYNAMICS = 'BFGS', ignored
Warning: card CELL_FACTOR = 2.0, ignored
Warning: card PRESS = 0.0, ignored
Warning: card / ignored

     Current dimensions of program PWSCF are:
     Max number of different atomic species (ntypx) = 10
     Max number of k-points (npk) =  40000
     Max angular momentum in pseudopotentials (lmaxx) =  3
     file Fe.pbe-spn-kjpaw_psl.1.0.0.UPF: wavefunction(s)  3P 3D renormalized
     file Fe.pbe-spn-kjpaw_psl.1.0.0.UPF: wavefunction(s)  3P 3D renormalized

     Subspace diagonalization in iterative solution of the eigenvalue problem:
     one sub-group per band group will be used

     Found symmetry operation: I + (  0.2500  0.0000  0.2500)
     This is a supercell, fractional translations are disabled
     Message from routine setup:
     using ibrav=0 with symmetry is DISCOURAGED, use correct ibrav instead

     bravais-lattice index     =            0
     lattice parameter (alat)  =      12.9382  a.u.
     unit-cell volume          =    3681.8789 (a.u.)^3
     number of atoms/cell      =           32
     number of atomic types    =            2
     number of electrons       =       512.00
     number of Kohn-Sham states=          325
     kinetic-energy cutoff     =      71.0000  Ry
     charge density cutoff     =     430.0000  Ry
     scf convergence threshold =      1.0E-07
     mixing beta               =       0.1000
     number of iterations used =           10  local-TF  mixing
     energy convergence thresh.=      1.0E-04
     force convergence thresh. =      1.0E-03
     Exchange-correlation= SLA  PW   PBX  PBC
                           (   1   4   3   4   0   0   0)
     nstep                     =           50

     celldm(1)=  12.938190  celldm(2)=   0.000000  celldm(3)=   0.000000
     celldm(4)=   0.000000  celldm(5)=   0.000000  celldm(6)=   0.000000

     crystal axes: (cart. coord. in units of alat)
               a(1) = (   1.000000   0.000000   0.000000 )
               a(2) = (   0.000000   1.700000   0.000000 )
               a(3) = (   0.000000   0.000000   1.000000 )

     reciprocal axes: (cart. coord. in units 2 pi/alat)
               b(1) = (  1.000000  0.000000  0.000000 )
               b(2) = (  0.000000  0.588235  0.000000 )
               b(3) = (  0.000000  0.000000  1.000000 )

     PseudoPot. # 1 for Fe read from file:
     /rds/homes/b/bxp912/pp/Fe.pbe-spn-kjpaw_psl.1.0.0.UPF
     MD5 check sum: 42f43b795421b414b0dc916aa790dbcb
     Pseudo is Projector augmented-wave + core cor, Zval = 16.0
     Generated using &quot;atomic&quot; code by A. Dal Corso  v.6.3
     Shape of augmentation charge: PSQ
     Using radial grid of 1191 points,  6 beta functions with:
                l(1) =   0
                l(2) =   0
                l(3) =   1
                l(4) =   1
                l(5) =   2
                l(6) =   2
     Q(r) pseudized with 0 coefficients

     PseudoPot. # 2 for Fe read from file:
     /rds/homes/b/bxp912/pp/Fe.pbe-spn-kjpaw_psl.1.0.0.UPF
     MD5 check sum: 42f43b795421b414b0dc916aa790dbcb
     Pseudo is Projector augmented-wave + core cor, Zval = 16.0
     Generated using &quot;atomic&quot; code by A. Dal Corso  v.6.3
     Shape of augmentation charge: PSQ
     Using radial grid of 1191 points,  6 beta functions with:
                l(1) =   0
                l(2) =   0
                l(3) =   1
                l(4) =   1
                l(5) =   2
                l(6) =   2
     Q(r) pseudized with 0 coefficients

     atomic species   valence    mass     pseudopotential
        Fe1           16.00    55.84500     Fe( 1.00)
        Fe2           16.00    55.84500     Fe( 1.00)

     Starting magnetic structure
     atomic species   magnetization
        Fe1          0.100
        Fe2         -0.100

      8 Sym. Ops. (no inversion) found

   Cartesian axes

     site n.     atom                  positions (alat units)
         1           Fe1 tau(   1) = (   0.0000000   0.0000000   0.0000000  )
         2           Fe2 tau(   2) = (   0.2500000   0.2500000   0.0000000  )
         3           Fe1 tau(   3) = (   0.2500000   0.0000000   0.2500000  )
         4           Fe2 tau(   4) = (   0.0000000   0.2500000   0.2500000  )
         5           Fe1 tau(   5) = (   0.0000000   0.0000000   0.5000000  )
         6           Fe2 tau(   6) = (   0.2500000   0.2500000   0.5000000  )
         7           Fe1 tau(   7) = (   0.2500000   0.0000000   0.7500000  )
         8           Fe2 tau(   8) = (   0.0000000   0.2500000   0.7500000  )
         9           Fe1 tau(   9) = (   0.0000000   1.2000000   0.0000000  )
        10           Fe2 tau(  10) = (   0.2500000   1.4500000   0.0000000  )
        11           Fe1 tau(  11) = (   0.2500000   1.2000000   0.2500000  )
        12           Fe2 tau(  12) = (   0.0000000   1.4500000   0.2500000  )
        13           Fe1 tau(  13) = (   0.0000000   1.2000000   0.5000000  )
        14           Fe2 tau(  14) = (   0.2500000   1.4500000   0.5000000  )
        15           Fe1 tau(  15) = (   0.2500000   1.2000000   0.7500000  )
        16           Fe2 tau(  16) = (   0.0000000   1.4500000   0.7500000  )
        17           Fe1 tau(  17) = (   0.5000000   0.0000000   0.0000000  )
        18           Fe2 tau(  18) = (   0.7500000   0.2500000   0.0000000  )
        19           Fe1 tau(  19) = (   0.7500000   0.0000000   0.2500000  )
        20           Fe2 tau(  20) = (   0.5000000   0.2500000   0.2500000  )
        21           Fe1 tau(  21) = (   0.5000000   0.0000000   0.5000000  )
        22           Fe2 tau(  22) = (   0.7500000   0.2500000   0.5000000  )
        23           Fe1 tau(  23) = (   0.7500000   0.0000000   0.7500000  )
        24           Fe2 tau(  24) = (   0.5000000   0.2500000   0.7500000  )
        25           Fe1 tau(  25) = (   0.5000000   1.2000000   0.0000000  )
        26           Fe2 tau(  26) = (   0.7500000   1.4500000   0.0000000  )
        27           Fe1 tau(  27) = (   0.7500000   1.2000000   0.2500000  )
        28           Fe2 tau(  28) = (   0.5000000   1.4500000   0.2500000  )
        29           Fe1 tau(  29) = (   0.5000000   1.2000000   0.5000000  )
        30           Fe2 tau(  30) = (   0.7500000   1.4500000   0.5000000  )
        31           Fe1 tau(  31) = (   0.7500000   1.2000000   0.7500000  )
        32           Fe2 tau(  32) = (   0.5000000   1.4500000   0.7500000  )

     number of k points=    75  Marzari-Vanderbilt smearing, width (Ry)=  0.0400
                       cart. coord. in units 2pi/alat
        k(    1) = (   0.0555556   0.0326797   0.0555556), wk =   0.0109739
        k(    2) = (   0.0555556   0.0326797   0.1666667), wk =   0.0219479
        k(    3) = (   0.0555556   0.0326797   0.2777778), wk =   0.0219479
        k(    4) = (   0.0555556   0.0326797   0.3888889), wk =   0.0219479
        k(    5) = (   0.0555556   0.0326797  -0.5000000), wk =   0.0109739
        k(    6) = (   0.0555556   0.0980392   0.0555556), wk =   0.0109739
        k(    7) = (   0.0555556   0.0980392   0.1666667), wk =   0.0219479
        k(    8) = (   0.0555556   0.0980392   0.2777778), wk =   0.0219479
        k(    9) = (   0.0555556   0.0980392   0.3888889), wk =   0.0219479
        k(   10) = (   0.0555556   0.0980392  -0.5000000), wk =   0.0109739
        k(   11) = (   0.0555556   0.1633987   0.0555556), wk =   0.0109739
        k(   12) = (   0.0555556   0.1633987   0.1666667), wk =   0.0219479
        k(   13) = (   0.0555556   0.1633987   0.2777778), wk =   0.0219479
        k(   14) = (   0.0555556   0.1633987   0.3888889), wk =   0.0219479
        k(   15) = (   0.0555556   0.1633987  -0.5000000), wk =   0.0109739
        k(   16) = (   0.0555556   0.2287582   0.0555556), wk =   0.0109739
        k(   17) = (   0.0555556   0.2287582   0.1666667), wk =   0.0219479
        k(   18) = (   0.0555556   0.2287582   0.2777778), wk =   0.0219479
        k(   19) = (   0.0555556   0.2287582   0.3888889), wk =   0.0219479
        k(   20) = (   0.0555556   0.2287582  -0.5000000), wk =   0.0109739
        k(   21) = (   0.0555556  -0.2941176   0.0555556), wk =   0.0054870
        k(   22) = (   0.0555556  -0.2941176   0.1666667), wk =   0.0109739
        k(   23) = (   0.0555556  -0.2941176   0.2777778), wk =   0.0109739
        k(   24) = (   0.0555556  -0.2941176   0.3888889), wk =   0.0109739
        k(   25) = (   0.0555556  -0.2941176  -0.5000000), wk =   0.0054870
        k(   26) = (   0.1666667   0.0326797   0.1666667), wk =   0.0109739
        k(   27) = (   0.1666667   0.0326797   0.2777778), wk =   0.0219479
        k(   28) = (   0.1666667   0.0326797   0.3888889), wk =   0.0219479
        k(   29) = (   0.1666667   0.0326797  -0.5000000), wk =   0.0109739
        k(   30) = (   0.1666667   0.0980392   0.1666667), wk =   0.0109739
        k(   31) = (   0.1666667   0.0980392   0.2777778), wk =   0.0219479
        k(   32) = (   0.1666667   0.0980392   0.3888889), wk =   0.0219479
        k(   33) = (   0.1666667   0.0980392  -0.5000000), wk =   0.0109739
        k(   34) = (   0.1666667   0.1633987   0.1666667), wk =   0.0109739
        k(   35) = (   0.1666667   0.1633987   0.2777778), wk =   0.0219479
        k(   36) = (   0.1666667   0.1633987   0.3888889), wk =   0.0219479
        k(   37) = (   0.1666667   0.1633987  -0.5000000), wk =   0.0109739
        k(   38) = (   0.1666667   0.2287582   0.1666667), wk =   0.0109739
        k(   39) = (   0.1666667   0.2287582   0.2777778), wk =   0.0219479
        k(   40) = (   0.1666667   0.2287582   0.3888889), wk =   0.0219479
        k(   41) = (   0.1666667   0.2287582  -0.5000000), wk =   0.0109739
        k(   42) = (   0.1666667  -0.2941176   0.1666667), wk =   0.0054870
        k(   43) = (   0.1666667  -0.2941176   0.2777778), wk =   0.0109739
        k(   44) = (   0.1666667  -0.2941176   0.3888889), wk =   0.0109739
        k(   45) = (   0.1666667  -0.2941176  -0.5000000), wk =   0.0054870
        k(   46) = (   0.2777778   0.0326797   0.2777778), wk =   0.0109739
        k(   47) = (   0.2777778   0.0326797   0.3888889), wk =   0.0219479
        k(   48) = (   0.2777778   0.0326797  -0.5000000), wk =   0.0109739
        k(   49) = (   0.2777778   0.0980392   0.2777778), wk =   0.0109739
        k(   50) = (   0.2777778   0.0980392   0.3888889), wk =   0.0219479
        k(   51) = (   0.2777778   0.0980392  -0.5000000), wk =   0.0109739
        k(   52) = (   0.2777778   0.1633987   0.2777778), wk =   0.0109739
        k(   53) = (   0.2777778   0.1633987   0.3888889), wk =   0.0219479
        k(   54) = (   0.2777778   0.1633987  -0.5000000), wk =   0.0109739
        k(   55) = (   0.2777778   0.2287582   0.2777778), wk =   0.0109739
        k(   56) = (   0.2777778   0.2287582   0.3888889), wk =   0.0219479
        k(   57) = (   0.2777778   0.2287582  -0.5000000), wk =   0.0109739
        k(   58) = (   0.2777778  -0.2941176   0.2777778), wk =   0.0054870
[...]
   0.00000000   0.00000000   0.00005746            0.00        0.00        8.45

     BFGS Geometry Optimization
     Energy error            =      0.0E+00
     Gradient error          =      2.4E-02

     number of scf cycles    =   1
     number of bfgs steps    =   0

     energy   new            =  -10534.9688908921 Ry

     new trust radius        =       0.0237367187 bohr
     new conv_thr            =       0.0000001000 Ry

ATOMIC_POSITIONS (crystal)
Fe1           0.0000000000        0.0000532122        0.0000000000
Fe2           0.2500008067        0.1481335201        0.0000000000
Fe1           0.2499987861        0.0000469673        0.2499987861
Fe2           0.0000000000        0.1481335201        0.2500008067
Fe1           0.0000000000        0.0000549087        0.5000000000
Fe2           0.2499995980        0.1481334627        0.5000000000
Fe1           0.2499987861        0.0000469673        0.7500012139
Fe2           0.0000000000        0.1481335201        0.7499991933
Fe1           0.0000000000        0.7048083064        0.0000000000
Fe2           0.2500015872        0.8528921024        0.0000000000
Fe1           0.2499991005        0.7048031624        0.2499991005
Fe2           0.0000000000        0.8528921024        0.2500015872
Fe1           0.0000000000        0.7048081039        0.5000000000
Fe2           0.2500006629        0.8528924729        0.5000000000
Fe1           0.2499991005        0.7048031624        0.7500008995
Fe2           0.0000000000        0.8528921024        0.7499984128
Fe1           0.5000000000        0.0000549087        0.0000000000
Fe2           0.7499991933        0.1481335201        0.0000000000
Fe1           0.7500012139        0.0000469673        0.2499987861
Fe2           0.5000000000        0.1481334627        0.2499995980
Fe1           0.5000000000        0.0000559027        0.5000000000
Fe2           0.7500004020        0.1481334627        0.5000000000
Fe1           0.7500012139        0.0000469673        0.7500012139
Fe2           0.5000000000        0.1481334627        0.7500004020
Fe1           0.5000000000        0.7048081039        0.0000000000
Fe2           0.7499984128        0.8528921024        0.0000000000
Fe1           0.7500008995        0.7048031624        0.2499991005
Fe2           0.5000000000        0.8528924729        0.2500006629
Fe1           0.5000000000        0.7048086260        0.5000000000
Fe2           0.7499993371        0.8528924729        0.5000000000
Fe1           0.7500008995        0.7048031624        0.7500008995
Fe2           0.5000000000        0.8528924729        0.7499993371

     Writing output data file /scratch/HMTQhhGmqUNOfnnL.save/
     NEW-OLD atomic charge density approx. for the potential

     Check: negative core charge=   -0.000004

     negative rho (up, down):  0.000E+00 4.922E-05
     Generating pointlists ...

[...]

          total   stress  (Ry/bohr**3)                   (kbar)     P=       15.09
   0.00003150   0.00000000   0.00000000            4.63        0.00        0.00
   0.00000000   0.00024477   0.00000000            0.00       36.01        0.00
   0.00000000   0.00000000   0.00003150            0.00        0.00        4.63

     Energy error            =      8.5E-03
     Gradient error          =      2.1E-02

[...]

     energy   old            =  -10534.9688908921 Ry
     energy   new            =  -10534.9774225514 Ry

     CASE: energy  _new < energy  _old

     WARNING: bfgs curvature condition failed, Theta= 0.887
     new trust radius        =       0.0261103905 bohr
     new conv_thr            =       0.0000000213 Ry

[...]

     iteration #  1     ecut=    71.00 Ry     beta= 0.10
     Davidson diagonalization with overlap
     c_bands:  1 eigenvalues not converged
     c_bands:  1 eigenvalues not converged
     c_bands:  1 eigenvalues not converged
     c_bands:  1 eigenvalues not converged
     ethr =  1.00E-06,  avg # of iterations =  9.3

[...]

     Total force =     0.010131     Total SCF correction =     0.000280

[...]

     Total force =     0.000227     Total SCF correction =     0.000106
     SCF correction compared to forces is large: reduce conv_thr to get better values

[...]

     number of scf cycles    =  10
     number of bfgs steps    =   9

     energy   old            =  -10535.0251266058 Ry
     energy   new            =  -10535.0253315871 Ry

     CASE: energy  _new < energy  _old

     new trust radius        =       0.0002760589 bohr
     new conv_thr            =       0.0000000010 Ry

ATOMIC_POSITIONS (crystal)
Fe1           0.0000000000        0.0043750715        0.0000000000
Fe2           0.2499996702        0.1611522424        0.0000000000
Fe1           0.2499996530        0.0043518787        0.2499996530
Fe2           0.0000000000        0.1611522424        0.2499996702
Fe1           0.0000000000        0.0043768587        0.5000000000
Fe2           0.2499995173        0.1611525160        0.5000000000
Fe1           0.2499996530        0.0043518787        0.7500003470
Fe2          -0.0000000000        0.1611522424        0.7500003298
Fe1           0.0000000000        0.6917998914        0.0000000000
Fe2           0.2500007683        0.8485751600       -0.0000000000
Fe1           0.2499997338        0.6917812048        0.2499997338
Fe2          -0.0000000000        0.8485751600        0.2500007683
Fe1           0.0000000000        0.6917986561        0.5000000000
Fe2           0.2500002852        0.8485758383        0.5000000000
Fe1           0.2499997338        0.6917812048        0.7500002662
Fe2           0.0000000000        0.8485751600        0.7499992317
Fe1           0.5000000000        0.0043768587        0.0000000000
Fe2           0.7500003298        0.1611522424        0.0000000000
Fe1           0.7500003470        0.0043518787        0.2499996530
Fe2           0.5000000000        0.1611525160        0.2499995173
Fe1           0.5000000000        0.0043779523        0.5000000000
Fe2           0.7500004827        0.1611525160        0.5000000000
Fe1           0.7500003470        0.0043518787        0.7500003470
Fe2           0.5000000000        0.1611525160        0.7500004827
Fe1           0.5000000000        0.6917986561        0.0000000000
Fe2           0.7499992317        0.8485751600        0.0000000000
Fe1           0.7500002662        0.6917812048        0.2499997338
Fe2           0.5000000000        0.8485758383        0.2500002852
Fe1           0.5000000000        0.6917995178        0.5000000000
Fe2           0.7499997148        0.8485758383        0.5000000000
Fe1           0.7500002662        0.6917812048        0.7500002662
Fe2           0.5000000000        0.8485758383        0.7499997148

     Writing output data file /scratch/HMTQhhGmqUNOfnnL.save/
     NEW-OLD atomic charge density approx. for the potential

     Check: negative core charge=   -0.000004

     negative rho (up, down):  0.000E+00 1.500E-04
     Generating pointlists ...

     Self-consistent Calculation

[...]

     Threshold (ethr) on eigenvalues was too large:
     Diagonalizing with lowered threshold

     Davidson diagonalization with overlap
     ethr =  3.67E-10,  avg # of iterations =  5.1

[...]

     total energy              =  -10535.02533165 Ry
     estimated scf accuracy    <          2.6E-09 Ry

[...]

     iteration #  8     ecut=    71.00 Ry     beta= 0.10
     Davidson diagonalization with overlap
     ethr =  5.14E-13,  avg # of iterations =  2.0

[...]

     Magnetic moment per site:
     atom:    1    charge:   14.3857    magn:    1.4693    constr:    0.0000
     atom:    2    charge:   14.2717    magn:   -2.2972    constr:    0.0000
     atom:    3    charge:   14.3852    magn:    1.4706    constr:    0.0000
     atom:    4    charge:   14.2717    magn:   -2.2972    constr:    0.0000
     atom:    5    charge:   14.3857    magn:    1.4693    constr:    0.0000
     atom:    6    charge:   14.2717    magn:   -2.2972    constr:    0.0000
     atom:    7    charge:   14.3852    magn:    1.4706    constr:    0.0000
     atom:    8    charge:   14.2717    magn:   -2.2972    constr:    0.0000
     atom:    9    charge:   14.2719    magn:    2.2970    constr:    0.0000
     atom:   10    charge:   14.3856    magn:   -1.4698    constr:    0.0000
     atom:   11    charge:   14.2711    magn:    2.2974    constr:    0.0000
     atom:   12    charge:   14.3856    magn:   -1.4698    constr:    0.0000
     atom:   13    charge:   14.2719    magn:    2.2970    constr:    0.0000
     atom:   14    charge:   14.3856    magn:   -1.4699    constr:    0.0000
     atom:   15    charge:   14.2711    magn:    2.2974    constr:    0.0000
     atom:   16    charge:   14.3856    magn:   -1.4698    constr:    0.0000
     atom:   17    charge:   14.3857    magn:    1.4693    constr:    0.0000
     atom:   18    charge:   14.2717    magn:   -2.2972    constr:    0.0000
     atom:   19    charge:   14.3852    magn:    1.4706    constr:    0.0000
     atom:   20    charge:   14.2717    magn:   -2.2972    constr:    0.0000
     atom:   21    charge:   14.3857    magn:    1.4692    constr:    0.0000
     atom:   22    charge:   14.2717    magn:   -2.2972    constr:    0.0000
     atom:   23    charge:   14.3852    magn:    1.4706    constr:    0.0000
     atom:   24    charge:   14.2717    magn:   -2.2972    constr:    0.0000
     atom:   25    charge:   14.2719    magn:    2.2970    constr:    0.0000
     atom:   26    charge:   14.3856    magn:   -1.4698    constr:    0.0000
     atom:   27    charge:   14.2711    magn:    2.2974    constr:    0.0000
     atom:   28    charge:   14.3856    magn:   -1.4699    constr:    0.0000
     atom:   29    charge:   14.2719    magn:    2.2970    constr:    0.0000
     atom:   30    charge:   14.3856    magn:   -1.4699    constr:    0.0000
     atom:   31    charge:   14.2711    magn:    2.2974    constr:    0.0000
     atom:   32    charge:   14.3856    magn:   -1.4699    constr:    0.0000

     End of self-consistent calculation

     Number of k-points >= 100: set verbosity='high' to print the bands.

     the Fermi energy is    10.9276 ev

!    total energy              =  -10535.02533166 Ry

     total all-electron energy =    -81456.514390 Ry
     estimated scf accuracy    <          6.3E-10 Ry
     smearing contrib. (-TS)   =       0.02922301 Ry
     internal energy E=F+TS    =  -10535.05455467 Ry

     The total energy is F=E-TS. E is the sum of the following terms:
     one-electron contribution =  -14210.50774763 Ry
     hartree contribution      =    7285.24682689 Ry
     xc contribution           =    -886.44427201 Ry
     ewald contribution        =     -73.99407600 Ry
     one-center paw contrib.   =   -2649.35528591 Ry

     total magnetization       =     0.00 Bohr mag/cell
     absolute magnetization    =    63.10 Bohr mag/cell

     convergence has been achieved in   8 iterations

     negative rho (up, down):  0.000E+00 1.522E-04

     Forces acting on atoms (cartesian axes, Ry/au):

     atom    1 type  1   force =     0.00000000    0.00004636    0.00000000
     atom    2 type  2   force =    -0.00000031   -0.00002363    0.00000000
     atom    3 type  1   force =     0.00000099   -0.00004434    0.00000099
     atom    4 type  2   force =     0.00000000   -0.00002363   -0.00000031
     atom    5 type  1   force =     0.00000000    0.00004210    0.00000000
     atom    6 type  2   force =     0.00000047   -0.00002308    0.00000000
     atom    7 type  1   force =     0.00000099   -0.00004434   -0.00000099
     atom    8 type  2   force =     0.00000000   -0.00002363    0.00000031
     atom    9 type  1   force =     0.00000000    0.00002943    0.00000000
     atom   10 type  2   force =    -0.00000135    0.00002123    0.00000000
     atom   11 type  1   force =     0.00000092   -0.00002258    0.00000092
     atom   12 type  2   force =     0.00000000    0.00002123   -0.00000135
     atom   13 type  1   force =     0.00000000    0.00003106    0.00000000
     atom   14 type  2   force =    -0.00000064    0.00001959    0.00000000
     atom   15 type  1   force =     0.00000092   -0.00002258   -0.00000092
     atom   16 type  2   force =     0.00000000    0.00002123    0.00000135
     atom   17 type  1   force =     0.00000000    0.00004210    0.00000000
     atom   18 type  2   force =     0.00000031   -0.00002363    0.00000000
     atom   19 type  1   force =    -0.00000099   -0.00004434    0.00000099
     atom   20 type  2   force =     0.00000000   -0.00002308    0.00000047
     atom   21 type  1   force =     0.00000000    0.00003908    0.00000000
     atom   22 type  2   force =    -0.00000047   -0.00002308    0.00000000
     atom   23 type  1   force =    -0.00000099   -0.00004434   -0.00000099
     atom   24 type  2   force =     0.00000000   -0.00002308   -0.00000047
     atom   25 type  1   force =     0.00000000    0.00003106    0.00000000
     atom   26 type  2   force =     0.00000135    0.00002123    0.00000000
     atom   27 type  1   force =    -0.00000092   -0.00002258    0.00000092
     atom   28 type  2   force =     0.00000000    0.00001959   -0.00000064
     atom   29 type  1   force =     0.00000000    0.00003003    0.00000000
     atom   30 type  2   force =     0.00000064    0.00001959    0.00000000
     atom   31 type  1   force =    -0.00000092   -0.00002258   -0.00000092
     atom   32 type  2   force =     0.00000000    0.00001959    0.00000064

     Total force =     0.000169     Total SCF correction =     0.000290
     SCF correction compared to forces is large: reduce conv_thr to get better values

     Computing stress (Cartesian axis) and pressure

     negative rho (up, down):  0.000E+00 1.522E-04
          total   stress  (Ry/bohr**3)                   (kbar)     P=      -31.57
  -0.00021152   0.00000000   0.00000000          -31.12        0.00        0.00
   0.00000000  -0.00022079   0.00000000            0.00      -32.48        0.00
   0.00000000   0.00000000  -0.00021152            0.00        0.00      -31.12

     Energy error            =      7.0E-08
     Gradient error          =      4.6E-05

     bfgs converged in  11 scf cycles and  10 bfgs steps
     (criteria: energy <  1.0E-04 Ry, force <  1.0E-03 Ry/Bohr)

     End of BFGS Geometry Optimization

     Final energy   =  -10535.0253316571 Ry

     File /scratch/HMTQhhGmqUNOfnnL.bfgs deleted, as requested
Begin final coordinates

ATOMIC_POSITIONS (crystal)
Fe1           0.0000000000        0.0043750715        0.0000000000
Fe2           0.2499996702        0.1611522424        0.0000000000
Fe1           0.2499996530        0.0043518787        0.2499996530
Fe2           0.0000000000        0.1611522424        0.2499996702
Fe1           0.0000000000        0.0043768587        0.5000000000
Fe2           0.2499995173        0.1611525160        0.5000000000
Fe1           0.2499996530        0.0043518787        0.7500003470
Fe2          -0.0000000000        0.1611522424        0.7500003298
Fe1           0.0000000000        0.6917998914        0.0000000000
Fe2           0.2500007683        0.8485751600       -0.0000000000
Fe1           0.2499997338        0.6917812048        0.2499997338
Fe2          -0.0000000000        0.8485751600        0.2500007683
Fe1           0.0000000000        0.6917986561        0.5000000000
Fe2           0.2500002852        0.8485758383        0.5000000000
Fe1           0.2499997338        0.6917812048        0.7500002662
Fe2           0.0000000000        0.8485751600        0.7499992317
Fe1           0.5000000000        0.0043768587        0.0000000000
Fe2           0.7500003298        0.1611522424        0.0000000000
Fe1           0.7500003470        0.0043518787        0.2499996530
Fe2           0.5000000000        0.1611525160        0.2499995173
Fe1           0.5000000000        0.0043779523        0.5000000000
Fe2           0.7500004827        0.1611525160        0.5000000000
Fe1           0.7500003470        0.0043518787        0.7500003470
Fe2           0.5000000000        0.1611525160        0.7500004827
Fe1           0.5000000000        0.6917986561        0.0000000000
Fe2           0.7499992317        0.8485751600        0.0000000000
Fe1           0.7500002662        0.6917812048        0.2499997338
Fe2           0.5000000000        0.8485758383        0.2500002852
Fe1           0.5000000000        0.6917995178        0.5000000000
Fe2           0.7499997148        0.8485758383        0.5000000000
Fe1           0.7500002662        0.6917812048        0.7500002662
Fe2           0.5000000000        0.8485758383        0.7499997148
End final coordinates

     Writing output data file /scratch/HMTQhhGmqUNOfnnL.save/

     General routines

     Parallel routines

   This run was terminated on:  20: 5:54  16Jan2022

   JOB DONE.