     Program PWSCF v.6.7MaX starts on 14Jan2022 at 10: 8:15

     R & G space division:  proc/nbgrp/npool/nimage =      72
     Reading input from relax_10.in
Warning: card &CELL ignored
Warning: card CELL_DYNAMICS = 'BFGS', ignored
Warning: card CELL_FACTOR = 2.0, ignored
Warning: card PRESS = 0.0, ignored
Warning: card / ignored

     Current dimensions of program PWSCF are:
     Max number of different atomic species (ntypx) = 10
     Max number of k-points (npk) =  40000
     Max angular momentum in pseudopotentials (lmaxx) =  3
     file Fe.pbe-spn-kjpaw_psl.1.0.0.UPF: wavefunction(s)  3P 3D renormalized
     file Fe.pbe-spn-kjpaw_psl.1.0.0.UPF: wavefunction(s)  3P 3D renormalized

     Subspace diagonalization in iterative solution of the eigenvalue problem:
     one sub-group per band group will be used

     Found symmetry operation: I + (  0.2500  0.0000  0.2500)
     This is a supercell, fractional translations are disabled
     Message from routine setup:
     using ibrav=0 with symmetry is DISCOURAGED, use correct ibrav instead

     bravais-lattice index     =            0
     lattice parameter (alat)  =      12.9382  a.u.
     unit-cell volume          =    3898.4600 (a.u.)^3
     number of atoms/cell      =           32
     number of atomic types    =            2
     number of electrons       =       512.00
     number of Kohn-Sham states=          325
     kinetic-energy cutoff     =      71.0000  Ry
     charge density cutoff     =     430.0000  Ry
     scf convergence threshold =      1.0E-07
     mixing beta               =       0.1000
     number of iterations used =           10  local-TF  mixing
     energy convergence thresh.=      1.0E-04
     force convergence thresh. =      1.0E-03
     Exchange-correlation= SLA  PW   PBX  PBC
                           (   1   4   3   4   0   0   0)
     nstep                     =           50

     celldm(1)=  12.938190  celldm(2)=   0.000000  celldm(3)=   0.000000
     celldm(4)=   0.000000  celldm(5)=   0.000000  celldm(6)=   0.000000

     crystal axes: (cart. coord. in units of alat)
               a(1) = (   1.000000   0.000000   0.000000 )
               a(2) = (   0.000000   1.800000   0.000000 )
               a(3) = (   0.000000   0.000000   1.000000 )

     reciprocal axes: (cart. coord. in units 2 pi/alat)
               b(1) = (  1.000000  0.000000  0.000000 )
               b(2) = (  0.000000  0.555556  0.000000 )
               b(3) = (  0.000000  0.000000  1.000000 )

     PseudoPot. # 1 for Fe read from file:
     /rds/homes/b/bxp912/pp/Fe.pbe-spn-kjpaw_psl.1.0.0.UPF
     MD5 check sum: 42f43b795421b414b0dc916aa790dbcb
     Pseudo is Projector augmented-wave + core cor, Zval = 16.0
     Generated using &quot;atomic&quot; code by A. Dal Corso  v.6.3
     Shape of augmentation charge: PSQ
     Using radial grid of 1191 points,  6 beta functions with:
                l(1) =   0
                l(2) =   0
                l(3) =   1
                l(4) =   1
                l(5) =   2
                l(6) =   2
     Q(r) pseudized with 0 coefficients

     PseudoPot. # 2 for Fe read from file:
     /rds/homes/b/bxp912/pp/Fe.pbe-spn-kjpaw_psl.1.0.0.UPF
     MD5 check sum: 42f43b795421b414b0dc916aa790dbcb
     Pseudo is Projector augmented-wave + core cor, Zval = 16.0
     Generated using &quot;atomic&quot; code by A. Dal Corso  v.6.3
     Shape of augmentation charge: PSQ
     Using radial grid of 1191 points,  6 beta functions with:
                l(1) =   0
                l(2) =   0
                l(3) =   1
                l(4) =   1
                l(5) =   2
                l(6) =   2
     Q(r) pseudized with 0 coefficients

     atomic species   valence    mass     pseudopotential
        Fe1           16.00    55.84500     Fe( 1.00)
        Fe2           16.00    55.84500     Fe( 1.00)

     Starting magnetic structure
     atomic species   magnetization
        Fe1          0.100
        Fe2         -0.100

      8 Sym. Ops. (no inversion) found

   Cartesian axes

     site n.     atom                  positions (alat units)
         1           Fe1 tau(   1) = (   0.0000000   0.0000000   0.0000000  )
         2           Fe2 tau(   2) = (   0.2500000   0.2500000   0.0000000  )
         3           Fe1 tau(   3) = (   0.2500000   0.0000000   0.2500000  )
         4           Fe2 tau(   4) = (   0.0000000   0.2500000   0.2500000  )
         5           Fe1 tau(   5) = (   0.0000000   0.0000000   0.5000000  )
         6           Fe2 tau(   6) = (   0.2500000   0.2500000   0.5000000  )
         7           Fe1 tau(   7) = (   0.2500000   0.0000000   0.7500000  )
         8           Fe2 tau(   8) = (   0.0000000   0.2500000   0.7500000  )
         9           Fe1 tau(   9) = (   0.0000000   1.3000000   0.0000000  )
        10           Fe2 tau(  10) = (   0.2500000   1.5500000   0.0000000  )
        11           Fe1 tau(  11) = (   0.2500000   1.3000000   0.2500000  )
        12           Fe2 tau(  12) = (   0.0000000   1.5500000   0.2500000  )
        13           Fe1 tau(  13) = (   0.0000000   1.3000000   0.5000000  )
        14           Fe2 tau(  14) = (   0.2500000   1.5500000   0.5000000  )
        15           Fe1 tau(  15) = (   0.2500000   1.3000000   0.7500000  )
        16           Fe2 tau(  16) = (   0.0000000   1.5500000   0.7500000  )
        17           Fe1 tau(  17) = (   0.5000000   0.0000000   0.0000000  )
        18           Fe2 tau(  18) = (   0.7500000   0.2500000   0.0000000  )
        19           Fe1 tau(  19) = (   0.7500000   0.0000000   0.2500000  )
        20           Fe2 tau(  20) = (   0.5000000   0.2500000   0.2500000  )
        21           Fe1 tau(  21) = (   0.5000000   0.0000000   0.5000000  )
        22           Fe2 tau(  22) = (   0.7500000   0.2500000   0.5000000  )
        23           Fe1 tau(  23) = (   0.7500000   0.0000000   0.7500000  )
        24           Fe2 tau(  24) = (   0.5000000   0.2500000   0.7500000  )
        25           Fe1 tau(  25) = (   0.5000000   1.3000000   0.0000000  )
        26           Fe2 tau(  26) = (   0.7500000   1.5500000   0.0000000  )
        27           Fe1 tau(  27) = (   0.7500000   1.3000000   0.2500000  )
        28           Fe2 tau(  28) = (   0.5000000   1.5500000   0.2500000  )
        29           Fe1 tau(  29) = (   0.5000000   1.3000000   0.5000000  )
        30           Fe2 tau(  30) = (   0.7500000   1.5500000   0.5000000  )
        31           Fe1 tau(  31) = (   0.7500000   1.3000000   0.7500000  )
        32           Fe2 tau(  32) = (   0.5000000   1.5500000   0.7500000  )

     number of k points=    75  Marzari-Vanderbilt smearing, width (Ry)=  0.0400
                       cart. coord. in units 2pi/alat
        k(    1) = (   0.0555556   0.0308642   0.0555556), wk =   0.0109739
        k(    2) = (   0.0555556   0.0308642   0.1666667), wk =   0.0219479
        k(    3) = (   0.0555556   0.0308642   0.2777778), wk =   0.0219479
        k(    4) = (   0.0555556   0.0308642   0.3888889), wk =   0.0219479
        k(    5) = (   0.0555556   0.0308642  -0.5000000), wk =   0.0109739
        k(    6) = (   0.0555556   0.0925926   0.0555556), wk =   0.0109739
        k(    7) = (   0.0555556   0.0925926   0.1666667), wk =   0.0219479
        k(    8) = (   0.0555556   0.0925926   0.2777778), wk =   0.0219479
        k(    9) = (   0.0555556   0.0925926   0.3888889), wk =   0.0219479
        k(   10) = (   0.0555556   0.0925926  -0.5000000), wk =   0.0109739
        k(   11) = (   0.0555556   0.1543210   0.0555556), wk =   0.0109739
        k(   12) = (   0.0555556   0.1543210   0.1666667), wk =   0.0219479
        k(   13) = (   0.0555556   0.1543210   0.2777778), wk =   0.0219479
        k(   14) = (   0.0555556   0.1543210   0.3888889), wk =   0.0219479
        k(   15) = (   0.0555556   0.1543210  -0.5000000), wk =   0.0109739
        k(   16) = (   0.0555556   0.2160494   0.0555556), wk =   0.0109739
        k(   17) = (   0.0555556   0.2160494   0.1666667), wk =   0.0219479
        k(   18) = (   0.0555556   0.2160494   0.2777778), wk =   0.0219479
        k(   19) = (   0.0555556   0.2160494   0.3888889), wk =   0.0219479
        k(   20) = (   0.0555556   0.2160494  -0.5000000), wk =   0.0109739
        k(   21) = (   0.0555556  -0.2777778   0.0555556), wk =   0.0054870
        k(   22) = (   0.0555556  -0.2777778   0.1666667), wk =   0.0109739
        k(   23) = (   0.0555556  -0.2777778   0.2777778), wk =   0.0109739
        k(   24) = (   0.0555556  -0.2777778   0.3888889), wk =   0.0109739
        k(   25) = (   0.0555556  -0.2777778  -0.5000000), wk =   0.0054870
        k(   26) = (   0.1666667   0.0308642   0.1666667), wk =   0.0109739
        k(   27) = (   0.1666667   0.0308642   0.2777778), wk =   0.0219479
        k(   28) = (   0.1666667   0.0308642   0.3888889), wk =   0.0219479
        k(   29) = (   0.1666667   0.0308642  -0.5000000), wk =   0.0109739
        k(   30) = (   0.1666667   0.0925926   0.1666667), wk =   0.0109739
        k(   31) = (   0.1666667   0.0925926   0.2777778), wk =   0.0219479
        k(   32) = (   0.1666667   0.0925926   0.3888889), wk =   0.0219479
        k(   33) = (   0.1666667   0.0925926  -0.5000000), wk =   0.0109739
        k(   34) = (   0.1666667   0.1543210   0.1666667), wk =   0.0109739
        k(   35) = (   0.1666667   0.1543210   0.2777778), wk =   0.0219479
        k(   36) = (   0.1666667   0.1543210   0.3888889), wk =   0.0219479
        k(   37) = (   0.1666667   0.1543210  -0.5000000), wk =   0.0109739
        k(   38) = (   0.1666667   0.2160494   0.1666667), wk =   0.0109739
        k(   39) = (   0.1666667   0.2160494   0.2777778), wk =   0.0219479
        k(   40) = (   0.1666667   0.2160494   0.3888889), wk =   0.0219479
        k(   41) = (   0.1666667   0.2160494  -0.5000000), wk =   0.0109739
        k(   42) = (   0.1666667  -0.2777778   0.1666667), wk =   0.0054870
        k(   43) = (   0.1666667  -0.2777778   0.2777778), wk =   0.0109739
        k(   44) = (   0.1666667  -0.2777778   0.3888889), wk =   0.0109739
        k(   45) = (   0.1666667  -0.2777778  -0.5000000), wk =   0.0054870
        k(   46) = (   0.2777778   0.0308642   0.2777778), wk =   0.0109739
        k(   47) = (   0.2777778   0.0308642   0.3888889), wk =   0.0219479
        k(   48) = (   0.2777778   0.0308642  -0.5000000), wk =   0.0109739
        k(   49) = (   0.2777778   0.0925926   0.2777778), wk =   0.0109739
        k(   50) = (   0.2777778   0.0925926   0.3888889), wk =   0.0219479
        k(   51) = (   0.2777778   0.0925926  -0.5000000), wk =   0.0109739
        k(   52) = (   0.2777778   0.1543210   0.2777778), wk =   0.0109739
        k(   53) = (   0.2777778   0.1543210   0.3888889), wk =   0.0219479
        k(   54) = (   0.2777778   0.1543210  -0.5000000), wk =   0.0109739
        k(   55) = (   0.2777778   0.2160494   0.2777778), wk =   0.0109739
        k(   56) = (   0.2777778   0.2160494   0.3888889), wk =   0.0219479
        k(   57) = (   0.2777778   0.2160494  -0.5000000), wk =   0.0109739
        k(   58) = (   0.2777778  -0.2777778   0.2777778), wk =   0.0054870
[...]
     atom   30 type  2   force =    -0.00001494   -0.00098178    0.00000000
     atom   31 type  1   force =     0.00000806   -0.02369822    0.00000806
     atom   32 type  2   force =     0.00000000   -0.00098178   -0.00001494

     Total force =     0.094780     Total SCF correction =     0.000843

     Computing stress (Cartesian axis) and pressure

     negative rho (up, down):  0.000E+00 1.556E-04
          total   stress  (Ry/bohr**3)                   (kbar)     P=       19.02
   0.00005628   0.00000000   0.00000000            8.28        0.00        0.00
   0.00000000   0.00027525   0.00000000            0.00       40.49        0.00
   0.00000000   0.00000000   0.00005628            0.00        0.00        8.28

     BFGS Geometry Optimization
     Energy error            =      0.0E+00
     Gradient error          =      2.4E-02

     number of scf cycles    =   1
     number of bfgs steps    =   0

     energy   new            =  -10534.9675089566 Ry

     new trust radius        =       0.0238823532 bohr
     new conv_thr            =       0.0000001000 Ry

ATOMIC_POSITIONS (crystal)
Fe1           0.0000000000        0.0000540301        0.0000000000
Fe2           0.2500008010        0.1399006678        0.0000000000
Fe1           0.2499982617        0.0000474351        0.2499982617
Fe2           0.0000000000        0.1399006678        0.2500008010
Fe1           0.0000000000        0.0000562693        0.5000000000
Fe2           0.2499993025        0.1399003617        0.5000000000
Fe1           0.2499982617        0.0000474351        0.7500017383
Fe2           0.0000000000        0.1399006678        0.7499991990
Fe1           0.0000000000        0.7211979839        0.0000000000
Fe2           0.2500027030        0.8610687373        0.0000000000
Fe1           0.2499993767        0.7212046397        0.2499993767
Fe2          -0.0000000000        0.8610687373        0.2500027030
Fe1           0.0000000000        0.7211981318        0.5000000000
Fe2           0.2500011548        0.8610689541        0.5000000000
Fe1           0.2499993767        0.7212046397        0.7500006233
Fe2           0.0000000000        0.8610687373        0.7499972970
Fe1           0.5000000000        0.0000562693        0.0000000000
Fe2           0.7499991990        0.1399006678        0.0000000000
Fe1           0.7500017383        0.0000474351        0.2499982617
Fe2           0.5000000000        0.1399003617        0.2499993025
Fe1           0.5000000000        0.0000570455        0.5000000000
Fe2           0.7500006975        0.1399003617        0.5000000000
Fe1           0.7500017383        0.0000474351        0.7500017383
Fe2           0.5000000000        0.1399003617        0.7500006975
Fe1           0.5000000000        0.7211981318        0.0000000000
Fe2           0.7499972970        0.8610687373       -0.0000000000
Fe1           0.7500006233        0.7212046397        0.2499993767
Fe2           0.5000000000        0.8610689541        0.2500011548
Fe1           0.5000000000        0.7211967330        0.5000000000
Fe2           0.7499988452        0.8610689541        0.5000000000
Fe1           0.7500006233        0.7212046397        0.7500006233
Fe2           0.5000000000        0.8610689541        0.7499988452

     Writing output data file /scratch/qlcDJkpjdBVorTYh.save/
     NEW-OLD atomic charge density approx. for the potential

     Check: negative core charge=   -0.000004

     negative rho (up, down):  0.000E+00 6.375E-04
     Generating pointlists ...

[...]

     Energy error            =      8.5E-03
     Gradient error          =      2.1E-02

[...]

     energy   old            =  -10534.9675089566 Ry
     energy   new            =  -10534.9760496944 Ry

     CASE: energy  _new < energy  _old

     WARNING: bfgs curvature condition failed, Theta= 0.888
     new trust radius        =       0.0262705885 bohr
     new conv_thr            =       0.0000000214 Ry

[...]

     iteration #  1     ecut=    71.00 Ry     beta= 0.10
     Davidson diagonalization with overlap
     c_bands:  1 eigenvalues not converged
     ethr =  1.00E-06,  avg # of iterations =  9.1

[...]

     Total force =     0.006256     Total SCF correction =     0.000210

[...]

     number of scf cycles    =   9
     number of bfgs steps    =   8

     energy   old            =  -10535.0227959048 Ry
     energy   new            =  -10535.0232128351 Ry

     CASE: energy  _new < energy  _old

     new trust radius        =       0.0058100747 bohr
     new conv_thr            =       0.0000000013 Ry

ATOMIC_POSITIONS (crystal)
Fe1           0.0000000000        0.0041557139        0.0000000000
Fe2           0.2499994859        0.1524105997        0.0000000000
Fe1           0.2499992932        0.0041450605        0.2499992932
Fe2           0.0000000000        0.1524105997        0.2499994859
Fe1           0.0000000000        0.0041580853        0.5000000000
Fe2           0.2499991526        0.1524105534        0.5000000000
Fe1           0.2499992932        0.0041450605        0.7500007068
Fe2          -0.0000000000        0.1524105997        0.7500005141
Fe1           0.0000000000        0.7086836628        0.0000000000
Fe2           0.2500013631        0.8569648156        0.0000000000
Fe1           0.2499996085        0.7087079346        0.2499996085
Fe2          -0.0000000000        0.8569648156        0.2500013631
Fe1           0.0000000000        0.7086824410        0.5000000000
Fe2           0.2500009918        0.8569653916        0.5000000000
Fe1           0.2499996085        0.7087079346        0.7500003915
Fe2           0.0000000000        0.8569648156        0.7499986369
Fe1           0.5000000000        0.0041580853        0.0000000000
Fe2           0.7500005141        0.1524105997        0.0000000000
Fe1           0.7500007068        0.0041450605        0.2499992932
Fe2           0.5000000000        0.1524105534        0.2499991526
Fe1           0.5000000000        0.0041596412        0.5000000000
Fe2           0.7500008474        0.1524105534        0.5000000000
Fe1           0.7500007068        0.0041450605        0.7500007068
Fe2           0.5000000000        0.1524105534        0.7500008474
Fe1           0.5000000000        0.7086824410        0.0000000000
Fe2           0.7499986369        0.8569648156       -0.0000000000
Fe1           0.7500003915        0.7087079346        0.2499996085
Fe2           0.5000000000        0.8569653916        0.2500009918
Fe1           0.5000000000        0.7086802858        0.5000000000
Fe2           0.7499990082        0.8569653916        0.5000000000
Fe1           0.7500003915        0.7087079346        0.7500003915
Fe2           0.5000000000        0.8569653916        0.7499990082

     Writing output data file /scratch/qlcDJkpjdBVorTYh.save/
     NEW-OLD atomic charge density approx. for the potential

     Check: negative core charge=   -0.000004

     negative rho (up, down):  0.000E+00 5.233E-04
     Generating pointlists ...

     Self-consistent Calculation

[...]

     Threshold (ethr) on eigenvalues was too large:
     Diagonalizing with lowered threshold

     Davidson diagonalization with overlap
     ethr =  7.33E-08,  avg # of iterations =  2.1

[...]

     total energy              =  -10535.02330343 Ry
     estimated scf accuracy    <          4.5E-09 Ry

[...]

     iteration # 14     ecut=    71.00 Ry     beta= 0.10
     Davidson diagonalization with overlap
     ethr =  8.70E-13,  avg # of iterations =  3.0

[...]

     Magnetic moment per site:
     atom:    1    charge:   14.3848    magn:    1.4744    constr:    0.0000
     atom:    2    charge:   14.2709    magn:   -2.2992    constr:    0.0000
     atom:    3    charge:   14.3842    magn:    1.4753    constr:    0.0000
     atom:    4    charge:   14.2709    magn:   -2.2992    constr:    0.0000
     atom:    5    charge:   14.3848    magn:    1.4743    constr:    0.0000
     atom:    6    charge:   14.2709    magn:   -2.2992    constr:    0.0000
     atom:    7    charge:   14.3842    magn:    1.4753    constr:    0.0000
     atom:    8    charge:   14.2709    magn:   -2.2992    constr:    0.0000
     atom:    9    charge:   14.2711    magn:    2.2995    constr:    0.0000
     atom:   10    charge:   14.3847    magn:   -1.4750    constr:    0.0000
     atom:   11    charge:   14.2706    magn:    2.2992    constr:    0.0000
     atom:   12    charge:   14.3847    magn:   -1.4750    constr:    0.0000
     atom:   13    charge:   14.2711    magn:    2.2995    constr:    0.0000
     atom:   14    charge:   14.3847    magn:   -1.4751    constr:    0.0000
     atom:   15    charge:   14.2706    magn:    2.2992    constr:    0.0000
     atom:   16    charge:   14.3847    magn:   -1.4750    constr:    0.0000
     atom:   17    charge:   14.3848    magn:    1.4743    constr:    0.0000
     atom:   18    charge:   14.2709    magn:   -2.2992    constr:    0.0000
     atom:   19    charge:   14.3842    magn:    1.4753    constr:    0.0000
     atom:   20    charge:   14.2709    magn:   -2.2992    constr:    0.0000
     atom:   21    charge:   14.3848    magn:    1.4743    constr:    0.0000
     atom:   22    charge:   14.2709    magn:   -2.2992    constr:    0.0000
     atom:   23    charge:   14.3842    magn:    1.4753    constr:    0.0000
     atom:   24    charge:   14.2709    magn:   -2.2992    constr:    0.0000
     atom:   25    charge:   14.2711    magn:    2.2995    constr:    0.0000
     atom:   26    charge:   14.3847    magn:   -1.4750    constr:    0.0000
     atom:   27    charge:   14.2706    magn:    2.2992    constr:    0.0000
     atom:   28    charge:   14.3847    magn:   -1.4751    constr:    0.0000
     atom:   29    charge:   14.2711    magn:    2.2995    constr:    0.0000
     atom:   30    charge:   14.3847    magn:   -1.4751    constr:    0.0000
     atom:   31    charge:   14.2706    magn:    2.2992    constr:    0.0000
     atom:   32    charge:   14.3847    magn:   -1.4751    constr:    0.0000

     End of self-consistent calculation

     Number of k-points >= 100: set verbosity='high' to print the bands.

     the Fermi energy is    10.0594 ev

!    total energy              =  -10535.02330382 Ry

     total all-electron energy =    -81456.512362 Ry
     estimated scf accuracy    <          5.5E-10 Ry
     smearing contrib. (-TS)   =       0.02867119 Ry
     internal energy E=F+TS    =  -10535.05197501 Ry

     The total energy is F=E-TS. E is the sum of the following terms:
     one-electron contribution =  -16920.46904561 Ry
     hartree contribution      =    8623.90439359 Ry
     xc contribution           =    -886.43781990 Ry
     ewald contribution        =    1297.30525615 Ry
     one-center paw contrib.   =   -2649.35475924 Ry

     total magnetization       =    -0.00 Bohr mag/cell
     absolute magnetization    =    63.23 Bohr mag/cell

     convergence has been achieved in  14 iterations

     negative rho (up, down):  0.000E+00 5.507E-04

     Forces acting on atoms (cartesian axes, Ry/au):

     atom    1 type  1   force =     0.00000000    0.00023292    0.00000000
     atom    2 type  2   force =    -0.00000045   -0.00034194    0.00000000
     atom    3 type  1   force =     0.00000171    0.00013425    0.00000171
     atom    4 type  2   force =     0.00000000   -0.00034194   -0.00000045
     atom    5 type  1   force =     0.00000000    0.00022632    0.00000000
     atom    6 type  2   force =     0.00000079   -0.00034029    0.00000000
     atom    7 type  1   force =     0.00000171    0.00013425   -0.00000171
     atom    8 type  2   force =     0.00000000   -0.00034194    0.00000045
     atom    9 type  1   force =     0.00000000    0.00022220    0.00000000
     atom   10 type  2   force =    -0.00000304   -0.00010718    0.00000000
     atom   11 type  1   force =     0.00000060    0.00031236    0.00000060
     atom   12 type  2   force =    -0.00000000   -0.00010718   -0.00000304
     atom   13 type  1   force =     0.00000000    0.00022392    0.00000000
     atom   14 type  2   force =    -0.00000172   -0.00010903    0.00000000
     atom   15 type  1   force =     0.00000060    0.00031236   -0.00000060
     atom   16 type  2   force =     0.00000000   -0.00010718    0.00000304
     atom   17 type  1   force =     0.00000000    0.00022632    0.00000000
     atom   18 type  2   force =     0.00000045   -0.00034194    0.00000000
     atom   19 type  1   force =    -0.00000171    0.00013425    0.00000171
     atom   20 type  2   force =     0.00000000   -0.00034029    0.00000079
     atom   21 type  1   force =     0.00000000    0.00022307    0.00000000
     atom   22 type  2   force =    -0.00000079   -0.00034029    0.00000000
     atom   23 type  1   force =    -0.00000171    0.00013425   -0.00000171
     atom   24 type  2   force =     0.00000000   -0.00034029   -0.00000079
     atom   25 type  1   force =     0.00000000    0.00022392    0.00000000
     atom   26 type  2   force =     0.00000304   -0.00010718    0.00000000
     atom   27 type  1   force =    -0.00000060    0.00031236    0.00000060
     atom   28 type  2   force =    -0.00000000   -0.00010903   -0.00000172
     atom   29 type  1   force =     0.00000000    0.00022865    0.00000000
     atom   30 type  2   force =     0.00000172   -0.00010903    0.00000000
     atom   31 type  1   force =    -0.00000060    0.00031236   -0.00000060
     atom   32 type  2   force =     0.00000000   -0.00010903    0.00000172

     Total force =     0.001377     Total SCF correction =     0.000246
     SCF correction compared to forces is large: reduce conv_thr to get better values

     Computing stress (Cartesian axis) and pressure

     negative rho (up, down):  0.000E+00 5.507E-04
          total   stress  (Ry/bohr**3)                   (kbar)     P=      -30.53
  -0.00020469   0.00000000   0.00000000          -30.11        0.00        0.00
   0.00000000  -0.00021319   0.00000000            0.00      -31.36        0.00
   0.00000000   0.00000000  -0.00020469            0.00        0.00      -30.11

     Energy error            =      9.1E-05
     Gradient error          =      3.4E-04

     bfgs converged in  10 scf cycles and   9 bfgs steps
     (criteria: energy <  1.0E-04 Ry, force <  1.0E-03 Ry/Bohr)

     End of BFGS Geometry Optimization

     Final energy   =  -10535.0233038213 Ry

     File /scratch/qlcDJkpjdBVorTYh.bfgs deleted, as requested
Begin final coordinates

ATOMIC_POSITIONS (crystal)
Fe1           0.0000000000        0.0041557139        0.0000000000
Fe2           0.2499994859        0.1524105997        0.0000000000
Fe1           0.2499992932        0.0041450605        0.2499992932
Fe2           0.0000000000        0.1524105997        0.2499994859
Fe1           0.0000000000        0.0041580853        0.5000000000
Fe2           0.2499991526        0.1524105534        0.5000000000
Fe1           0.2499992932        0.0041450605        0.7500007068
Fe2          -0.0000000000        0.1524105997        0.7500005141
Fe1           0.0000000000        0.7086836628        0.0000000000
Fe2           0.2500013631        0.8569648156        0.0000000000
Fe1           0.2499996085        0.7087079346        0.2499996085
Fe2          -0.0000000000        0.8569648156        0.2500013631
Fe1           0.0000000000        0.7086824410        0.5000000000
Fe2           0.2500009918        0.8569653916        0.5000000000
Fe1           0.2499996085        0.7087079346        0.7500003915
Fe2           0.0000000000        0.8569648156        0.7499986369
Fe1           0.5000000000        0.0041580853        0.0000000000
Fe2           0.7500005141        0.1524105997        0.0000000000
Fe1           0.7500007068        0.0041450605        0.2499992932
Fe2           0.5000000000        0.1524105534        0.2499991526
Fe1           0.5000000000        0.0041596412        0.5000000000
Fe2           0.7500008474        0.1524105534        0.5000000000
Fe1           0.7500007068        0.0041450605        0.7500007068
Fe2           0.5000000000        0.1524105534        0.7500008474
Fe1           0.5000000000        0.7086824410        0.0000000000
Fe2           0.7499986369        0.8569648156       -0.0000000000
Fe1           0.7500003915        0.7087079346        0.2499996085
Fe2           0.5000000000        0.8569653916        0.2500009918
Fe1           0.5000000000        0.7086802858        0.5000000000
Fe2           0.7499990082        0.8569653916        0.5000000000
Fe1           0.7500003915        0.7087079346        0.7500003915
Fe2           0.5000000000        0.8569653916        0.7499990082
End final coordinates

     Writing output data file /scratch/qlcDJkpjdBVorTYh.save/

     General routines

     Parallel routines

   This run was terminated on:  20:11:31  14Jan2022

   JOB DONE.