     Program PWSCF v.6.7MaX starts on 16Jan2022 at  9:24:18

     R & G space division:  proc/nbgrp/npool/nimage =      72
     Reading input from relax_7.in
Warning: card &CELL ignored
Warning: card CELL_DYNAMICS = 'BFGS', ignored
Warning: card CELL_FACTOR = 2.0, ignored
Warning: card PRESS = 0.0, ignored
Warning: card / ignored

     Current dimensions of program PWSCF are:
     Max number of different atomic species (ntypx) = 10
     Max number of k-points (npk) =  40000
     Max angular momentum in pseudopotentials (lmaxx) =  3
     file Fe.pbe-spn-kjpaw_psl.1.0.0.UPF: wavefunction(s)  3P 3D renormalized
     file Fe.pbe-spn-kjpaw_psl.1.0.0.UPF: wavefunction(s)  3P 3D renormalized

     Subspace diagonalization in iterative solution of the eigenvalue problem:
     one sub-group per band group will be used

     Found symmetry operation: I + (  0.2500  0.0000  0.2500)
     This is a supercell, fractional translations are disabled
     Message from routine setup:
     using ibrav=0 with symmetry is DISCOURAGED, use correct ibrav instead

     bravais-lattice index     =            0
     lattice parameter (alat)  =      12.9382  a.u.
     unit-cell volume          =    3248.7166 (a.u.)^3
     number of atoms/cell      =           32
     number of atomic types    =            2
     number of electrons       =       512.00
     number of Kohn-Sham states=          325
     kinetic-energy cutoff     =      71.0000  Ry
     charge density cutoff     =     430.0000  Ry
     scf convergence threshold =      1.0E-07
     mixing beta               =       0.1000
     number of iterations used =           10  local-TF  mixing
     energy convergence thresh.=      1.0E-04
     force convergence thresh. =      1.0E-03
     Exchange-correlation= SLA  PW   PBX  PBC
                           (   1   4   3   4   0   0   0)
     nstep                     =           50

     celldm(1)=  12.938190  celldm(2)=   0.000000  celldm(3)=   0.000000
     celldm(4)=   0.000000  celldm(5)=   0.000000  celldm(6)=   0.000000

     crystal axes: (cart. coord. in units of alat)
               a(1) = (   1.000000   0.000000   0.000000 )
               a(2) = (   0.000000   1.500000   0.000000 )
               a(3) = (   0.000000   0.000000   1.000000 )

     reciprocal axes: (cart. coord. in units 2 pi/alat)
               b(1) = (  1.000000  0.000000  0.000000 )
               b(2) = (  0.000000  0.666667  0.000000 )
               b(3) = (  0.000000  0.000000  1.000000 )

     PseudoPot. # 1 for Fe read from file:
     /rds/homes/b/bxp912/pp/Fe.pbe-spn-kjpaw_psl.1.0.0.UPF
     MD5 check sum: 42f43b795421b414b0dc916aa790dbcb
     Pseudo is Projector augmented-wave + core cor, Zval = 16.0
     Generated using &quot;atomic&quot; code by A. Dal Corso  v.6.3
     Shape of augmentation charge: PSQ
     Using radial grid of 1191 points,  6 beta functions with:
                l(1) =   0
                l(2) =   0
                l(3) =   1
                l(4) =   1
                l(5) =   2
                l(6) =   2
     Q(r) pseudized with 0 coefficients

     PseudoPot. # 2 for Fe read from file:
     /rds/homes/b/bxp912/pp/Fe.pbe-spn-kjpaw_psl.1.0.0.UPF
     MD5 check sum: 42f43b795421b414b0dc916aa790dbcb
     Pseudo is Projector augmented-wave + core cor, Zval = 16.0
     Generated using &quot;atomic&quot; code by A. Dal Corso  v.6.3
     Shape of augmentation charge: PSQ
     Using radial grid of 1191 points,  6 beta functions with:
                l(1) =   0
                l(2) =   0
                l(3) =   1
                l(4) =   1
                l(5) =   2
                l(6) =   2
     Q(r) pseudized with 0 coefficients

     atomic species   valence    mass     pseudopotential
        Fe1           16.00    55.84500     Fe( 1.00)
        Fe2           16.00    55.84500     Fe( 1.00)

     Starting magnetic structure
     atomic species   magnetization
        Fe1          0.100
        Fe2         -0.100

      8 Sym. Ops. (no inversion) found

   Cartesian axes

     site n.     atom                  positions (alat units)
         1           Fe1 tau(   1) = (   0.0000000   0.0000000   0.0000000  )
         2           Fe2 tau(   2) = (   0.2500000   0.2500000   0.0000000  )
         3           Fe1 tau(   3) = (   0.2500000   0.0000000   0.2500000  )
         4           Fe2 tau(   4) = (   0.0000000   0.2500000   0.2500000  )
         5           Fe1 tau(   5) = (   0.0000000   0.0000000   0.5000000  )
         6           Fe2 tau(   6) = (   0.2500000   0.2500000   0.5000000  )
         7           Fe1 tau(   7) = (   0.2500000   0.0000000   0.7500000  )
         8           Fe2 tau(   8) = (   0.0000000   0.2500000   0.7500000  )
         9           Fe1 tau(   9) = (   0.0000000   1.0000000   0.0000000  )
        10           Fe2 tau(  10) = (   0.2500000   1.2500000   0.0000000  )
        11           Fe1 tau(  11) = (   0.2500000   1.0000000   0.2500000  )
        12           Fe2 tau(  12) = (   0.0000000   1.2500000   0.2500000  )
        13           Fe1 tau(  13) = (   0.0000000   1.0000000   0.5000000  )
        14           Fe2 tau(  14) = (   0.2500000   1.2500000   0.5000000  )
        15           Fe1 tau(  15) = (   0.2500000   1.0000000   0.7500000  )
        16           Fe2 tau(  16) = (   0.0000000   1.2500000   0.7500000  )
        17           Fe1 tau(  17) = (   0.5000000   0.0000000   0.0000000  )
        18           Fe2 tau(  18) = (   0.7500000   0.2500000   0.0000000  )
        19           Fe1 tau(  19) = (   0.7500000   0.0000000   0.2500000  )
        20           Fe2 tau(  20) = (   0.5000000   0.2500000   0.2500000  )
        21           Fe1 tau(  21) = (   0.5000000   0.0000000   0.5000000  )
        22           Fe2 tau(  22) = (   0.7500000   0.2500000   0.5000000  )
        23           Fe1 tau(  23) = (   0.7500000   0.0000000   0.7500000  )
        24           Fe2 tau(  24) = (   0.5000000   0.2500000   0.7500000  )
        25           Fe1 tau(  25) = (   0.5000000   1.0000000   0.0000000  )
        26           Fe2 tau(  26) = (   0.7500000   1.2500000   0.0000000  )
        27           Fe1 tau(  27) = (   0.7500000   1.0000000   0.2500000  )
        28           Fe2 tau(  28) = (   0.5000000   1.2500000   0.2500000  )
        29           Fe1 tau(  29) = (   0.5000000   1.0000000   0.5000000  )
        30           Fe2 tau(  30) = (   0.7500000   1.2500000   0.5000000  )
        31           Fe1 tau(  31) = (   0.7500000   1.0000000   0.7500000  )
        32           Fe2 tau(  32) = (   0.5000000   1.2500000   0.7500000  )

     number of k points=    75  Marzari-Vanderbilt smearing, width (Ry)=  0.0400
                       cart. coord. in units 2pi/alat
        k(    1) = (   0.0555556   0.0370370   0.0555556), wk =   0.0109739
        k(    2) = (   0.0555556   0.0370370   0.1666667), wk =   0.0219479
        k(    3) = (   0.0555556   0.0370370   0.2777778), wk =   0.0219479
        k(    4) = (   0.0555556   0.0370370   0.3888889), wk =   0.0219479
        k(    5) = (   0.0555556   0.0370370  -0.5000000), wk =   0.0109739
        k(    6) = (   0.0555556   0.1111111   0.0555556), wk =   0.0109739
        k(    7) = (   0.0555556   0.1111111   0.1666667), wk =   0.0219479
        k(    8) = (   0.0555556   0.1111111   0.2777778), wk =   0.0219479
        k(    9) = (   0.0555556   0.1111111   0.3888889), wk =   0.0219479
        k(   10) = (   0.0555556   0.1111111  -0.5000000), wk =   0.0109739
        k(   11) = (   0.0555556   0.1851852   0.0555556), wk =   0.0109739
        k(   12) = (   0.0555556   0.1851852   0.1666667), wk =   0.0219479
        k(   13) = (   0.0555556   0.1851852   0.2777778), wk =   0.0219479
        k(   14) = (   0.0555556   0.1851852   0.3888889), wk =   0.0219479
        k(   15) = (   0.0555556   0.1851852  -0.5000000), wk =   0.0109739
        k(   16) = (   0.0555556   0.2592593   0.0555556), wk =   0.0109739
        k(   17) = (   0.0555556   0.2592593   0.1666667), wk =   0.0219479
        k(   18) = (   0.0555556   0.2592593   0.2777778), wk =   0.0219479
        k(   19) = (   0.0555556   0.2592593   0.3888889), wk =   0.0219479
        k(   20) = (   0.0555556   0.2592593  -0.5000000), wk =   0.0109739
        k(   21) = (   0.0555556  -0.3333333   0.0555556), wk =   0.0054870
        k(   22) = (   0.0555556  -0.3333333   0.1666667), wk =   0.0109739
        k(   23) = (   0.0555556  -0.3333333   0.2777778), wk =   0.0109739
        k(   24) = (   0.0555556  -0.3333333   0.3888889), wk =   0.0109739
        k(   25) = (   0.0555556  -0.3333333  -0.5000000), wk =   0.0054870
        k(   26) = (   0.1666667   0.0370370   0.1666667), wk =   0.0109739
        k(   27) = (   0.1666667   0.0370370   0.2777778), wk =   0.0219479
        k(   28) = (   0.1666667   0.0370370   0.3888889), wk =   0.0219479
        k(   29) = (   0.1666667   0.0370370  -0.5000000), wk =   0.0109739
        k(   30) = (   0.1666667   0.1111111   0.1666667), wk =   0.0109739
        k(   31) = (   0.1666667   0.1111111   0.2777778), wk =   0.0219479
        k(   32) = (   0.1666667   0.1111111   0.3888889), wk =   0.0219479
        k(   33) = (   0.1666667   0.1111111  -0.5000000), wk =   0.0109739
        k(   34) = (   0.1666667   0.1851852   0.1666667), wk =   0.0109739
        k(   35) = (   0.1666667   0.1851852   0.2777778), wk =   0.0219479
        k(   36) = (   0.1666667   0.1851852   0.3888889), wk =   0.0219479
        k(   37) = (   0.1666667   0.1851852  -0.5000000), wk =   0.0109739
        k(   38) = (   0.1666667   0.2592593   0.1666667), wk =   0.0109739
        k(   39) = (   0.1666667   0.2592593   0.2777778), wk =   0.0219479
        k(   40) = (   0.1666667   0.2592593   0.3888889), wk =   0.0219479
        k(   41) = (   0.1666667   0.2592593  -0.5000000), wk =   0.0109739
        k(   42) = (   0.1666667  -0.3333333   0.1666667), wk =   0.0054870
        k(   43) = (   0.1666667  -0.3333333   0.2777778), wk =   0.0109739
        k(   44) = (   0.1666667  -0.3333333   0.3888889), wk =   0.0109739
        k(   45) = (   0.1666667  -0.3333333  -0.5000000), wk =   0.0054870
        k(   46) = (   0.2777778   0.0370370   0.2777778), wk =   0.0109739
        k(   47) = (   0.2777778   0.0370370   0.3888889), wk =   0.0219479
        k(   48) = (   0.2777778   0.0370370  -0.5000000), wk =   0.0109739
        k(   49) = (   0.2777778   0.1111111   0.2777778), wk =   0.0109739
        k(   50) = (   0.2777778   0.1111111   0.3888889), wk =   0.0219479
        k(   51) = (   0.2777778   0.1111111  -0.5000000), wk =   0.0109739
        k(   52) = (   0.2777778   0.1851852   0.2777778), wk =   0.0109739
        k(   53) = (   0.2777778   0.1851852   0.3888889), wk =   0.0219479
        k(   54) = (   0.2777778   0.1851852  -0.5000000), wk =   0.0109739
        k(   55) = (   0.2777778   0.2592593   0.2777778), wk =   0.0109739
        k(   56) = (   0.2777778   0.2592593   0.3888889), wk =   0.0219479
        k(   57) = (   0.2777778   0.2592593  -0.5000000), wk =   0.0109739
        k(   58) = (   0.2777778  -0.3333333   0.2777778), wk =   0.0054870
[...]
     atom   30 type  2   force =    -0.00001818   -0.00117009    0.00000000
     atom   31 type  1   force =     0.00000832   -0.02599898    0.00000832
     atom   32 type  2   force =     0.00000000   -0.00117009   -0.00001818

     Total force =     0.104091     Total SCF correction =     0.000655

     Computing stress (Cartesian axis) and pressure

     negative rho (up, down):  0.000E+00 4.820E-04
          total   stress  (Ry/bohr**3)                   (kbar)     P=       21.96
   0.00007592   0.00000000   0.00000000           11.17        0.00        0.00
   0.00000000   0.00029607   0.00000000            0.00       43.55        0.00
   0.00000000   0.00000000   0.00007592            0.00        0.00       11.17

     BFGS Geometry Optimization
     Energy error            =      0.0E+00
     Gradient error          =      2.6E-02

     number of scf cycles    =   1
     number of bfgs steps    =   0

     energy   new            =  -10534.9841040936 Ry

     new trust radius        =       0.0261009365 bohr
     new conv_thr            =       0.0000001000 Ry

ATOMIC_POSITIONS (crystal)
Fe1           0.0000000000        0.0000526043        0.0000000000
Fe2           0.2500007622        0.1680115706        0.0000000000
Fe1           0.2499987960        0.0000466671        0.2499987960
Fe2          -0.0000000000        0.1680115706        0.2500007622
Fe1           0.0000000000        0.0000540068        0.5000000000
Fe2           0.2499997554        0.1680113044        0.5000000000
Fe1           0.2499987960        0.0000466671        0.7500012040
Fe2           0.0000000000        0.1680115706        0.7499992378
Fe1           0.0000000000        0.6653375662        0.0000000000
Fe2           0.2500018586        0.8332727496        0.0000000000
Fe1           0.2499993573        0.6653270163        0.2499993573
Fe2           0.0000000000        0.8332727496        0.2500018586
Fe1           0.0000000000        0.6653370941        0.5000000000
Fe2           0.2500014049        0.8332730420        0.5000000000
Fe1           0.2499993573        0.6653270163        0.7500006427
Fe2           0.0000000000        0.8332727496        0.7499981414
Fe1           0.5000000000        0.0000540068        0.0000000000
Fe2           0.7499992378        0.1680115706        0.0000000000
Fe1           0.7500012040        0.0000466671        0.2499987960
Fe2           0.5000000000        0.1680113044        0.2499997554
Fe1           0.5000000000        0.0000551851        0.5000000000
Fe2           0.7500002446        0.1680113044        0.5000000000
Fe1           0.7500012040        0.0000466671        0.7500012040
Fe2           0.5000000000        0.1680113044        0.7500002446
Fe1           0.5000000000        0.6653370941        0.0000000000
Fe2           0.7499981414        0.8332727496        0.0000000000
Fe1           0.7500006427        0.6653270163        0.2499993573
Fe2           0.5000000000        0.8332730420        0.2500014049
Fe1           0.5000000000        0.6653363755        0.5000000000
Fe2           0.7499985951        0.8332730420        0.5000000000
Fe1           0.7500006427        0.6653270163        0.7500006427
Fe2           0.5000000000        0.8332730420        0.7499985951

     Writing output data file /scratch/rFSwOCeUrTTDfOen.save/
     NEW-OLD atomic charge density approx. for the potential

     Check: negative core charge=   -0.000005

     negative rho (up, down):  0.000E+00 3.822E-04
     Generating pointlists ...

[...]

     iteration #  1     ecut=    71.00 Ry     beta= 0.10
     Davidson diagonalization with overlap
     c_bands:  1 eigenvalues not converged
     ethr =  1.00E-06,  avg # of iterations =  7.2

[...]

     Energy error            =      1.0E-02
     Gradient error          =      2.3E-02

[...]

     energy   old            =  -10534.9841040936 Ry
     energy   new            =  -10534.9944034197 Ry

     CASE: energy  _new < energy  _old

     WARNING: bfgs curvature condition failed, Theta= 0.890
     new trust radius        =       0.0287110301 bohr
     new conv_thr            =       0.0000000233 Ry

[...]

     iteration #  1     ecut=    71.00 Ry     beta= 0.10
     Davidson diagonalization with overlap
     c_bands:  1 eigenvalues not converged
     ethr =  1.00E-06,  avg # of iterations =  9.1

[...]

     Total force =     0.002460     Total SCF correction =     0.000128

[...]

     number of scf cycles    =  10
     number of bfgs steps    =   9

     energy   old            =  -10535.0580155302 Ry
     energy   new            =  -10535.0582172982 Ry

     CASE: energy  _new < energy  _old

     new trust radius        =       0.0060529226 bohr
     new conv_thr            =       0.0000000010 Ry

ATOMIC_POSITIONS (crystal)
Fe1           0.0000000000        0.0061785854        0.0000000000
Fe2           0.2499998179        0.1866651968        0.0000000000
Fe1           0.2499995723        0.0061360045        0.2499995723
Fe2          -0.0000000000        0.1866651968        0.2499998179
Fe1           0.0000000000        0.0061800049        0.5000000000
Fe2           0.2499995496        0.1866650888        0.5000000000
Fe1           0.2499995723        0.0061360045        0.7500004277
Fe2           0.0000000000        0.1866651968        0.7500001821
Fe1           0.0000000000        0.6466217965        0.0000000000
Fe2           0.2500008124        0.8272198728        0.0000000000
Fe1           0.2499995368        0.6466267825        0.2499995368
Fe2           0.0000000000        0.8272198728        0.2500008124
Fe1           0.0000000000        0.6466201094        0.5000000000
Fe2           0.2500007262        0.8272202383        0.5000000000
Fe1           0.2499995368        0.6466267825        0.7500004632
Fe2          -0.0000000000        0.8272198728        0.7499991876
Fe1           0.5000000000        0.0061800049        0.0000000000
Fe2           0.7500001821        0.1866651968        0.0000000000
Fe1           0.7500004277        0.0061360045        0.2499995723
Fe2           0.5000000000        0.1866650888        0.2499995496
Fe1           0.5000000000        0.0061815468        0.5000000000
Fe2           0.7500004504        0.1866650888        0.5000000000
Fe1           0.7500004277        0.0061360045        0.7500004277
Fe2           0.5000000000        0.1866650888        0.7500004504
Fe1           0.5000000000        0.6466201094        0.0000000000
Fe2           0.7499991876        0.8272198728        0.0000000000
Fe1           0.7500004632        0.6466267825        0.2499995368
Fe2           0.5000000000        0.8272202383        0.2500007262
Fe1           0.5000000000        0.6466184410        0.5000000000
Fe2           0.7499992738        0.8272202383        0.5000000000
Fe1           0.7500004632        0.6466267825        0.7500004632
Fe2           0.5000000000        0.8272202383        0.7499992738

     Writing output data file /scratch/rFSwOCeUrTTDfOen.save/
     NEW-OLD atomic charge density approx. for the potential

     Check: negative core charge=   -0.000005

     negative rho (up, down):  0.000E+00 6.636E-04
     Generating pointlists ...

     Self-consistent Calculation

[...]

     total energy              =  -10535.05824507 Ry
     estimated scf accuracy    <          1.2E-09 Ry

[...]

     iteration # 17     ecut=    71.00 Ry     beta= 0.10
     Davidson diagonalization with overlap
     ethr =  2.44E-13,  avg # of iterations =  2.9

[...]

     Magnetic moment per site:
     atom:    1    charge:   14.3674    magn:    1.5601    constr:    0.0000
     atom:    2    charge:   14.2601    magn:   -2.3408    constr:    0.0000
     atom:    3    charge:   14.3670    magn:    1.5614    constr:    0.0000
     atom:    4    charge:   14.2601    magn:   -2.3408    constr:    0.0000
     atom:    5    charge:   14.3674    magn:    1.5600    constr:    0.0000
     atom:    6    charge:   14.2601    magn:   -2.3408    constr:    0.0000
     atom:    7    charge:   14.3670    magn:    1.5614    constr:    0.0000
     atom:    8    charge:   14.2601    magn:   -2.3408    constr:    0.0000
     atom:    9    charge:   14.2599    magn:    2.3418    constr:    0.0000
     atom:   10    charge:   14.3670    magn:   -1.5624    constr:    0.0000
     atom:   11    charge:   14.2593    magn:    2.3419    constr:    0.0000
     atom:   12    charge:   14.3670    magn:   -1.5624    constr:    0.0000
     atom:   13    charge:   14.2599    magn:    2.3418    constr:    0.0000
     atom:   14    charge:   14.3670    magn:   -1.5624    constr:    0.0000
     atom:   15    charge:   14.2593    magn:    2.3419    constr:    0.0000
     atom:   16    charge:   14.3670    magn:   -1.5624    constr:    0.0000
     atom:   17    charge:   14.3674    magn:    1.5600    constr:    0.0000
     atom:   18    charge:   14.2601    magn:   -2.3408    constr:    0.0000
     atom:   19    charge:   14.3670    magn:    1.5614    constr:    0.0000
     atom:   20    charge:   14.2601    magn:   -2.3408    constr:    0.0000
     atom:   21    charge:   14.3674    magn:    1.5600    constr:    0.0000
     atom:   22    charge:   14.2601    magn:   -2.3408    constr:    0.0000
     atom:   23    charge:   14.3670    magn:    1.5614    constr:    0.0000
     atom:   24    charge:   14.2601    magn:   -2.3408    constr:    0.0000
     atom:   25    charge:   14.2599    magn:    2.3418    constr:    0.0000
     atom:   26    charge:   14.3670    magn:   -1.5624    constr:    0.0000
     atom:   27    charge:   14.2593    magn:    2.3419    constr:    0.0000
     atom:   28    charge:   14.3670    magn:   -1.5624    constr:    0.0000
     atom:   29    charge:   14.2599    magn:    2.3419    constr:    0.0000
     atom:   30    charge:   14.3670    magn:   -1.5624    constr:    0.0000
     atom:   31    charge:   14.2593    magn:    2.3419    constr:    0.0000
     atom:   32    charge:   14.3670    magn:   -1.5624    constr:    0.0000

     End of self-consistent calculation

     Number of k-points >= 100: set verbosity='high' to print the bands.

     the Fermi energy is    12.9946 ev

!    total energy              =  -10535.05824535 Ry

     total all-electron energy =    -81456.547303 Ry
     estimated scf accuracy    <          9.4E-10 Ry
     smearing contrib. (-TS)   =       0.03496962 Ry
     internal energy E=F+TS    =  -10535.09321497 Ry

     The total energy is F=E-TS. E is the sum of the following terms:
     one-electron contribution =   -8977.87424703 Ry
     hartree contribution      =    4707.92630598 Ry
     xc contribution           =    -886.32929998 Ry
     ewald contribution        =   -2729.47248652 Ry
     one-center paw contrib.   =   -2649.34348742 Ry

     total magnetization       =    -0.01 Bohr mag/cell
     absolute magnetization    =    65.37 Bohr mag/cell

     convergence has been achieved in  17 iterations

     negative rho (up, down):  0.000E+00 6.967E-04

     Forces acting on atoms (cartesian axes, Ry/au):

     atom    1 type  1   force =     0.00000000    0.00004131    0.00000000
     atom    2 type  2   force =    -0.00000035   -0.00013046    0.00000000
     atom    3 type  1   force =     0.00000111    0.00000742    0.00000111
     atom    4 type  2   force =     0.00000000   -0.00013046   -0.00000035
     atom    5 type  1   force =     0.00000000    0.00003790    0.00000000
     atom    6 type  2   force =     0.00000042   -0.00012933    0.00000000
     atom    7 type  1   force =     0.00000111    0.00000742   -0.00000111
     atom    8 type  2   force =     0.00000000   -0.00013046    0.00000035
     atom    9 type  1   force =     0.00000000    0.00000564    0.00000000
     atom   10 type  2   force =    -0.00000171    0.00007499    0.00000000
     atom   11 type  1   force =     0.00000070    0.00005771    0.00000070
     atom   12 type  2   force =     0.00000000    0.00007499   -0.00000171
     atom   13 type  1   force =     0.00000000    0.00000810    0.00000000
     atom   14 type  2   force =    -0.00000137    0.00007369    0.00000000
     atom   15 type  1   force =     0.00000070    0.00005771   -0.00000070
     atom   16 type  2   force =     0.00000000    0.00007499    0.00000171
     atom   17 type  1   force =     0.00000000    0.00003790    0.00000000
     atom   18 type  2   force =     0.00000035   -0.00013046    0.00000000
     atom   19 type  1   force =    -0.00000111    0.00000742    0.00000111
     atom   20 type  2   force =     0.00000000   -0.00012933    0.00000042
     atom   21 type  1   force =     0.00000000    0.00003435    0.00000000
     atom   22 type  2   force =    -0.00000042   -0.00012933    0.00000000
     atom   23 type  1   force =    -0.00000111    0.00000742   -0.00000111
     atom   24 type  2   force =     0.00000000   -0.00012933   -0.00000042
     atom   25 type  1   force =     0.00000000    0.00000810    0.00000000
     atom   26 type  2   force =     0.00000171    0.00007499    0.00000000
     atom   27 type  1   force =    -0.00000070    0.00005771    0.00000070
     atom   28 type  2   force =     0.00000000    0.00007369   -0.00000137
     atom   29 type  1   force =     0.00000000    0.00001062    0.00000000
     atom   30 type  2   force =     0.00000137    0.00007369    0.00000000
     atom   31 type  1   force =    -0.00000070    0.00005771   -0.00000070
     atom   32 type  2   force =     0.00000000    0.00007369    0.00000137

     Total force =     0.000446     Total SCF correction =     0.000159
     SCF correction compared to forces is large: reduce conv_thr to get better values

     Computing stress (Cartesian axis) and pressure

     negative rho (up, down):  0.000E+00 6.967E-04
          total   stress  (Ry/bohr**3)                   (kbar)     P=      -51.17
  -0.00029187   0.00000000   0.00000000          -42.94        0.00        0.00
   0.00000000  -0.00045981   0.00000000            0.00      -67.64        0.00
   0.00000000   0.00000000  -0.00029187            0.00        0.00      -42.94

     Energy error            =      2.8E-05
     Gradient error          =      1.3E-04

     bfgs converged in  11 scf cycles and  10 bfgs steps
     (criteria: energy <  1.0E-04 Ry, force <  1.0E-03 Ry/Bohr)

     End of BFGS Geometry Optimization

     Final energy   =  -10535.0582453512 Ry

     File /scratch/rFSwOCeUrTTDfOen.bfgs deleted, as requested
Begin final coordinates

ATOMIC_POSITIONS (crystal)
Fe1           0.0000000000        0.0061785854        0.0000000000
Fe2           0.2499998179        0.1866651968        0.0000000000
Fe1           0.2499995723        0.0061360045        0.2499995723
Fe2          -0.0000000000        0.1866651968        0.2499998179
Fe1           0.0000000000        0.0061800049        0.5000000000
Fe2           0.2499995496        0.1866650888        0.5000000000
Fe1           0.2499995723        0.0061360045        0.7500004277
Fe2           0.0000000000        0.1866651968        0.7500001821
Fe1           0.0000000000        0.6466217965        0.0000000000
Fe2           0.2500008124        0.8272198728        0.0000000000
Fe1           0.2499995368        0.6466267825        0.2499995368
Fe2           0.0000000000        0.8272198728        0.2500008124
Fe1           0.0000000000        0.6466201094        0.5000000000
Fe2           0.2500007262        0.8272202383        0.5000000000
Fe1           0.2499995368        0.6466267825        0.7500004632
Fe2          -0.0000000000        0.8272198728        0.7499991876
Fe1           0.5000000000        0.0061800049        0.0000000000
Fe2           0.7500001821        0.1866651968        0.0000000000
Fe1           0.7500004277        0.0061360045        0.2499995723
Fe2           0.5000000000        0.1866650888        0.2499995496
Fe1           0.5000000000        0.0061815468        0.5000000000
Fe2           0.7500004504        0.1866650888        0.5000000000
Fe1           0.7500004277        0.0061360045        0.7500004277
Fe2           0.5000000000        0.1866650888        0.7500004504
Fe1           0.5000000000        0.6466201094        0.0000000000
Fe2           0.7499991876        0.8272198728        0.0000000000
Fe1           0.7500004632        0.6466267825        0.2499995368
Fe2           0.5000000000        0.8272202383        0.2500007262
Fe1           0.5000000000        0.6466184410        0.5000000000
Fe2           0.7499992738        0.8272202383        0.5000000000
Fe1           0.7500004632        0.6466267825        0.7500004632
Fe2           0.5000000000        0.8272202383        0.7499992738
End final coordinates

     Writing output data file /scratch/rFSwOCeUrTTDfOen.save/

     General routines

     Parallel routines

   This run was terminated on:  19:15:35  16Jan2022

   JOB DONE.