     Program PWSCF v.6.7MaX starts on 23Nov2021 at 15:52:18

     R & G space division:  proc/nbgrp/npool/nimage =      72
     Reading input from /rds/homes/b/bxp912/jobs/20211014_ru_eos/wd/ec/ec_1_008.in
Warning: card &CELL ignored
Warning: card CELL_DYNAMICS = 'BFGS', ignored
Warning: card CELL_FACTOR = 2.0, ignored
Warning: card PRESS = 0.0, ignored
Warning: card / ignored

     Current dimensions of program PWSCF are:
     Max number of different atomic species (ntypx) = 10
     Max number of k-points (npk) =  40000
     Max angular momentum in pseudopotentials (lmaxx) =  3
     file Ru.pbe-spn-kjpaw_psl.1.0.0.UPF: wavefunction(s)  4D renormalized

     Subspace diagonalization in iterative solution of the eigenvalue problem:
     one sub-group per band group will be used

     Found symmetry operation: I + (  0.2500  0.2500  0.0000)
     This is a supercell, fractional translations are disabled
     Message from routine setup:
     using ibrav=0 with symmetry is DISCOURAGED, use correct ibrav instead

     bravais-lattice index     =            0
     lattice parameter (alat)  =      14.4007  a.u.
     unit-cell volume          =    2999.5111 (a.u.)^3
     number of atoms/cell      =           32
     number of atomic types    =            1
     number of electrons       =       512.00
     number of Kohn-Sham states=          307
     kinetic-energy cutoff     =      71.0000  Ry
     charge density cutoff     =     430.0000  Ry
     scf convergence threshold =      1.0E-06
     mixing beta               =       0.1000
     number of iterations used =           10  plain     mixing
     Exchange-correlation= SLA  PW   PBX  PBC
                           (   1   4   3   4   0   0   0)

     celldm(1)=  14.400742  celldm(2)=   0.000000  celldm(3)=   0.000000
     celldm(4)=   0.000000  celldm(5)=   0.000000  celldm(6)=   0.000000

     crystal axes: (cart. coord. in units of alat)
               a(1) = (   1.004375   0.000000   0.000000 )
               a(2) = (   0.000000   1.000000   0.000000 )
               a(3) = (   0.000000   0.000000   1.000000 )

     reciprocal axes: (cart. coord. in units 2 pi/alat)
               b(1) = (  0.995644  0.000000  0.000000 )
               b(2) = (  0.000000  1.000000  0.000000 )
               b(3) = (  0.000000  0.000000  1.000000 )

     PseudoPot. # 1 for Ru read from file:
     /rds/homes/b/bxp912/pp/Ru.pbe-spn-kjpaw_psl.1.0.0.UPF
     MD5 check sum: 0ae1f594dea09af7be8575c3a481d1ae
     Pseudo is Projector augmented-wave + core cor, Zval = 16.0
     Generated using "atomic" code by A. Dal Corso  v.5.1
     Shape of augmentation charge: PSQ
     Using radial grid of 1233 points,  6 beta functions with:
                l(1) =   0
                l(2) =   0
                l(3) =   1
                l(4) =   1
                l(5) =   2
                l(6) =   2
     Q(r) pseudized with 0 coefficients

     atomic species   valence    mass     pseudopotential
        Ru            16.00   101.07000     Ru( 1.00)

     16 Sym. Ops., with inversion, found

   Cartesian axes

     site n.     atom                  positions (alat units)
         1           Ru  tau(   1) = (   0.0000000   0.0000000   0.0000000  )
         2           Ru  tau(   2) = (   0.2510938   0.2500000   0.0000000  )
         3           Ru  tau(   3) = (   0.2510938   0.0000000   0.2499995  )
         4           Ru  tau(   4) = (   0.0000000   0.2500000   0.2499995  )
         5           Ru  tau(   5) = (   0.0000000   0.0000000   0.5000000  )
         6           Ru  tau(   6) = (   0.2510927   0.2499990   0.5000000  )
         7           Ru  tau(   7) = (   0.2510938   0.0000000   0.7499995  )
         8           Ru  tau(   8) = (   0.0000000   0.2500000   0.7499995  )
         9           Ru  tau(   9) = (   0.0000000   0.5000002   0.0000000  )
        10           Ru  tau(  10) = (   0.2510938   0.7500004   0.0000000  )
        11           Ru  tau(  11) = (   0.2510927   0.5000002   0.2499984  )
        12           Ru  tau(  12) = (   0.0000000   0.7500004   0.2499995  )
        13           Ru  tau(  13) = (   0.0000000   0.5000002   0.5000000  )
        14           Ru  tau(  14) = (   0.2510927   0.7500015   0.5000000  )
        15           Ru  tau(  15) = (   0.2510927   0.5000002   0.7500005  )
        16           Ru  tau(  16) = (   0.0000000   0.7500004   0.7499995  )
        17           Ru  tau(  17) = (   0.5021877   0.0000000   0.0000000  )
        18           Ru  tau(  18) = (   0.7532817   0.2500000   0.0000000  )
        19           Ru  tau(  19) = (   0.7532817   0.0000000   0.2499995  )
        20           Ru  tau(  20) = (   0.5021877   0.2499990   0.2499984  )
        21           Ru  tau(  21) = (   0.5021877   0.0000000   0.5000000  )
        22           Ru  tau(  22) = (   0.7532827   0.2499990   0.5000000  )
        23           Ru  tau(  23) = (   0.7532817   0.0000000   0.7499995  )
        24           Ru  tau(  24) = (   0.5021877   0.2499990   0.7500005  )
        25           Ru  tau(  25) = (   0.5021877   0.5000002   0.0000000  )
        26           Ru  tau(  26) = (   0.7532817   0.7500004   0.0000000  )
        27           Ru  tau(  27) = (   0.7532827   0.5000002   0.2499984  )
        28           Ru  tau(  28) = (   0.5021877   0.7500015   0.2499984  )
        29           Ru  tau(  29) = (   0.5021877   0.5000002   0.5000000  )
        30           Ru  tau(  30) = (   0.7532827   0.7500015   0.5000000  )
        31           Ru  tau(  31) = (   0.7532827   0.5000002   0.7500005  )
        32           Ru  tau(  32) = (   0.5021877   0.7500015   0.7500005  )

     number of k points=    75  Marzari-Vanderbilt smearing, width (Ry)=  0.0400
                       cart. coord. in units 2pi/alat
        k(    1) = (   0.0553136   0.0555556   0.0555556), wk =   0.0219479
        k(    2) = (   0.0553136   0.0555556   0.1666667), wk =   0.0438957
        k(    3) = (   0.0553136   0.0555556   0.2777778), wk =   0.0438957
        k(    4) = (   0.0553136   0.0555556   0.3888889), wk =   0.0438957
        k(    5) = (   0.0553136   0.0555556  -0.5000000), wk =   0.0219479
        k(    6) = (   0.0553136   0.1666667   0.1666667), wk =   0.0219479
        k(    7) = (   0.0553136   0.1666667   0.2777778), wk =   0.0438957
        k(    8) = (   0.0553136   0.1666667   0.3888889), wk =   0.0438957
        k(    9) = (   0.0553136   0.1666667  -0.5000000), wk =   0.0219479
        k(   10) = (   0.0553136   0.2777778   0.2777778), wk =   0.0219479
        k(   11) = (   0.0553136   0.2777778   0.3888889), wk =   0.0438957
        k(   12) = (   0.0553136   0.2777778  -0.5000000), wk =   0.0219479
        k(   13) = (   0.0553136   0.3888889   0.3888889), wk =   0.0219479
        k(   14) = (   0.0553136   0.3888889  -0.5000000), wk =   0.0219479
        k(   15) = (   0.0553136  -0.5000000  -0.5000000), wk =   0.0054870
        k(   16) = (   0.1659407   0.0555556   0.0555556), wk =   0.0219479
        k(   17) = (   0.1659407   0.0555556   0.1666667), wk =   0.0438957
        k(   18) = (   0.1659407   0.0555556   0.2777778), wk =   0.0438957
        k(   19) = (   0.1659407   0.0555556   0.3888889), wk =   0.0438957
        k(   20) = (   0.1659407   0.0555556  -0.5000000), wk =   0.0219479
        k(   21) = (   0.1659407   0.1666667   0.1666667), wk =   0.0219479
        k(   22) = (   0.1659407   0.1666667   0.2777778), wk =   0.0438957
        k(   23) = (   0.1659407   0.1666667   0.3888889), wk =   0.0438957
        k(   24) = (   0.1659407   0.1666667  -0.5000000), wk =   0.0219479
        k(   25) = (   0.1659407   0.2777778   0.2777778), wk =   0.0219479
        k(   26) = (   0.1659407   0.2777778   0.3888889), wk =   0.0438957
        k(   27) = (   0.1659407   0.2777778  -0.5000000), wk =   0.0219479
        k(   28) = (   0.1659407   0.3888889   0.3888889), wk =   0.0219479
        k(   29) = (   0.1659407   0.3888889  -0.5000000), wk =   0.0219479
        k(   30) = (   0.1659407  -0.5000000  -0.5000000), wk =   0.0054870
        k(   31) = (   0.2765678   0.0555556   0.0555556), wk =   0.0219479
        k(   32) = (   0.2765678   0.0555556   0.1666667), wk =   0.0438957
        k(   33) = (   0.2765678   0.0555556   0.2777778), wk =   0.0438957
        k(   34) = (   0.2765678   0.0555556   0.3888889), wk =   0.0438957
        k(   35) = (   0.2765678   0.0555556  -0.5000000), wk =   0.0219479
        k(   36) = (   0.2765678   0.1666667   0.1666667), wk =   0.0219479
        k(   37) = (   0.2765678   0.1666667   0.2777778), wk =   0.0438957
        k(   38) = (   0.2765678   0.1666667   0.3888889), wk =   0.0438957
        k(   39) = (   0.2765678   0.1666667  -0.5000000), wk =   0.0219479
        k(   40) = (   0.2765678   0.2777778   0.2777778), wk =   0.0219479
        k(   41) = (   0.2765678   0.2777778   0.3888889), wk =   0.0438957
        k(   42) = (   0.2765678   0.2777778  -0.5000000), wk =   0.0219479
        k(   43) = (   0.2765678   0.3888889   0.3888889), wk =   0.0219479
        k(   44) = (   0.2765678   0.3888889  -0.5000000), wk =   0.0219479
        k(   45) = (   0.2765678  -0.5000000  -0.5000000), wk =   0.0054870
        k(   46) = (   0.3871949   0.0555556   0.0555556), wk =   0.0219479
        k(   47) = (   0.3871949   0.0555556   0.1666667), wk =   0.0438957
        k(   48) = (   0.3871949   0.0555556   0.2777778), wk =   0.0438957
        k(   49) = (   0.3871949   0.0555556   0.3888889), wk =   0.0438957
        k(   50) = (   0.3871949   0.0555556  -0.5000000), wk =   0.0219479
        k(   51) = (   0.3871949   0.1666667   0.1666667), wk =   0.0219479
        k(   52) = (   0.3871949   0.1666667   0.2777778), wk =   0.0438957
        k(   53) = (   0.3871949   0.1666667   0.3888889), wk =   0.0438957
        k(   54) = (   0.3871949   0.1666667  -0.5000000), wk =   0.0219479
        k(   55) = (   0.3871949   0.2777778   0.2777778), wk =   0.0219479
        k(   56) = (   0.3871949   0.2777778   0.3888889), wk =   0.0438957
        k(   57) = (   0.3871949   0.2777778  -0.5000000), wk =   0.0219479
        k(   58) = (   0.3871949   0.3888889   0.3888889), wk =   0.0219479
        k(   59) = (   0.3871949   0.3888889  -0.5000000), wk =   0.0219479
        k(   60) = (   0.3871949  -0.5000000  -0.5000000), wk =   0.0054870
        k(   61) = (  -0.4978220   0.0555556   0.0555556), wk =   0.0109739
        k(   62) = (  -0.4978220   0.0555556   0.1666667), wk =   0.0219479
        k(   63) = (  -0.4978220   0.0555556   0.2777778), wk =   0.0219479
        k(   64) = (  -0.4978220   0.0555556   0.3888889), wk =   0.0219479
        k(   65) = (  -0.4978220   0.0555556  -0.5000000), wk =   0.0109739
        k(   66) = (  -0.4978220   0.1666667   0.1666667), wk =   0.0109739
        k(   67) = (  -0.4978220   0.1666667   0.2777778), wk =   0.0219479
        k(   68) = (  -0.4978220   0.1666667   0.3888889), wk =   0.0219479
        k(   69) = (  -0.4978220   0.1666667  -0.5000000), wk =   0.0109739
        k(   70) = (  -0.4978220   0.2777778   0.2777778), wk =   0.0109739
        k(   71) = (  -0.4978220   0.2777778   0.3888889), wk =   0.0219479
        k(   72) = (  -0.4978220   0.2777778  -0.5000000), wk =   0.0109739
        k(   73) = (  -0.4978220   0.3888889   0.3888889), wk =   0.0109739
        k(   74) = (  -0.4978220   0.3888889  -0.5000000), wk =   0.0109739
        k(   75) = (  -0.4978220  -0.5000000  -0.5000000), wk =   0.0027435

     Check: negative core charge=   -0.000002

     Initial potential from superposition of free atoms

     starting charge  511.97959, renormalised to  512.00000
     Starting wfcs are  320 randomized atomic wfcs
     Checking if some PAW data can be deallocated...

     Self-consistent Calculation

     iteration #  1     ecut=    71.00 Ry     beta= 0.10
     Davidson diagonalization with overlap
     ethr =  1.00E-02,  avg # of iterations =  3.3

     Threshold (ethr) on eigenvalues was too large:
     Diagonalizing with lowered threshold

     Davidson diagonalization with overlap
     ethr =  8.27E-05,  avg # of iterations =  5.5

     total energy              =  -13813.41152090 Ry
     estimated scf accuracy    <       0.63696901 Ry

[...]

     total energy              =  -13813.30020744 Ry
     estimated scf accuracy    <       0.00000175 Ry

     iteration # 11     ecut=    71.00 Ry     beta= 0.10
     Davidson diagonalization with overlap
     ethr =  3.42E-10,  avg # of iterations =  4.4

     End of self-consistent calculation

          k = 0.0553 0.0556 0.0556 ( 30368 PWs)   bands (ev):

   -50.0232 -49.9261 -49.9248 -49.9247 -49.9074 -49.9058 -49.9058 -49.8710
   -49.8710 -49.8709 -49.8618 -49.8608 -49.8608 -49.8607 -49.8606 -49.8606
   -49.8605 -49.8601 -49.8601 -49.8600 -49.8520 -49.8519 -49.8519 -49.8092
   -49.8075 -49.8075 -49.8072 -49.8072 -49.8064 -49.8063 -49.8059 -49.8059
   -20.4210 -20.4210 -20.4209 -20.4169 -20.3597 -20.3597 -20.3584 -20.1659
   -20.1595 -20.1595 -20.1549 -20.1549 -20.1485 -20.1485 -20.1481 -20.1480
   -20.1352 -20.1281 -20.1281 -20.1115 -20.1115 -20.1068 -20.1068 -20.1063
   -20.1063 -20.0622 -20.0622 -20.0569 -20.0568 -20.0560 -20.0560 -19.9607
   -19.9607 -19.9596 -19.8888 -19.8888 -19.8873 -19.8809 -19.8809 -19.8798
   -19.8483 -19.8483 -19.8473 -19.8473 -19.8463 -19.8463 -19.8082 -19.8082
   -19.8067 -19.8026 -19.8026 -19.8016 -19.8015 -19.8005 -19.8005 -19.7987
   -19.7986 -19.7907 -19.7906 -19.7904 -19.7858 -19.6339 -19.6339 -19.6293
   -19.6293 -19.6278 -19.6270 -19.6017 -19.6017 -19.5980 -19.5980 -19.5963
   -19.5963 -19.5858 -19.5858 -19.5805 -19.5751 -19.5732 -19.5732 -19.5725
   -19.5725 -19.5725 -19.5724 -19.5694 -19.5678 -19.5678 -19.5675 -19.5675
   -19.5656 -19.5629 -19.5542 -19.5542 -19.5495 -19.4412 -19.4346 -19.4342
    15.2454  16.8142  16.8143  16.8180  17.0893  17.1070  17.1070  17.1070
    17.2804  17.2804  17.2849  17.4842  17.4998  17.5000  17.6582  17.6733
    17.6734  18.2008  18.2008  18.2239  18.2240  18.2249  18.2250  18.5212
    18.5363  18.5363  18.7874  18.7875  18.7884  18.7897  18.8094  18.8094
    18.8950  18.8970  18.8970  18.8976  18.8977  18.8978  18.8978  18.8988
    18.8988  19.3787  19.3788  19.3905  19.3905  19.4002  19.4003  19.5186
    19.5410  19.5410  19.5497  19.5497  19.5726  19.5726  19.5743  19.5743
    19.6156  19.6366  19.6366  19.8789  19.8789  19.8866  19.8867  19.8888
    19.8888  19.8889  19.8890  19.8929  19.8929  19.8955  19.8983  19.8984
    19.9038  19.9039  20.0603  20.0603  20.0646  20.3188  20.3449  20.3449
    20.3544  20.3964  20.3965  20.4080  20.4228  20.4555  20.5063  20.5228
    21.4470  21.4874  21.4874  21.6127  21.6566  21.6567  21.6880  21.6880
    21.7022  21.7873  21.7873  21.7889  21.7889  21.8004  21.8004  21.8024
    21.8025  21.8133  22.0920  22.0920  22.1158  22.2147  22.2147  22.2291
    22.4592  22.4592  22.4813  22.5373  22.5374  22.5474  22.5474  22.5486
    22.5486  22.5559  22.5559  22.5758  22.5971  22.5971  22.6110  22.7844
    22.7844  22.7852  22.7852  22.8028  22.8029  22.8172  22.8796  22.9569
    22.9569  22.9749  23.6090  23.6090  23.6376  23.6652  23.6653  23.6710
    23.7693  23.7694  23.7941  23.8678  24.5899  24.5899  24.5933  24.6198
    24.6469  24.6543  24.6746  24.6746  24.9411  24.9523  24.9523  24.9719
    24.9719  24.9857  25.1221  25.1221  25.1238  25.1238  25.1375  25.1432
    25.1432  25.1584  25.1584  26.5650  26.5651  26.5957  26.6920  26.7752
    26.7752  27.0942  27.0943

[...]

          k = 0.3872-0.5000-0.5000 ( 30288 PWs)   bands (ev):

[...]

          k =-0.4978 0.0556 0.0556 ( 30276 PWs)   bands (ev):

[...]

          k =-0.4978-0.5000-0.5000 ( 30376 PWs)   bands (ev):

   -49.9433 -49.9432 -49.9431 -49.9430 -49.9430 -49.9430 -49.9428 -49.9427
   -49.8351 -49.8350 -49.8348 -49.8348 -49.8348 -49.8348 -49.8346 -49.8345
   -49.8337 -49.8336 -49.8336 -49.8335 -49.8334 -49.8334 -49.8333 -49.8333
   -49.8333 -49.8333 -49.8333 -49.8332 -49.8331 -49.8330 -49.8330 -49.8330
   -20.2560 -20.2560 -20.2560 -20.2559 -20.2559 -20.2559 -20.2559 -20.2559
   -20.2558 -20.2558 -20.2557 -20.2557 -20.2557 -20.2557 -20.2557 -20.2557
   -20.2528 -20.2527 -20.2527 -20.2526 -20.2526 -20.2525 -20.2525 -20.2524
   -19.9393 -19.9393 -19.9392 -19.9392 -19.9392 -19.9392 -19.9392 -19.9391
   -19.8297 -19.8297 -19.8297 -19.8297 -19.8297 -19.8296 -19.8296 -19.8296
   -19.8284 -19.8284 -19.8284 -19.8284 -19.8284 -19.8284 -19.8283 -19.8283
   -19.8283 -19.8283 -19.8283 -19.8283 -19.8283 -19.8283 -19.8282 -19.8282
   -19.6831 -19.6831 -19.6831 -19.6831 -19.6830 -19.6830 -19.6830 -19.6830
   -19.6829 -19.6829 -19.6829 -19.6829 -19.6828 -19.6828 -19.6828 -19.6828
   -19.6769 -19.6768 -19.6768 -19.6768 -19.6767 -19.6766 -19.6766 -19.6766
   -19.5025 -19.5025 -19.5024 -19.5024 -19.5023 -19.5023 -19.5023 -19.5022
   -19.4989 -19.4989 -19.4989 -19.4989 -19.4987 -19.4987 -19.4987 -19.4987
    17.0416  17.0417  17.0417  17.0418  17.0419  17.0420  17.0421  17.0423
    17.9044  17.9044  17.9045  17.9045  17.9045  17.9045  17.9045  17.9045
    17.9046  17.9046  17.9046  17.9047  17.9047  17.9047  17.9047  17.9047
    17.9052  17.9052  17.9052  17.9052  17.9054  17.9054  17.9054  17.9054
    18.9259  18.9259  18.9260  18.9260  18.9260  18.9260  18.9260  18.9261
    18.9261  18.9261  18.9262  18.9262  18.9262  18.9262  18.9263  18.9263
    18.9334  18.9334  18.9334  18.9335  18.9336  18.9336  18.9337  18.9337
    20.2416  20.2416  20.2416  20.2416  20.2416  20.2416  20.2417  20.2417
    20.8558  20.8558  20.8558  20.8558  20.8559  20.8559  20.8559  20.8559
    20.9058  20.9059  20.9059  20.9059  20.9059  20.9059  20.9059  20.9060
    20.9663  20.9663  20.9664  20.9664  20.9664  20.9665  20.9665  20.9666
    20.9967  20.9967  20.9967  20.9968  20.9968  20.9968  20.9968  20.9968
    20.9969  20.9969  20.9969  20.9969  20.9969  20.9970  20.9971  20.9971
    22.1881  22.1882  22.1882  22.1882  22.1882  22.1882  22.1883  22.1883
    22.1883  22.1883  22.1883  22.1883  22.1884  22.1884  22.1884  22.1884
    22.2140  22.2140  22.2141  22.2141  22.2141  22.2142  22.2142  22.2142
    23.0143  23.0144  23.0144  23.0145  23.0145  23.0145  23.0146  23.0147
    23.0313  23.0314  23.0314  23.0314  23.0315  23.0315  23.0315  23.0316
    24.8003  24.8003  24.8003  24.8004  24.8004  24.8004  24.8004  24.8005
    24.8105  24.8105  24.8105  24.8105  24.8105  24.8105  24.8105  24.8105
    24.8106  24.8106  24.8106  24.8106  24.8106  24.8106  24.8107  24.8107
    28.1532  28.1533  28.1533  28.1534  28.1534  28.1534  28.1535  28.1536
    28.1844  28.1844  28.1845

     the Fermi energy is    22.9907 ev

!    total energy              =  -13813.30020997 Ry

     total all-electron energy =   -289989.690549 Ry
     estimated scf accuracy    <       0.00000064 Ry
     smearing contrib. (-TS)   =       0.02013167 Ry
     internal energy E=F+TS    =  -13813.32034163 Ry

     The total energy is F=E-TS. E is the sum of the following terms:
     one-electron contribution =   -1006.62459624 Ry
     hartree contribution      =     919.33663032 Ry
     xc contribution           =    -927.89737264 Ry
     ewald contribution        =   -5208.69900445 Ry
     one-center paw contrib.   =   -7589.43599862 Ry

     convergence has been achieved in  11 iterations

     Forces acting on atoms (cartesian axes, Ry/au):

     atom    1 type  1   force =     0.00000000    0.00000000    0.00000000
     atom    2 type  1   force =    -0.00039856   -0.00012612    0.00000000
     atom    3 type  1   force =    -0.00039856    0.00000000   -0.00012612
     atom    4 type  1   force =     0.00000000   -0.00003831   -0.00003831
     atom    5 type  1   force =     0.00000000    0.00000000    0.00000000
     atom    6 type  1   force =    -0.00010609    0.00034278    0.00000000
     atom    7 type  1   force =    -0.00039856    0.00000000    0.00012612
     atom    8 type  1   force =     0.00000000   -0.00003831    0.00003831
     atom    9 type  1   force =     0.00000000    0.00000000    0.00000000
     atom   10 type  1   force =    -0.00039856    0.00012612   -0.00000000
     atom   11 type  1   force =    -0.00010609    0.00000000    0.00034278
     atom   12 type  1   force =     0.00000000    0.00003831   -0.00003831
     atom   13 type  1   force =     0.00000000    0.00000000    0.00000000
     atom   14 type  1   force =    -0.00010609   -0.00034278   -0.00000000
     atom   15 type  1   force =    -0.00010609    0.00000000   -0.00034278
     atom   16 type  1   force =     0.00000000    0.00003831    0.00003831
     atom   17 type  1   force =     0.00000000    0.00000000    0.00000000
     atom   18 type  1   force =     0.00039856   -0.00012612   -0.00000000
     atom   19 type  1   force =     0.00039856    0.00000000   -0.00012612
     atom   20 type  1   force =     0.00000000    0.00026348    0.00026348
     atom   21 type  1   force =     0.00000000    0.00000000    0.00000000
     atom   22 type  1   force =     0.00010609    0.00034278   -0.00000000
     atom   23 type  1   force =     0.00039856    0.00000000    0.00012612
     atom   24 type  1   force =     0.00000000    0.00026348   -0.00026348
     atom   25 type  1   force =     0.00000000    0.00000000    0.00000000
     atom   26 type  1   force =     0.00039856    0.00012612    0.00000000
     atom   27 type  1   force =     0.00010609   -0.00000000    0.00034278
     atom   28 type  1   force =     0.00000000   -0.00026348    0.00026348
     atom   29 type  1   force =     0.00000000    0.00000000    0.00000000
     atom   30 type  1   force =     0.00010609   -0.00034278    0.00000000
     atom   31 type  1   force =     0.00010609    0.00000000   -0.00034278
     atom   32 type  1   force =     0.00000000   -0.00026348   -0.00026348

     Total force =     0.001731     Total SCF correction =     0.007046
     SCF correction compared to forces is large: reduce conv_thr to get better values

     Computing stress (Cartesian axis) and pressure

          total   stress  (Ry/bohr**3)                   (kbar)     P=      -17.57
  -0.00016922   0.00000000   0.00000000          -24.89        0.00        0.00
   0.00000000  -0.00009451   0.00000000            0.00      -13.90        0.00
   0.00000000   0.00000000  -0.00009451            0.00        0.00      -13.90

     Writing output data file /scratch/bapGcFFEycKcCaQM.save/

     General routines

     Parallel routines

   This run was terminated on:  16:10:55  23Nov2021

   JOB DONE.