     Program PWSCF v.6.7MaX starts on 23Nov2021 at 14:51:45

     R & G space division:  proc/nbgrp/npool/nimage =      72
     Reading input from /rds/homes/b/bxp912/jobs/20211014_ru_eos/wd/ec/ec_1_005.in
Warning: card &CELL ignored
Warning: card CELL_DYNAMICS = 'BFGS', ignored
Warning: card CELL_FACTOR = 2.0, ignored
Warning: card PRESS = 0.0, ignored
Warning: card / ignored

     Current dimensions of program PWSCF are:
     Max number of different atomic species (ntypx) = 10
     Max number of k-points (npk) =  40000
     Max angular momentum in pseudopotentials (lmaxx) =  3
     file Ru.pbe-spn-kjpaw_psl.1.0.0.UPF: wavefunction(s)  4D renormalized

     Subspace diagonalization in iterative solution of the eigenvalue problem:
     one sub-group per band group will be used

     Found symmetry operation: I + (  0.2500  0.2500  0.0000)
     This is a supercell, fractional translations are disabled
     Message from routine setup:
     using ibrav=0 with symmetry is DISCOURAGED, use correct ibrav instead

     bravais-lattice index     =            0
     lattice parameter (alat)  =      14.4007  a.u.
     unit-cell volume          =    2993.9115 (a.u.)^3
     number of atoms/cell      =           32
     number of atomic types    =            1
     number of electrons       =       512.00
     number of Kohn-Sham states=          307
     kinetic-energy cutoff     =      71.0000  Ry
     charge density cutoff     =     430.0000  Ry
     scf convergence threshold =      1.0E-06
     mixing beta               =       0.1000
     number of iterations used =           10  plain     mixing
     Exchange-correlation= SLA  PW   PBX  PBC
                           (   1   4   3   4   0   0   0)

     celldm(1)=  14.400742  celldm(2)=   0.000000  celldm(3)=   0.000000
     celldm(4)=   0.000000  celldm(5)=   0.000000  celldm(6)=   0.000000

     crystal axes: (cart. coord. in units of alat)
               a(1) = (   1.002500   0.000000   0.000000 )
               a(2) = (   0.000000   1.000000   0.000000 )
               a(3) = (   0.000000   0.000000   1.000000 )

     reciprocal axes: (cart. coord. in units 2 pi/alat)
               b(1) = (  0.997506  0.000000  0.000000 )
               b(2) = (  0.000000  1.000000  0.000000 )
               b(3) = (  0.000000  0.000000  1.000000 )

     PseudoPot. # 1 for Ru read from file:
     /rds/homes/b/bxp912/pp/Ru.pbe-spn-kjpaw_psl.1.0.0.UPF
     MD5 check sum: 0ae1f594dea09af7be8575c3a481d1ae
     Pseudo is Projector augmented-wave + core cor, Zval = 16.0
     Generated using "atomic" code by A. Dal Corso  v.5.1
     Shape of augmentation charge: PSQ
     Using radial grid of 1233 points,  6 beta functions with:
                l(1) =   0
                l(2) =   0
                l(3) =   1
                l(4) =   1
                l(5) =   2
                l(6) =   2
     Q(r) pseudized with 0 coefficients

     atomic species   valence    mass     pseudopotential
        Ru            16.00   101.07000     Ru( 1.00)

     16 Sym. Ops., with inversion, found

   Cartesian axes

     site n.     atom                  positions (alat units)
         1           Ru  tau(   1) = (   0.0000000   0.0000000   0.0000000  )
         2           Ru  tau(   2) = (   0.2506250   0.2500000   0.0000000  )
         3           Ru  tau(   3) = (   0.2506250   0.0000000   0.2499995  )
         4           Ru  tau(   4) = (   0.0000000   0.2500000   0.2499995  )
         5           Ru  tau(   5) = (   0.0000000   0.0000000   0.5000000  )
         6           Ru  tau(   6) = (   0.2506239   0.2499990   0.5000000  )
         7           Ru  tau(   7) = (   0.2506250   0.0000000   0.7499995  )
         8           Ru  tau(   8) = (   0.0000000   0.2500000   0.7499995  )
         9           Ru  tau(   9) = (   0.0000000   0.5000002   0.0000000  )
        10           Ru  tau(  10) = (   0.2506250   0.7500004   0.0000000  )
        11           Ru  tau(  11) = (   0.2506239   0.5000002   0.2499984  )
        12           Ru  tau(  12) = (   0.0000000   0.7500004   0.2499995  )
        13           Ru  tau(  13) = (   0.0000000   0.5000002   0.5000000  )
        14           Ru  tau(  14) = (   0.2506239   0.7500015   0.5000000  )
        15           Ru  tau(  15) = (   0.2506239   0.5000002   0.7500005  )
        16           Ru  tau(  16) = (   0.0000000   0.7500004   0.7499995  )
        17           Ru  tau(  17) = (   0.5012502   0.0000000   0.0000000  )
        18           Ru  tau(  18) = (   0.7518754   0.2500000   0.0000000  )
        19           Ru  tau(  19) = (   0.7518754   0.0000000   0.2499995  )
        20           Ru  tau(  20) = (   0.5012502   0.2499990   0.2499984  )
        21           Ru  tau(  21) = (   0.5012502   0.0000000   0.5000000  )
        22           Ru  tau(  22) = (   0.7518765   0.2499990   0.5000000  )
        23           Ru  tau(  23) = (   0.7518754   0.0000000   0.7499995  )
        24           Ru  tau(  24) = (   0.5012502   0.2499990   0.7500005  )
        25           Ru  tau(  25) = (   0.5012502   0.5000002   0.0000000  )
        26           Ru  tau(  26) = (   0.7518754   0.7500004   0.0000000  )
        27           Ru  tau(  27) = (   0.7518765   0.5000002   0.2499984  )
        28           Ru  tau(  28) = (   0.5012502   0.7500015   0.2499984  )
        29           Ru  tau(  29) = (   0.5012502   0.5000002   0.5000000  )
        30           Ru  tau(  30) = (   0.7518765   0.7500015   0.5000000  )
        31           Ru  tau(  31) = (   0.7518765   0.5000002   0.7500005  )
        32           Ru  tau(  32) = (   0.5012502   0.7500015   0.7500005  )

     number of k points=    75  Marzari-Vanderbilt smearing, width (Ry)=  0.0400
                       cart. coord. in units 2pi/alat
        k(    1) = (   0.0554170   0.0555556   0.0555556), wk =   0.0219479
        k(    2) = (   0.0554170   0.0555556   0.1666667), wk =   0.0438957
        k(    3) = (   0.0554170   0.0555556   0.2777778), wk =   0.0438957
        k(    4) = (   0.0554170   0.0555556   0.3888889), wk =   0.0438957
        k(    5) = (   0.0554170   0.0555556  -0.5000000), wk =   0.0219479
        k(    6) = (   0.0554170   0.1666667   0.1666667), wk =   0.0219479
        k(    7) = (   0.0554170   0.1666667   0.2777778), wk =   0.0438957
        k(    8) = (   0.0554170   0.1666667   0.3888889), wk =   0.0438957
        k(    9) = (   0.0554170   0.1666667  -0.5000000), wk =   0.0219479
        k(   10) = (   0.0554170   0.2777778   0.2777778), wk =   0.0219479
        k(   11) = (   0.0554170   0.2777778   0.3888889), wk =   0.0438957
        k(   12) = (   0.0554170   0.2777778  -0.5000000), wk =   0.0219479
        k(   13) = (   0.0554170   0.3888889   0.3888889), wk =   0.0219479
        k(   14) = (   0.0554170   0.3888889  -0.5000000), wk =   0.0219479
        k(   15) = (   0.0554170  -0.5000000  -0.5000000), wk =   0.0054870
        k(   16) = (   0.1662510   0.0555556   0.0555556), wk =   0.0219479
        k(   17) = (   0.1662510   0.0555556   0.1666667), wk =   0.0438957
        k(   18) = (   0.1662510   0.0555556   0.2777778), wk =   0.0438957
        k(   19) = (   0.1662510   0.0555556   0.3888889), wk =   0.0438957
        k(   20) = (   0.1662510   0.0555556  -0.5000000), wk =   0.0219479
        k(   21) = (   0.1662510   0.1666667   0.1666667), wk =   0.0219479
        k(   22) = (   0.1662510   0.1666667   0.2777778), wk =   0.0438957
        k(   23) = (   0.1662510   0.1666667   0.3888889), wk =   0.0438957
        k(   24) = (   0.1662510   0.1666667  -0.5000000), wk =   0.0219479
        k(   25) = (   0.1662510   0.2777778   0.2777778), wk =   0.0219479
        k(   26) = (   0.1662510   0.2777778   0.3888889), wk =   0.0438957
        k(   27) = (   0.1662510   0.2777778  -0.5000000), wk =   0.0219479
        k(   28) = (   0.1662510   0.3888889   0.3888889), wk =   0.0219479
        k(   29) = (   0.1662510   0.3888889  -0.5000000), wk =   0.0219479
        k(   30) = (   0.1662510  -0.5000000  -0.5000000), wk =   0.0054870
        k(   31) = (   0.2770851   0.0555556   0.0555556), wk =   0.0219479
        k(   32) = (   0.2770851   0.0555556   0.1666667), wk =   0.0438957
        k(   33) = (   0.2770851   0.0555556   0.2777778), wk =   0.0438957
        k(   34) = (   0.2770851   0.0555556   0.3888889), wk =   0.0438957
        k(   35) = (   0.2770851   0.0555556  -0.5000000), wk =   0.0219479
        k(   36) = (   0.2770851   0.1666667   0.1666667), wk =   0.0219479
        k(   37) = (   0.2770851   0.1666667   0.2777778), wk =   0.0438957
        k(   38) = (   0.2770851   0.1666667   0.3888889), wk =   0.0438957
        k(   39) = (   0.2770851   0.1666667  -0.5000000), wk =   0.0219479
        k(   40) = (   0.2770851   0.2777778   0.2777778), wk =   0.0219479
        k(   41) = (   0.2770851   0.2777778   0.3888889), wk =   0.0438957
        k(   42) = (   0.2770851   0.2777778  -0.5000000), wk =   0.0219479
        k(   43) = (   0.2770851   0.3888889   0.3888889), wk =   0.0219479
        k(   44) = (   0.2770851   0.3888889  -0.5000000), wk =   0.0219479
        k(   45) = (   0.2770851  -0.5000000  -0.5000000), wk =   0.0054870
        k(   46) = (   0.3879191   0.0555556   0.0555556), wk =   0.0219479
        k(   47) = (   0.3879191   0.0555556   0.1666667), wk =   0.0438957
        k(   48) = (   0.3879191   0.0555556   0.2777778), wk =   0.0438957
        k(   49) = (   0.3879191   0.0555556   0.3888889), wk =   0.0438957
        k(   50) = (   0.3879191   0.0555556  -0.5000000), wk =   0.0219479
        k(   51) = (   0.3879191   0.1666667   0.1666667), wk =   0.0219479
        k(   52) = (   0.3879191   0.1666667   0.2777778), wk =   0.0438957
        k(   53) = (   0.3879191   0.1666667   0.3888889), wk =   0.0438957
        k(   54) = (   0.3879191   0.1666667  -0.5000000), wk =   0.0219479
        k(   55) = (   0.3879191   0.2777778   0.2777778), wk =   0.0219479
        k(   56) = (   0.3879191   0.2777778   0.3888889), wk =   0.0438957
        k(   57) = (   0.3879191   0.2777778  -0.5000000), wk =   0.0219479
        k(   58) = (   0.3879191   0.3888889   0.3888889), wk =   0.0219479
        k(   59) = (   0.3879191   0.3888889  -0.5000000), wk =   0.0219479
        k(   60) = (   0.3879191  -0.5000000  -0.5000000), wk =   0.0054870
        k(   61) = (  -0.4987531   0.0555556   0.0555556), wk =   0.0109739
        k(   62) = (  -0.4987531   0.0555556   0.1666667), wk =   0.0219479
        k(   63) = (  -0.4987531   0.0555556   0.2777778), wk =   0.0219479
        k(   64) = (  -0.4987531   0.0555556   0.3888889), wk =   0.0219479
        k(   65) = (  -0.4987531   0.0555556  -0.5000000), wk =   0.0109739
        k(   66) = (  -0.4987531   0.1666667   0.1666667), wk =   0.0109739
        k(   67) = (  -0.4987531   0.1666667   0.2777778), wk =   0.0219479
        k(   68) = (  -0.4987531   0.1666667   0.3888889), wk =   0.0219479
        k(   69) = (  -0.4987531   0.1666667  -0.5000000), wk =   0.0109739
        k(   70) = (  -0.4987531   0.2777778   0.2777778), wk =   0.0109739
        k(   71) = (  -0.4987531   0.2777778   0.3888889), wk =   0.0219479
        k(   72) = (  -0.4987531   0.2777778  -0.5000000), wk =   0.0109739
        k(   73) = (  -0.4987531   0.3888889   0.3888889), wk =   0.0109739
        k(   74) = (  -0.4987531   0.3888889  -0.5000000), wk =   0.0109739
        k(   75) = (  -0.4987531  -0.5000000  -0.5000000), wk =   0.0027435

     Check: negative core charge=   -0.000002

     Initial potential from superposition of free atoms

     starting charge  511.97959, renormalised to  512.00000
     Starting wfcs are  320 randomized atomic wfcs
     Checking if some PAW data can be deallocated...

     Self-consistent Calculation

     iteration #  1     ecut=    71.00 Ry     beta= 0.10
     Davidson diagonalization with overlap
     ethr =  1.00E-02,  avg # of iterations =  3.4

     Threshold (ethr) on eigenvalues was too large:
     Diagonalizing with lowered threshold

     Davidson diagonalization with overlap
     ethr =  8.31E-05,  avg # of iterations =  5.3

     total energy              =  -13813.41238002 Ry
     estimated scf accuracy    <       0.63740586 Ry

[...]

     iteration #  4     ecut=    71.00 Ry     beta= 0.10
     Davidson diagonalization with overlap
     c_bands:  1 eigenvalues not converged
     ethr =  6.88E-06,  avg # of iterations =  2.3

[...]

     iteration #  5     ecut=    71.00 Ry     beta= 0.10
     Davidson diagonalization with overlap
     c_bands:  1 eigenvalues not converged
     ethr =  1.72E-06,  avg # of iterations =  2.3

[...]

     total energy              =  -13813.30072072 Ry
     estimated scf accuracy    <       0.00000672 Ry

     iteration # 13     ecut=    71.00 Ry     beta= 0.10
     Davidson diagonalization with overlap
     ethr =  2.16E-10,  avg # of iterations =  3.2

     End of self-consistent calculation

          k = 0.0554 0.0556 0.0556 ( 30307 PWs)   bands (ev):

   -49.9738 -49.8754 -49.8747 -49.8747 -49.8565 -49.8556 -49.8556 -49.8203
   -49.8203 -49.8202 -49.8110 -49.8100 -49.8100 -49.8099 -49.8098 -49.8098
   -49.8098 -49.8093 -49.8093 -49.8093 -49.8011 -49.8011 -49.8011 -49.7572
   -49.7560 -49.7560 -49.7559 -49.7559 -49.7556 -49.7555 -49.7551 -49.7551
   -20.3745 -20.3745 -20.3745 -20.3704 -20.3126 -20.3126 -20.3118 -20.1160
   -20.1124 -20.1124 -20.1048 -20.1048 -20.1011 -20.1011 -20.1009 -20.1009
   -20.0849 -20.0808 -20.0808 -20.0616 -20.0616 -20.0589 -20.0589 -20.0587
   -20.0587 -20.0118 -20.0118 -20.0087 -20.0087 -20.0082 -20.0082 -19.9112
   -19.9112 -19.9106 -19.8388 -19.8388 -19.8378 -19.8309 -19.8309 -19.8303
   -19.7978 -19.7978 -19.7973 -19.7973 -19.7966 -19.7966 -19.7577 -19.7577
   -19.7568 -19.7515 -19.7515 -19.7509 -19.7509 -19.7493 -19.7492 -19.7474
   -19.7474 -19.7420 -19.7407 -19.7407 -19.7375 -19.5809 -19.5809 -19.5782
   -19.5782 -19.5775 -19.5768 -19.5488 -19.5488 -19.5467 -19.5467 -19.5457
   -19.5457 -19.5333 -19.5333 -19.5302 -19.5219 -19.5203 -19.5203 -19.5199
   -19.5199 -19.5199 -19.5199 -19.5172 -19.5172 -19.5169 -19.5168 -19.5161
   -19.5152 -19.5124 -19.5016 -19.5016 -19.4989 -19.3886 -19.3819 -19.3816
    15.2875  16.8514  16.8514  16.8536  17.1286  17.1463  17.1463  17.1463
    17.3184  17.3184  17.3211  17.5328  17.5418  17.5418  17.7056  17.7143
    17.7143  18.2476  18.2476  18.2609  18.2609  18.2614  18.2614  18.5659
    18.5745  18.5745  18.8325  18.8325  18.8330  18.8364  18.8476  18.8476
    18.9391  18.9403  18.9403  18.9423  18.9423  18.9423  18.9423  18.9429
    18.9429  19.4273  19.4273  19.4340  19.4340  19.4396  19.4396  19.5690
    19.5819  19.5819  19.6005  19.6005  19.6136  19.6136  19.6146  19.6146
    19.6658  19.6778  19.6778  19.9297  19.9297  19.9334  19.9334  19.9352
    19.9352  19.9352  19.9352  19.9377  19.9377  19.9384  19.9407  19.9407
    19.9440  19.9440  20.1060  20.1060  20.1085  20.3755  20.3940  20.3940
    20.4113  20.4383  20.4383  20.4420  20.4570  20.5130  20.5482  20.5612
    21.5077  21.5309  21.5309  21.6755  21.7006  21.7007  21.7389  21.7389
    21.7471  21.8386  21.8386  21.8395  21.8395  21.8461  21.8461  21.8532
    21.8532  21.8595  22.1460  22.1460  22.1596  22.2674  22.2674  22.2756
    22.5138  22.5139  22.5265  22.5917  22.5917  22.5975  22.5975  22.5981
    22.5981  22.6102  22.6102  22.6216  22.6510  22.6510  22.6589  22.8394
    22.8394  22.8398  22.8398  22.8499  22.8499  22.8836  22.9193  23.0122
    23.0122  23.0225  23.6683  23.6683  23.6847  23.7203  23.7203  23.7236
    23.8286  23.8286  23.8427  23.9220  24.6487  24.6487  24.6506  24.6838
    24.6993  24.7185  24.7303  24.7303  25.0040  25.0110  25.0110  25.0319
    25.0319  25.0400  25.1873  25.1873  25.1883  25.1883  25.1983  25.2010
    25.2010  25.2081  25.2081  26.6325  26.6325  26.6501  26.7754  26.8230
    26.8230  27.1637  27.1637

[...]

          k = 0.3879-0.5000-0.5000 ( 30244 PWs)   bands (ev):

[...]

          k =-0.4988 0.0556 0.0556 ( 30216 PWs)   bands (ev):

[...]

          k =-0.4988-0.5000-0.5000 ( 30280 PWs)   bands (ev):

   -49.8932 -49.8930 -49.8930 -49.8930 -49.8929 -49.8928 -49.8928 -49.8927
   -49.7836 -49.7835 -49.7835 -49.7834 -49.7833 -49.7833 -49.7833 -49.7831
   -49.7828 -49.7827 -49.7827 -49.7827 -49.7826 -49.7826 -49.7825 -49.7825
   -49.7825 -49.7825 -49.7825 -49.7824 -49.7824 -49.7823 -49.7823 -49.7822
   -20.2080 -20.2080 -20.2080 -20.2079 -20.2079 -20.2079 -20.2079 -20.2078
   -20.2078 -20.2078 -20.2078 -20.2078 -20.2077 -20.2077 -20.2077 -20.2077
   -20.2061 -20.2061 -20.2060 -20.2060 -20.2060 -20.2059 -20.2059 -20.2058
   -19.8899 -19.8898 -19.8898 -19.8898 -19.8898 -19.8897 -19.8897 -19.8897
   -19.7791 -19.7791 -19.7791 -19.7790 -19.7790 -19.7790 -19.7790 -19.7790
   -19.7784 -19.7784 -19.7783 -19.7783 -19.7783 -19.7783 -19.7783 -19.7783
   -19.7783 -19.7783 -19.7783 -19.7782 -19.7782 -19.7782 -19.7782 -19.7782
   -19.6311 -19.6311 -19.6310 -19.6310 -19.6310 -19.6310 -19.6310 -19.6310
   -19.6309 -19.6309 -19.6309 -19.6308 -19.6308 -19.6308 -19.6308 -19.6308
   -19.6274 -19.6274 -19.6274 -19.6274 -19.6273 -19.6273 -19.6273 -19.6273
   -19.4495 -19.4494 -19.4494 -19.4493 -19.4493 -19.4493 -19.4492 -19.4492
   -19.4474 -19.4474 -19.4474 -19.4474 -19.4473 -19.4472 -19.4472 -19.4472
    17.0850  17.0851  17.0851  17.0852  17.0852  17.0853  17.0853  17.0854
    17.9443  17.9443  17.9444  17.9444  17.9444  17.9444  17.9444  17.9444
    17.9445  17.9445  17.9445  17.9445  17.9446  17.9446  17.9446  17.9446
    17.9448  17.9448  17.9449  17.9449  17.9450  17.9450  17.9450  17.9450
    18.9692  18.9693  18.9693  18.9693  18.9693  18.9693  18.9694  18.9694
    18.9694  18.9695  18.9695  18.9695  18.9695  18.9695  18.9696  18.9696
    18.9736  18.9736  18.9736  18.9737  18.9737  18.9738  18.9738  18.9738
    20.2882  20.2882  20.2882  20.2882  20.2882  20.2882  20.2882  20.2882
    20.9134  20.9134  20.9135  20.9135  20.9135  20.9135  20.9135  20.9135
    20.9421  20.9421  20.9421  20.9421  20.9422  20.9422  20.9422  20.9422
    21.0235  21.0235  21.0236  21.0236  21.0236  21.0236  21.0237  21.0237
    21.0409  21.0409  21.0410  21.0410  21.0410  21.0410  21.0410  21.0410
    21.0411  21.0411  21.0411  21.0411  21.0411  21.0411  21.0412  21.0412
    22.2424  22.2424  22.2424  22.2424  22.2424  22.2425  22.2425  22.2425
    22.2425  22.2425  22.2425  22.2426  22.2426  22.2426  22.2426  22.2427
    22.2572  22.2572  22.2573  22.2573  22.2573  22.2574  22.2574  22.2574
    23.0711  23.0711  23.0712  23.0712  23.0712  23.0712  23.0713  23.0713
    23.0808  23.0808  23.0809  23.0809  23.0809  23.0809  23.0810  23.0810
    24.8620  24.8620  24.8620  24.8621  24.8621  24.8621  24.8621  24.8621
    24.8678  24.8679  24.8679  24.8679  24.8679  24.8679  24.8679  24.8679
    24.8679  24.8680  24.8680  24.8680  24.8680  24.8680  24.8680  24.8680
    28.2272  28.2281  28.2285  28.2299  28.2310  28.2329  28.2349  28.2409
    28.2445  28.2445  28.2446

     the Fermi energy is    23.0435 ev

!    total energy              =  -13813.30072346 Ry

     total all-electron energy =   -289989.691063 Ry
     estimated scf accuracy    <       0.00000003 Ry
     smearing contrib. (-TS)   =       0.02024729 Ry
     internal energy E=F+TS    =  -13813.32097075 Ry

     The total energy is F=E-TS. E is the sum of the following terms:
     one-electron contribution =   -1001.88370388 Ry
     hartree contribution      =     917.91685440 Ry
     xc contribution           =    -927.96982808 Ry
     ewald contribution        =   -5211.94536187 Ry
     one-center paw contrib.   =   -7589.43893132 Ry

     convergence has been achieved in  13 iterations

     Forces acting on atoms (cartesian axes, Ry/au):

     atom    1 type  1   force =     0.00000000    0.00000000    0.00000000
     atom    2 type  1   force =    -0.00000411    0.00001220    0.00000000
     atom    3 type  1   force =    -0.00000411    0.00000000    0.00001220
     atom    4 type  1   force =    -0.00000000    0.00000503    0.00000503
     atom    5 type  1   force =     0.00000000    0.00000000    0.00000000
     atom    6 type  1   force =    -0.00001124   -0.00000736    0.00000000
     atom    7 type  1   force =    -0.00000411    0.00000000   -0.00001220
     atom    8 type  1   force =     0.00000000    0.00000503   -0.00000503
     atom    9 type  1   force =     0.00000000    0.00000000    0.00000000
     atom   10 type  1   force =    -0.00000411   -0.00001220   -0.00000000
     atom   11 type  1   force =    -0.00001124   -0.00000000   -0.00000736
     atom   12 type  1   force =     0.00000000   -0.00000503    0.00000503
     atom   13 type  1   force =     0.00000000    0.00000000    0.00000000
     atom   14 type  1   force =    -0.00001124    0.00000736    0.00000000
     atom   15 type  1   force =    -0.00001124   -0.00000000    0.00000736
     atom   16 type  1   force =    -0.00000000   -0.00000503   -0.00000503
     atom   17 type  1   force =     0.00000000    0.00000000    0.00000000
     atom   18 type  1   force =     0.00000411    0.00001220   -0.00000000
     atom   19 type  1   force =     0.00000411    0.00000000    0.00001220
     atom   20 type  1   force =     0.00000000    0.00000298    0.00000298
     atom   21 type  1   force =     0.00000000    0.00000000    0.00000000
     atom   22 type  1   force =     0.00001124   -0.00000736    0.00000000
     atom   23 type  1   force =     0.00000411    0.00000000   -0.00001220
     atom   24 type  1   force =    -0.00000000    0.00000298   -0.00000298
     atom   25 type  1   force =     0.00000000    0.00000000    0.00000000
     atom   26 type  1   force =     0.00000411   -0.00001220    0.00000000
     atom   27 type  1   force =     0.00001124    0.00000000   -0.00000736
     atom   28 type  1   force =    -0.00000000   -0.00000298    0.00000298
     atom   29 type  1   force =     0.00000000    0.00000000    0.00000000
     atom   30 type  1   force =     0.00001124    0.00000736    0.00000000
     atom   31 type  1   force =     0.00001124   -0.00000000    0.00000736
     atom   32 type  1   force =     0.00000000   -0.00000298   -0.00000298

     Total force =     0.000055     Total SCF correction =     0.000247
     SCF correction compared to forces is large: reduce conv_thr to get better values

     Computing stress (Cartesian axis) and pressure

          total   stress  (Ry/bohr**3)                   (kbar)     P=      -11.74
  -0.00010824   0.00000000   0.00000000          -15.92        0.00        0.00
   0.00000000  -0.00006559   0.00000000            0.00       -9.65        0.00
   0.00000000   0.00000000  -0.00006559            0.00        0.00       -9.65

     Writing output data file /scratch/iihmrczioezxpIvb.save/

     General routines

     Parallel routines

   This run was terminated on:  15:13:42  23Nov2021

   JOB DONE.