     Program PWSCF v.6.7MaX starts on 23Nov2021 at 14:29:31

     R & G space division:  proc/nbgrp/npool/nimage =      72
     Reading input from /rds/homes/b/bxp912/jobs/20211014_ru_eos/wd/ec/ec_1_004.in
Warning: card &CELL ignored
Warning: card CELL_DYNAMICS = 'BFGS', ignored
Warning: card CELL_FACTOR = 2.0, ignored
Warning: card PRESS = 0.0, ignored
Warning: card / ignored

     Current dimensions of program PWSCF are:
     Max number of different atomic species (ntypx) = 10
     Max number of k-points (npk) =  40000
     Max angular momentum in pseudopotentials (lmaxx) =  3
     file Ru.pbe-spn-kjpaw_psl.1.0.0.UPF: wavefunction(s)  4D renormalized

     Subspace diagonalization in iterative solution of the eigenvalue problem:
     one sub-group per band group will be used

     Found symmetry operation: I + (  0.2500  0.2500  0.0000)
     This is a supercell, fractional translations are disabled
     Message from routine setup:
     using ibrav=0 with symmetry is DISCOURAGED, use correct ibrav instead

     bravais-lattice index     =            0
     lattice parameter (alat)  =      14.4007  a.u.
     unit-cell volume          =    2992.0449 (a.u.)^3
     number of atoms/cell      =           32
     number of atomic types    =            1
     number of electrons       =       512.00
     number of Kohn-Sham states=          307
     kinetic-energy cutoff     =      71.0000  Ry
     charge density cutoff     =     430.0000  Ry
     scf convergence threshold =      1.0E-06
     mixing beta               =       0.1000
     number of iterations used =           10  plain     mixing
     Exchange-correlation= SLA  PW   PBX  PBC
                           (   1   4   3   4   0   0   0)

     celldm(1)=  14.400742  celldm(2)=   0.000000  celldm(3)=   0.000000
     celldm(4)=   0.000000  celldm(5)=   0.000000  celldm(6)=   0.000000

     crystal axes: (cart. coord. in units of alat)
               a(1) = (   1.001875   0.000000   0.000000 )
               a(2) = (   0.000000   1.000000   0.000000 )
               a(3) = (   0.000000   0.000000   1.000000 )

     reciprocal axes: (cart. coord. in units 2 pi/alat)
               b(1) = (  0.998129  0.000000  0.000000 )
               b(2) = (  0.000000  1.000000  0.000000 )
               b(3) = (  0.000000  0.000000  1.000000 )

     PseudoPot. # 1 for Ru read from file:
     /rds/homes/b/bxp912/pp/Ru.pbe-spn-kjpaw_psl.1.0.0.UPF
     MD5 check sum: 0ae1f594dea09af7be8575c3a481d1ae
     Pseudo is Projector augmented-wave + core cor, Zval = 16.0
     Generated using "atomic" code by A. Dal Corso  v.5.1
     Shape of augmentation charge: PSQ
     Using radial grid of 1233 points,  6 beta functions with:
                l(1) =   0
                l(2) =   0
                l(3) =   1
                l(4) =   1
                l(5) =   2
                l(6) =   2
     Q(r) pseudized with 0 coefficients

     atomic species   valence    mass     pseudopotential
        Ru            16.00   101.07000     Ru( 1.00)

     16 Sym. Ops., with inversion, found

   Cartesian axes

     site n.     atom                  positions (alat units)
         1           Ru  tau(   1) = (   0.0000000   0.0000000   0.0000000  )
         2           Ru  tau(   2) = (   0.2504688   0.2500000   0.0000000  )
         3           Ru  tau(   3) = (   0.2504688   0.0000000   0.2499995  )
         4           Ru  tau(   4) = (   0.0000000   0.2500000   0.2499995  )
         5           Ru  tau(   5) = (   0.0000000   0.0000000   0.5000000  )
         6           Ru  tau(   6) = (   0.2504677   0.2499990   0.5000000  )
         7           Ru  tau(   7) = (   0.2504688   0.0000000   0.7499995  )
         8           Ru  tau(   8) = (   0.0000000   0.2500000   0.7499995  )
         9           Ru  tau(   9) = (   0.0000000   0.5000002   0.0000000  )
        10           Ru  tau(  10) = (   0.2504688   0.7500004   0.0000000  )
        11           Ru  tau(  11) = (   0.2504677   0.5000002   0.2499984  )
        12           Ru  tau(  12) = (   0.0000000   0.7500004   0.2499995  )
        13           Ru  tau(  13) = (   0.0000000   0.5000002   0.5000000  )
        14           Ru  tau(  14) = (   0.2504677   0.7500015   0.5000000  )
        15           Ru  tau(  15) = (   0.2504677   0.5000002   0.7500005  )
        16           Ru  tau(  16) = (   0.0000000   0.7500004   0.7499995  )
        17           Ru  tau(  17) = (   0.5009377   0.0000000   0.0000000  )
        18           Ru  tau(  18) = (   0.7514067   0.2500000   0.0000000  )
        19           Ru  tau(  19) = (   0.7514067   0.0000000   0.2499995  )
        20           Ru  tau(  20) = (   0.5009377   0.2499990   0.2499984  )
        21           Ru  tau(  21) = (   0.5009377   0.0000000   0.5000000  )
        22           Ru  tau(  22) = (   0.7514077   0.2499990   0.5000000  )
        23           Ru  tau(  23) = (   0.7514067   0.0000000   0.7499995  )
        24           Ru  tau(  24) = (   0.5009377   0.2499990   0.7500005  )
        25           Ru  tau(  25) = (   0.5009377   0.5000002   0.0000000  )
        26           Ru  tau(  26) = (   0.7514067   0.7500004   0.0000000  )
        27           Ru  tau(  27) = (   0.7514077   0.5000002   0.2499984  )
        28           Ru  tau(  28) = (   0.5009377   0.7500015   0.2499984  )
        29           Ru  tau(  29) = (   0.5009377   0.5000002   0.5000000  )
        30           Ru  tau(  30) = (   0.7514077   0.7500015   0.5000000  )
        31           Ru  tau(  31) = (   0.7514077   0.5000002   0.7500005  )
        32           Ru  tau(  32) = (   0.5009377   0.7500015   0.7500005  )

     number of k points=    75  Marzari-Vanderbilt smearing, width (Ry)=  0.0400
                       cart. coord. in units 2pi/alat
        k(    1) = (   0.0554516   0.0555556   0.0555556), wk =   0.0219479
        k(    2) = (   0.0554516   0.0555556   0.1666667), wk =   0.0438957
        k(    3) = (   0.0554516   0.0555556   0.2777778), wk =   0.0438957
        k(    4) = (   0.0554516   0.0555556   0.3888889), wk =   0.0438957
        k(    5) = (   0.0554516   0.0555556  -0.5000000), wk =   0.0219479
        k(    6) = (   0.0554516   0.1666667   0.1666667), wk =   0.0219479
        k(    7) = (   0.0554516   0.1666667   0.2777778), wk =   0.0438957
        k(    8) = (   0.0554516   0.1666667   0.3888889), wk =   0.0438957
        k(    9) = (   0.0554516   0.1666667  -0.5000000), wk =   0.0219479
        k(   10) = (   0.0554516   0.2777778   0.2777778), wk =   0.0219479
        k(   11) = (   0.0554516   0.2777778   0.3888889), wk =   0.0438957
        k(   12) = (   0.0554516   0.2777778  -0.5000000), wk =   0.0219479
        k(   13) = (   0.0554516   0.3888889   0.3888889), wk =   0.0219479
        k(   14) = (   0.0554516   0.3888889  -0.5000000), wk =   0.0219479
        k(   15) = (   0.0554516  -0.5000000  -0.5000000), wk =   0.0054870
        k(   16) = (   0.1663548   0.0555556   0.0555556), wk =   0.0219479
        k(   17) = (   0.1663548   0.0555556   0.1666667), wk =   0.0438957
        k(   18) = (   0.1663548   0.0555556   0.2777778), wk =   0.0438957
        k(   19) = (   0.1663548   0.0555556   0.3888889), wk =   0.0438957
        k(   20) = (   0.1663548   0.0555556  -0.5000000), wk =   0.0219479
        k(   21) = (   0.1663548   0.1666667   0.1666667), wk =   0.0219479
        k(   22) = (   0.1663548   0.1666667   0.2777778), wk =   0.0438957
        k(   23) = (   0.1663548   0.1666667   0.3888889), wk =   0.0438957
        k(   24) = (   0.1663548   0.1666667  -0.5000000), wk =   0.0219479
        k(   25) = (   0.1663548   0.2777778   0.2777778), wk =   0.0219479
        k(   26) = (   0.1663548   0.2777778   0.3888889), wk =   0.0438957
        k(   27) = (   0.1663548   0.2777778  -0.5000000), wk =   0.0219479
        k(   28) = (   0.1663548   0.3888889   0.3888889), wk =   0.0219479
        k(   29) = (   0.1663548   0.3888889  -0.5000000), wk =   0.0219479
        k(   30) = (   0.1663548  -0.5000000  -0.5000000), wk =   0.0054870
        k(   31) = (   0.2772579   0.0555556   0.0555556), wk =   0.0219479
        k(   32) = (   0.2772579   0.0555556   0.1666667), wk =   0.0438957
        k(   33) = (   0.2772579   0.0555556   0.2777778), wk =   0.0438957
        k(   34) = (   0.2772579   0.0555556   0.3888889), wk =   0.0438957
        k(   35) = (   0.2772579   0.0555556  -0.5000000), wk =   0.0219479
        k(   36) = (   0.2772579   0.1666667   0.1666667), wk =   0.0219479
        k(   37) = (   0.2772579   0.1666667   0.2777778), wk =   0.0438957
        k(   38) = (   0.2772579   0.1666667   0.3888889), wk =   0.0438957
        k(   39) = (   0.2772579   0.1666667  -0.5000000), wk =   0.0219479
        k(   40) = (   0.2772579   0.2777778   0.2777778), wk =   0.0219479
        k(   41) = (   0.2772579   0.2777778   0.3888889), wk =   0.0438957
        k(   42) = (   0.2772579   0.2777778  -0.5000000), wk =   0.0219479
        k(   43) = (   0.2772579   0.3888889   0.3888889), wk =   0.0219479
        k(   44) = (   0.2772579   0.3888889  -0.5000000), wk =   0.0219479
        k(   45) = (   0.2772579  -0.5000000  -0.5000000), wk =   0.0054870
        k(   46) = (   0.3881611   0.0555556   0.0555556), wk =   0.0219479
        k(   47) = (   0.3881611   0.0555556   0.1666667), wk =   0.0438957
        k(   48) = (   0.3881611   0.0555556   0.2777778), wk =   0.0438957
        k(   49) = (   0.3881611   0.0555556   0.3888889), wk =   0.0438957
        k(   50) = (   0.3881611   0.0555556  -0.5000000), wk =   0.0219479
        k(   51) = (   0.3881611   0.1666667   0.1666667), wk =   0.0219479
        k(   52) = (   0.3881611   0.1666667   0.2777778), wk =   0.0438957
        k(   53) = (   0.3881611   0.1666667   0.3888889), wk =   0.0438957
        k(   54) = (   0.3881611   0.1666667  -0.5000000), wk =   0.0219479
        k(   55) = (   0.3881611   0.2777778   0.2777778), wk =   0.0219479
        k(   56) = (   0.3881611   0.2777778   0.3888889), wk =   0.0438957
        k(   57) = (   0.3881611   0.2777778  -0.5000000), wk =   0.0219479
        k(   58) = (   0.3881611   0.3888889   0.3888889), wk =   0.0219479
        k(   59) = (   0.3881611   0.3888889  -0.5000000), wk =   0.0219479
        k(   60) = (   0.3881611  -0.5000000  -0.5000000), wk =   0.0054870
        k(   61) = (  -0.4990643   0.0555556   0.0555556), wk =   0.0109739
        k(   62) = (  -0.4990643   0.0555556   0.1666667), wk =   0.0219479
        k(   63) = (  -0.4990643   0.0555556   0.2777778), wk =   0.0219479
        k(   64) = (  -0.4990643   0.0555556   0.3888889), wk =   0.0219479
        k(   65) = (  -0.4990643   0.0555556  -0.5000000), wk =   0.0109739
        k(   66) = (  -0.4990643   0.1666667   0.1666667), wk =   0.0109739
        k(   67) = (  -0.4990643   0.1666667   0.2777778), wk =   0.0219479
        k(   68) = (  -0.4990643   0.1666667   0.3888889), wk =   0.0219479
        k(   69) = (  -0.4990643   0.1666667  -0.5000000), wk =   0.0109739
        k(   70) = (  -0.4990643   0.2777778   0.2777778), wk =   0.0109739
        k(   71) = (  -0.4990643   0.2777778   0.3888889), wk =   0.0219479
        k(   72) = (  -0.4990643   0.2777778  -0.5000000), wk =   0.0109739
        k(   73) = (  -0.4990643   0.3888889   0.3888889), wk =   0.0109739
        k(   74) = (  -0.4990643   0.3888889  -0.5000000), wk =   0.0109739
        k(   75) = (  -0.4990643  -0.5000000  -0.5000000), wk =   0.0027435

     Check: negative core charge=   -0.000002

     Initial potential from superposition of free atoms

     starting charge  511.97959, renormalised to  512.00000
     Starting wfcs are  320 randomized atomic wfcs
     Checking if some PAW data can be deallocated...

     Self-consistent Calculation

     iteration #  1     ecut=    71.00 Ry     beta= 0.10
     Davidson diagonalization with overlap
     ethr =  1.00E-02,  avg # of iterations =  3.4

     Threshold (ethr) on eigenvalues was too large:
     Diagonalizing with lowered threshold

     Davidson diagonalization with overlap
     ethr =  8.33E-05,  avg # of iterations =  5.3

     total energy              =  -13813.41257616 Ry
     estimated scf accuracy    <       0.63770708 Ry

[...]

     total energy              =  -13813.30082228 Ry
     estimated scf accuracy    <       0.00000575 Ry

     iteration # 13     ecut=    71.00 Ry     beta= 0.10
     Davidson diagonalization with overlap
     ethr =  3.00E-10,  avg # of iterations =  3.1

     End of self-consistent calculation

          k = 0.0555 0.0556 0.0556 ( 30281 PWs)   bands (ev):

   -49.9573 -49.8586 -49.8580 -49.8580 -49.8395 -49.8389 -49.8389 -49.8034
   -49.8034 -49.8033 -49.7941 -49.7930 -49.7930 -49.7929 -49.7929 -49.7929
   -49.7929 -49.7924 -49.7924 -49.7923 -49.7842 -49.7841 -49.7841 -49.7399
   -49.7389 -49.7389 -49.7388 -49.7388 -49.7386 -49.7385 -49.7382 -49.7381
   -20.3590 -20.3590 -20.3590 -20.3549 -20.2969 -20.2969 -20.2963 -20.0994
   -20.0966 -20.0966 -20.0881 -20.0881 -20.0854 -20.0853 -20.0852 -20.0852
   -20.0682 -20.0651 -20.0651 -20.0450 -20.0450 -20.0430 -20.0430 -20.0428
   -20.0428 -19.9950 -19.9950 -19.9927 -19.9927 -19.9923 -19.9923 -19.8947
   -19.8947 -19.8942 -19.8221 -19.8221 -19.8214 -19.8142 -19.8142 -19.8138
   -19.7810 -19.7810 -19.7805 -19.7805 -19.7801 -19.7801 -19.7408 -19.7408
   -19.7402 -19.7345 -19.7345 -19.7340 -19.7340 -19.7328 -19.7328 -19.7298
   -19.7298 -19.7259 -19.7239 -19.7239 -19.7214 -19.5632 -19.5632 -19.5612
   -19.5611 -19.5607 -19.5601 -19.5311 -19.5311 -19.5295 -19.5295 -19.5288
   -19.5288 -19.5158 -19.5158 -19.5135 -19.5042 -19.5028 -19.5028 -19.5024
   -19.5024 -19.5024 -19.5023 -19.5004 -19.5003 -19.4998 -19.4998 -19.4984
   -19.4984 -19.4956 -19.4840 -19.4840 -19.4820 -19.3711 -19.3643 -19.3641
    15.3016  16.8638  16.8638  16.8654  17.1417  17.1594  17.1594  17.1594
    17.3311  17.3311  17.3332  17.5491  17.5558  17.5558  17.7215  17.7280
    17.7280  18.2632  18.2632  18.2732  18.2732  18.2736  18.2736  18.5808
    18.5873  18.5873  18.8475  18.8475  18.8479  18.8520  18.8604  18.8604
    18.9539  18.9547  18.9548  18.9572  18.9572  18.9572  18.9572  18.9576
    18.9577  19.4435  19.4435  19.4486  19.4486  19.4528  19.4528  19.5859
    19.5955  19.5956  19.6174  19.6174  19.6273  19.6273  19.6280  19.6280
    19.6826  19.6915  19.6915  19.9466  19.9466  19.9490  19.9491  19.9506
    19.9506  19.9507  19.9507  19.9527  19.9527  19.9528  19.9548  19.9548
    19.9574  19.9574  20.1212  20.1212  20.1231  20.3944  20.4092  20.4092
    20.4303  20.4534  20.4534  20.4534  20.4684  20.5313  20.5630  20.5741
    21.5280  21.5454  21.5454  21.6964  21.7153  21.7153  21.7559  21.7559
    21.7620  21.8557  21.8557  21.8564  21.8564  21.8614  21.8614  21.8701
    21.8701  21.8749  22.1640  22.1641  22.1742  22.2850  22.2850  22.2912
    22.5321  22.5321  22.5416  22.6098  22.6098  22.6142  22.6142  22.6147
    22.6147  22.6284  22.6284  22.6369  22.6690  22.6690  22.6749  22.8577
    22.8577  22.8580  22.8581  22.8656  22.8656  22.9057  22.9325  23.0306
    23.0307  23.0384  23.6881  23.6881  23.7004  23.7387  23.7387  23.7412
    23.8483  23.8483  23.8589  23.9401  24.6683  24.6683  24.6697  24.7051
    24.7168  24.7399  24.7488  24.7488  25.0250  25.0304  25.0304  25.0520
    25.0520  25.0581  25.2091  25.2091  25.2098  25.2098  25.2186  25.2204
    25.2204  25.2247  25.2247  26.6551  26.6551  26.6683  26.8033  26.8390
    26.8390  27.1869  27.1869

[...]

          k = 0.3882-0.5000-0.5000 ( 30220 PWs)   bands (ev):

[...]

          k =-0.4991 0.0556 0.0556 ( 30204 PWs)   bands (ev):

[...]

          k =-0.4991-0.5000-0.5000 ( 30280 PWs)   bands (ev):

   -49.8765 -49.8763 -49.8763 -49.8762 -49.8762 -49.8761 -49.8761 -49.8759
   -49.7665 -49.7664 -49.7664 -49.7663 -49.7662 -49.7662 -49.7662 -49.7660
   -49.7659 -49.7658 -49.7658 -49.7658 -49.7657 -49.7657 -49.7656 -49.7656
   -49.7656 -49.7656 -49.7656 -49.7655 -49.7654 -49.7654 -49.7654 -49.7653
   -20.1920 -20.1920 -20.1920 -20.1919 -20.1919 -20.1919 -20.1919 -20.1918
   -20.1918 -20.1918 -20.1918 -20.1918 -20.1917 -20.1917 -20.1917 -20.1917
   -20.1906 -20.1905 -20.1905 -20.1904 -20.1904 -20.1904 -20.1903 -20.1903
   -19.8734 -19.8733 -19.8733 -19.8733 -19.8733 -19.8733 -19.8733 -19.8732
   -19.7623 -19.7622 -19.7622 -19.7622 -19.7622 -19.7621 -19.7621 -19.7621
   -19.7617 -19.7617 -19.7617 -19.7617 -19.7616 -19.7616 -19.7616 -19.7616
   -19.7616 -19.7616 -19.7616 -19.7616 -19.7616 -19.7615 -19.7615 -19.7615
   -19.6137 -19.6137 -19.6137 -19.6137 -19.6137 -19.6136 -19.6136 -19.6136
   -19.6135 -19.6135 -19.6135 -19.6135 -19.6135 -19.6135 -19.6134 -19.6134
   -19.6110 -19.6110 -19.6110 -19.6110 -19.6108 -19.6108 -19.6108 -19.6108
   -19.4318 -19.4317 -19.4317 -19.4317 -19.4316 -19.4316 -19.4315 -19.4315
   -19.4302 -19.4302 -19.4302 -19.4302 -19.4301 -19.4301 -19.4301 -19.4301
    17.0994  17.0996  17.0996  17.0996  17.0997  17.0997  17.0998  17.0999
    17.9577  17.9577  17.9577  17.9577  17.9577  17.9577  17.9577  17.9577
    17.9578  17.9578  17.9578  17.9579  17.9579  17.9579  17.9579  17.9579
    17.9581  17.9581  17.9581  17.9581  17.9582  17.9582  17.9582  17.9582
    18.9837  18.9838  18.9838  18.9838  18.9838  18.9838  18.9838  18.9839
    18.9839  18.9839  18.9839  18.9840  18.9840  18.9840  18.9840  18.9840
    18.9869  18.9870  18.9870  18.9871  18.9871  18.9871  18.9872  18.9872
    20.3037  20.3037  20.3037  20.3038  20.3038  20.3038  20.3038  20.3038
    20.9326  20.9327  20.9327  20.9327  20.9327  20.9327  20.9328  20.9328
    20.9542  20.9542  20.9542  20.9542  20.9543  20.9543  20.9543  20.9543
    21.0426  21.0426  21.0427  21.0427  21.0427  21.0428  21.0428  21.0428
    21.0557  21.0557  21.0557  21.0557  21.0557  21.0558  21.0558  21.0558
    21.0558  21.0558  21.0558  21.0559  21.0559  21.0559  21.0559  21.0559
    22.2605  22.2605  22.2605  22.2605  22.2605  22.2606  22.2606  22.2606
    22.2606  22.2606  22.2606  22.2607  22.2607  22.2607  22.2607  22.2608
    22.2716  22.2717  22.2717  22.2717  22.2717  22.2718  22.2718  22.2719
    23.0900  23.0900  23.0901  23.0901  23.0901  23.0902  23.0902  23.0902
    23.0973  23.0973  23.0973  23.0974  23.0974  23.0974  23.0975  23.0975
    24.8826  24.8826  24.8826  24.8826  24.8826  24.8827  24.8827  24.8827
    24.8870  24.8870  24.8870  24.8870  24.8870  24.8870  24.8871  24.8871
    24.8871  24.8871  24.8871  24.8871  24.8871  24.8872  24.8872  24.8872
    28.2520  28.2529  28.2534  28.2545  28.2562  28.2579  28.2596  28.2610
    28.2646  28.2647  28.2647

     the Fermi energy is    23.0612 ev

!    total energy              =  -13813.30082484 Ry

     total all-electron energy =   -289989.691164 Ry
     estimated scf accuracy    <       0.00000004 Ry
     smearing contrib. (-TS)   =       0.02029049 Ry
     internal energy E=F+TS    =  -13813.32111533 Ry

     The total energy is F=E-TS. E is the sum of the following terms:
     one-electron contribution =   -1000.30206960 Ry
     hartree contribution      =     917.44412779 Ry
     xc contribution           =    -927.99417144 Ry
     ewald contribution        =   -5213.02914939 Ry
     one-center paw contrib.   =   -7589.43985270 Ry

     convergence has been achieved in  13 iterations

     Forces acting on atoms (cartesian axes, Ry/au):

     atom    1 type  1   force =     0.00000000    0.00000000    0.00000000
     atom    2 type  1   force =    -0.00002001    0.00000586   -0.00000000
     atom    3 type  1   force =    -0.00002001    0.00000000    0.00000586
     atom    4 type  1   force =     0.00000000    0.00000282    0.00000282
     atom    5 type  1   force =     0.00000000    0.00000000    0.00000000
     atom    6 type  1   force =    -0.00001591    0.00000618   -0.00000000
     atom    7 type  1   force =    -0.00002001    0.00000000   -0.00000586
     atom    8 type  1   force =     0.00000000    0.00000282   -0.00000282
     atom    9 type  1   force =     0.00000000    0.00000000    0.00000000
     atom   10 type  1   force =    -0.00002001   -0.00000586    0.00000000
     atom   11 type  1   force =    -0.00001591    0.00000000    0.00000618
     atom   12 type  1   force =     0.00000000   -0.00000282    0.00000282
     atom   13 type  1   force =     0.00000000    0.00000000    0.00000000
     atom   14 type  1   force =    -0.00001591   -0.00000618   -0.00000000
     atom   15 type  1   force =    -0.00001591    0.00000000   -0.00000618
     atom   16 type  1   force =     0.00000000   -0.00000282   -0.00000282
     atom   17 type  1   force =     0.00000000    0.00000000    0.00000000
     atom   18 type  1   force =     0.00002001    0.00000586   -0.00000000
     atom   19 type  1   force =     0.00002001   -0.00000000    0.00000586
     atom   20 type  1   force =    -0.00000000    0.00001221    0.00001221
     atom   21 type  1   force =     0.00000000    0.00000000    0.00000000
     atom   22 type  1   force =     0.00001591    0.00000618   -0.00000000
     atom   23 type  1   force =     0.00002001    0.00000000   -0.00000586
     atom   24 type  1   force =     0.00000000    0.00001221   -0.00001221
     atom   25 type  1   force =     0.00000000    0.00000000    0.00000000
     atom   26 type  1   force =     0.00002001   -0.00000586    0.00000000
     atom   27 type  1   force =     0.00001591    0.00000000    0.00000618
     atom   28 type  1   force =     0.00000000   -0.00001221    0.00001221
     atom   29 type  1   force =     0.00000000    0.00000000    0.00000000
     atom   30 type  1   force =     0.00001591   -0.00000618   -0.00000000
     atom   31 type  1   force =     0.00001591    0.00000000   -0.00000618
     atom   32 type  1   force =    -0.00000000   -0.00001221   -0.00001221

     Total force =     0.000084     Total SCF correction =     0.000193
     SCF correction compared to forces is large: reduce conv_thr to get better values

     Computing stress (Cartesian axis) and pressure

          total   stress  (Ry/bohr**3)                   (kbar)     P=       -9.80
  -0.00008801   0.00000000   0.00000000          -12.95        0.00        0.00
   0.00000000  -0.00005595   0.00000000            0.00       -8.23        0.00
   0.00000000   0.00000000  -0.00005595            0.00        0.00       -8.23

     Writing output data file /scratch/IqhmGTTTklpVXJXi.save/

     General routines

     Parallel routines

   This run was terminated on:  14:51:21  23Nov2021

   JOB DONE.