     Program PWSCF v.6.7MaX starts on 23Nov2021 at 15:33:42

     R & G space division:  proc/nbgrp/npool/nimage =      72
     Reading input from /rds/homes/b/bxp912/jobs/20211014_ru_eos/wd/ec/ec_1_007.in
Warning: card &CELL ignored
Warning: card CELL_DYNAMICS = 'BFGS', ignored
Warning: card CELL_FACTOR = 2.0, ignored
Warning: card PRESS = 0.0, ignored
Warning: card / ignored

     Current dimensions of program PWSCF are:
     Max number of different atomic species (ntypx) = 10
     Max number of k-points (npk) =  40000
     Max angular momentum in pseudopotentials (lmaxx) =  3
     file Ru.pbe-spn-kjpaw_psl.1.0.0.UPF: wavefunction(s)  4D renormalized

     Subspace diagonalization in iterative solution of the eigenvalue problem:
     one sub-group per band group will be used

     Found symmetry operation: I + (  0.2500  0.2500  0.0000)
     This is a supercell, fractional translations are disabled
     Message from routine setup:
     using ibrav=0 with symmetry is DISCOURAGED, use correct ibrav instead

     bravais-lattice index     =            0
     lattice parameter (alat)  =      14.4007  a.u.
     unit-cell volume          =    2997.6445 (a.u.)^3
     number of atoms/cell      =           32
     number of atomic types    =            1
     number of electrons       =       512.00
     number of Kohn-Sham states=          307
     kinetic-energy cutoff     =      71.0000  Ry
     charge density cutoff     =     430.0000  Ry
     scf convergence threshold =      1.0E-06
     mixing beta               =       0.1000
     number of iterations used =           10  plain     mixing
     Exchange-correlation= SLA  PW   PBX  PBC
                           (   1   4   3   4   0   0   0)

     celldm(1)=  14.400742  celldm(2)=   0.000000  celldm(3)=   0.000000
     celldm(4)=   0.000000  celldm(5)=   0.000000  celldm(6)=   0.000000

     crystal axes: (cart. coord. in units of alat)
               a(1) = (   1.003750   0.000000   0.000000 )
               a(2) = (   0.000000   1.000000   0.000000 )
               a(3) = (   0.000000   0.000000   1.000000 )

     reciprocal axes: (cart. coord. in units 2 pi/alat)
               b(1) = (  0.996264  0.000000  0.000000 )
               b(2) = (  0.000000  1.000000  0.000000 )
               b(3) = (  0.000000  0.000000  1.000000 )

     PseudoPot. # 1 for Ru read from file:
     /rds/homes/b/bxp912/pp/Ru.pbe-spn-kjpaw_psl.1.0.0.UPF
     MD5 check sum: 0ae1f594dea09af7be8575c3a481d1ae
     Pseudo is Projector augmented-wave + core cor, Zval = 16.0
     Generated using "atomic" code by A. Dal Corso  v.5.1
     Shape of augmentation charge: PSQ
     Using radial grid of 1233 points,  6 beta functions with:
                l(1) =   0
                l(2) =   0
                l(3) =   1
                l(4) =   1
                l(5) =   2
                l(6) =   2
     Q(r) pseudized with 0 coefficients

     atomic species   valence    mass     pseudopotential
        Ru            16.00   101.07000     Ru( 1.00)

     16 Sym. Ops., with inversion, found

   Cartesian axes

     site n.     atom                  positions (alat units)
         1           Ru  tau(   1) = (   0.0000000   0.0000000   0.0000000  )
         2           Ru  tau(   2) = (   0.2509375   0.2500000   0.0000000  )
         3           Ru  tau(   3) = (   0.2509375   0.0000000   0.2499995  )
         4           Ru  tau(   4) = (   0.0000000   0.2500000   0.2499995  )
         5           Ru  tau(   5) = (   0.0000000   0.0000000   0.5000000  )
         6           Ru  tau(   6) = (   0.2509364   0.2499990   0.5000000  )
         7           Ru  tau(   7) = (   0.2509375   0.0000000   0.7499995  )
         8           Ru  tau(   8) = (   0.0000000   0.2500000   0.7499995  )
         9           Ru  tau(   9) = (   0.0000000   0.5000002   0.0000000  )
        10           Ru  tau(  10) = (   0.2509375   0.7500004   0.0000000  )
        11           Ru  tau(  11) = (   0.2509364   0.5000002   0.2499984  )
        12           Ru  tau(  12) = (   0.0000000   0.7500004   0.2499995  )
        13           Ru  tau(  13) = (   0.0000000   0.5000002   0.5000000  )
        14           Ru  tau(  14) = (   0.2509364   0.7500015   0.5000000  )
        15           Ru  tau(  15) = (   0.2509364   0.5000002   0.7500005  )
        16           Ru  tau(  16) = (   0.0000000   0.7500004   0.7499995  )
        17           Ru  tau(  17) = (   0.5018752   0.0000000   0.0000000  )
        18           Ru  tau(  18) = (   0.7528129   0.2500000   0.0000000  )
        19           Ru  tau(  19) = (   0.7528129   0.0000000   0.2499995  )
        20           Ru  tau(  20) = (   0.5018752   0.2499990   0.2499984  )
        21           Ru  tau(  21) = (   0.5018752   0.0000000   0.5000000  )
        22           Ru  tau(  22) = (   0.7528140   0.2499990   0.5000000  )
        23           Ru  tau(  23) = (   0.7528129   0.0000000   0.7499995  )
        24           Ru  tau(  24) = (   0.5018752   0.2499990   0.7500005  )
        25           Ru  tau(  25) = (   0.5018752   0.5000002   0.0000000  )
        26           Ru  tau(  26) = (   0.7528129   0.7500004   0.0000000  )
        27           Ru  tau(  27) = (   0.7528140   0.5000002   0.2499984  )
        28           Ru  tau(  28) = (   0.5018752   0.7500015   0.2499984  )
        29           Ru  tau(  29) = (   0.5018752   0.5000002   0.5000000  )
        30           Ru  tau(  30) = (   0.7528140   0.7500015   0.5000000  )
        31           Ru  tau(  31) = (   0.7528140   0.5000002   0.7500005  )
        32           Ru  tau(  32) = (   0.5018752   0.7500015   0.7500005  )

     number of k points=    75  Marzari-Vanderbilt smearing, width (Ry)=  0.0400
                       cart. coord. in units 2pi/alat
        k(    1) = (   0.0553480   0.0555556   0.0555556), wk =   0.0219479
        k(    2) = (   0.0553480   0.0555556   0.1666667), wk =   0.0438957
        k(    3) = (   0.0553480   0.0555556   0.2777778), wk =   0.0438957
        k(    4) = (   0.0553480   0.0555556   0.3888889), wk =   0.0438957
        k(    5) = (   0.0553480   0.0555556  -0.5000000), wk =   0.0219479
        k(    6) = (   0.0553480   0.1666667   0.1666667), wk =   0.0219479
        k(    7) = (   0.0553480   0.1666667   0.2777778), wk =   0.0438957
        k(    8) = (   0.0553480   0.1666667   0.3888889), wk =   0.0438957
        k(    9) = (   0.0553480   0.1666667  -0.5000000), wk =   0.0219479
        k(   10) = (   0.0553480   0.2777778   0.2777778), wk =   0.0219479
        k(   11) = (   0.0553480   0.2777778   0.3888889), wk =   0.0438957
        k(   12) = (   0.0553480   0.2777778  -0.5000000), wk =   0.0219479
        k(   13) = (   0.0553480   0.3888889   0.3888889), wk =   0.0219479
        k(   14) = (   0.0553480   0.3888889  -0.5000000), wk =   0.0219479
        k(   15) = (   0.0553480  -0.5000000  -0.5000000), wk =   0.0054870
        k(   16) = (   0.1660440   0.0555556   0.0555556), wk =   0.0219479
        k(   17) = (   0.1660440   0.0555556   0.1666667), wk =   0.0438957
        k(   18) = (   0.1660440   0.0555556   0.2777778), wk =   0.0438957
        k(   19) = (   0.1660440   0.0555556   0.3888889), wk =   0.0438957
        k(   20) = (   0.1660440   0.0555556  -0.5000000), wk =   0.0219479
        k(   21) = (   0.1660440   0.1666667   0.1666667), wk =   0.0219479
        k(   22) = (   0.1660440   0.1666667   0.2777778), wk =   0.0438957
        k(   23) = (   0.1660440   0.1666667   0.3888889), wk =   0.0438957
        k(   24) = (   0.1660440   0.1666667  -0.5000000), wk =   0.0219479
        k(   25) = (   0.1660440   0.2777778   0.2777778), wk =   0.0219479
        k(   26) = (   0.1660440   0.2777778   0.3888889), wk =   0.0438957
        k(   27) = (   0.1660440   0.2777778  -0.5000000), wk =   0.0219479
        k(   28) = (   0.1660440   0.3888889   0.3888889), wk =   0.0219479
        k(   29) = (   0.1660440   0.3888889  -0.5000000), wk =   0.0219479
        k(   30) = (   0.1660440  -0.5000000  -0.5000000), wk =   0.0054870
        k(   31) = (   0.2767400   0.0555556   0.0555556), wk =   0.0219479
        k(   32) = (   0.2767400   0.0555556   0.1666667), wk =   0.0438957
        k(   33) = (   0.2767400   0.0555556   0.2777778), wk =   0.0438957
        k(   34) = (   0.2767400   0.0555556   0.3888889), wk =   0.0438957
        k(   35) = (   0.2767400   0.0555556  -0.5000000), wk =   0.0219479
        k(   36) = (   0.2767400   0.1666667   0.1666667), wk =   0.0219479
        k(   37) = (   0.2767400   0.1666667   0.2777778), wk =   0.0438957
        k(   38) = (   0.2767400   0.1666667   0.3888889), wk =   0.0438957
        k(   39) = (   0.2767400   0.1666667  -0.5000000), wk =   0.0219479
        k(   40) = (   0.2767400   0.2777778   0.2777778), wk =   0.0219479
        k(   41) = (   0.2767400   0.2777778   0.3888889), wk =   0.0438957
        k(   42) = (   0.2767400   0.2777778  -0.5000000), wk =   0.0219479
        k(   43) = (   0.2767400   0.3888889   0.3888889), wk =   0.0219479
        k(   44) = (   0.2767400   0.3888889  -0.5000000), wk =   0.0219479
        k(   45) = (   0.2767400  -0.5000000  -0.5000000), wk =   0.0054870
        k(   46) = (   0.3874360   0.0555556   0.0555556), wk =   0.0219479
        k(   47) = (   0.3874360   0.0555556   0.1666667), wk =   0.0438957
        k(   48) = (   0.3874360   0.0555556   0.2777778), wk =   0.0438957
        k(   49) = (   0.3874360   0.0555556   0.3888889), wk =   0.0438957
        k(   50) = (   0.3874360   0.0555556  -0.5000000), wk =   0.0219479
        k(   51) = (   0.3874360   0.1666667   0.1666667), wk =   0.0219479
        k(   52) = (   0.3874360   0.1666667   0.2777778), wk =   0.0438957
        k(   53) = (   0.3874360   0.1666667   0.3888889), wk =   0.0438957
        k(   54) = (   0.3874360   0.1666667  -0.5000000), wk =   0.0219479
        k(   55) = (   0.3874360   0.2777778   0.2777778), wk =   0.0219479
        k(   56) = (   0.3874360   0.2777778   0.3888889), wk =   0.0438957
        k(   57) = (   0.3874360   0.2777778  -0.5000000), wk =   0.0219479
        k(   58) = (   0.3874360   0.3888889   0.3888889), wk =   0.0219479
        k(   59) = (   0.3874360   0.3888889  -0.5000000), wk =   0.0219479
        k(   60) = (   0.3874360  -0.5000000  -0.5000000), wk =   0.0054870
        k(   61) = (  -0.4981320   0.0555556   0.0555556), wk =   0.0109739
        k(   62) = (  -0.4981320   0.0555556   0.1666667), wk =   0.0219479
        k(   63) = (  -0.4981320   0.0555556   0.2777778), wk =   0.0219479
        k(   64) = (  -0.4981320   0.0555556   0.3888889), wk =   0.0219479
        k(   65) = (  -0.4981320   0.0555556  -0.5000000), wk =   0.0109739
        k(   66) = (  -0.4981320   0.1666667   0.1666667), wk =   0.0109739
        k(   67) = (  -0.4981320   0.1666667   0.2777778), wk =   0.0219479
        k(   68) = (  -0.4981320   0.1666667   0.3888889), wk =   0.0219479
        k(   69) = (  -0.4981320   0.1666667  -0.5000000), wk =   0.0109739
        k(   70) = (  -0.4981320   0.2777778   0.2777778), wk =   0.0109739
        k(   71) = (  -0.4981320   0.2777778   0.3888889), wk =   0.0219479
        k(   72) = (  -0.4981320   0.2777778  -0.5000000), wk =   0.0109739
        k(   73) = (  -0.4981320   0.3888889   0.3888889), wk =   0.0109739
        k(   74) = (  -0.4981320   0.3888889  -0.5000000), wk =   0.0109739
        k(   75) = (  -0.4981320  -0.5000000  -0.5000000), wk =   0.0027435

     Check: negative core charge=   -0.000002

     Initial potential from superposition of free atoms

     starting charge  511.97959, renormalised to  512.00000
     Starting wfcs are  320 randomized atomic wfcs
     Checking if some PAW data can be deallocated...

     Self-consistent Calculation

     iteration #  1     ecut=    71.00 Ry     beta= 0.10
     Davidson diagonalization with overlap
     ethr =  1.00E-02,  avg # of iterations =  3.4

     Threshold (ethr) on eigenvalues was too large:
     Diagonalizing with lowered threshold

     Davidson diagonalization with overlap
     ethr =  8.31E-05,  avg # of iterations =  5.5

     total energy              =  -13813.41185291 Ry
     estimated scf accuracy    <       0.63700877 Ry

[...]

     iteration #  4     ecut=    71.00 Ry     beta= 0.10
     Davidson diagonalization with overlap
     c_bands:  1 eigenvalues not converged
     ethr =  6.96E-06,  avg # of iterations =  2.6

[...]

     total energy              =  -13813.30041846 Ry
     estimated scf accuracy    <       0.00000293 Ry

     iteration # 11     ecut=    71.00 Ry     beta= 0.10
     Davidson diagonalization with overlap
     ethr =  5.73E-10,  avg # of iterations =  4.2

     End of self-consistent calculation

          k = 0.0553 0.0556 0.0556 ( 30350 PWs)   bands (ev):

   -50.0064 -49.9089 -49.9077 -49.9077 -49.8901 -49.8887 -49.8887 -49.8538
   -49.8538 -49.8537 -49.8445 -49.8436 -49.8435 -49.8434 -49.8434 -49.8433
   -49.8433 -49.8428 -49.8428 -49.8427 -49.8347 -49.8346 -49.8346 -49.7916
   -49.7900 -49.7900 -49.7898 -49.7898 -49.7891 -49.7891 -49.7886 -49.7886
   -20.4052 -20.4052 -20.4051 -20.4011 -20.3437 -20.3437 -20.3426 -20.1490
   -20.1435 -20.1435 -20.1379 -20.1379 -20.1324 -20.1324 -20.1320 -20.1320
   -20.1181 -20.1121 -20.1121 -20.0946 -20.0945 -20.0905 -20.0905 -20.0902
   -20.0902 -20.0451 -20.0451 -20.0405 -20.0405 -20.0398 -20.0398 -19.9439
   -19.9439 -19.9430 -19.8718 -19.8718 -19.8705 -19.8639 -19.8639 -19.8630
   -19.8312 -19.8312 -19.8303 -19.8303 -19.8295 -19.8294 -19.7911 -19.7911
   -19.7898 -19.7853 -19.7853 -19.7844 -19.7844 -19.7825 -19.7825 -19.7819
   -19.7819 -19.7740 -19.7738 -19.7737 -19.7694 -19.6159 -19.6159 -19.6120
   -19.6119 -19.6107 -19.6100 -19.5838 -19.5838 -19.5806 -19.5806 -19.5791
   -19.5791 -19.5680 -19.5680 -19.5634 -19.5571 -19.5553 -19.5552 -19.5547
   -19.5547 -19.5547 -19.5546 -19.5513 -19.5506 -19.5506 -19.5504 -19.5503
   -19.5485 -19.5457 -19.5364 -19.5363 -19.5324 -19.4234 -19.4167 -19.4163
    15.2594  16.8267  16.8267  16.8300  17.1025  17.1202  17.1202  17.1202
    17.2932  17.2932  17.2971  17.5004  17.5138  17.5140  17.6740  17.6870
    17.6871  18.2165  18.2165  18.2363  18.2364  18.2372  18.2373  18.5363
    18.5492  18.5492  18.8025  18.8026  18.8033  18.8054  18.8223  18.8223
    18.9098  18.9115  18.9116  18.9126  18.9127  18.9127  18.9127  18.9136
    18.9136  19.3950  19.3951  19.4051  19.4051  19.4135  19.4135  19.5355
    19.5547  19.5548  19.5667  19.5667  19.5864  19.5864  19.5879  19.5879
    19.6325  19.6504  19.6504  19.8959  19.8960  19.9023  19.9023  19.9043
    19.9044  19.9044  19.9045  19.9080  19.9080  19.9099  19.9125  19.9126
    19.9174  19.9174  20.0756  20.0756  20.0793  20.3379  20.3619  20.3619
    20.3735  20.4100  20.4100  20.4195  20.4344  20.4751  20.5201  20.5357
    21.4674  21.5020  21.5020  21.6337  21.6714  21.6715  21.7051  21.7051
    21.7173  21.8045  21.8045  21.8059  21.8059  21.8158  21.8158  21.8195
    21.8195  21.8289  22.1102  22.1102  22.1306  22.2324  22.2324  22.2447
    22.4776  22.4776  22.4965  22.5556  22.5556  22.5643  22.5643  22.5653
    22.5653  22.5742  22.5742  22.5912  22.6152  22.6152  22.6271  22.8029
    22.8029  22.8036  22.8036  22.8187  22.8187  22.8395  22.8931  22.9755
    22.9755  22.9910  23.6290  23.6290  23.6535  23.6836  23.6837  23.6886
    23.7893  23.7893  23.8105  23.8859  24.6097  24.6098  24.6126  24.6413
    24.6646  24.6759  24.6934  24.6934  24.9623  24.9721  24.9721  24.9920
    24.9921  25.0040  25.1440  25.1440  25.1455  25.1455  25.1580  25.1626
    25.1626  25.1752  25.1752  26.5877  26.5877  26.6140  26.7198  26.7912
    26.7912  27.1175  27.1176

[...]

          k = 0.3874-0.5000-0.5000 ( 30288 PWs)   bands (ev):

[...]

          k =-0.4981 0.0556 0.0556 ( 30268 PWs)   bands (ev):

[...]

          k =-0.4981-0.5000-0.5000 ( 30376 PWs)   bands (ev):

   -49.9263 -49.9262 -49.9260 -49.9260 -49.9260 -49.9259 -49.9258 -49.9257
   -49.8176 -49.8175 -49.8174 -49.8173 -49.8173 -49.8173 -49.8171 -49.8170
   -49.8164 -49.8163 -49.8163 -49.8163 -49.8161 -49.8161 -49.8161 -49.8160
   -49.8160 -49.8160 -49.8160 -49.8160 -49.8158 -49.8158 -49.8157 -49.8157
   -20.2397 -20.2397 -20.2397 -20.2396 -20.2396 -20.2396 -20.2396 -20.2396
   -20.2395 -20.2395 -20.2395 -20.2394 -20.2394 -20.2394 -20.2394 -20.2394
   -20.2369 -20.2369 -20.2368 -20.2368 -20.2368 -20.2367 -20.2367 -20.2366
   -19.9225 -19.9225 -19.9225 -19.9224 -19.9224 -19.9224 -19.9224 -19.9223
   -19.8126 -19.8126 -19.8125 -19.8125 -19.8125 -19.8125 -19.8124 -19.8124
   -19.8114 -19.8114 -19.8114 -19.8114 -19.8114 -19.8114 -19.8114 -19.8114
   -19.8113 -19.8113 -19.8113 -19.8113 -19.8113 -19.8113 -19.8113 -19.8112
   -19.6655 -19.6655 -19.6655 -19.6654 -19.6654 -19.6654 -19.6653 -19.6653
   -19.6653 -19.6653 -19.6653 -19.6653 -19.6652 -19.6652 -19.6652 -19.6651
   -19.6601 -19.6601 -19.6601 -19.6601 -19.6599 -19.6599 -19.6599 -19.6599
   -19.4846 -19.4845 -19.4844 -19.4844 -19.4844 -19.4843 -19.4843 -19.4842
   -19.4815 -19.4814 -19.4814 -19.4814 -19.4813 -19.4813 -19.4812 -19.4812
    17.0561  17.0562  17.0562  17.0563  17.0564  17.0565  17.0566  17.0567
    17.9178  17.9178  17.9179  17.9179  17.9179  17.9179  17.9179  17.9179
    17.9180  17.9180  17.9180  17.9181  17.9181  17.9181  17.9181  17.9181
    17.9185  17.9185  17.9185  17.9185  17.9187  17.9187  17.9187  17.9188
    18.9404  18.9405  18.9405  18.9405  18.9406  18.9406  18.9406  18.9406
    18.9407  18.9407  18.9407  18.9407  18.9407  18.9408  18.9408  18.9409
    18.9469  18.9469  18.9469  18.9470  18.9471  18.9471  18.9471  18.9472
    20.2572  20.2572  20.2572  20.2573  20.2573  20.2573  20.2573  20.2573
    20.8751  20.8752  20.8752  20.8752  20.8752  20.8752  20.8753  20.8753
    20.9181  20.9181  20.9181  20.9181  20.9182  20.9182  20.9182  20.9182
    20.9855  20.9855  20.9855  20.9856  20.9856  20.9856  20.9857  20.9857
    21.0116  21.0116  21.0116  21.0116  21.0116  21.0116  21.0116  21.0117
    21.0117  21.0118  21.0118  21.0118  21.0118  21.0118  21.0119  21.0119
    22.2064  22.2064  22.2064  22.2065  22.2065  22.2065  22.2065  22.2065
    22.2065  22.2065  22.2065  22.2066  22.2066  22.2066  22.2066  22.2067
    22.2285  22.2286  22.2286  22.2287  22.2287  22.2287  22.2288  22.2288
    23.0334  23.0335  23.0335  23.0336  23.0336  23.0336  23.0336  23.0337
    23.0480  23.0480  23.0481  23.0481  23.0481  23.0482  23.0482  23.0483
    24.8211  24.8211  24.8211  24.8212  24.8212  24.8212  24.8212  24.8212
    24.8298  24.8298  24.8298  24.8298  24.8299  24.8299  24.8299  24.8299
    24.8299  24.8299  24.8299  24.8299  24.8300  24.8300  24.8300  24.8300
    28.1779  28.1780  28.1780  28.1781  28.1782  28.1783  28.1784  28.1786
    28.2045  28.2045  28.2046

     the Fermi energy is    23.0085 ev

!    total energy              =  -13813.30042116 Ry

     total all-electron energy =   -289989.690760 Ry
     estimated scf accuracy    <       0.00000073 Ry
     smearing contrib. (-TS)   =       0.02016865 Ry
     internal energy E=F+TS    =  -13813.32058981 Ry

     The total energy is F=E-TS. E is the sum of the following terms:
     one-electron contribution =   -1005.03404710 Ry
     hartree contribution      =     918.84850306 Ry
     xc contribution           =    -927.91856798 Ry
     ewald contribution        =   -5209.78029126 Ry
     one-center paw contrib.   =   -7589.43618652 Ry

     convergence has been achieved in  11 iterations

     Forces acting on atoms (cartesian axes, Ry/au):

     atom    1 type  1   force =     0.00000000    0.00000000    0.00000000
     atom    2 type  1   force =    -0.00040394   -0.00012401    0.00000000
     atom    3 type  1   force =    -0.00040394   -0.00000000   -0.00012401
     atom    4 type  1   force =    -0.00000000   -0.00003269   -0.00003269
     atom    5 type  1   force =     0.00000000    0.00000000    0.00000000
     atom    6 type  1   force =    -0.00011259    0.00035188    0.00000000
     atom    7 type  1   force =    -0.00040394   -0.00000000    0.00012401
     atom    8 type  1   force =     0.00000000   -0.00003269    0.00003269
     atom    9 type  1   force =     0.00000000    0.00000000    0.00000000
     atom   10 type  1   force =    -0.00040394    0.00012401    0.00000000
     atom   11 type  1   force =    -0.00011259    0.00000000    0.00035188
     atom   12 type  1   force =     0.00000000    0.00003269   -0.00003269
     atom   13 type  1   force =     0.00000000    0.00000000    0.00000000
     atom   14 type  1   force =    -0.00011259   -0.00035188    0.00000000
     atom   15 type  1   force =    -0.00011259    0.00000000   -0.00035188
     atom   16 type  1   force =    -0.00000000    0.00003269    0.00003269
     atom   17 type  1   force =     0.00000000    0.00000000    0.00000000
     atom   18 type  1   force =     0.00040394   -0.00012401    0.00000000
     atom   19 type  1   force =     0.00040394   -0.00000000   -0.00012401
     atom   20 type  1   force =     0.00000000    0.00026803    0.00026803
     atom   21 type  1   force =     0.00000000    0.00000000    0.00000000
     atom   22 type  1   force =     0.00011259    0.00035188    0.00000000
     atom   23 type  1   force =     0.00040394    0.00000000    0.00012401
     atom   24 type  1   force =     0.00000000    0.00026803   -0.00026803
     atom   25 type  1   force =     0.00000000    0.00000000    0.00000000
     atom   26 type  1   force =     0.00040394    0.00012401    0.00000000
     atom   27 type  1   force =     0.00011259    0.00000000    0.00035188
     atom   28 type  1   force =     0.00000000   -0.00026803    0.00026803
     atom   29 type  1   force =     0.00000000    0.00000000    0.00000000
     atom   30 type  1   force =     0.00011259   -0.00035188    0.00000000
     atom   31 type  1   force =     0.00011259    0.00000000   -0.00035188
     atom   32 type  1   force =     0.00000000   -0.00026803   -0.00026803

     Total force =     0.001762     Total SCF correction =     0.007194
     SCF correction compared to forces is large: reduce conv_thr to get better values

     Computing stress (Cartesian axis) and pressure

          total   stress  (Ry/bohr**3)                   (kbar)     P=      -16.32
  -0.00015376   0.00000000   0.00000000          -22.62        0.00        0.00
   0.00000000  -0.00008958   0.00000000            0.00      -13.18        0.00
   0.00000000   0.00000000  -0.00008958            0.00        0.00      -13.18

     Writing output data file /scratch/VTtvhBlJlxRHBlIa.save/

     General routines

     Parallel routines

   This run was terminated on:  15:51:54  23Nov2021

   JOB DONE.