     Program PWSCF v.6.7MaX starts on 23Nov2021 at 13:46: 7

     R & G space division:  proc/nbgrp/npool/nimage =      72
     Reading input from /rds/homes/b/bxp912/jobs/20211014_ru_eos/wd/ec/ec_1_002.in
Warning: card &CELL ignored
Warning: card CELL_DYNAMICS = 'BFGS', ignored
Warning: card CELL_FACTOR = 2.0, ignored
Warning: card PRESS = 0.0, ignored
Warning: card / ignored

     Current dimensions of program PWSCF are:
     Max number of different atomic species (ntypx) = 10
     Max number of k-points (npk) =  40000
     Max angular momentum in pseudopotentials (lmaxx) =  3
     file Ru.pbe-spn-kjpaw_psl.1.0.0.UPF: wavefunction(s)  4D renormalized

     Subspace diagonalization in iterative solution of the eigenvalue problem:
     one sub-group per band group will be used

     Found symmetry operation: I + (  0.2500  0.2500  0.0000)
     This is a supercell, fractional translations are disabled
     Message from routine setup:
     using ibrav=0 with symmetry is DISCOURAGED, use correct ibrav instead

     bravais-lattice index     =            0
     lattice parameter (alat)  =      14.4007  a.u.
     unit-cell volume          =    2988.3119 (a.u.)^3
     number of atoms/cell      =           32
     number of atomic types    =            1
     number of electrons       =       512.00
     number of Kohn-Sham states=          307
     kinetic-energy cutoff     =      71.0000  Ry
     charge density cutoff     =     430.0000  Ry
     scf convergence threshold =      1.0E-06
     mixing beta               =       0.1000
     number of iterations used =           10  plain     mixing
     Exchange-correlation= SLA  PW   PBX  PBC
                           (   1   4   3   4   0   0   0)

     celldm(1)=  14.400742  celldm(2)=   0.000000  celldm(3)=   0.000000
     celldm(4)=   0.000000  celldm(5)=   0.000000  celldm(6)=   0.000000

     crystal axes: (cart. coord. in units of alat)
               a(1) = (   1.000625   0.000000   0.000000 )
               a(2) = (   0.000000   1.000000   0.000000 )
               a(3) = (   0.000000   0.000000   1.000000 )

     reciprocal axes: (cart. coord. in units 2 pi/alat)
               b(1) = (  0.999375  0.000000  0.000000 )
               b(2) = (  0.000000  1.000000  0.000000 )
               b(3) = (  0.000000  0.000000  1.000000 )

     PseudoPot. # 1 for Ru read from file:
     /rds/homes/b/bxp912/pp/Ru.pbe-spn-kjpaw_psl.1.0.0.UPF
     MD5 check sum: 0ae1f594dea09af7be8575c3a481d1ae
     Pseudo is Projector augmented-wave + core cor, Zval = 16.0
     Generated using "atomic" code by A. Dal Corso  v.5.1
     Shape of augmentation charge: PSQ
     Using radial grid of 1233 points,  6 beta functions with:
                l(1) =   0
                l(2) =   0
                l(3) =   1
                l(4) =   1
                l(5) =   2
                l(6) =   2
     Q(r) pseudized with 0 coefficients

     atomic species   valence    mass     pseudopotential
        Ru            16.00   101.07000     Ru( 1.00)

     16 Sym. Ops., with inversion, found

   Cartesian axes

     site n.     atom                  positions (alat units)
         1           Ru  tau(   1) = (   0.0000000   0.0000000   0.0000000  )
         2           Ru  tau(   2) = (   0.2501563   0.2500000   0.0000000  )
         3           Ru  tau(   3) = (   0.2501563   0.0000000   0.2499995  )
         4           Ru  tau(   4) = (   0.0000000   0.2500000   0.2499995  )
         5           Ru  tau(   5) = (   0.0000000   0.0000000   0.5000000  )
         6           Ru  tau(   6) = (   0.2501552   0.2499990   0.5000000  )
         7           Ru  tau(   7) = (   0.2501563   0.0000000   0.7499995  )
         8           Ru  tau(   8) = (   0.0000000   0.2500000   0.7499995  )
         9           Ru  tau(   9) = (   0.0000000   0.5000002   0.0000000  )
        10           Ru  tau(  10) = (   0.2501563   0.7500004   0.0000000  )
        11           Ru  tau(  11) = (   0.2501552   0.5000002   0.2499984  )
        12           Ru  tau(  12) = (   0.0000000   0.7500004   0.2499995  )
        13           Ru  tau(  13) = (   0.0000000   0.5000002   0.5000000  )
        14           Ru  tau(  14) = (   0.2501552   0.7500015   0.5000000  )
        15           Ru  tau(  15) = (   0.2501552   0.5000002   0.7500005  )
        16           Ru  tau(  16) = (   0.0000000   0.7500004   0.7499995  )
        17           Ru  tau(  17) = (   0.5003127   0.0000000   0.0000000  )
        18           Ru  tau(  18) = (   0.7504692   0.2500000   0.0000000  )
        19           Ru  tau(  19) = (   0.7504692   0.0000000   0.2499995  )
        20           Ru  tau(  20) = (   0.5003127   0.2499990   0.2499984  )
        21           Ru  tau(  21) = (   0.5003127   0.0000000   0.5000000  )
        22           Ru  tau(  22) = (   0.7504702   0.2499990   0.5000000  )
        23           Ru  tau(  23) = (   0.7504692   0.0000000   0.7499995  )
        24           Ru  tau(  24) = (   0.5003127   0.2499990   0.7500005  )
        25           Ru  tau(  25) = (   0.5003127   0.5000002   0.0000000  )
        26           Ru  tau(  26) = (   0.7504692   0.7500004   0.0000000  )
        27           Ru  tau(  27) = (   0.7504702   0.5000002   0.2499984  )
        28           Ru  tau(  28) = (   0.5003127   0.7500015   0.2499984  )
        29           Ru  tau(  29) = (   0.5003127   0.5000002   0.5000000  )
        30           Ru  tau(  30) = (   0.7504702   0.7500015   0.5000000  )
        31           Ru  tau(  31) = (   0.7504702   0.5000002   0.7500005  )
        32           Ru  tau(  32) = (   0.5003127   0.7500015   0.7500005  )

     number of k points=    75  Marzari-Vanderbilt smearing, width (Ry)=  0.0400
                       cart. coord. in units 2pi/alat
        k(    1) = (   0.0555209   0.0555556   0.0555556), wk =   0.0219479
        k(    2) = (   0.0555209   0.0555556   0.1666667), wk =   0.0438957
        k(    3) = (   0.0555209   0.0555556   0.2777778), wk =   0.0438957
        k(    4) = (   0.0555209   0.0555556   0.3888889), wk =   0.0438957
        k(    5) = (   0.0555209   0.0555556  -0.5000000), wk =   0.0219479
        k(    6) = (   0.0555209   0.1666667   0.1666667), wk =   0.0219479
        k(    7) = (   0.0555209   0.1666667   0.2777778), wk =   0.0438957
        k(    8) = (   0.0555209   0.1666667   0.3888889), wk =   0.0438957
        k(    9) = (   0.0555209   0.1666667  -0.5000000), wk =   0.0219479
        k(   10) = (   0.0555209   0.2777778   0.2777778), wk =   0.0219479
        k(   11) = (   0.0555209   0.2777778   0.3888889), wk =   0.0438957
        k(   12) = (   0.0555209   0.2777778  -0.5000000), wk =   0.0219479
        k(   13) = (   0.0555209   0.3888889   0.3888889), wk =   0.0219479
        k(   14) = (   0.0555209   0.3888889  -0.5000000), wk =   0.0219479
        k(   15) = (   0.0555209  -0.5000000  -0.5000000), wk =   0.0054870
        k(   16) = (   0.1665626   0.0555556   0.0555556), wk =   0.0219479
        k(   17) = (   0.1665626   0.0555556   0.1666667), wk =   0.0438957
        k(   18) = (   0.1665626   0.0555556   0.2777778), wk =   0.0438957
        k(   19) = (   0.1665626   0.0555556   0.3888889), wk =   0.0438957
        k(   20) = (   0.1665626   0.0555556  -0.5000000), wk =   0.0219479
        k(   21) = (   0.1665626   0.1666667   0.1666667), wk =   0.0219479
        k(   22) = (   0.1665626   0.1666667   0.2777778), wk =   0.0438957
        k(   23) = (   0.1665626   0.1666667   0.3888889), wk =   0.0438957
        k(   24) = (   0.1665626   0.1666667  -0.5000000), wk =   0.0219479
        k(   25) = (   0.1665626   0.2777778   0.2777778), wk =   0.0219479
        k(   26) = (   0.1665626   0.2777778   0.3888889), wk =   0.0438957
        k(   27) = (   0.1665626   0.2777778  -0.5000000), wk =   0.0219479
        k(   28) = (   0.1665626   0.3888889   0.3888889), wk =   0.0219479
        k(   29) = (   0.1665626   0.3888889  -0.5000000), wk =   0.0219479
        k(   30) = (   0.1665626  -0.5000000  -0.5000000), wk =   0.0054870
        k(   31) = (   0.2776043   0.0555556   0.0555556), wk =   0.0219479
        k(   32) = (   0.2776043   0.0555556   0.1666667), wk =   0.0438957
        k(   33) = (   0.2776043   0.0555556   0.2777778), wk =   0.0438957
        k(   34) = (   0.2776043   0.0555556   0.3888889), wk =   0.0438957
        k(   35) = (   0.2776043   0.0555556  -0.5000000), wk =   0.0219479
        k(   36) = (   0.2776043   0.1666667   0.1666667), wk =   0.0219479
        k(   37) = (   0.2776043   0.1666667   0.2777778), wk =   0.0438957
        k(   38) = (   0.2776043   0.1666667   0.3888889), wk =   0.0438957
        k(   39) = (   0.2776043   0.1666667  -0.5000000), wk =   0.0219479
        k(   40) = (   0.2776043   0.2777778   0.2777778), wk =   0.0219479
        k(   41) = (   0.2776043   0.2777778   0.3888889), wk =   0.0438957
        k(   42) = (   0.2776043   0.2777778  -0.5000000), wk =   0.0219479
        k(   43) = (   0.2776043   0.3888889   0.3888889), wk =   0.0219479
        k(   44) = (   0.2776043   0.3888889  -0.5000000), wk =   0.0219479
        k(   45) = (   0.2776043  -0.5000000  -0.5000000), wk =   0.0054870
        k(   46) = (   0.3886460   0.0555556   0.0555556), wk =   0.0219479
        k(   47) = (   0.3886460   0.0555556   0.1666667), wk =   0.0438957
        k(   48) = (   0.3886460   0.0555556   0.2777778), wk =   0.0438957
        k(   49) = (   0.3886460   0.0555556   0.3888889), wk =   0.0438957
        k(   50) = (   0.3886460   0.0555556  -0.5000000), wk =   0.0219479
        k(   51) = (   0.3886460   0.1666667   0.1666667), wk =   0.0219479
        k(   52) = (   0.3886460   0.1666667   0.2777778), wk =   0.0438957
        k(   53) = (   0.3886460   0.1666667   0.3888889), wk =   0.0438957
        k(   54) = (   0.3886460   0.1666667  -0.5000000), wk =   0.0219479
        k(   55) = (   0.3886460   0.2777778   0.2777778), wk =   0.0219479
        k(   56) = (   0.3886460   0.2777778   0.3888889), wk =   0.0438957
        k(   57) = (   0.3886460   0.2777778  -0.5000000), wk =   0.0219479
        k(   58) = (   0.3886460   0.3888889   0.3888889), wk =   0.0219479
        k(   59) = (   0.3886460   0.3888889  -0.5000000), wk =   0.0219479
        k(   60) = (   0.3886460  -0.5000000  -0.5000000), wk =   0.0054870
        k(   61) = (  -0.4996877   0.0555556   0.0555556), wk =   0.0109739
        k(   62) = (  -0.4996877   0.0555556   0.1666667), wk =   0.0219479
        k(   63) = (  -0.4996877   0.0555556   0.2777778), wk =   0.0219479
        k(   64) = (  -0.4996877   0.0555556   0.3888889), wk =   0.0219479
        k(   65) = (  -0.4996877   0.0555556  -0.5000000), wk =   0.0109739
        k(   66) = (  -0.4996877   0.1666667   0.1666667), wk =   0.0109739
        k(   67) = (  -0.4996877   0.1666667   0.2777778), wk =   0.0219479
        k(   68) = (  -0.4996877   0.1666667   0.3888889), wk =   0.0219479
        k(   69) = (  -0.4996877   0.1666667  -0.5000000), wk =   0.0109739
        k(   70) = (  -0.4996877   0.2777778   0.2777778), wk =   0.0109739
        k(   71) = (  -0.4996877   0.2777778   0.3888889), wk =   0.0219479
        k(   72) = (  -0.4996877   0.2777778  -0.5000000), wk =   0.0109739
        k(   73) = (  -0.4996877   0.3888889   0.3888889), wk =   0.0109739
        k(   74) = (  -0.4996877   0.3888889  -0.5000000), wk =   0.0109739
        k(   75) = (  -0.4996877  -0.5000000  -0.5000000), wk =   0.0027435

     Check: negative core charge=   -0.000002

     Initial potential from superposition of free atoms

     starting charge  511.97959, renormalised to  512.00000
     Starting wfcs are  320 randomized atomic wfcs
     Checking if some PAW data can be deallocated...

     Self-consistent Calculation

     iteration #  1     ecut=    71.00 Ry     beta= 0.10
     Davidson diagonalization with overlap
     ethr =  1.00E-02,  avg # of iterations =  3.4

     Threshold (ethr) on eigenvalues was too large:
     Diagonalizing with lowered threshold

     Davidson diagonalization with overlap
     ethr =  8.34E-05,  avg # of iterations =  5.3

     total energy              =  -13813.41287858 Ry
     estimated scf accuracy    <       0.63814473 Ry

[...]

     iteration #  4     ecut=    71.00 Ry     beta= 0.10
     Davidson diagonalization with overlap
     c_bands:  1 eigenvalues not converged
     ethr =  6.73E-06,  avg # of iterations =  3.1

[...]

     total energy              =  -13813.30089639 Ry
     estimated scf accuracy    <       0.00003775 Ry

     iteration # 13     ecut=    71.00 Ry     beta= 0.10
     Davidson diagonalization with overlap
     ethr =  1.06E-09,  avg # of iterations =  3.4

     End of self-consistent calculation

          k = 0.0555 0.0556 0.0556 ( 30239 PWs)   bands (ev):

   -49.9244 -49.8249 -49.8247 -49.8247 -49.8057 -49.8055 -49.8055 -49.7697
   -49.7697 -49.7697 -49.7603 -49.7592 -49.7592 -49.7592 -49.7592 -49.7592
   -49.7591 -49.7586 -49.7586 -49.7586 -49.7503 -49.7503 -49.7503 -49.7053
   -49.7049 -49.7049 -49.7046 -49.7046 -49.7046 -49.7045 -49.7044 -49.7043
   -20.3281 -20.3281 -20.3281 -20.3239 -20.2656 -20.2656 -20.2654 -20.0662
   -20.0653 -20.0653 -20.0548 -20.0548 -20.0539 -20.0539 -20.0538 -20.0538
   -20.0347 -20.0337 -20.0337 -20.0118 -20.0118 -20.0112 -20.0112 -20.0111
   -20.0111 -19.9614 -19.9614 -19.9607 -19.9607 -19.9605 -19.9605 -19.8618
   -19.8618 -19.8616 -19.7888 -19.7888 -19.7886 -19.7810 -19.7810 -19.7808
   -19.7474 -19.7474 -19.7472 -19.7472 -19.7471 -19.7471 -19.7072 -19.7072
   -19.7070 -19.7005 -19.7005 -19.7003 -19.7003 -19.6999 -19.6999 -19.6949
   -19.6949 -19.6937 -19.6902 -19.6902 -19.6892 -19.5280 -19.5280 -19.5272
   -19.5271 -19.5271 -19.5266 -19.4959 -19.4959 -19.4953 -19.4953 -19.4951
   -19.4950 -19.4808 -19.4808 -19.4800 -19.4687 -19.4681 -19.4681 -19.4674
   -19.4674 -19.4674 -19.4674 -19.4668 -19.4667 -19.4654 -19.4654 -19.4648
   -19.4629 -19.4619 -19.4490 -19.4490 -19.4483 -19.3361 -19.3292 -19.3291
    15.3298  16.8886  16.8886  16.8891  17.1679  17.1856  17.1856  17.1856
    17.3566  17.3566  17.3573  17.5816  17.5839  17.5839  17.7532  17.7554
    17.7554  18.2944  18.2945  18.2978  18.2978  18.2979  18.2979  18.6107
    18.6128  18.6128  18.8776  18.8776  18.8777  18.8832  18.8860  18.8860
    18.9833  18.9836  18.9836  18.9869  18.9869  18.9869  18.9870  18.9871
    18.9871  19.4759  19.4759  19.4776  19.4776  19.4790  19.4791  19.6196
    19.6229  19.6229  19.6514  19.6514  19.6547  19.6547  19.6549  19.6549
    19.7160  19.7190  19.7190  19.9804  19.9804  19.9806  19.9806  19.9816
    19.9816  19.9816  19.9816  19.9816  19.9826  19.9826  19.9830  19.9830
    19.9842  19.9842  20.1517  20.1517  20.1524  20.4322  20.4377  20.4377
    20.4683  20.4760  20.4856  20.4856  20.4911  20.5655  20.5952  20.5998
    21.5686  21.5744  21.5744  21.7384  21.7447  21.7447  21.7899  21.7899
    21.7920  21.8900  21.8900  21.8902  21.8902  21.8919  21.8919  21.9040
    21.9040  21.9056  22.2000  22.2000  22.2034  22.3203  22.3203  22.3224
    22.5686  22.5686  22.5718  22.6461  22.6461  22.6476  22.6476  22.6477
    22.6477  22.6647  22.6647  22.6675  22.7050  22.7050  22.7070  22.8944
    22.8944  22.8945  22.8945  22.8970  22.8970  22.9499  22.9589  23.0676
    23.0676  23.0701  23.7276  23.7276  23.7317  23.7755  23.7755  23.7764
    23.8878  23.8878  23.8913  23.9764  24.7074  24.7074  24.7079  24.7478
    24.7517  24.7827  24.7857  24.7857  25.0670  25.0688  25.0689  25.0922
    25.0922  25.0943  25.2526  25.2526  25.2528  25.2528  25.2578  25.2578
    25.2591  25.2596  25.2596  26.7001  26.7001  26.7045  26.8592  26.8711
    26.8711  27.2332  27.2332

[...]

          k = 0.3886-0.5000-0.5000 ( 30196 PWs)   bands (ev):

[...]

          k =-0.4997 0.0556 0.0556 ( 30188 PWs)   bands (ev):

[...]

          k =-0.4997-0.5000-0.5000 ( 30280 PWs)   bands (ev):

   -49.8431 -49.8430 -49.8430 -49.8429 -49.8429 -49.8428 -49.8428 -49.8426
   -49.7323 -49.7322 -49.7322 -49.7322 -49.7321 -49.7321 -49.7321 -49.7321
   -49.7320 -49.7320 -49.7320 -49.7319 -49.7319 -49.7318 -49.7318 -49.7318
   -49.7318 -49.7318 -49.7318 -49.7317 -49.7316 -49.7316 -49.7316 -49.7315
   -20.1601 -20.1601 -20.1601 -20.1600 -20.1600 -20.1600 -20.1600 -20.1600
   -20.1599 -20.1599 -20.1599 -20.1599 -20.1599 -20.1598 -20.1598 -20.1598
   -20.1596 -20.1595 -20.1595 -20.1594 -20.1594 -20.1594 -20.1593 -20.1593
   -19.8405 -19.8404 -19.8404 -19.8404 -19.8404 -19.8404 -19.8404 -19.8403
   -19.7286 -19.7286 -19.7286 -19.7286 -19.7285 -19.7285 -19.7285 -19.7285
   -19.7284 -19.7284 -19.7284 -19.7284 -19.7284 -19.7284 -19.7283 -19.7283
   -19.7283 -19.7283 -19.7283 -19.7283 -19.7283 -19.7283 -19.7283 -19.7282
   -19.5791 -19.5791 -19.5791 -19.5790 -19.5790 -19.5790 -19.5790 -19.5790
   -19.5789 -19.5789 -19.5789 -19.5789 -19.5788 -19.5788 -19.5788 -19.5788
   -19.5781 -19.5781 -19.5781 -19.5781 -19.5780 -19.5780 -19.5780 -19.5780
   -19.3965 -19.3965 -19.3964 -19.3964 -19.3964 -19.3963 -19.3963 -19.3962
   -19.3959 -19.3959 -19.3959 -19.3959 -19.3958 -19.3958 -19.3958 -19.3958
    17.1284  17.1285  17.1285  17.1286  17.1287  17.1287  17.1287  17.1289
    17.9843  17.9843  17.9843  17.9844  17.9844  17.9844  17.9844  17.9844
    17.9845  17.9845  17.9845  17.9845  17.9845  17.9845  17.9845  17.9845
    17.9846  17.9846  17.9846  17.9846  17.9846  17.9846  17.9847  17.9847
    19.0126  19.0127  19.0127  19.0127  19.0127  19.0127  19.0128  19.0128
    19.0128  19.0129  19.0129  19.0129  19.0129  19.0129  19.0130  19.0130
    19.0138  19.0138  19.0138  19.0139  19.0139  19.0139  19.0140  19.0140
    20.3349  20.3349  20.3349  20.3349  20.3349  20.3349  20.3349  20.3349
    20.9712  20.9712  20.9712  20.9712  20.9712  20.9712  20.9713  20.9713
    20.9783  20.9784  20.9784  20.9784  20.9784  20.9784  20.9784  20.9785
    21.0809  21.0809  21.0809  21.0809  21.0810  21.0810  21.0810  21.0811
    21.0852  21.0852  21.0853  21.0853  21.0853  21.0853  21.0853  21.0853
    21.0853  21.0854  21.0854  21.0854  21.0854  21.0854  21.0854  21.0854
    22.2967  22.2967  22.2967  22.2967  22.2967  22.2968  22.2968  22.2968
    22.2968  22.2968  22.2968  22.2969  22.2969  22.2969  22.2969  22.2970
    22.3004  22.3005  22.3005  22.3005  22.3005  22.3006  22.3006  22.3007
    23.1278  23.1279  23.1279  23.1279  23.1280  23.1280  23.1280  23.1281
    23.1302  23.1303  23.1303  23.1303  23.1304  23.1304  23.1305  23.1305
    24.9237  24.9238  24.9238  24.9238  24.9238  24.9239  24.9239  24.9239
    24.9252  24.9252  24.9252  24.9253  24.9253  24.9253  24.9253  24.9253
    24.9253  24.9253  24.9253  24.9254  24.9254  24.9254  24.9254  24.9254
    28.3006  28.3010  28.3013  28.3020  28.3026  28.3034  28.3040  28.3045
    28.3048  28.3048  28.3049

     the Fermi energy is    23.0965 ev

!    total energy              =  -13813.30090498 Ry

     total all-electron energy =   -289989.691244 Ry
     estimated scf accuracy    <       0.00000020 Ry
     smearing contrib. (-TS)   =       0.02038298 Ry
     internal energy E=F+TS    =  -13813.32128796 Ry

     The total energy is F=E-TS. E is the sum of the following terms:
     one-electron contribution =    -997.14089479 Ry
     hartree contribution      =     916.50561213 Ry
     xc contribution           =    -928.04450934 Ry
     ewald contribution        =   -5215.19923817 Ry
     one-center paw contrib.   =   -7589.44225779 Ry

     convergence has been achieved in  13 iterations

     Forces acting on atoms (cartesian axes, Ry/au):

     atom    1 type  1   force =     0.00000000    0.00000000    0.00000000
     atom    2 type  1   force =    -0.00003785   -0.00001345   -0.00000000
     atom    3 type  1   force =    -0.00003785    0.00000000   -0.00001345
     atom    4 type  1   force =     0.00000000   -0.00000458   -0.00000458
     atom    5 type  1   force =     0.00000000    0.00000000    0.00000000
     atom    6 type  1   force =    -0.00001191    0.00003267    0.00000000
     atom    7 type  1   force =    -0.00003785    0.00000000    0.00001345
     atom    8 type  1   force =     0.00000000   -0.00000458    0.00000458
     atom    9 type  1   force =     0.00000000    0.00000000    0.00000000
     atom   10 type  1   force =    -0.00003785    0.00001345   -0.00000000
     atom   11 type  1   force =    -0.00001191    0.00000000    0.00003267
     atom   12 type  1   force =     0.00000000    0.00000458   -0.00000458
     atom   13 type  1   force =     0.00000000    0.00000000    0.00000000
     atom   14 type  1   force =    -0.00001191   -0.00003267   -0.00000000
     atom   15 type  1   force =    -0.00001191    0.00000000   -0.00003267
     atom   16 type  1   force =     0.00000000    0.00000458    0.00000458
     atom   17 type  1   force =     0.00000000    0.00000000    0.00000000
     atom   18 type  1   force =     0.00003785   -0.00001345   -0.00000000
     atom   19 type  1   force =     0.00003785    0.00000000   -0.00001345
     atom   20 type  1   force =     0.00000000    0.00002694    0.00002694
     atom   21 type  1   force =     0.00000000    0.00000000    0.00000000
     atom   22 type  1   force =     0.00001191    0.00003267   -0.00000000
     atom   23 type  1   force =     0.00003785    0.00000000    0.00001345
     atom   24 type  1   force =     0.00000000    0.00002694   -0.00002694
     atom   25 type  1   force =     0.00000000    0.00000000    0.00000000
     atom   26 type  1   force =     0.00003785    0.00001345   -0.00000000
     atom   27 type  1   force =     0.00001191    0.00000000    0.00003267
     atom   28 type  1   force =     0.00000000   -0.00002694    0.00002694
     atom   29 type  1   force =     0.00000000    0.00000000    0.00000000
     atom   30 type  1   force =     0.00001191   -0.00003267    0.00000000
     atom   31 type  1   force =     0.00001191    0.00000000   -0.00003267
     atom   32 type  1   force =     0.00000000   -0.00002694   -0.00002694

     Total force =     0.000169     Total SCF correction =     0.000390
     SCF correction compared to forces is large: reduce conv_thr to get better values

     Computing stress (Cartesian axis) and pressure

          total   stress  (Ry/bohr**3)                   (kbar)     P=       -5.47
  -0.00004434   0.00000000   0.00000000           -6.52        0.00        0.00
   0.00000000  -0.00003359   0.00000000            0.00       -4.94        0.00
   0.00000000   0.00000000  -0.00003359            0.00        0.00       -4.94

     Writing output data file /scratch/afmANroNnsxrADeN.save/

     General routines

     Parallel routines

   This run was terminated on:  14: 7:21  23Nov2021

   JOB DONE.