     Program PWSCF v.6.7MaX starts on 23Nov2021 at 15:14:26

     R & G space division:  proc/nbgrp/npool/nimage =      72
     Reading input from /rds/homes/b/bxp912/jobs/20211014_ru_eos/wd/ec/ec_1_006.in
Warning: card &CELL ignored
Warning: card CELL_DYNAMICS = 'BFGS', ignored
Warning: card CELL_FACTOR = 2.0, ignored
Warning: card PRESS = 0.0, ignored
Warning: card / ignored

     Current dimensions of program PWSCF are:
     Max number of different atomic species (ntypx) = 10
     Max number of k-points (npk) =  40000
     Max angular momentum in pseudopotentials (lmaxx) =  3
     file Ru.pbe-spn-kjpaw_psl.1.0.0.UPF: wavefunction(s)  4D renormalized

     Subspace diagonalization in iterative solution of the eigenvalue problem:
     one sub-group per band group will be used

     Found symmetry operation: I + (  0.2500  0.2500  0.0000)
     This is a supercell, fractional translations are disabled
     Message from routine setup:
     using ibrav=0 with symmetry is DISCOURAGED, use correct ibrav instead

     bravais-lattice index     =            0
     lattice parameter (alat)  =      14.4007  a.u.
     unit-cell volume          =    2995.7780 (a.u.)^3
     number of atoms/cell      =           32
     number of atomic types    =            1
     number of electrons       =       512.00
     number of Kohn-Sham states=          307
     kinetic-energy cutoff     =      71.0000  Ry
     charge density cutoff     =     430.0000  Ry
     scf convergence threshold =      1.0E-06
     mixing beta               =       0.1000
     number of iterations used =           10  plain     mixing
     Exchange-correlation= SLA  PW   PBX  PBC
                           (   1   4   3   4   0   0   0)

     celldm(1)=  14.400742  celldm(2)=   0.000000  celldm(3)=   0.000000
     celldm(4)=   0.000000  celldm(5)=   0.000000  celldm(6)=   0.000000

     crystal axes: (cart. coord. in units of alat)
               a(1) = (   1.003125   0.000000   0.000000 )
               a(2) = (   0.000000   1.000000   0.000000 )
               a(3) = (   0.000000   0.000000   1.000000 )

     reciprocal axes: (cart. coord. in units 2 pi/alat)
               b(1) = (  0.996885  0.000000  0.000000 )
               b(2) = (  0.000000  1.000000  0.000000 )
               b(3) = (  0.000000  0.000000  1.000000 )

     PseudoPot. # 1 for Ru read from file:
     /rds/homes/b/bxp912/pp/Ru.pbe-spn-kjpaw_psl.1.0.0.UPF
     MD5 check sum: 0ae1f594dea09af7be8575c3a481d1ae
     Pseudo is Projector augmented-wave + core cor, Zval = 16.0
     Generated using "atomic" code by A. Dal Corso  v.5.1
     Shape of augmentation charge: PSQ
     Using radial grid of 1233 points,  6 beta functions with:
                l(1) =   0
                l(2) =   0
                l(3) =   1
                l(4) =   1
                l(5) =   2
                l(6) =   2
     Q(r) pseudized with 0 coefficients

     atomic species   valence    mass     pseudopotential
        Ru            16.00   101.07000     Ru( 1.00)

     16 Sym. Ops., with inversion, found

   Cartesian axes

     site n.     atom                  positions (alat units)
         1           Ru  tau(   1) = (   0.0000000   0.0000000   0.0000000  )
         2           Ru  tau(   2) = (   0.2507813   0.2500000   0.0000000  )
         3           Ru  tau(   3) = (   0.2507813   0.0000000   0.2499995  )
         4           Ru  tau(   4) = (   0.0000000   0.2500000   0.2499995  )
         5           Ru  tau(   5) = (   0.0000000   0.0000000   0.5000000  )
         6           Ru  tau(   6) = (   0.2507802   0.2499990   0.5000000  )
         7           Ru  tau(   7) = (   0.2507813   0.0000000   0.7499995  )
         8           Ru  tau(   8) = (   0.0000000   0.2500000   0.7499995  )
         9           Ru  tau(   9) = (   0.0000000   0.5000002   0.0000000  )
        10           Ru  tau(  10) = (   0.2507813   0.7500004   0.0000000  )
        11           Ru  tau(  11) = (   0.2507802   0.5000002   0.2499984  )
        12           Ru  tau(  12) = (   0.0000000   0.7500004   0.2499995  )
        13           Ru  tau(  13) = (   0.0000000   0.5000002   0.5000000  )
        14           Ru  tau(  14) = (   0.2507802   0.7500015   0.5000000  )
        15           Ru  tau(  15) = (   0.2507802   0.5000002   0.7500005  )
        16           Ru  tau(  16) = (   0.0000000   0.7500004   0.7499995  )
        17           Ru  tau(  17) = (   0.5015627   0.0000000   0.0000000  )
        18           Ru  tau(  18) = (   0.7523442   0.2500000   0.0000000  )
        19           Ru  tau(  19) = (   0.7523442   0.0000000   0.2499995  )
        20           Ru  tau(  20) = (   0.5015627   0.2499990   0.2499984  )
        21           Ru  tau(  21) = (   0.5015627   0.0000000   0.5000000  )
        22           Ru  tau(  22) = (   0.7523452   0.2499990   0.5000000  )
        23           Ru  tau(  23) = (   0.7523442   0.0000000   0.7499995  )
        24           Ru  tau(  24) = (   0.5015627   0.2499990   0.7500005  )
        25           Ru  tau(  25) = (   0.5015627   0.5000002   0.0000000  )
        26           Ru  tau(  26) = (   0.7523442   0.7500004   0.0000000  )
        27           Ru  tau(  27) = (   0.7523452   0.5000002   0.2499984  )
        28           Ru  tau(  28) = (   0.5015627   0.7500015   0.2499984  )
        29           Ru  tau(  29) = (   0.5015627   0.5000002   0.5000000  )
        30           Ru  tau(  30) = (   0.7523452   0.7500015   0.5000000  )
        31           Ru  tau(  31) = (   0.7523452   0.5000002   0.7500005  )
        32           Ru  tau(  32) = (   0.5015627   0.7500015   0.7500005  )

     number of k points=    75  Marzari-Vanderbilt smearing, width (Ry)=  0.0400
                       cart. coord. in units 2pi/alat
        k(    1) = (   0.0553825   0.0555556   0.0555556), wk =   0.0219479
        k(    2) = (   0.0553825   0.0555556   0.1666667), wk =   0.0438957
        k(    3) = (   0.0553825   0.0555556   0.2777778), wk =   0.0438957
        k(    4) = (   0.0553825   0.0555556   0.3888889), wk =   0.0438957
        k(    5) = (   0.0553825   0.0555556  -0.5000000), wk =   0.0219479
        k(    6) = (   0.0553825   0.1666667   0.1666667), wk =   0.0219479
        k(    7) = (   0.0553825   0.1666667   0.2777778), wk =   0.0438957
        k(    8) = (   0.0553825   0.1666667   0.3888889), wk =   0.0438957
        k(    9) = (   0.0553825   0.1666667  -0.5000000), wk =   0.0219479
        k(   10) = (   0.0553825   0.2777778   0.2777778), wk =   0.0219479
        k(   11) = (   0.0553825   0.2777778   0.3888889), wk =   0.0438957
        k(   12) = (   0.0553825   0.2777778  -0.5000000), wk =   0.0219479
        k(   13) = (   0.0553825   0.3888889   0.3888889), wk =   0.0219479
        k(   14) = (   0.0553825   0.3888889  -0.5000000), wk =   0.0219479
        k(   15) = (   0.0553825  -0.5000000  -0.5000000), wk =   0.0054870
        k(   16) = (   0.1661475   0.0555556   0.0555556), wk =   0.0219479
        k(   17) = (   0.1661475   0.0555556   0.1666667), wk =   0.0438957
        k(   18) = (   0.1661475   0.0555556   0.2777778), wk =   0.0438957
        k(   19) = (   0.1661475   0.0555556   0.3888889), wk =   0.0438957
        k(   20) = (   0.1661475   0.0555556  -0.5000000), wk =   0.0219479
        k(   21) = (   0.1661475   0.1666667   0.1666667), wk =   0.0219479
        k(   22) = (   0.1661475   0.1666667   0.2777778), wk =   0.0438957
        k(   23) = (   0.1661475   0.1666667   0.3888889), wk =   0.0438957
        k(   24) = (   0.1661475   0.1666667  -0.5000000), wk =   0.0219479
        k(   25) = (   0.1661475   0.2777778   0.2777778), wk =   0.0219479
        k(   26) = (   0.1661475   0.2777778   0.3888889), wk =   0.0438957
        k(   27) = (   0.1661475   0.2777778  -0.5000000), wk =   0.0219479
        k(   28) = (   0.1661475   0.3888889   0.3888889), wk =   0.0219479
        k(   29) = (   0.1661475   0.3888889  -0.5000000), wk =   0.0219479
        k(   30) = (   0.1661475  -0.5000000  -0.5000000), wk =   0.0054870
        k(   31) = (   0.2769124   0.0555556   0.0555556), wk =   0.0219479
        k(   32) = (   0.2769124   0.0555556   0.1666667), wk =   0.0438957
        k(   33) = (   0.2769124   0.0555556   0.2777778), wk =   0.0438957
        k(   34) = (   0.2769124   0.0555556   0.3888889), wk =   0.0438957
        k(   35) = (   0.2769124   0.0555556  -0.5000000), wk =   0.0219479
        k(   36) = (   0.2769124   0.1666667   0.1666667), wk =   0.0219479
        k(   37) = (   0.2769124   0.1666667   0.2777778), wk =   0.0438957
        k(   38) = (   0.2769124   0.1666667   0.3888889), wk =   0.0438957
        k(   39) = (   0.2769124   0.1666667  -0.5000000), wk =   0.0219479
        k(   40) = (   0.2769124   0.2777778   0.2777778), wk =   0.0219479
        k(   41) = (   0.2769124   0.2777778   0.3888889), wk =   0.0438957
        k(   42) = (   0.2769124   0.2777778  -0.5000000), wk =   0.0219479
        k(   43) = (   0.2769124   0.3888889   0.3888889), wk =   0.0219479
        k(   44) = (   0.2769124   0.3888889  -0.5000000), wk =   0.0219479
        k(   45) = (   0.2769124  -0.5000000  -0.5000000), wk =   0.0054870
        k(   46) = (   0.3876774   0.0555556   0.0555556), wk =   0.0219479
        k(   47) = (   0.3876774   0.0555556   0.1666667), wk =   0.0438957
        k(   48) = (   0.3876774   0.0555556   0.2777778), wk =   0.0438957
        k(   49) = (   0.3876774   0.0555556   0.3888889), wk =   0.0438957
        k(   50) = (   0.3876774   0.0555556  -0.5000000), wk =   0.0219479
        k(   51) = (   0.3876774   0.1666667   0.1666667), wk =   0.0219479
        k(   52) = (   0.3876774   0.1666667   0.2777778), wk =   0.0438957
        k(   53) = (   0.3876774   0.1666667   0.3888889), wk =   0.0438957
        k(   54) = (   0.3876774   0.1666667  -0.5000000), wk =   0.0219479
        k(   55) = (   0.3876774   0.2777778   0.2777778), wk =   0.0219479
        k(   56) = (   0.3876774   0.2777778   0.3888889), wk =   0.0438957
        k(   57) = (   0.3876774   0.2777778  -0.5000000), wk =   0.0219479
        k(   58) = (   0.3876774   0.3888889   0.3888889), wk =   0.0219479
        k(   59) = (   0.3876774   0.3888889  -0.5000000), wk =   0.0219479
        k(   60) = (   0.3876774  -0.5000000  -0.5000000), wk =   0.0054870
        k(   61) = (  -0.4984424   0.0555556   0.0555556), wk =   0.0109739
        k(   62) = (  -0.4984424   0.0555556   0.1666667), wk =   0.0219479
        k(   63) = (  -0.4984424   0.0555556   0.2777778), wk =   0.0219479
        k(   64) = (  -0.4984424   0.0555556   0.3888889), wk =   0.0219479
        k(   65) = (  -0.4984424   0.0555556  -0.5000000), wk =   0.0109739
        k(   66) = (  -0.4984424   0.1666667   0.1666667), wk =   0.0109739
        k(   67) = (  -0.4984424   0.1666667   0.2777778), wk =   0.0219479
        k(   68) = (  -0.4984424   0.1666667   0.3888889), wk =   0.0219479
        k(   69) = (  -0.4984424   0.1666667  -0.5000000), wk =   0.0109739
        k(   70) = (  -0.4984424   0.2777778   0.2777778), wk =   0.0109739
        k(   71) = (  -0.4984424   0.2777778   0.3888889), wk =   0.0219479
        k(   72) = (  -0.4984424   0.2777778  -0.5000000), wk =   0.0109739
        k(   73) = (  -0.4984424   0.3888889   0.3888889), wk =   0.0109739
        k(   74) = (  -0.4984424   0.3888889  -0.5000000), wk =   0.0109739
        k(   75) = (  -0.4984424  -0.5000000  -0.5000000), wk =   0.0027435

     Check: negative core charge=   -0.000002

     Initial potential from superposition of free atoms

     starting charge  511.97959, renormalised to  512.00000
     Starting wfcs are  320 randomized atomic wfcs
     Checking if some PAW data can be deallocated...

     Self-consistent Calculation

     iteration #  1     ecut=    71.00 Ry     beta= 0.10
     Davidson diagonalization with overlap
     ethr =  1.00E-02,  avg # of iterations =  3.4

     Threshold (ethr) on eigenvalues was too large:
     Diagonalizing with lowered threshold

     Davidson diagonalization with overlap
     ethr =  8.29E-05,  avg # of iterations =  5.4

     total energy              =  -13813.41213164 Ry
     estimated scf accuracy    <       0.63733288 Ry

[...]

     total energy              =  -13813.30059005 Ry
     estimated scf accuracy    <       0.00000426 Ry

     iteration # 11     ecut=    71.00 Ry     beta= 0.10
     Davidson diagonalization with overlap
     ethr =  8.32E-10,  avg # of iterations =  4.1

     End of self-consistent calculation

          k = 0.0554 0.0556 0.0556 ( 30326 PWs)   bands (ev):

   -49.9897 -49.8918 -49.8908 -49.8908 -49.8729 -49.8718 -49.8718 -49.8367
   -49.8367 -49.8366 -49.8274 -49.8264 -49.8263 -49.8263 -49.8262 -49.8262
   -49.8261 -49.8257 -49.8257 -49.8256 -49.8175 -49.8175 -49.8175 -49.7740
   -49.7726 -49.7726 -49.7725 -49.7724 -49.7720 -49.7719 -49.7715 -49.7714
   -20.3896 -20.3896 -20.3895 -20.3855 -20.3279 -20.3279 -20.3269 -20.1322
   -20.1276 -20.1276 -20.1210 -20.1210 -20.1165 -20.1165 -20.1161 -20.1161
   -20.1012 -20.0962 -20.0961 -20.0778 -20.0778 -20.0744 -20.0744 -20.0741
   -20.0741 -20.0281 -20.0281 -20.0243 -20.0243 -20.0237 -20.0237 -19.9272
   -19.9272 -19.9264 -19.8550 -19.8550 -19.8538 -19.8471 -19.8471 -19.8463
   -19.8142 -19.8142 -19.8135 -19.8135 -19.8127 -19.8127 -19.7740 -19.7740
   -19.7730 -19.7681 -19.7681 -19.7673 -19.7673 -19.7653 -19.7652 -19.7646
   -19.7646 -19.7577 -19.7569 -19.7569 -19.7531 -19.5981 -19.5981 -19.5948
   -19.5947 -19.5938 -19.5931 -19.5659 -19.5659 -19.5633 -19.5633 -19.5621
   -19.5621 -19.5503 -19.5503 -19.5465 -19.5392 -19.5375 -19.5374 -19.5370
   -19.5369 -19.5369 -19.5369 -19.5336 -19.5336 -19.5334 -19.5333 -19.5332
   -19.5315 -19.5287 -19.5186 -19.5186 -19.5153 -19.4057 -19.3990 -19.3986
    15.2735  16.8391  16.8392  16.8419  17.1156  17.1333  17.1333  17.1333
    17.3059  17.3059  17.3092  17.5167  17.5278  17.5280  17.6899  17.7007
    17.7008  18.2321  18.2322  18.2487  18.2488  18.2494  18.2495  18.5512
    18.5620  18.5620  18.8176  18.8177  18.8183  18.8211  18.8351  18.8351
    18.9246  18.9260  18.9261  18.9275  18.9276  18.9276  18.9276  18.9283
    18.9284  19.4113  19.4113  19.4197  19.4197  19.4267  19.4267  19.5524
    19.5684  19.5685  19.5837  19.5837  19.6001  19.6002  19.6014  19.6014
    19.6493  19.6642  19.6643  19.9129  19.9130  19.9179  19.9180  19.9198
    19.9199  19.9199  19.9200  19.9230  19.9230  19.9243  19.9267  19.9267
    19.9308  19.9309  20.0909  20.0909  20.0940  20.3568  20.3784  20.3784
    20.3925  20.4240  20.4240  20.4309  20.4458  20.4944  20.5341  20.5487
    21.4877  21.5166  21.5166  21.6547  21.6862  21.6862  21.7222  21.7222
    21.7324  21.8217  21.8217  21.8228  21.8229  21.8311  21.8311  21.8365
    21.8365  21.8443  22.1283  22.1283  22.1453  22.2500  22.2501  22.2604
    22.4959  22.4959  22.5117  22.5738  22.5738  22.5810  22.5811  22.5819
    22.5819  22.5924  22.5924  22.6066  22.6333  22.6333  22.6432  22.8213
    22.8214  22.8219  22.8219  22.8345  22.8345  22.8617  22.9064  22.9941
    22.9941  23.0070  23.6488  23.6489  23.6693  23.7020  23.7021  23.7062
    23.8091  23.8092  23.8268  23.9039  24.6294  24.6295  24.6318  24.6628
    24.6822  24.6974  24.7121  24.7121  24.9834  24.9918  24.9918  25.0122
    25.0122  25.0222  25.1659  25.1659  25.1671  25.1671  25.1784  25.1820
    25.1820  25.1919  25.1919  26.6103  26.6103  26.6323  26.7477  26.8072
    26.8072  27.1407  27.1408

[...]

          k = 0.3877-0.5000-0.5000 ( 30268 PWs)   bands (ev):

[...]

          k =-0.4984 0.0556 0.0556 ( 30234 PWs)   bands (ev):

[...]

          k =-0.4984-0.5000-0.5000 ( 30328 PWs)   bands (ev):

   -49.9094 -49.9093 -49.9091 -49.9091 -49.9091 -49.9090 -49.9089 -49.9088
   -49.8003 -49.8002 -49.8000 -49.8000 -49.8000 -49.7999 -49.7998 -49.7997
   -49.7993 -49.7992 -49.7992 -49.7991 -49.7990 -49.7989 -49.7989 -49.7989
   -49.7989 -49.7989 -49.7989 -49.7988 -49.7987 -49.7986 -49.7986 -49.7986
   -20.2235 -20.2235 -20.2235 -20.2234 -20.2234 -20.2234 -20.2234 -20.2234
   -20.2233 -20.2233 -20.2233 -20.2232 -20.2232 -20.2232 -20.2232 -20.2232
   -20.2212 -20.2212 -20.2211 -20.2211 -20.2211 -20.2210 -20.2210 -20.2209
   -19.9059 -19.9058 -19.9058 -19.9058 -19.9058 -19.9057 -19.9057 -19.9057
   -19.7956 -19.7955 -19.7955 -19.7955 -19.7955 -19.7954 -19.7954 -19.7954
   -19.7946 -19.7946 -19.7946 -19.7945 -19.7945 -19.7945 -19.7945 -19.7945
   -19.7945 -19.7944 -19.7944 -19.7944 -19.7944 -19.7944 -19.7944 -19.7943
   -19.6480 -19.6480 -19.6479 -19.6479 -19.6479 -19.6478 -19.6478 -19.6478
   -19.6478 -19.6477 -19.6477 -19.6477 -19.6477 -19.6476 -19.6476 -19.6476
   -19.6435 -19.6434 -19.6434 -19.6434 -19.6432 -19.6432 -19.6432 -19.6432
   -19.4667 -19.4667 -19.4666 -19.4666 -19.4665 -19.4665 -19.4665 -19.4664
   -19.4641 -19.4641 -19.4641 -19.4641 -19.4639 -19.4639 -19.4639 -19.4639
    17.0705  17.0706  17.0706  17.0707  17.0709  17.0709  17.0710  17.0712
    17.9312  17.9312  17.9312  17.9312  17.9312  17.9312  17.9312  17.9313
    17.9314  17.9314  17.9314  17.9314  17.9314  17.9314  17.9314  17.9315
    17.9318  17.9318  17.9318  17.9318  17.9320  17.9320  17.9320  17.9320
    18.9549  18.9550  18.9550  18.9550  18.9551  18.9551  18.9551  18.9551
    18.9552  18.9552  18.9552  18.9552  18.9552  18.9553  18.9553  18.9554
    18.9603  18.9603  18.9604  18.9605  18.9605  18.9606  18.9606  18.9607
    20.2728  20.2728  20.2728  20.2729  20.2729  20.2729  20.2729  20.2729
    20.8944  20.8945  20.8945  20.8945  20.8945  20.8945  20.8946  20.8946
    20.9302  20.9303  20.9303  20.9303  20.9303  20.9304  20.9304  20.9304
    21.0046  21.0047  21.0047  21.0047  21.0048  21.0048  21.0048  21.0049
    21.0264  21.0264  21.0264  21.0264  21.0264  21.0265  21.0265  21.0265
    21.0265  21.0266  21.0266  21.0266  21.0266  21.0266  21.0267  21.0267
    22.2245  22.2246  22.2246  22.2246  22.2246  22.2246  22.2247  22.2247
    22.2247  22.2247  22.2247  22.2248  22.2248  22.2248  22.2248  22.2249
    22.2430  22.2431  22.2431  22.2432  22.2432  22.2432  22.2433  22.2433
    23.0524  23.0525  23.0525  23.0526  23.0526  23.0526  23.0527  23.0527
    23.0646  23.0646  23.0647  23.0647  23.0647  23.0648  23.0648  23.0649
    24.8417  24.8418  24.8418  24.8418  24.8419  24.8419  24.8419  24.8419
    24.8491  24.8491  24.8491  24.8491  24.8491  24.8491  24.8491  24.8492
    24.8492  24.8492  24.8492  24.8492  24.8492  24.8492  24.8493  24.8493
    28.2031  28.2035  28.2040  28.2060  28.2068  28.2084  28.2094  28.2135
    28.2247  28.2247  28.2248

     the Fermi energy is    23.0262 ev

!    total energy              =  -13813.30059273 Ry

     total all-electron energy =   -289989.690932 Ry
     estimated scf accuracy    <       0.00000093 Ry
     smearing contrib. (-TS)   =       0.02020779 Ry
     internal energy E=F+TS    =  -13813.32080052 Ry

     The total energy is F=E-TS. E is the sum of the following terms:
     one-electron contribution =   -1003.44712038 Ry
     hartree contribution      =     918.36644124 Ry
     xc contribution           =    -927.94100511 Ry
     ewald contribution        =   -5210.86240978 Ry
     one-center paw contrib.   =   -7589.43670649 Ry

     convergence has been achieved in  11 iterations

     Forces acting on atoms (cartesian axes, Ry/au):

     atom    1 type  1   force =     0.00000000    0.00000000    0.00000000
     atom    2 type  1   force =    -0.00040786   -0.00012970   -0.00000000
     atom    3 type  1   force =    -0.00040786    0.00000000   -0.00012970
     atom    4 type  1   force =    -0.00000000   -0.00003763   -0.00003763
     atom    5 type  1   force =     0.00000000    0.00000000    0.00000000
     atom    6 type  1   force =    -0.00011402    0.00034991    0.00000000
     atom    7 type  1   force =    -0.00040786    0.00000000    0.00012970
     atom    8 type  1   force =    -0.00000000   -0.00003763    0.00003763
     atom    9 type  1   force =     0.00000000    0.00000000    0.00000000
     atom   10 type  1   force =    -0.00040786    0.00012970   -0.00000000
     atom   11 type  1   force =    -0.00011402    0.00000000    0.00034991
     atom   12 type  1   force =    -0.00000000    0.00003763   -0.00003763
     atom   13 type  1   force =     0.00000000    0.00000000    0.00000000
     atom   14 type  1   force =    -0.00011402   -0.00034991   -0.00000000
     atom   15 type  1   force =    -0.00011402    0.00000000   -0.00034991
     atom   16 type  1   force =    -0.00000000    0.00003763    0.00003763
     atom   17 type  1   force =     0.00000000    0.00000000    0.00000000
     atom   18 type  1   force =     0.00040786   -0.00012970   -0.00000000
     atom   19 type  1   force =     0.00040786    0.00000000   -0.00012970
     atom   20 type  1   force =     0.00000000    0.00026437    0.00026437
     atom   21 type  1   force =     0.00000000    0.00000000    0.00000000
     atom   22 type  1   force =     0.00011402    0.00034991   -0.00000000
     atom   23 type  1   force =     0.00040786    0.00000000    0.00012970
     atom   24 type  1   force =     0.00000000    0.00026437   -0.00026437
     atom   25 type  1   force =     0.00000000    0.00000000    0.00000000
     atom   26 type  1   force =     0.00040786    0.00012970   -0.00000000
     atom   27 type  1   force =     0.00011402    0.00000000    0.00034991
     atom   28 type  1   force =     0.00000000   -0.00026437    0.00026437
     atom   29 type  1   force =     0.00000000    0.00000000    0.00000000
     atom   30 type  1   force =     0.00011402   -0.00034991    0.00000000
     atom   31 type  1   force =     0.00011402    0.00000000   -0.00034991
     atom   32 type  1   force =     0.00000000   -0.00026437   -0.00026437

     Total force =     0.001766     Total SCF correction =     0.007255
     SCF correction compared to forces is large: reduce conv_thr to get better values

     Computing stress (Cartesian axis) and pressure

          total   stress  (Ry/bohr**3)                   (kbar)     P=      -14.79
  -0.00013632   0.00000000   0.00000000          -20.05        0.00        0.00
   0.00000000  -0.00008270   0.00000000            0.00      -12.17        0.00
   0.00000000   0.00000000  -0.00008270            0.00        0.00      -12.17

     Writing output data file /scratch/TjmVrhbKeYlmpJFb.save/

     General routines

     Parallel routines

   This run was terminated on:  15:32:58  23Nov2021

   JOB DONE.