     Program PWSCF v.6.7MaX starts on 23Nov2021 at 16:11:18

     R & G space division:  proc/nbgrp/npool/nimage =      72
     Reading input from /rds/homes/b/bxp912/jobs/20211014_ru_eos/wd/ec/ec_1_009.in
Warning: card &CELL ignored
Warning: card CELL_DYNAMICS = 'BFGS', ignored
Warning: card CELL_FACTOR = 2.0, ignored
Warning: card PRESS = 0.0, ignored
Warning: card / ignored

     Current dimensions of program PWSCF are:
     Max number of different atomic species (ntypx) = 10
     Max number of k-points (npk) =  40000
     Max angular momentum in pseudopotentials (lmaxx) =  3
     file Ru.pbe-spn-kjpaw_psl.1.0.0.UPF: wavefunction(s)  4D renormalized

     Subspace diagonalization in iterative solution of the eigenvalue problem:
     one sub-group per band group will be used

     Found symmetry operation: I + (  0.2500  0.2500  0.0000)
     This is a supercell, fractional translations are disabled
     Message from routine setup:
     using ibrav=0 with symmetry is DISCOURAGED, use correct ibrav instead

     bravais-lattice index     =            0
     lattice parameter (alat)  =      14.4007  a.u.
     unit-cell volume          =    3001.3776 (a.u.)^3
     number of atoms/cell      =           32
     number of atomic types    =            1
     number of electrons       =       512.00
     number of Kohn-Sham states=          307
     kinetic-energy cutoff     =      71.0000  Ry
     charge density cutoff     =     430.0000  Ry
     scf convergence threshold =      1.0E-06
     mixing beta               =       0.1000
     number of iterations used =           10  plain     mixing
     Exchange-correlation= SLA  PW   PBX  PBC
                           (   1   4   3   4   0   0   0)

     celldm(1)=  14.400742  celldm(2)=   0.000000  celldm(3)=   0.000000
     celldm(4)=   0.000000  celldm(5)=   0.000000  celldm(6)=   0.000000

     crystal axes: (cart. coord. in units of alat)
               a(1) = (   1.005000   0.000000   0.000000 )
               a(2) = (   0.000000   1.000000   0.000000 )
               a(3) = (   0.000000   0.000000   1.000000 )

     reciprocal axes: (cart. coord. in units 2 pi/alat)
               b(1) = (  0.995025  0.000000  0.000000 )
               b(2) = (  0.000000  1.000000  0.000000 )
               b(3) = (  0.000000  0.000000  1.000000 )

     PseudoPot. # 1 for Ru read from file:
     /rds/homes/b/bxp912/pp/Ru.pbe-spn-kjpaw_psl.1.0.0.UPF
     MD5 check sum: 0ae1f594dea09af7be8575c3a481d1ae
     Pseudo is Projector augmented-wave + core cor, Zval = 16.0
     Generated using "atomic" code by A. Dal Corso  v.5.1
     Shape of augmentation charge: PSQ
     Using radial grid of 1233 points,  6 beta functions with:
                l(1) =   0
                l(2) =   0
                l(3) =   1
                l(4) =   1
                l(5) =   2
                l(6) =   2
     Q(r) pseudized with 0 coefficients

     atomic species   valence    mass     pseudopotential
        Ru            16.00   101.07000     Ru( 1.00)

     16 Sym. Ops., with inversion, found

   Cartesian axes

     site n.     atom                  positions (alat units)
         1           Ru  tau(   1) = (   0.0000000   0.0000000   0.0000000  )
         2           Ru  tau(   2) = (   0.2512500   0.2500000   0.0000000  )
         3           Ru  tau(   3) = (   0.2512500   0.0000000   0.2499995  )
         4           Ru  tau(   4) = (   0.0000000   0.2500000   0.2499995  )
         5           Ru  tau(   5) = (   0.0000000   0.0000000   0.5000000  )
         6           Ru  tau(   6) = (   0.2512489   0.2499990   0.5000000  )
         7           Ru  tau(   7) = (   0.2512500   0.0000000   0.7499995  )
         8           Ru  tau(   8) = (   0.0000000   0.2500000   0.7499995  )
         9           Ru  tau(   9) = (   0.0000000   0.5000002   0.0000000  )
        10           Ru  tau(  10) = (   0.2512500   0.7500004   0.0000000  )
        11           Ru  tau(  11) = (   0.2512489   0.5000002   0.2499984  )
        12           Ru  tau(  12) = (   0.0000000   0.7500004   0.2499995  )
        13           Ru  tau(  13) = (   0.0000000   0.5000002   0.5000000  )
        14           Ru  tau(  14) = (   0.2512489   0.7500015   0.5000000  )
        15           Ru  tau(  15) = (   0.2512489   0.5000002   0.7500005  )
        16           Ru  tau(  16) = (   0.0000000   0.7500004   0.7499995  )
        17           Ru  tau(  17) = (   0.5025002   0.0000000   0.0000000  )
        18           Ru  tau(  18) = (   0.7537504   0.2500000   0.0000000  )
        19           Ru  tau(  19) = (   0.7537504   0.0000000   0.2499995  )
        20           Ru  tau(  20) = (   0.5025002   0.2499990   0.2499984  )
        21           Ru  tau(  21) = (   0.5025002   0.0000000   0.5000000  )
        22           Ru  tau(  22) = (   0.7537515   0.2499990   0.5000000  )
        23           Ru  tau(  23) = (   0.7537504   0.0000000   0.7499995  )
        24           Ru  tau(  24) = (   0.5025002   0.2499990   0.7500005  )
        25           Ru  tau(  25) = (   0.5025002   0.5000002   0.0000000  )
        26           Ru  tau(  26) = (   0.7537504   0.7500004   0.0000000  )
        27           Ru  tau(  27) = (   0.7537515   0.5000002   0.2499984  )
        28           Ru  tau(  28) = (   0.5025002   0.7500015   0.2499984  )
        29           Ru  tau(  29) = (   0.5025002   0.5000002   0.5000000  )
        30           Ru  tau(  30) = (   0.7537515   0.7500015   0.5000000  )
        31           Ru  tau(  31) = (   0.7537515   0.5000002   0.7500005  )
        32           Ru  tau(  32) = (   0.5025002   0.7500015   0.7500005  )

     number of k points=    75  Marzari-Vanderbilt smearing, width (Ry)=  0.0400
                       cart. coord. in units 2pi/alat
        k(    1) = (   0.0552792   0.0555556   0.0555556), wk =   0.0219479
        k(    2) = (   0.0552792   0.0555556   0.1666667), wk =   0.0438957
        k(    3) = (   0.0552792   0.0555556   0.2777778), wk =   0.0438957
        k(    4) = (   0.0552792   0.0555556   0.3888889), wk =   0.0438957
        k(    5) = (   0.0552792   0.0555556  -0.5000000), wk =   0.0219479
        k(    6) = (   0.0552792   0.1666667   0.1666667), wk =   0.0219479
        k(    7) = (   0.0552792   0.1666667   0.2777778), wk =   0.0438957
        k(    8) = (   0.0552792   0.1666667   0.3888889), wk =   0.0438957
        k(    9) = (   0.0552792   0.1666667  -0.5000000), wk =   0.0219479
        k(   10) = (   0.0552792   0.2777778   0.2777778), wk =   0.0219479
        k(   11) = (   0.0552792   0.2777778   0.3888889), wk =   0.0438957
        k(   12) = (   0.0552792   0.2777778  -0.5000000), wk =   0.0219479
        k(   13) = (   0.0552792   0.3888889   0.3888889), wk =   0.0219479
        k(   14) = (   0.0552792   0.3888889  -0.5000000), wk =   0.0219479
        k(   15) = (   0.0552792  -0.5000000  -0.5000000), wk =   0.0054870
        k(   16) = (   0.1658375   0.0555556   0.0555556), wk =   0.0219479
        k(   17) = (   0.1658375   0.0555556   0.1666667), wk =   0.0438957
        k(   18) = (   0.1658375   0.0555556   0.2777778), wk =   0.0438957
        k(   19) = (   0.1658375   0.0555556   0.3888889), wk =   0.0438957
        k(   20) = (   0.1658375   0.0555556  -0.5000000), wk =   0.0219479
        k(   21) = (   0.1658375   0.1666667   0.1666667), wk =   0.0219479
        k(   22) = (   0.1658375   0.1666667   0.2777778), wk =   0.0438957
        k(   23) = (   0.1658375   0.1666667   0.3888889), wk =   0.0438957
        k(   24) = (   0.1658375   0.1666667  -0.5000000), wk =   0.0219479
        k(   25) = (   0.1658375   0.2777778   0.2777778), wk =   0.0219479
        k(   26) = (   0.1658375   0.2777778   0.3888889), wk =   0.0438957
        k(   27) = (   0.1658375   0.2777778  -0.5000000), wk =   0.0219479
        k(   28) = (   0.1658375   0.3888889   0.3888889), wk =   0.0219479
        k(   29) = (   0.1658375   0.3888889  -0.5000000), wk =   0.0219479
        k(   30) = (   0.1658375  -0.5000000  -0.5000000), wk =   0.0054870
        k(   31) = (   0.2763958   0.0555556   0.0555556), wk =   0.0219479
        k(   32) = (   0.2763958   0.0555556   0.1666667), wk =   0.0438957
        k(   33) = (   0.2763958   0.0555556   0.2777778), wk =   0.0438957
        k(   34) = (   0.2763958   0.0555556   0.3888889), wk =   0.0438957
        k(   35) = (   0.2763958   0.0555556  -0.5000000), wk =   0.0219479
        k(   36) = (   0.2763958   0.1666667   0.1666667), wk =   0.0219479
        k(   37) = (   0.2763958   0.1666667   0.2777778), wk =   0.0438957
        k(   38) = (   0.2763958   0.1666667   0.3888889), wk =   0.0438957
        k(   39) = (   0.2763958   0.1666667  -0.5000000), wk =   0.0219479
        k(   40) = (   0.2763958   0.2777778   0.2777778), wk =   0.0219479
        k(   41) = (   0.2763958   0.2777778   0.3888889), wk =   0.0438957
        k(   42) = (   0.2763958   0.2777778  -0.5000000), wk =   0.0219479
        k(   43) = (   0.2763958   0.3888889   0.3888889), wk =   0.0219479
        k(   44) = (   0.2763958   0.3888889  -0.5000000), wk =   0.0219479
        k(   45) = (   0.2763958  -0.5000000  -0.5000000), wk =   0.0054870
        k(   46) = (   0.3869541   0.0555556   0.0555556), wk =   0.0219479
        k(   47) = (   0.3869541   0.0555556   0.1666667), wk =   0.0438957
        k(   48) = (   0.3869541   0.0555556   0.2777778), wk =   0.0438957
        k(   49) = (   0.3869541   0.0555556   0.3888889), wk =   0.0438957
        k(   50) = (   0.3869541   0.0555556  -0.5000000), wk =   0.0219479
        k(   51) = (   0.3869541   0.1666667   0.1666667), wk =   0.0219479
        k(   52) = (   0.3869541   0.1666667   0.2777778), wk =   0.0438957
        k(   53) = (   0.3869541   0.1666667   0.3888889), wk =   0.0438957
        k(   54) = (   0.3869541   0.1666667  -0.5000000), wk =   0.0219479
        k(   55) = (   0.3869541   0.2777778   0.2777778), wk =   0.0219479
        k(   56) = (   0.3869541   0.2777778   0.3888889), wk =   0.0438957
        k(   57) = (   0.3869541   0.2777778  -0.5000000), wk =   0.0219479
        k(   58) = (   0.3869541   0.3888889   0.3888889), wk =   0.0219479
        k(   59) = (   0.3869541   0.3888889  -0.5000000), wk =   0.0219479
        k(   60) = (   0.3869541  -0.5000000  -0.5000000), wk =   0.0054870
        k(   61) = (  -0.4975124   0.0555556   0.0555556), wk =   0.0109739
        k(   62) = (  -0.4975124   0.0555556   0.1666667), wk =   0.0219479
        k(   63) = (  -0.4975124   0.0555556   0.2777778), wk =   0.0219479
        k(   64) = (  -0.4975124   0.0555556   0.3888889), wk =   0.0219479
        k(   65) = (  -0.4975124   0.0555556  -0.5000000), wk =   0.0109739
        k(   66) = (  -0.4975124   0.1666667   0.1666667), wk =   0.0109739
        k(   67) = (  -0.4975124   0.1666667   0.2777778), wk =   0.0219479
        k(   68) = (  -0.4975124   0.1666667   0.3888889), wk =   0.0219479
        k(   69) = (  -0.4975124   0.1666667  -0.5000000), wk =   0.0109739
        k(   70) = (  -0.4975124   0.2777778   0.2777778), wk =   0.0109739
        k(   71) = (  -0.4975124   0.2777778   0.3888889), wk =   0.0219479
        k(   72) = (  -0.4975124   0.2777778  -0.5000000), wk =   0.0109739
        k(   73) = (  -0.4975124   0.3888889   0.3888889), wk =   0.0109739
        k(   74) = (  -0.4975124   0.3888889  -0.5000000), wk =   0.0109739
        k(   75) = (  -0.4975124  -0.5000000  -0.5000000), wk =   0.0027435

     Check: negative core charge=   -0.000002

     Initial potential from superposition of free atoms

     starting charge  511.97959, renormalised to  512.00000
     Starting wfcs are  320 randomized atomic wfcs
     Checking if some PAW data can be deallocated...

     Self-consistent Calculation

     iteration #  1     ecut=    71.00 Ry     beta= 0.10
     Davidson diagonalization with overlap
     ethr =  1.00E-02,  avg # of iterations =  3.4

     Threshold (ethr) on eigenvalues was too large:
     Diagonalizing with lowered threshold

     Davidson diagonalization with overlap
     ethr =  8.28E-05,  avg # of iterations =  5.5

     total energy              =  -13813.41116224 Ry
     estimated scf accuracy    <       0.63671814 Ry

[...]

     total energy              =  -13813.29996489 Ry
     estimated scf accuracy    <       0.00000271 Ry

     iteration # 11     ecut=    71.00 Ry     beta= 0.10
     Davidson diagonalization with overlap
     ethr =  5.30E-10,  avg # of iterations =  3.3

     End of self-consistent calculation

          k = 0.0553 0.0556 0.0556 ( 30395 PWs)   bands (ev):

   -50.0401 -49.9434 -49.9419 -49.9419 -49.9247 -49.9229 -49.9229 -49.8884
   -49.8883 -49.8882 -49.8791 -49.8782 -49.8781 -49.8780 -49.8780 -49.8779
   -49.8779 -49.8774 -49.8774 -49.8773 -49.8694 -49.8693 -49.8693 -49.8270
   -49.8250 -49.8250 -49.8248 -49.8248 -49.8238 -49.8237 -49.8232 -49.8232
   -20.4369 -20.4369 -20.4367 -20.4328 -20.3758 -20.3758 -20.3742 -20.1829
   -20.1757 -20.1756 -20.1720 -20.1719 -20.1646 -20.1646 -20.1641 -20.1641
   -20.1523 -20.1442 -20.1442 -20.1284 -20.1284 -20.1231 -20.1231 -20.1226
   -20.1226 -20.0793 -20.0793 -20.0733 -20.0732 -20.0723 -20.0723 -19.9776
   -19.9776 -19.9763 -19.9059 -19.9059 -19.9041 -19.8979 -19.8979 -19.8966
   -19.8655 -19.8655 -19.8644 -19.8644 -19.8632 -19.8632 -19.8254 -19.8254
   -19.8237 -19.8200 -19.8200 -19.8189 -19.8188 -19.8187 -19.8186 -19.8155
   -19.8154 -19.8076 -19.8076 -19.8069 -19.8023 -19.6519 -19.6519 -19.6467
   -19.6467 -19.6449 -19.6442 -19.6197 -19.6197 -19.6155 -19.6155 -19.6136
   -19.6135 -19.6037 -19.6037 -19.5977 -19.5932 -19.5913 -19.5913 -19.5904
   -19.5904 -19.5903 -19.5903 -19.5875 -19.5850 -19.5850 -19.5848 -19.5847
   -19.5828 -19.5801 -19.5721 -19.5721 -19.5668 -19.4591 -19.4525 -19.4520
    15.2314  16.8018  16.8018  16.8061  17.0762  17.0938  17.0938  17.0939
    17.2676  17.2676  17.2727  17.4680  17.4859  17.4860  17.6423  17.6596
    17.6597  18.1851  18.1852  18.2116  18.2116  18.2127  18.2128  18.5062
    18.5234  18.5234  18.7723  18.7724  18.7735  18.7740  18.7965  18.7965
    18.8802  18.8824  18.8825  18.8827  18.8828  18.8828  18.8828  18.8840
    18.8840  19.3624  19.3624  19.3759  19.3759  19.3870  19.3870  19.5016
    19.5272  19.5272  19.5326  19.5326  19.5587  19.5588  19.5607  19.5608
    19.5987  19.6227  19.6227  19.8618  19.8618  19.8709  19.8710  19.8732
    19.8733  19.8734  19.8734  19.8778  19.8778  19.8811  19.8841  19.8842
    19.8903  19.8904  20.0449  20.0450  20.0499  20.2998  20.3275  20.3275
    20.3352  20.3832  20.3832  20.3964  20.4113  20.4356  20.4927  20.5097
    21.4266  21.4727  21.4727  21.5917  21.6418  21.6419  21.6709  21.6709
    21.6870  21.7700  21.7701  21.7719  21.7719  21.7849  21.7849  21.7854
    21.7854  21.7977  22.0738  22.0738  22.1010  22.1970  22.1970  22.2134
    22.4407  22.4407  22.4660  22.5191  22.5191  22.5305  22.5306  22.5318
    22.5319  22.5375  22.5375  22.5603  22.5790  22.5790  22.5948  22.7659
    22.7659  22.7667  22.7667  22.7869  22.7869  22.7949  22.8662  22.9382
    22.9382  22.9589  23.5890  23.5890  23.6217  23.6468  23.6469  23.6535
    23.7493  23.7494  23.7776  23.8498  24.5701  24.5701  24.5740  24.5983
    24.6291  24.6327  24.6558  24.6558  24.9199  24.9322  24.9322  24.9518
    24.9518  24.9674  25.1001  25.1001  25.1020  25.1020  25.1170  25.1239
    25.1239  25.1416  25.1416  26.5424  26.5424  26.5774  26.6643  26.7592
    26.7592  27.0709  27.0710

[...]

          k = 0.3870-0.5000-0.5000 ( 30292 PWs)   bands (ev):

[...]

          k =-0.4975 0.0556 0.0556 ( 30292 PWs)   bands (ev):

[...]

          k =-0.4975-0.5000-0.5000 ( 30376 PWs)   bands (ev):

   -49.9605 -49.9604 -49.9602 -49.9601 -49.9601 -49.9601 -49.9599 -49.9599
   -49.8526 -49.8526 -49.8524 -49.8523 -49.8523 -49.8523 -49.8521 -49.8521
   -49.8511 -49.8510 -49.8510 -49.8509 -49.8507 -49.8507 -49.8507 -49.8507
   -49.8507 -49.8506 -49.8506 -49.8506 -49.8504 -49.8504 -49.8503 -49.8503
   -20.2723 -20.2723 -20.2723 -20.2723 -20.2723 -20.2723 -20.2723 -20.2722
   -20.2721 -20.2721 -20.2721 -20.2721 -20.2721 -20.2720 -20.2720 -20.2720
   -20.2687 -20.2686 -20.2686 -20.2685 -20.2685 -20.2684 -20.2684 -20.2683
   -19.9561 -19.9561 -19.9561 -19.9561 -19.9561 -19.9560 -19.9560 -19.9560
   -19.8469 -19.8469 -19.8469 -19.8469 -19.8469 -19.8468 -19.8468 -19.8468
   -19.8455 -19.8454 -19.8454 -19.8454 -19.8454 -19.8454 -19.8454 -19.8454
   -19.8453 -19.8453 -19.8453 -19.8453 -19.8453 -19.8453 -19.8453 -19.8452
   -19.7008 -19.7008 -19.7008 -19.7008 -19.7007 -19.7007 -19.7007 -19.7007
   -19.7006 -19.7006 -19.7006 -19.7006 -19.7005 -19.7005 -19.7005 -19.7005
   -19.6937 -19.6937 -19.6937 -19.6937 -19.6935 -19.6935 -19.6935 -19.6935
   -19.5206 -19.5205 -19.5204 -19.5204 -19.5204 -19.5203 -19.5203 -19.5202
   -19.5165 -19.5164 -19.5164 -19.5164 -19.5163 -19.5163 -19.5163 -19.5162
    17.0272  17.0273  17.0273  17.0273  17.0275  17.0276  17.0277  17.0278
    17.8910  17.8910  17.8910  17.8911  17.8911  17.8911  17.8911  17.8911
    17.8912  17.8912  17.8912  17.8912  17.8913  17.8913  17.8913  17.8913
    17.8919  17.8919  17.8919  17.8919  17.8921  17.8921  17.8921  17.8921
    18.9113  18.9114  18.9114  18.9114  18.9115  18.9115  18.9115  18.9115
    18.9116  18.9116  18.9116  18.9116  18.9116  18.9117  18.9117  18.9118
    18.9199  18.9199  18.9199  18.9200  18.9201  18.9201  18.9202  18.9202
    20.2259  20.2259  20.2259  20.2260  20.2260  20.2260  20.2260  20.2260
    20.8364  20.8364  20.8364  20.8365  20.8365  20.8365  20.8365  20.8365
    20.8935  20.8936  20.8936  20.8936  20.8936  20.8936  20.8936  20.8937
    20.9471  20.9472  20.9472  20.9472  20.9473  20.9473  20.9473  20.9474
    20.9818  20.9818  20.9819  20.9819  20.9819  20.9819  20.9819  20.9820
    20.9820  20.9820  20.9820  20.9821  20.9821  20.9821  20.9822  20.9822
    22.1699  22.1699  22.1699  22.1700  22.1700  22.1700  22.1700  22.1700
    22.1700  22.1700  22.1701  22.1701  22.1701  22.1701  22.1701  22.1702
    22.1993  22.1994  22.1994  22.1995  22.1995  22.1995  22.1996  22.1996
    22.9952  22.9953  22.9953  22.9954  22.9954  22.9954  22.9955  22.9955
    23.0146  23.0147  23.0147  23.0147  23.0148  23.0148  23.0148  23.0149
    24.7795  24.7795  24.7795  24.7796  24.7796  24.7796  24.7796  24.7797
    24.7911  24.7911  24.7911  24.7911  24.7911  24.7911  24.7911  24.7912
    24.7912  24.7912  24.7912  24.7912  24.7912  24.7912  24.7913  24.7913
    28.1292  28.1294  28.1301  28.1306  28.1323  28.1333  28.1354  28.1385
    28.1643  28.1643  28.1644

     the Fermi energy is    22.9729 ev

!    total energy              =  -13813.29996696 Ry

     total all-electron energy =   -289989.690306 Ry
     estimated scf accuracy    <       0.00000095 Ry
     smearing contrib. (-TS)   =       0.02009663 Ry
     internal energy E=F+TS    =  -13813.32006358 Ry

     The total energy is F=E-TS. E is the sum of the following terms:
     one-electron contribution =   -1008.21702523 Ry
     hartree contribution      =     919.82808354 Ry
     xc contribution           =    -927.87679743 Ry
     ewald contribution        =   -5207.61854749 Ry
     one-center paw contrib.   =   -7589.43577697 Ry

     convergence has been achieved in  11 iterations

     Forces acting on atoms (cartesian axes, Ry/au):

     atom    1 type  1   force =     0.00000000    0.00000000    0.00000000
     atom    2 type  1   force =    -0.00037683   -0.00012746    0.00000000
     atom    3 type  1   force =    -0.00037683    0.00000000   -0.00012746
     atom    4 type  1   force =     0.00000000   -0.00003986   -0.00003986
     atom    5 type  1   force =     0.00000000    0.00000000    0.00000000
     atom    6 type  1   force =    -0.00009129    0.00033569    0.00000000
     atom    7 type  1   force =    -0.00037683    0.00000000    0.00012746
     atom    8 type  1   force =     0.00000000   -0.00003986    0.00003986
     atom    9 type  1   force =     0.00000000    0.00000000    0.00000000
     atom   10 type  1   force =    -0.00037683    0.00012746   -0.00000000
     atom   11 type  1   force =    -0.00009129    0.00000000    0.00033569
     atom   12 type  1   force =     0.00000000    0.00003986   -0.00003986
     atom   13 type  1   force =     0.00000000    0.00000000    0.00000000
     atom   14 type  1   force =    -0.00009129   -0.00033569    0.00000000
     atom   15 type  1   force =    -0.00009129    0.00000000   -0.00033569
     atom   16 type  1   force =     0.00000000    0.00003986    0.00003986
     atom   17 type  1   force =     0.00000000    0.00000000    0.00000000
     atom   18 type  1   force =     0.00037683   -0.00012746   -0.00000000
     atom   19 type  1   force =     0.00037683    0.00000000   -0.00012746
     atom   20 type  1   force =     0.00000000    0.00025524    0.00025524
     atom   21 type  1   force =     0.00000000    0.00000000    0.00000000
     atom   22 type  1   force =     0.00009129    0.00033569    0.00000000
     atom   23 type  1   force =     0.00037683    0.00000000    0.00012746
     atom   24 type  1   force =     0.00000000    0.00025524   -0.00025524
     atom   25 type  1   force =     0.00000000    0.00000000    0.00000000
     atom   26 type  1   force =     0.00037683    0.00012746    0.00000000
     atom   27 type  1   force =     0.00009129    0.00000000    0.00033569
     atom   28 type  1   force =     0.00000000   -0.00025524    0.00025524
     atom   29 type  1   force =     0.00000000    0.00000000    0.00000000
     atom   30 type  1   force =     0.00009129   -0.00033569    0.00000000
     atom   31 type  1   force =     0.00009129    0.00000000   -0.00033569
     atom   32 type  1   force =     0.00000000   -0.00025524   -0.00025524

     Total force =     0.001664     Total SCF correction =     0.006916
     SCF correction compared to forces is large: reduce conv_thr to get better values

     Computing stress (Cartesian axis) and pressure

          total   stress  (Ry/bohr**3)                   (kbar)     P=      -18.72
  -0.00018407   0.00000000   0.00000000          -27.08        0.00        0.00
   0.00000000  -0.00009886   0.00000000            0.00      -14.54        0.00
   0.00000000   0.00000000  -0.00009886            0.00        0.00      -14.54

     Writing output data file /scratch/AfToGzVpNOIVUdWM.save/

     General routines

     Parallel routines

   This run was terminated on:  16:30:39  23Nov2021

   JOB DONE.