     Program PWSCF v.6.7MaX starts on 23Nov2021 at 18:35:25

     R & G space division:  proc/nbgrp/npool/nimage =      72
     Reading input from /rds/homes/b/bxp912/jobs/20211014_ru_eos/wd/ec/ec_2_008.in
Warning: card &CELL ignored
Warning: card CELL_DYNAMICS = 'BFGS', ignored
Warning: card CELL_FACTOR = 2.0, ignored
Warning: card PRESS = 0.0, ignored
Warning: card / ignored

     Current dimensions of program PWSCF are:
     Max number of different atomic species (ntypx) = 10
     Max number of k-points (npk) =  40000
     Max angular momentum in pseudopotentials (lmaxx) =  3
     file Ru.pbe-spn-kjpaw_psl.1.0.0.UPF: wavefunction(s)  4D renormalized

     Subspace diagonalization in iterative solution of the eigenvalue problem:
     one sub-group per band group will be used

     Found symmetry operation: I + (  0.2500  0.2500  0.0000)
     This is a supercell, fractional translations are disabled
     Message from routine setup:
     using ibrav=0 with symmetry is DISCOURAGED, use correct ibrav instead

     bravais-lattice index     =            0
     lattice parameter (alat)  =      14.4007  a.u.
     unit-cell volume          =    2999.5111 (a.u.)^3
     number of atoms/cell      =           32
     number of atomic types    =            1
     number of electrons       =       512.00
     number of Kohn-Sham states=          307
     kinetic-energy cutoff     =      71.0000  Ry
     charge density cutoff     =     430.0000  Ry
     scf convergence threshold =      1.0E-06
     mixing beta               =       0.1000
     number of iterations used =           10  plain     mixing
     Exchange-correlation= SLA  PW   PBX  PBC
                           (   1   4   3   4   0   0   0)

     celldm(1)=  14.400742  celldm(2)=   0.000000  celldm(3)=   0.000000
     celldm(4)=   0.000000  celldm(5)=   0.000000  celldm(6)=   0.000000

     crystal axes: (cart. coord. in units of alat)
               a(1) = (   1.000000   0.000000   0.000000 )
               a(2) = (   0.000000   1.004375   0.000000 )
               a(3) = (   0.000000   0.000000   1.000000 )

     reciprocal axes: (cart. coord. in units 2 pi/alat)
               b(1) = (  1.000000  0.000000  0.000000 )
               b(2) = (  0.000000  0.995644  0.000000 )
               b(3) = (  0.000000  0.000000  1.000000 )

     PseudoPot. # 1 for Ru read from file:
     /rds/homes/b/bxp912/pp/Ru.pbe-spn-kjpaw_psl.1.0.0.UPF
     MD5 check sum: 0ae1f594dea09af7be8575c3a481d1ae
     Pseudo is Projector augmented-wave + core cor, Zval = 16.0
     Generated using "atomic" code by A. Dal Corso  v.5.1
     Shape of augmentation charge: PSQ
     Using radial grid of 1233 points,  6 beta functions with:
                l(1) =   0
                l(2) =   0
                l(3) =   1
                l(4) =   1
                l(5) =   2
                l(6) =   2
     Q(r) pseudized with 0 coefficients

     atomic species   valence    mass     pseudopotential
        Ru            16.00   101.07000     Ru( 1.00)

     16 Sym. Ops., with inversion, found

   Cartesian axes

     site n.     atom                  positions (alat units)
         1           Ru  tau(   1) = (   0.0000000   0.0000000   0.0000000  )
         2           Ru  tau(   2) = (   0.2500000   0.2510938   0.0000000  )
         3           Ru  tau(   3) = (   0.2500000   0.0000000   0.2499995  )
         4           Ru  tau(   4) = (   0.0000000   0.2510938   0.2499995  )
         5           Ru  tau(   5) = (   0.0000000   0.0000000   0.5000000  )
         6           Ru  tau(   6) = (   0.2499990   0.2510927   0.5000000  )
         7           Ru  tau(   7) = (   0.2500000   0.0000000   0.7499995  )
         8           Ru  tau(   8) = (   0.0000000   0.2510938   0.7499995  )
         9           Ru  tau(   9) = (   0.0000000   0.5021877   0.0000000  )
        10           Ru  tau(  10) = (   0.2500000   0.7532817   0.0000000  )
        11           Ru  tau(  11) = (   0.2499990   0.5021877   0.2499984  )
        12           Ru  tau(  12) = (   0.0000000   0.7532817   0.2499995  )
        13           Ru  tau(  13) = (   0.0000000   0.5021877   0.5000000  )
        14           Ru  tau(  14) = (   0.2499990   0.7532827   0.5000000  )
        15           Ru  tau(  15) = (   0.2499990   0.5021877   0.7500005  )
        16           Ru  tau(  16) = (   0.0000000   0.7532817   0.7499995  )
        17           Ru  tau(  17) = (   0.5000002   0.0000000   0.0000000  )
        18           Ru  tau(  18) = (   0.7500004   0.2510938   0.0000000  )
        19           Ru  tau(  19) = (   0.7500004   0.0000000   0.2499995  )
        20           Ru  tau(  20) = (   0.5000002   0.2510927   0.2499984  )
        21           Ru  tau(  21) = (   0.5000002   0.0000000   0.5000000  )
        22           Ru  tau(  22) = (   0.7500015   0.2510927   0.5000000  )
        23           Ru  tau(  23) = (   0.7500004   0.0000000   0.7499995  )
        24           Ru  tau(  24) = (   0.5000002   0.2510927   0.7500005  )
        25           Ru  tau(  25) = (   0.5000002   0.5021877   0.0000000  )
        26           Ru  tau(  26) = (   0.7500004   0.7532817   0.0000000  )
        27           Ru  tau(  27) = (   0.7500015   0.5021877   0.2499984  )
        28           Ru  tau(  28) = (   0.5000002   0.7532827   0.2499984  )
        29           Ru  tau(  29) = (   0.5000002   0.5021877   0.5000000  )
        30           Ru  tau(  30) = (   0.7500015   0.7532827   0.5000000  )
        31           Ru  tau(  31) = (   0.7500015   0.5021877   0.7500005  )
        32           Ru  tau(  32) = (   0.5000002   0.7532827   0.7500005  )

     number of k points=    75  Marzari-Vanderbilt smearing, width (Ry)=  0.0400
                       cart. coord. in units 2pi/alat
        k(    1) = (   0.0555556   0.0553136   0.0555556), wk =   0.0219479
        k(    2) = (   0.0555556   0.0553136   0.1666667), wk =   0.0438957
        k(    3) = (   0.0555556   0.0553136   0.2777778), wk =   0.0438957
        k(    4) = (   0.0555556   0.0553136   0.3888889), wk =   0.0438957
        k(    5) = (   0.0555556   0.0553136  -0.5000000), wk =   0.0219479
        k(    6) = (   0.0555556   0.1659407   0.0555556), wk =   0.0219479
        k(    7) = (   0.0555556   0.1659407   0.1666667), wk =   0.0438957
        k(    8) = (   0.0555556   0.1659407   0.2777778), wk =   0.0438957
        k(    9) = (   0.0555556   0.1659407   0.3888889), wk =   0.0438957
        k(   10) = (   0.0555556   0.1659407  -0.5000000), wk =   0.0219479
        k(   11) = (   0.0555556   0.2765678   0.0555556), wk =   0.0219479
        k(   12) = (   0.0555556   0.2765678   0.1666667), wk =   0.0438957
        k(   13) = (   0.0555556   0.2765678   0.2777778), wk =   0.0438957
        k(   14) = (   0.0555556   0.2765678   0.3888889), wk =   0.0438957
        k(   15) = (   0.0555556   0.2765678  -0.5000000), wk =   0.0219479
        k(   16) = (   0.0555556   0.3871949   0.0555556), wk =   0.0219479
        k(   17) = (   0.0555556   0.3871949   0.1666667), wk =   0.0438957
        k(   18) = (   0.0555556   0.3871949   0.2777778), wk =   0.0438957
        k(   19) = (   0.0555556   0.3871949   0.3888889), wk =   0.0438957
        k(   20) = (   0.0555556   0.3871949  -0.5000000), wk =   0.0219479
        k(   21) = (   0.0555556  -0.4978220   0.0555556), wk =   0.0109739
        k(   22) = (   0.0555556  -0.4978220   0.1666667), wk =   0.0219479
        k(   23) = (   0.0555556  -0.4978220   0.2777778), wk =   0.0219479
        k(   24) = (   0.0555556  -0.4978220   0.3888889), wk =   0.0219479
        k(   25) = (   0.0555556  -0.4978220  -0.5000000), wk =   0.0109739
        k(   26) = (   0.1666667   0.0553136   0.1666667), wk =   0.0219479
        k(   27) = (   0.1666667   0.0553136   0.2777778), wk =   0.0438957
        k(   28) = (   0.1666667   0.0553136   0.3888889), wk =   0.0438957
        k(   29) = (   0.1666667   0.0553136  -0.5000000), wk =   0.0219479
        k(   30) = (   0.1666667   0.1659407   0.1666667), wk =   0.0219479
        k(   31) = (   0.1666667   0.1659407   0.2777778), wk =   0.0438957
        k(   32) = (   0.1666667   0.1659407   0.3888889), wk =   0.0438957
        k(   33) = (   0.1666667   0.1659407  -0.5000000), wk =   0.0219479
        k(   34) = (   0.1666667   0.2765678   0.1666667), wk =   0.0219479
        k(   35) = (   0.1666667   0.2765678   0.2777778), wk =   0.0438957
        k(   36) = (   0.1666667   0.2765678   0.3888889), wk =   0.0438957
        k(   37) = (   0.1666667   0.2765678  -0.5000000), wk =   0.0219479
        k(   38) = (   0.1666667   0.3871949   0.1666667), wk =   0.0219479
        k(   39) = (   0.1666667   0.3871949   0.2777778), wk =   0.0438957
        k(   40) = (   0.1666667   0.3871949   0.3888889), wk =   0.0438957
        k(   41) = (   0.1666667   0.3871949  -0.5000000), wk =   0.0219479
        k(   42) = (   0.1666667  -0.4978220   0.1666667), wk =   0.0109739
        k(   43) = (   0.1666667  -0.4978220   0.2777778), wk =   0.0219479
        k(   44) = (   0.1666667  -0.4978220   0.3888889), wk =   0.0219479
        k(   45) = (   0.1666667  -0.4978220  -0.5000000), wk =   0.0109739
        k(   46) = (   0.2777778   0.0553136   0.2777778), wk =   0.0219479
        k(   47) = (   0.2777778   0.0553136   0.3888889), wk =   0.0438957
        k(   48) = (   0.2777778   0.0553136  -0.5000000), wk =   0.0219479
        k(   49) = (   0.2777778   0.1659407   0.2777778), wk =   0.0219479
        k(   50) = (   0.2777778   0.1659407   0.3888889), wk =   0.0438957
        k(   51) = (   0.2777778   0.1659407  -0.5000000), wk =   0.0219479
        k(   52) = (   0.2777778   0.2765678   0.2777778), wk =   0.0219479
        k(   53) = (   0.2777778   0.2765678   0.3888889), wk =   0.0438957
        k(   54) = (   0.2777778   0.2765678  -0.5000000), wk =   0.0219479
        k(   55) = (   0.2777778   0.3871949   0.2777778), wk =   0.0219479
        k(   56) = (   0.2777778   0.3871949   0.3888889), wk =   0.0438957
        k(   57) = (   0.2777778   0.3871949  -0.5000000), wk =   0.0219479
        k(   58) = (   0.2777778  -0.4978220   0.2777778), wk =   0.0109739
        k(   59) = (   0.2777778  -0.4978220   0.3888889), wk =   0.0219479
        k(   60) = (   0.2777778  -0.4978220  -0.5000000), wk =   0.0109739
        k(   61) = (   0.3888889   0.0553136   0.3888889), wk =   0.0219479
        k(   62) = (   0.3888889   0.0553136  -0.5000000), wk =   0.0219479
        k(   63) = (   0.3888889   0.1659407   0.3888889), wk =   0.0219479
        k(   64) = (   0.3888889   0.1659407  -0.5000000), wk =   0.0219479
        k(   65) = (   0.3888889   0.2765678   0.3888889), wk =   0.0219479
        k(   66) = (   0.3888889   0.2765678  -0.5000000), wk =   0.0219479
        k(   67) = (   0.3888889   0.3871949   0.3888889), wk =   0.0219479
        k(   68) = (   0.3888889   0.3871949  -0.5000000), wk =   0.0219479
        k(   69) = (   0.3888889  -0.4978220   0.3888889), wk =   0.0109739
        k(   70) = (   0.3888889  -0.4978220  -0.5000000), wk =   0.0109739
        k(   71) = (  -0.5000000   0.0553136  -0.5000000), wk =   0.0054870
        k(   72) = (  -0.5000000   0.1659407  -0.5000000), wk =   0.0054870
        k(   73) = (  -0.5000000   0.2765678  -0.5000000), wk =   0.0054870
        k(   74) = (  -0.5000000   0.3871949  -0.5000000), wk =   0.0054870
        k(   75) = (  -0.5000000  -0.4978220  -0.5000000), wk =   0.0027435

     Check: negative core charge=   -0.000002

     Initial potential from superposition of free atoms

     starting charge  511.97959, renormalised to  512.00000
     Starting wfcs are  320 randomized atomic wfcs
     Checking if some PAW data can be deallocated...

     Self-consistent Calculation

     iteration #  1     ecut=    71.00 Ry     beta= 0.10
     Davidson diagonalization with overlap
     ethr =  1.00E-02,  avg # of iterations =  3.3

     Threshold (ethr) on eigenvalues was too large:
     Diagonalizing with lowered threshold

     Davidson diagonalization with overlap
     ethr =  8.34E-05,  avg # of iterations =  5.6

     total energy              =  -13813.41152234 Ry
     estimated scf accuracy    <       0.63701726 Ry

[...]

     total energy              =  -13813.30020747 Ry
     estimated scf accuracy    <       0.00000262 Ry

     iteration # 11     ecut=    71.00 Ry     beta= 0.10
     Davidson diagonalization with overlap
     ethr =  5.13E-10,  avg # of iterations =  3.7

     End of self-consistent calculation

          k = 0.0556 0.0553 0.0556 ( 30368 PWs)   bands (ev):

   -50.0229 -49.9258 -49.9244 -49.9244 -49.9070 -49.9055 -49.9055 -49.8707
   -49.8707 -49.8706 -49.8615 -49.8605 -49.8605 -49.8603 -49.8603 -49.8602
   -49.8602 -49.8598 -49.8597 -49.8597 -49.8517 -49.8516 -49.8516 -49.8089
   -49.8072 -49.8071 -49.8069 -49.8069 -49.8061 -49.8060 -49.8056 -49.8055
   -20.4207 -20.4207 -20.4206 -20.4166 -20.3595 -20.3595 -20.3581 -20.1656
   -20.1593 -20.1593 -20.1546 -20.1546 -20.1482 -20.1482 -20.1478 -20.1478
   -20.1349 -20.1279 -20.1278 -20.1112 -20.1112 -20.1065 -20.1065 -20.1061
   -20.1061 -20.0619 -20.0619 -20.0566 -20.0566 -20.0557 -20.0557 -19.9604
   -19.9604 -19.9593 -19.8885 -19.8885 -19.8870 -19.8806 -19.8806 -19.8795
   -19.8481 -19.8481 -19.8471 -19.8470 -19.8460 -19.8460 -19.8079 -19.8079
   -19.8065 -19.8023 -19.8023 -19.8013 -19.8013 -19.8003 -19.8002 -19.7984
   -19.7984 -19.7904 -19.7904 -19.7901 -19.7856 -19.6336 -19.6336 -19.6290
   -19.6290 -19.6275 -19.6268 -19.6014 -19.6014 -19.5977 -19.5977 -19.5960
   -19.5960 -19.5855 -19.5855 -19.5802 -19.5748 -19.5729 -19.5729 -19.5722
   -19.5722 -19.5722 -19.5722 -19.5691 -19.5675 -19.5675 -19.5672 -19.5672
   -19.5654 -19.5626 -19.5539 -19.5539 -19.5493 -19.4409 -19.4343 -19.4339
    15.2454  16.8143  16.8143  16.8181  17.0894  17.1071  17.1071  17.1071
    17.2805  17.2805  17.2851  17.4842  17.5000  17.5000  17.6582  17.6734
    17.6734  18.2009  18.2009  18.2241  18.2241  18.2251  18.2251  18.5213
    18.5364  18.5364  18.7876  18.7876  18.7885  18.7899  18.8095  18.8095
    18.8951  18.8971  18.8971  18.8978  18.8978  18.8978  18.8978  18.8989
    18.8989  19.3789  19.3789  19.3906  19.3906  19.4004  19.4004  19.5187
    19.5411  19.5411  19.5498  19.5498  19.5727  19.5727  19.5744  19.5744
    19.6157  19.6367  19.6367  19.8790  19.8790  19.8867  19.8867  19.8889
    19.8889  19.8890  19.8890  19.8930  19.8930  19.8956  19.8984  19.8985
    19.9040  19.9040  20.0604  20.0604  20.0647  20.3190  20.3450  20.3450
    20.3545  20.3966  20.3966  20.4081  20.4230  20.4556  20.5065  20.5229
    21.4471  21.4875  21.4875  21.6128  21.6568  21.6568  21.6882  21.6882
    21.7023  21.7874  21.7874  21.7890  21.7891  21.8005  21.8005  21.8026
    21.8026  21.8134  22.0922  22.0922  22.1160  22.2148  22.2148  22.2292
    22.4593  22.4593  22.4814  22.5375  22.5375  22.5476  22.5476  22.5487
    22.5487  22.5560  22.5560  22.5759  22.5972  22.5973  22.6111  22.7846
    22.7846  22.7853  22.7853  22.8030  22.8030  22.8174  22.8798  22.9570
    22.9570  22.9751  23.6092  23.6092  23.6378  23.6653  23.6653  23.6711
    23.7695  23.7695  23.7942  23.8679  24.5901  24.5901  24.5935  24.6200
    24.6471  24.6545  24.6748  24.6748  24.9413  24.9524  24.9524  24.9721
    24.9721  24.9859  25.1223  25.1223  25.1240  25.1240  25.1377  25.1434
    25.1434  25.1586  25.1586  26.5652  26.5652  26.5959  26.6921  26.7753
    26.7753  27.0944  27.0944

[...]

          k = 0.3889-0.4978-0.5000 ( 30312 PWs)   bands (ev):

[...]

          k =-0.5000 0.0553-0.5000 ( 30320 PWs)   bands (ev):

[...]

          k =-0.5000-0.4978-0.5000 ( 30376 PWs)   bands (ev):

   -49.9430 -49.9429 -49.9428 -49.9428 -49.9426 -49.9426 -49.9426 -49.9424
   -49.8348 -49.8347 -49.8346 -49.8345 -49.8344 -49.8344 -49.8343 -49.8342
   -49.8334 -49.8333 -49.8332 -49.8332 -49.8331 -49.8331 -49.8330 -49.8330
   -49.8330 -49.8329 -49.8329 -49.8328 -49.8328 -49.8328 -49.8326 -49.8326
   -20.2557 -20.2557 -20.2557 -20.2557 -20.2557 -20.2556 -20.2556 -20.2556
   -20.2555 -20.2555 -20.2555 -20.2555 -20.2554 -20.2554 -20.2554 -20.2554
   -20.2525 -20.2524 -20.2524 -20.2524 -20.2523 -20.2523 -20.2522 -20.2522
   -19.9390 -19.9390 -19.9390 -19.9390 -19.9389 -19.9389 -19.9389 -19.9388
   -19.8295 -19.8294 -19.8294 -19.8294 -19.8293 -19.8293 -19.8293 -19.8293
   -19.8282 -19.8281 -19.8281 -19.8281 -19.8281 -19.8281 -19.8280 -19.8280
   -19.8280 -19.8280 -19.8280 -19.8280 -19.8280 -19.8280 -19.8279 -19.8279
   -19.6829 -19.6828 -19.6828 -19.6828 -19.6828 -19.6828 -19.6827 -19.6827
   -19.6826 -19.6826 -19.6826 -19.6826 -19.6826 -19.6825 -19.6825 -19.6825
   -19.6766 -19.6766 -19.6766 -19.6765 -19.6764 -19.6764 -19.6764 -19.6764
   -19.5022 -19.5022 -19.5021 -19.5021 -19.5020 -19.5020 -19.5020 -19.5019
   -19.4987 -19.4986 -19.4986 -19.4986 -19.4984 -19.4984 -19.4984 -19.4984
    17.0417  17.0417  17.0418  17.0419  17.0419  17.0420  17.0422  17.0424
    17.9045  17.9045  17.9045  17.9046  17.9046  17.9046  17.9047  17.9047
    17.9047  17.9047  17.9047  17.9047  17.9048  17.9048  17.9048  17.9048
    17.9053  17.9053  17.9053  17.9053  17.9055  17.9055  17.9055  17.9055
    18.9260  18.9260  18.9260  18.9261  18.9261  18.9261  18.9261  18.9262
    18.9262  18.9262  18.9262  18.9263  18.9263  18.9264  18.9264  18.9265
    18.9335  18.9335  18.9336  18.9336  18.9337  18.9337  18.9338  18.9338
    20.2417  20.2417  20.2417  20.2417  20.2417  20.2417  20.2418  20.2418
    20.8559  20.8559  20.8560  20.8560  20.8560  20.8560  20.8561  20.8561
    20.9060  20.9060  20.9060  20.9060  20.9061  20.9061  20.9061  20.9061
    20.9664  20.9664  20.9665  20.9665  20.9665  20.9666  20.9667  20.9668
    20.9968  20.9968  20.9969  20.9969  20.9969  20.9969  20.9969  20.9969
    20.9970  20.9970  20.9970  20.9970  20.9971  20.9971  20.9971  20.9972
    22.1883  22.1883  22.1883  22.1884  22.1884  22.1884  22.1884  22.1884
    22.1885  22.1885  22.1885  22.1885  22.1885  22.1885  22.1885  22.1886
    22.2141  22.2142  22.2142  22.2142  22.2143  22.2143  22.2143  22.2144
    23.0145  23.0146  23.0146  23.0146  23.0147  23.0147  23.0147  23.0148
    23.0315  23.0315  23.0316  23.0316  23.0316  23.0316  23.0317  23.0318
    24.8005  24.8005  24.8005  24.8006  24.8006  24.8006  24.8006  24.8007
    24.8106  24.8106  24.8107  24.8107  24.8107  24.8107  24.8107  24.8107
    24.8108  24.8108  24.8108  24.8108  24.8108  24.8108  24.8108  24.8109
    28.1540  28.1545  28.1554  28.1562  28.1572  28.1581  28.1609  28.1639
    28.1845  28.1846  28.1847

     the Fermi energy is    22.9908 ev

!    total energy              =  -13813.30020986 Ry

     total all-electron energy =   -289989.690549 Ry
     estimated scf accuracy    <       0.00000088 Ry
     smearing contrib. (-TS)   =       0.02013235 Ry
     internal energy E=F+TS    =  -13813.32034221 Ry

     The total energy is F=E-TS. E is the sum of the following terms:
     one-electron contribution =   -1006.61745791 Ry
     hartree contribution      =     919.32704917 Ry
     xc contribution           =    -927.89548636 Ry
     ewald contribution        =   -5208.69900445 Ry
     one-center paw contrib.   =   -7589.43544265 Ry

     convergence has been achieved in  11 iterations

     Forces acting on atoms (cartesian axes, Ry/au):

     atom    1 type  1   force =     0.00000000    0.00000000    0.00000000
     atom    2 type  1   force =    -0.00014814    0.00002582    0.00000000
     atom    3 type  1   force =    -0.00034547    0.00000000   -0.00034547
     atom    4 type  1   force =     0.00000000    0.00002582   -0.00014814
     atom    5 type  1   force =     0.00000000    0.00000000    0.00000000
     atom    6 type  1   force =    -0.00013564    0.00047006    0.00000000
     atom    7 type  1   force =    -0.00034547    0.00000000    0.00034547
     atom    8 type  1   force =     0.00000000    0.00002582    0.00014814
     atom    9 type  1   force =     0.00000000    0.00000000    0.00000000
     atom   10 type  1   force =    -0.00014814   -0.00002582   -0.00000000
     atom   11 type  1   force =     0.00007568   -0.00000000    0.00007568
     atom   12 type  1   force =     0.00000000   -0.00002582   -0.00014814
     atom   13 type  1   force =     0.00000000    0.00000000    0.00000000
     atom   14 type  1   force =    -0.00013564   -0.00047006    0.00000000
     atom   15 type  1   force =     0.00007568   -0.00000000   -0.00007568
     atom   16 type  1   force =     0.00000000   -0.00002582    0.00014814
     atom   17 type  1   force =     0.00000000    0.00000000    0.00000000
     atom   18 type  1   force =     0.00014814    0.00002582   -0.00000000
     atom   19 type  1   force =     0.00034547    0.00000000   -0.00034547
     atom   20 type  1   force =     0.00000000    0.00047006   -0.00013564
     atom   21 type  1   force =     0.00000000    0.00000000    0.00000000
     atom   22 type  1   force =     0.00013564    0.00047006    0.00000000
     atom   23 type  1   force =     0.00034547    0.00000000    0.00034547
     atom   24 type  1   force =     0.00000000    0.00047006    0.00013564
     atom   25 type  1   force =     0.00000000    0.00000000    0.00000000
     atom   26 type  1   force =     0.00014814   -0.00002582    0.00000000
     atom   27 type  1   force =    -0.00007568   -0.00000000    0.00007568
     atom   28 type  1   force =     0.00000000   -0.00047006   -0.00013564
     atom   29 type  1   force =     0.00000000    0.00000000    0.00000000
     atom   30 type  1   force =     0.00013564   -0.00047006    0.00000000
     atom   31 type  1   force =    -0.00007568   -0.00000000   -0.00007568
     atom   32 type  1   force =     0.00000000   -0.00047006    0.00013564

     Total force =     0.001760     Total SCF correction =     0.007808
     SCF correction compared to forces is large: reduce conv_thr to get better values

     Computing stress (Cartesian axis) and pressure

          total   stress  (Ry/bohr**3)                   (kbar)     P=      -18.03
  -0.00009770   0.00000000   0.00000000          -14.37        0.00        0.00
   0.00000000  -0.00017224   0.00000000            0.00      -25.34        0.00
   0.00000000   0.00000000  -0.00009770            0.00        0.00      -14.37

     Writing output data file /scratch/CuHbDQfMHVudkciJ.save/

     General routines

     Parallel routines

   This run was terminated on:  18:53:43  23Nov2021

   JOB DONE.