     Program PWSCF v.6.7MaX starts on 23Nov2021 at 18:54: 7

     R & G space division:  proc/nbgrp/npool/nimage =      72
     Reading input from /rds/homes/b/bxp912/jobs/20211014_ru_eos/wd/ec/ec_2_009.in
Warning: card &CELL ignored
Warning: card CELL_DYNAMICS = 'BFGS', ignored
Warning: card CELL_FACTOR = 2.0, ignored
Warning: card PRESS = 0.0, ignored
Warning: card / ignored

     Current dimensions of program PWSCF are:
     Max number of different atomic species (ntypx) = 10
     Max number of k-points (npk) =  40000
     Max angular momentum in pseudopotentials (lmaxx) =  3
     file Ru.pbe-spn-kjpaw_psl.1.0.0.UPF: wavefunction(s)  4D renormalized

     Subspace diagonalization in iterative solution of the eigenvalue problem:
     one sub-group per band group will be used

     Found symmetry operation: I + (  0.2500  0.2500  0.0000)
     This is a supercell, fractional translations are disabled
     Message from routine setup:
     using ibrav=0 with symmetry is DISCOURAGED, use correct ibrav instead

     bravais-lattice index     =            0
     lattice parameter (alat)  =      14.4007  a.u.
     unit-cell volume          =    3001.3776 (a.u.)^3
     number of atoms/cell      =           32
     number of atomic types    =            1
     number of electrons       =       512.00
     number of Kohn-Sham states=          307
     kinetic-energy cutoff     =      71.0000  Ry
     charge density cutoff     =     430.0000  Ry
     scf convergence threshold =      1.0E-06
     mixing beta               =       0.1000
     number of iterations used =           10  plain     mixing
     Exchange-correlation= SLA  PW   PBX  PBC
                           (   1   4   3   4   0   0   0)

     celldm(1)=  14.400742  celldm(2)=   0.000000  celldm(3)=   0.000000
     celldm(4)=   0.000000  celldm(5)=   0.000000  celldm(6)=   0.000000

     crystal axes: (cart. coord. in units of alat)
               a(1) = (   1.000000   0.000000   0.000000 )
               a(2) = (   0.000000   1.005000   0.000000 )
               a(3) = (   0.000000   0.000000   1.000000 )

     reciprocal axes: (cart. coord. in units 2 pi/alat)
               b(1) = (  1.000000  0.000000  0.000000 )
               b(2) = (  0.000000  0.995025  0.000000 )
               b(3) = (  0.000000  0.000000  1.000000 )

     PseudoPot. # 1 for Ru read from file:
     /rds/homes/b/bxp912/pp/Ru.pbe-spn-kjpaw_psl.1.0.0.UPF
     MD5 check sum: 0ae1f594dea09af7be8575c3a481d1ae
     Pseudo is Projector augmented-wave + core cor, Zval = 16.0
     Generated using "atomic" code by A. Dal Corso  v.5.1
     Shape of augmentation charge: PSQ
     Using radial grid of 1233 points,  6 beta functions with:
                l(1) =   0
                l(2) =   0
                l(3) =   1
                l(4) =   1
                l(5) =   2
                l(6) =   2
     Q(r) pseudized with 0 coefficients

     atomic species   valence    mass     pseudopotential
        Ru            16.00   101.07000     Ru( 1.00)

     16 Sym. Ops., with inversion, found

   Cartesian axes

     site n.     atom                  positions (alat units)
         1           Ru  tau(   1) = (   0.0000000   0.0000000   0.0000000  )
         2           Ru  tau(   2) = (   0.2500000   0.2512500   0.0000000  )
         3           Ru  tau(   3) = (   0.2500000   0.0000000   0.2499995  )
         4           Ru  tau(   4) = (   0.0000000   0.2512500   0.2499995  )
         5           Ru  tau(   5) = (   0.0000000   0.0000000   0.5000000  )
         6           Ru  tau(   6) = (   0.2499990   0.2512489   0.5000000  )
         7           Ru  tau(   7) = (   0.2500000   0.0000000   0.7499995  )
         8           Ru  tau(   8) = (   0.0000000   0.2512500   0.7499995  )
         9           Ru  tau(   9) = (   0.0000000   0.5025002   0.0000000  )
        10           Ru  tau(  10) = (   0.2500000   0.7537504   0.0000000  )
        11           Ru  tau(  11) = (   0.2499990   0.5025002   0.2499984  )
        12           Ru  tau(  12) = (   0.0000000   0.7537504   0.2499995  )
        13           Ru  tau(  13) = (   0.0000000   0.5025002   0.5000000  )
        14           Ru  tau(  14) = (   0.2499990   0.7537515   0.5000000  )
        15           Ru  tau(  15) = (   0.2499990   0.5025002   0.7500005  )
        16           Ru  tau(  16) = (   0.0000000   0.7537504   0.7499995  )
        17           Ru  tau(  17) = (   0.5000002   0.0000000   0.0000000  )
        18           Ru  tau(  18) = (   0.7500004   0.2512500   0.0000000  )
        19           Ru  tau(  19) = (   0.7500004   0.0000000   0.2499995  )
        20           Ru  tau(  20) = (   0.5000002   0.2512489   0.2499984  )
        21           Ru  tau(  21) = (   0.5000002   0.0000000   0.5000000  )
        22           Ru  tau(  22) = (   0.7500015   0.2512489   0.5000000  )
        23           Ru  tau(  23) = (   0.7500004   0.0000000   0.7499995  )
        24           Ru  tau(  24) = (   0.5000002   0.2512489   0.7500005  )
        25           Ru  tau(  25) = (   0.5000002   0.5025002   0.0000000  )
        26           Ru  tau(  26) = (   0.7500004   0.7537504   0.0000000  )
        27           Ru  tau(  27) = (   0.7500015   0.5025002   0.2499984  )
        28           Ru  tau(  28) = (   0.5000002   0.7537515   0.2499984  )
        29           Ru  tau(  29) = (   0.5000002   0.5025002   0.5000000  )
        30           Ru  tau(  30) = (   0.7500015   0.7537515   0.5000000  )
        31           Ru  tau(  31) = (   0.7500015   0.5025002   0.7500005  )
        32           Ru  tau(  32) = (   0.5000002   0.7537515   0.7500005  )

     number of k points=    75  Marzari-Vanderbilt smearing, width (Ry)=  0.0400
                       cart. coord. in units 2pi/alat
        k(    1) = (   0.0555556   0.0552792   0.0555556), wk =   0.0219479
        k(    2) = (   0.0555556   0.0552792   0.1666667), wk =   0.0438957
        k(    3) = (   0.0555556   0.0552792   0.2777778), wk =   0.0438957
        k(    4) = (   0.0555556   0.0552792   0.3888889), wk =   0.0438957
        k(    5) = (   0.0555556   0.0552792  -0.5000000), wk =   0.0219479
        k(    6) = (   0.0555556   0.1658375   0.0555556), wk =   0.0219479
        k(    7) = (   0.0555556   0.1658375   0.1666667), wk =   0.0438957
        k(    8) = (   0.0555556   0.1658375   0.2777778), wk =   0.0438957
        k(    9) = (   0.0555556   0.1658375   0.3888889), wk =   0.0438957
        k(   10) = (   0.0555556   0.1658375  -0.5000000), wk =   0.0219479
        k(   11) = (   0.0555556   0.2763958   0.0555556), wk =   0.0219479
        k(   12) = (   0.0555556   0.2763958   0.1666667), wk =   0.0438957
        k(   13) = (   0.0555556   0.2763958   0.2777778), wk =   0.0438957
        k(   14) = (   0.0555556   0.2763958   0.3888889), wk =   0.0438957
        k(   15) = (   0.0555556   0.2763958  -0.5000000), wk =   0.0219479
        k(   16) = (   0.0555556   0.3869541   0.0555556), wk =   0.0219479
        k(   17) = (   0.0555556   0.3869541   0.1666667), wk =   0.0438957
        k(   18) = (   0.0555556   0.3869541   0.2777778), wk =   0.0438957
        k(   19) = (   0.0555556   0.3869541   0.3888889), wk =   0.0438957
        k(   20) = (   0.0555556   0.3869541  -0.5000000), wk =   0.0219479
        k(   21) = (   0.0555556  -0.4975124   0.0555556), wk =   0.0109739
        k(   22) = (   0.0555556  -0.4975124   0.1666667), wk =   0.0219479
        k(   23) = (   0.0555556  -0.4975124   0.2777778), wk =   0.0219479
        k(   24) = (   0.0555556  -0.4975124   0.3888889), wk =   0.0219479
        k(   25) = (   0.0555556  -0.4975124  -0.5000000), wk =   0.0109739
        k(   26) = (   0.1666667   0.0552792   0.1666667), wk =   0.0219479
        k(   27) = (   0.1666667   0.0552792   0.2777778), wk =   0.0438957
        k(   28) = (   0.1666667   0.0552792   0.3888889), wk =   0.0438957
        k(   29) = (   0.1666667   0.0552792  -0.5000000), wk =   0.0219479
        k(   30) = (   0.1666667   0.1658375   0.1666667), wk =   0.0219479
        k(   31) = (   0.1666667   0.1658375   0.2777778), wk =   0.0438957
        k(   32) = (   0.1666667   0.1658375   0.3888889), wk =   0.0438957
        k(   33) = (   0.1666667   0.1658375  -0.5000000), wk =   0.0219479
        k(   34) = (   0.1666667   0.2763958   0.1666667), wk =   0.0219479
        k(   35) = (   0.1666667   0.2763958   0.2777778), wk =   0.0438957
        k(   36) = (   0.1666667   0.2763958   0.3888889), wk =   0.0438957
        k(   37) = (   0.1666667   0.2763958  -0.5000000), wk =   0.0219479
        k(   38) = (   0.1666667   0.3869541   0.1666667), wk =   0.0219479
        k(   39) = (   0.1666667   0.3869541   0.2777778), wk =   0.0438957
        k(   40) = (   0.1666667   0.3869541   0.3888889), wk =   0.0438957
        k(   41) = (   0.1666667   0.3869541  -0.5000000), wk =   0.0219479
        k(   42) = (   0.1666667  -0.4975124   0.1666667), wk =   0.0109739
        k(   43) = (   0.1666667  -0.4975124   0.2777778), wk =   0.0219479
        k(   44) = (   0.1666667  -0.4975124   0.3888889), wk =   0.0219479
        k(   45) = (   0.1666667  -0.4975124  -0.5000000), wk =   0.0109739
        k(   46) = (   0.2777778   0.0552792   0.2777778), wk =   0.0219479
        k(   47) = (   0.2777778   0.0552792   0.3888889), wk =   0.0438957
        k(   48) = (   0.2777778   0.0552792  -0.5000000), wk =   0.0219479
        k(   49) = (   0.2777778   0.1658375   0.2777778), wk =   0.0219479
        k(   50) = (   0.2777778   0.1658375   0.3888889), wk =   0.0438957
        k(   51) = (   0.2777778   0.1658375  -0.5000000), wk =   0.0219479
        k(   52) = (   0.2777778   0.2763958   0.2777778), wk =   0.0219479
        k(   53) = (   0.2777778   0.2763958   0.3888889), wk =   0.0438957
        k(   54) = (   0.2777778   0.2763958  -0.5000000), wk =   0.0219479
        k(   55) = (   0.2777778   0.3869541   0.2777778), wk =   0.0219479
        k(   56) = (   0.2777778   0.3869541   0.3888889), wk =   0.0438957
        k(   57) = (   0.2777778   0.3869541  -0.5000000), wk =   0.0219479
        k(   58) = (   0.2777778  -0.4975124   0.2777778), wk =   0.0109739
        k(   59) = (   0.2777778  -0.4975124   0.3888889), wk =   0.0219479
        k(   60) = (   0.2777778  -0.4975124  -0.5000000), wk =   0.0109739
        k(   61) = (   0.3888889   0.0552792   0.3888889), wk =   0.0219479
        k(   62) = (   0.3888889   0.0552792  -0.5000000), wk =   0.0219479
        k(   63) = (   0.3888889   0.1658375   0.3888889), wk =   0.0219479
        k(   64) = (   0.3888889   0.1658375  -0.5000000), wk =   0.0219479
        k(   65) = (   0.3888889   0.2763958   0.3888889), wk =   0.0219479
        k(   66) = (   0.3888889   0.2763958  -0.5000000), wk =   0.0219479
        k(   67) = (   0.3888889   0.3869541   0.3888889), wk =   0.0219479
        k(   68) = (   0.3888889   0.3869541  -0.5000000), wk =   0.0219479
        k(   69) = (   0.3888889  -0.4975124   0.3888889), wk =   0.0109739
        k(   70) = (   0.3888889  -0.4975124  -0.5000000), wk =   0.0109739
        k(   71) = (  -0.5000000   0.0552792  -0.5000000), wk =   0.0054870
        k(   72) = (  -0.5000000   0.1658375  -0.5000000), wk =   0.0054870
        k(   73) = (  -0.5000000   0.2763958  -0.5000000), wk =   0.0054870
        k(   74) = (  -0.5000000   0.3869541  -0.5000000), wk =   0.0054870
        k(   75) = (  -0.5000000  -0.4975124  -0.5000000), wk =   0.0027435

     Check: negative core charge=   -0.000002

     Initial potential from superposition of free atoms

     starting charge  511.97959, renormalised to  512.00000
     Starting wfcs are  320 randomized atomic wfcs
     Checking if some PAW data can be deallocated...

     Self-consistent Calculation

     iteration #  1     ecut=    71.00 Ry     beta= 0.10
     Davidson diagonalization with overlap
     ethr =  1.00E-02,  avg # of iterations =  3.3

     Threshold (ethr) on eigenvalues was too large:
     Diagonalizing with lowered threshold

     Davidson diagonalization with overlap
     ethr =  8.23E-05,  avg # of iterations =  5.5

     total energy              =  -13813.41119618 Ry
     estimated scf accuracy    <       0.63674224 Ry

[...]

     total energy              =  -13813.29996457 Ry
     estimated scf accuracy    <       0.00000269 Ry

     iteration # 11     ecut=    71.00 Ry     beta= 0.10
     Davidson diagonalization with overlap
     ethr =  5.26E-10,  avg # of iterations =  3.6

     End of self-consistent calculation

          k = 0.0556 0.0553 0.0556 ( 30395 PWs)   bands (ev):

   -50.0395 -49.9427 -49.9412 -49.9412 -49.9241 -49.9222 -49.9222 -49.8877
   -49.8877 -49.8875 -49.8784 -49.8775 -49.8775 -49.8773 -49.8773 -49.8772
   -49.8772 -49.8768 -49.8767 -49.8767 -49.8687 -49.8686 -49.8686 -49.8263
   -49.8244 -49.8244 -49.8241 -49.8241 -49.8231 -49.8230 -49.8225 -49.8225
   -20.4363 -20.4363 -20.4362 -20.4322 -20.3752 -20.3752 -20.3736 -20.1823
   -20.1751 -20.1751 -20.1714 -20.1714 -20.1640 -20.1640 -20.1635 -20.1635
   -20.1517 -20.1437 -20.1437 -20.1279 -20.1279 -20.1225 -20.1225 -20.1220
   -20.1220 -20.0787 -20.0787 -20.0727 -20.0727 -20.0717 -20.0717 -19.9770
   -19.9770 -19.9757 -19.9053 -19.9053 -19.9035 -19.8973 -19.8973 -19.8960
   -19.8650 -19.8650 -19.8638 -19.8638 -19.8626 -19.8626 -19.8248 -19.8248
   -19.8231 -19.8194 -19.8194 -19.8183 -19.8182 -19.8180 -19.8180 -19.8149
   -19.8149 -19.8070 -19.8070 -19.8063 -19.8017 -19.6513 -19.6513 -19.6461
   -19.6461 -19.6443 -19.6436 -19.6191 -19.6191 -19.6149 -19.6149 -19.6130
   -19.6129 -19.6031 -19.6031 -19.5971 -19.5926 -19.5907 -19.5907 -19.5898
   -19.5898 -19.5897 -19.5897 -19.5869 -19.5844 -19.5844 -19.5841 -19.5841
   -19.5822 -19.5795 -19.5715 -19.5715 -19.5662 -19.4585 -19.4519 -19.4514
    15.2314  16.8020  16.8020  16.8063  17.0763  17.0940  17.0940  17.0940
    17.2678  17.2678  17.2730  17.4681  17.4860  17.4860  17.6424  17.6597
    17.6597  18.1853  18.1853  18.2118  18.2118  18.2129  18.2129  18.5064
    18.5237  18.5237  18.7725  18.7725  18.7736  18.7743  18.7967  18.7968
    18.8804  18.8826  18.8827  18.8829  18.8829  18.8830  18.8830  18.8842
    18.8842  19.3627  19.3627  19.3761  19.3761  19.3872  19.3872  19.5019
    19.5275  19.5275  19.5329  19.5329  19.5590  19.5590  19.5610  19.5610
    19.5990  19.6229  19.6229  19.8621  19.8621  19.8711  19.8711  19.8735
    19.8735  19.8736  19.8736  19.8781  19.8781  19.8813  19.8843  19.8844
    19.8906  19.8906  20.0452  20.0452  20.0501  20.3001  20.3277  20.3278
    20.3355  20.3835  20.3835  20.3967  20.4116  20.4360  20.4930  20.5101
    21.4268  21.4730  21.4730  21.5919  21.6421  21.6421  21.6712  21.6712
    21.6873  21.7704  21.7704  21.7722  21.7722  21.7852  21.7852  21.7857
    21.7857  21.7980  22.0741  22.0741  22.1014  22.1973  22.1973  22.2137
    22.4411  22.4411  22.4663  22.5194  22.5194  22.5309  22.5309  22.5322
    22.5322  22.5379  22.5379  22.5606  22.5793  22.5793  22.5952  22.7662
    22.7662  22.7671  22.7671  22.7873  22.7873  22.7953  22.8665  22.9386
    22.9386  22.9592  23.5894  23.5894  23.6221  23.6470  23.6470  23.6536
    23.7497  23.7498  23.7780  23.8498  24.5705  24.5705  24.5744  24.5987
    24.6296  24.6331  24.6562  24.6562  24.9203  24.9326  24.9326  24.9521
    24.9521  24.9678  25.1005  25.1005  25.1025  25.1025  25.1174  25.1243
    25.1243  25.1420  25.1420  26.5427  26.5427  26.5777  26.6644  26.7594
    26.7594  27.0713  27.0713

[...]

          k = 0.3889-0.4975-0.5000 ( 30340 PWs)   bands (ev):

[...]

          k =-0.5000 0.0553-0.5000 ( 30320 PWs)   bands (ev):

[...]

          k =-0.5000-0.4975-0.5000 ( 30376 PWs)   bands (ev):

   -49.9598 -49.9596 -49.9596 -49.9595 -49.9594 -49.9594 -49.9593 -49.9592
   -49.8520 -49.8518 -49.8517 -49.8517 -49.8516 -49.8516 -49.8515 -49.8513
   -49.8504 -49.8503 -49.8502 -49.8502 -49.8501 -49.8501 -49.8500 -49.8500
   -49.8500 -49.8499 -49.8499 -49.8498 -49.8498 -49.8498 -49.8496 -49.8496
   -20.2718 -20.2718 -20.2717 -20.2717 -20.2717 -20.2717 -20.2717 -20.2717
   -20.2715 -20.2715 -20.2715 -20.2715 -20.2715 -20.2714 -20.2714 -20.2714
   -20.2681 -20.2680 -20.2680 -20.2679 -20.2679 -20.2679 -20.2678 -20.2677
   -19.9556 -19.9555 -19.9555 -19.9555 -19.9554 -19.9554 -19.9554 -19.9554
   -19.8464 -19.8463 -19.8463 -19.8463 -19.8462 -19.8462 -19.8462 -19.8462
   -19.8449 -19.8449 -19.8448 -19.8448 -19.8448 -19.8448 -19.8448 -19.8447
   -19.8447 -19.8447 -19.8447 -19.8447 -19.8447 -19.8447 -19.8447 -19.8446
   -19.7002 -19.7002 -19.7002 -19.7002 -19.7002 -19.7002 -19.7001 -19.7001
   -19.7000 -19.7000 -19.7000 -19.6999 -19.6999 -19.6999 -19.6999 -19.6999
   -19.6931 -19.6931 -19.6931 -19.6931 -19.6929 -19.6929 -19.6929 -19.6929
   -19.5200 -19.5199 -19.5198 -19.5198 -19.5197 -19.5197 -19.5197 -19.5196
   -19.5159 -19.5159 -19.5159 -19.5158 -19.5157 -19.5157 -19.5156 -19.5156
    17.0273  17.0273  17.0274  17.0275  17.0275  17.0276  17.0278  17.0280
    17.8912  17.8912  17.8912  17.8913  17.8913  17.8913  17.8914  17.8914
    17.8914  17.8914  17.8914  17.8914  17.8915  17.8915  17.8915  17.8915
    17.8921  17.8921  17.8921  17.8921  17.8923  17.8923  17.8923  17.8923
    18.9115  18.9116  18.9116  18.9116  18.9117  18.9117  18.9117  18.9117
    18.9117  18.9118  18.9118  18.9118  18.9119  18.9119  18.9119  18.9120
    18.9201  18.9201  18.9202  18.9202  18.9203  18.9203  18.9204  18.9204
    20.2262  20.2262  20.2262  20.2262  20.2262  20.2262  20.2262  20.2263
    20.8367  20.8367  20.8368  20.8368  20.8368  20.8368  20.8368  20.8368
    20.8939  20.8939  20.8939  20.8939  20.8939  20.8939  20.8940  20.8940
    20.9474  20.9474  20.9474  20.9474  20.9475  20.9475  20.9476  20.9477
    20.9821  20.9821  20.9821  20.9822  20.9822  20.9822  20.9822  20.9822
    20.9822  20.9823  20.9823  20.9823  20.9824  20.9824  20.9824  20.9825
    22.1702  22.1702  22.1703  22.1703  22.1703  22.1703  22.1703  22.1704
    22.1704  22.1704  22.1704  22.1704  22.1704  22.1704  22.1705  22.1705
    22.1997  22.1998  22.1998  22.1998  22.1998  22.1999  22.1999  22.2000
    22.9956  22.9957  22.9957  22.9957  22.9958  22.9958  22.9958  22.9959
    23.0150  23.0150  23.0151  23.0151  23.0151  23.0151  23.0152  23.0153
    24.7799  24.7800  24.7800  24.7800  24.7800  24.7801  24.7801  24.7801
    24.7915  24.7915  24.7915  24.7915  24.7915  24.7915  24.7915  24.7916
    24.7916  24.7916  24.7916  24.7916  24.7916  24.7917  24.7917  24.7917
    28.1292  28.1297  28.1301  28.1314  28.1327  28.1337  28.1369  28.1386
    28.1645  28.1645  28.1646

     the Fermi energy is    22.9732 ev

!    total energy              =  -13813.29996702 Ry

     total all-electron energy =   -289989.690306 Ry
     estimated scf accuracy    <       0.00000084 Ry
     smearing contrib. (-TS)   =       0.02009776 Ry
     internal energy E=F+TS    =  -13813.32006478 Ry

     The total energy is F=E-TS. E is the sum of the following terms:
     one-electron contribution =   -1008.19950695 Ry
     hartree contribution      =     919.80510266 Ry
     xc contribution           =    -927.87240031 Ry
     ewald contribution        =   -5207.61854749 Ry
     one-center paw contrib.   =   -7589.43471270 Ry

     convergence has been achieved in  11 iterations

     Forces acting on atoms (cartesian axes, Ry/au):

     atom    1 type  1   force =     0.00000000    0.00000000    0.00000000
     atom    2 type  1   force =    -0.00014606    0.00001502    0.00000000
     atom    3 type  1   force =    -0.00034305    0.00000000   -0.00034305
     atom    4 type  1   force =     0.00000000    0.00001502   -0.00014606
     atom    5 type  1   force =     0.00000000    0.00000000    0.00000000
     atom    6 type  1   force =    -0.00013741    0.00045540    0.00000000
     atom    7 type  1   force =    -0.00034305   -0.00000000    0.00034305
     atom    8 type  1   force =     0.00000000    0.00001502    0.00014606
     atom    9 type  1   force =     0.00000000    0.00000000    0.00000000
     atom   10 type  1   force =    -0.00014606   -0.00001502    0.00000000
     atom   11 type  1   force =     0.00007479    0.00000000    0.00007479
     atom   12 type  1   force =    -0.00000000   -0.00001502   -0.00014606
     atom   13 type  1   force =     0.00000000    0.00000000    0.00000000
     atom   14 type  1   force =    -0.00013741   -0.00045540    0.00000000
     atom   15 type  1   force =     0.00007479    0.00000000   -0.00007479
     atom   16 type  1   force =     0.00000000   -0.00001502    0.00014606
     atom   17 type  1   force =     0.00000000    0.00000000    0.00000000
     atom   18 type  1   force =     0.00014606    0.00001502    0.00000000
     atom   19 type  1   force =     0.00034305   -0.00000000   -0.00034305
     atom   20 type  1   force =     0.00000000    0.00045540   -0.00013741
     atom   21 type  1   force =     0.00000000    0.00000000    0.00000000
     atom   22 type  1   force =     0.00013741    0.00045540    0.00000000
     atom   23 type  1   force =     0.00034305    0.00000000    0.00034305
     atom   24 type  1   force =     0.00000000    0.00045540    0.00013741
     atom   25 type  1   force =     0.00000000    0.00000000    0.00000000
     atom   26 type  1   force =     0.00014606   -0.00001502    0.00000000
     atom   27 type  1   force =    -0.00007479    0.00000000    0.00007479
     atom   28 type  1   force =     0.00000000   -0.00045540   -0.00013741
     atom   29 type  1   force =     0.00000000    0.00000000    0.00000000
     atom   30 type  1   force =     0.00013741   -0.00045540    0.00000000
     atom   31 type  1   force =    -0.00007479    0.00000000   -0.00007479
     atom   32 type  1   force =     0.00000000   -0.00045540    0.00013741

     Total force =     0.001723     Total SCF correction =     0.007652
     SCF correction compared to forces is large: reduce conv_thr to get better values

     Computing stress (Cartesian axis) and pressure

          total   stress  (Ry/bohr**3)                   (kbar)     P=      -19.73
  -0.00010575   0.00000000   0.00000000          -15.56        0.00        0.00
   0.00000000  -0.00019078   0.00000000            0.00      -28.07        0.00
   0.00000000   0.00000000  -0.00010575            0.00        0.00      -15.56

     Writing output data file /scratch/WSEYWfvHuCwjiEgd.save/

     General routines

     Parallel routines

   This run was terminated on:  19:12:21  23Nov2021

   JOB DONE.