     Program PWSCF v.6.7MaX starts on 23Nov2021 at 17:52:42

     R & G space division:  proc/nbgrp/npool/nimage =      72
     Reading input from /rds/homes/b/bxp912/jobs/20211014_ru_eos/wd/ec/ec_2_006.in
Warning: card &CELL ignored
Warning: card CELL_DYNAMICS = 'BFGS', ignored
Warning: card CELL_FACTOR = 2.0, ignored
Warning: card PRESS = 0.0, ignored
Warning: card / ignored

     Current dimensions of program PWSCF are:
     Max number of different atomic species (ntypx) = 10
     Max number of k-points (npk) =  40000
     Max angular momentum in pseudopotentials (lmaxx) =  3
     file Ru.pbe-spn-kjpaw_psl.1.0.0.UPF: wavefunction(s)  4D renormalized

     Subspace diagonalization in iterative solution of the eigenvalue problem:
     one sub-group per band group will be used

     Found symmetry operation: I + (  0.2500  0.2500  0.0000)
     This is a supercell, fractional translations are disabled
     Message from routine setup:
     using ibrav=0 with symmetry is DISCOURAGED, use correct ibrav instead

     bravais-lattice index     =            0
     lattice parameter (alat)  =      14.4007  a.u.
     unit-cell volume          =    2995.7780 (a.u.)^3
     number of atoms/cell      =           32
     number of atomic types    =            1
     number of electrons       =       512.00
     number of Kohn-Sham states=          307
     kinetic-energy cutoff     =      71.0000  Ry
     charge density cutoff     =     430.0000  Ry
     scf convergence threshold =      1.0E-06
     mixing beta               =       0.1000
     number of iterations used =           10  plain     mixing
     Exchange-correlation= SLA  PW   PBX  PBC
                           (   1   4   3   4   0   0   0)

     celldm(1)=  14.400742  celldm(2)=   0.000000  celldm(3)=   0.000000
     celldm(4)=   0.000000  celldm(5)=   0.000000  celldm(6)=   0.000000

     crystal axes: (cart. coord. in units of alat)
               a(1) = (   1.000000   0.000000   0.000000 )
               a(2) = (   0.000000   1.003125   0.000000 )
               a(3) = (   0.000000   0.000000   1.000000 )

     reciprocal axes: (cart. coord. in units 2 pi/alat)
               b(1) = (  1.000000  0.000000  0.000000 )
               b(2) = (  0.000000  0.996885  0.000000 )
               b(3) = (  0.000000  0.000000  1.000000 )

     PseudoPot. # 1 for Ru read from file:
     /rds/homes/b/bxp912/pp/Ru.pbe-spn-kjpaw_psl.1.0.0.UPF
     MD5 check sum: 0ae1f594dea09af7be8575c3a481d1ae
     Pseudo is Projector augmented-wave + core cor, Zval = 16.0
     Generated using "atomic" code by A. Dal Corso  v.5.1
     Shape of augmentation charge: PSQ
     Using radial grid of 1233 points,  6 beta functions with:
                l(1) =   0
                l(2) =   0
                l(3) =   1
                l(4) =   1
                l(5) =   2
                l(6) =   2
     Q(r) pseudized with 0 coefficients

     atomic species   valence    mass     pseudopotential
        Ru            16.00   101.07000     Ru( 1.00)

     16 Sym. Ops., with inversion, found

   Cartesian axes

     site n.     atom                  positions (alat units)
         1           Ru  tau(   1) = (   0.0000000   0.0000000   0.0000000  )
         2           Ru  tau(   2) = (   0.2500000   0.2507813   0.0000000  )
         3           Ru  tau(   3) = (   0.2500000   0.0000000   0.2499995  )
         4           Ru  tau(   4) = (   0.0000000   0.2507813   0.2499995  )
         5           Ru  tau(   5) = (   0.0000000   0.0000000   0.5000000  )
         6           Ru  tau(   6) = (   0.2499990   0.2507802   0.5000000  )
         7           Ru  tau(   7) = (   0.2500000   0.0000000   0.7499995  )
         8           Ru  tau(   8) = (   0.0000000   0.2507813   0.7499995  )
         9           Ru  tau(   9) = (   0.0000000   0.5015627   0.0000000  )
        10           Ru  tau(  10) = (   0.2500000   0.7523442   0.0000000  )
        11           Ru  tau(  11) = (   0.2499990   0.5015627   0.2499984  )
        12           Ru  tau(  12) = (   0.0000000   0.7523442   0.2499995  )
        13           Ru  tau(  13) = (   0.0000000   0.5015627   0.5000000  )
        14           Ru  tau(  14) = (   0.2499990   0.7523452   0.5000000  )
        15           Ru  tau(  15) = (   0.2499990   0.5015627   0.7500005  )
        16           Ru  tau(  16) = (   0.0000000   0.7523442   0.7499995  )
        17           Ru  tau(  17) = (   0.5000002   0.0000000   0.0000000  )
        18           Ru  tau(  18) = (   0.7500004   0.2507813   0.0000000  )
        19           Ru  tau(  19) = (   0.7500004   0.0000000   0.2499995  )
        20           Ru  tau(  20) = (   0.5000002   0.2507802   0.2499984  )
        21           Ru  tau(  21) = (   0.5000002   0.0000000   0.5000000  )
        22           Ru  tau(  22) = (   0.7500015   0.2507802   0.5000000  )
        23           Ru  tau(  23) = (   0.7500004   0.0000000   0.7499995  )
        24           Ru  tau(  24) = (   0.5000002   0.2507802   0.7500005  )
        25           Ru  tau(  25) = (   0.5000002   0.5015627   0.0000000  )
        26           Ru  tau(  26) = (   0.7500004   0.7523442   0.0000000  )
        27           Ru  tau(  27) = (   0.7500015   0.5015627   0.2499984  )
        28           Ru  tau(  28) = (   0.5000002   0.7523452   0.2499984  )
        29           Ru  tau(  29) = (   0.5000002   0.5015627   0.5000000  )
        30           Ru  tau(  30) = (   0.7500015   0.7523452   0.5000000  )
        31           Ru  tau(  31) = (   0.7500015   0.5015627   0.7500005  )
        32           Ru  tau(  32) = (   0.5000002   0.7523452   0.7500005  )

     number of k points=    75  Marzari-Vanderbilt smearing, width (Ry)=  0.0400
                       cart. coord. in units 2pi/alat
        k(    1) = (   0.0555556   0.0553825   0.0555556), wk =   0.0219479
        k(    2) = (   0.0555556   0.0553825   0.1666667), wk =   0.0438957
        k(    3) = (   0.0555556   0.0553825   0.2777778), wk =   0.0438957
        k(    4) = (   0.0555556   0.0553825   0.3888889), wk =   0.0438957
        k(    5) = (   0.0555556   0.0553825  -0.5000000), wk =   0.0219479
        k(    6) = (   0.0555556   0.1661475   0.0555556), wk =   0.0219479
        k(    7) = (   0.0555556   0.1661475   0.1666667), wk =   0.0438957
        k(    8) = (   0.0555556   0.1661475   0.2777778), wk =   0.0438957
        k(    9) = (   0.0555556   0.1661475   0.3888889), wk =   0.0438957
        k(   10) = (   0.0555556   0.1661475  -0.5000000), wk =   0.0219479
        k(   11) = (   0.0555556   0.2769124   0.0555556), wk =   0.0219479
        k(   12) = (   0.0555556   0.2769124   0.1666667), wk =   0.0438957
        k(   13) = (   0.0555556   0.2769124   0.2777778), wk =   0.0438957
        k(   14) = (   0.0555556   0.2769124   0.3888889), wk =   0.0438957
        k(   15) = (   0.0555556   0.2769124  -0.5000000), wk =   0.0219479
        k(   16) = (   0.0555556   0.3876774   0.0555556), wk =   0.0219479
        k(   17) = (   0.0555556   0.3876774   0.1666667), wk =   0.0438957
        k(   18) = (   0.0555556   0.3876774   0.2777778), wk =   0.0438957
        k(   19) = (   0.0555556   0.3876774   0.3888889), wk =   0.0438957
        k(   20) = (   0.0555556   0.3876774  -0.5000000), wk =   0.0219479
        k(   21) = (   0.0555556  -0.4984424   0.0555556), wk =   0.0109739
        k(   22) = (   0.0555556  -0.4984424   0.1666667), wk =   0.0219479
        k(   23) = (   0.0555556  -0.4984424   0.2777778), wk =   0.0219479
        k(   24) = (   0.0555556  -0.4984424   0.3888889), wk =   0.0219479
        k(   25) = (   0.0555556  -0.4984424  -0.5000000), wk =   0.0109739
        k(   26) = (   0.1666667   0.0553825   0.1666667), wk =   0.0219479
        k(   27) = (   0.1666667   0.0553825   0.2777778), wk =   0.0438957
        k(   28) = (   0.1666667   0.0553825   0.3888889), wk =   0.0438957
        k(   29) = (   0.1666667   0.0553825  -0.5000000), wk =   0.0219479
        k(   30) = (   0.1666667   0.1661475   0.1666667), wk =   0.0219479
        k(   31) = (   0.1666667   0.1661475   0.2777778), wk =   0.0438957
        k(   32) = (   0.1666667   0.1661475   0.3888889), wk =   0.0438957
        k(   33) = (   0.1666667   0.1661475  -0.5000000), wk =   0.0219479
        k(   34) = (   0.1666667   0.2769124   0.1666667), wk =   0.0219479
        k(   35) = (   0.1666667   0.2769124   0.2777778), wk =   0.0438957
        k(   36) = (   0.1666667   0.2769124   0.3888889), wk =   0.0438957
        k(   37) = (   0.1666667   0.2769124  -0.5000000), wk =   0.0219479
        k(   38) = (   0.1666667   0.3876774   0.1666667), wk =   0.0219479
        k(   39) = (   0.1666667   0.3876774   0.2777778), wk =   0.0438957
        k(   40) = (   0.1666667   0.3876774   0.3888889), wk =   0.0438957
        k(   41) = (   0.1666667   0.3876774  -0.5000000), wk =   0.0219479
        k(   42) = (   0.1666667  -0.4984424   0.1666667), wk =   0.0109739
        k(   43) = (   0.1666667  -0.4984424   0.2777778), wk =   0.0219479
        k(   44) = (   0.1666667  -0.4984424   0.3888889), wk =   0.0219479
        k(   45) = (   0.1666667  -0.4984424  -0.5000000), wk =   0.0109739
        k(   46) = (   0.2777778   0.0553825   0.2777778), wk =   0.0219479
        k(   47) = (   0.2777778   0.0553825   0.3888889), wk =   0.0438957
        k(   48) = (   0.2777778   0.0553825  -0.5000000), wk =   0.0219479
        k(   49) = (   0.2777778   0.1661475   0.2777778), wk =   0.0219479
        k(   50) = (   0.2777778   0.1661475   0.3888889), wk =   0.0438957
        k(   51) = (   0.2777778   0.1661475  -0.5000000), wk =   0.0219479
        k(   52) = (   0.2777778   0.2769124   0.2777778), wk =   0.0219479
        k(   53) = (   0.2777778   0.2769124   0.3888889), wk =   0.0438957
        k(   54) = (   0.2777778   0.2769124  -0.5000000), wk =   0.0219479
        k(   55) = (   0.2777778   0.3876774   0.2777778), wk =   0.0219479
        k(   56) = (   0.2777778   0.3876774   0.3888889), wk =   0.0438957
        k(   57) = (   0.2777778   0.3876774  -0.5000000), wk =   0.0219479
        k(   58) = (   0.2777778  -0.4984424   0.2777778), wk =   0.0109739
        k(   59) = (   0.2777778  -0.4984424   0.3888889), wk =   0.0219479
        k(   60) = (   0.2777778  -0.4984424  -0.5000000), wk =   0.0109739
        k(   61) = (   0.3888889   0.0553825   0.3888889), wk =   0.0219479
        k(   62) = (   0.3888889   0.0553825  -0.5000000), wk =   0.0219479
        k(   63) = (   0.3888889   0.1661475   0.3888889), wk =   0.0219479
        k(   64) = (   0.3888889   0.1661475  -0.5000000), wk =   0.0219479
        k(   65) = (   0.3888889   0.2769124   0.3888889), wk =   0.0219479
        k(   66) = (   0.3888889   0.2769124  -0.5000000), wk =   0.0219479
        k(   67) = (   0.3888889   0.3876774   0.3888889), wk =   0.0219479
        k(   68) = (   0.3888889   0.3876774  -0.5000000), wk =   0.0219479
        k(   69) = (   0.3888889  -0.4984424   0.3888889), wk =   0.0109739
        k(   70) = (   0.3888889  -0.4984424  -0.5000000), wk =   0.0109739
        k(   71) = (  -0.5000000   0.0553825  -0.5000000), wk =   0.0054870
        k(   72) = (  -0.5000000   0.1661475  -0.5000000), wk =   0.0054870
        k(   73) = (  -0.5000000   0.2769124  -0.5000000), wk =   0.0054870
        k(   74) = (  -0.5000000   0.3876774  -0.5000000), wk =   0.0054870
        k(   75) = (  -0.5000000  -0.4984424  -0.5000000), wk =   0.0027435

     Check: negative core charge=   -0.000002

     Initial potential from superposition of free atoms

     starting charge  511.97959, renormalised to  512.00000
     Starting wfcs are  320 randomized atomic wfcs
     Checking if some PAW data can be deallocated...

     Self-consistent Calculation

     iteration #  1     ecut=    71.00 Ry     beta= 0.10
     Davidson diagonalization with overlap
     ethr =  1.00E-02,  avg # of iterations =  3.3

     Threshold (ethr) on eigenvalues was too large:
     Diagonalizing with lowered threshold

     Davidson diagonalization with overlap
     ethr =  8.27E-05,  avg # of iterations =  5.5

     total energy              =  -13813.41216926 Ry
     estimated scf accuracy    <       0.63732028 Ry

[...]

     total energy              =  -13813.30059157 Ry
     estimated scf accuracy    <       0.00000111 Ry

     iteration # 12     ecut=    71.00 Ry     beta= 0.10
     Davidson diagonalization with overlap
     ethr =  2.17E-10,  avg # of iterations =  2.0

     End of self-consistent calculation

          k = 0.0556 0.0554 0.0556 ( 30326 PWs)   bands (ev):

   -49.9899 -49.8920 -49.8911 -49.8911 -49.8731 -49.8720 -49.8720 -49.8369
   -49.8369 -49.8368 -49.8276 -49.8266 -49.8266 -49.8265 -49.8264 -49.8264
   -49.8263 -49.8259 -49.8259 -49.8259 -49.8178 -49.8177 -49.8177 -49.7743
   -49.7729 -49.7728 -49.7727 -49.7727 -49.7722 -49.7721 -49.7717 -49.7717
   -20.3898 -20.3898 -20.3897 -20.3857 -20.3281 -20.3281 -20.3271 -20.1324
   -20.1278 -20.1278 -20.1213 -20.1213 -20.1167 -20.1167 -20.1163 -20.1163
   -20.1014 -20.0964 -20.0964 -20.0780 -20.0780 -20.0746 -20.0746 -20.0743
   -20.0743 -20.0283 -20.0283 -20.0245 -20.0245 -20.0239 -20.0239 -19.9275
   -19.9275 -19.9266 -19.8552 -19.8552 -19.8540 -19.8473 -19.8473 -19.8465
   -19.8144 -19.8144 -19.8137 -19.8137 -19.8129 -19.8129 -19.7743 -19.7743
   -19.7732 -19.7683 -19.7683 -19.7675 -19.7675 -19.7654 -19.7654 -19.7649
   -19.7648 -19.7579 -19.7571 -19.7571 -19.7534 -19.5983 -19.5983 -19.5950
   -19.5950 -19.5940 -19.5933 -19.5662 -19.5662 -19.5635 -19.5635 -19.5623
   -19.5623 -19.5505 -19.5505 -19.5467 -19.5394 -19.5376 -19.5376 -19.5372
   -19.5372 -19.5371 -19.5371 -19.5338 -19.5337 -19.5336 -19.5336 -19.5335
   -19.5317 -19.5290 -19.5189 -19.5189 -19.5155 -19.4059 -19.3992 -19.3989
    15.2735  16.8390  16.8390  16.8417  17.1156  17.1333  17.1333  17.1333
    17.3058  17.3058  17.3092  17.5166  17.5279  17.5279  17.6898  17.7007
    17.7007  18.2320  18.2320  18.2486  18.2486  18.2493  18.2493  18.5511
    18.5619  18.5619  18.8176  18.8176  18.8182  18.8210  18.8350  18.8350
    18.9245  18.9259  18.9260  18.9275  18.9275  18.9275  18.9275  18.9283
    18.9283  19.4112  19.4112  19.4196  19.4196  19.4266  19.4266  19.5523
    19.5684  19.5684  19.5836  19.5836  19.6000  19.6000  19.6013  19.6013
    19.6492  19.6641  19.6641  19.9128  19.9128  19.9179  19.9179  19.9197
    19.9197  19.9198  19.9198  19.9229  19.9229  19.9242  19.9266  19.9266
    19.9307  19.9307  20.0908  20.0908  20.0939  20.3567  20.3782  20.3782
    20.3924  20.4239  20.4239  20.4308  20.4457  20.4943  20.5340  20.5485
    21.4876  21.5165  21.5165  21.6546  21.6861  21.6861  21.7220  21.7220
    21.7322  21.8215  21.8216  21.8227  21.8227  21.8310  21.8310  21.8363
    21.8364  21.8442  22.1282  22.1282  22.1452  22.2499  22.2499  22.2602
    22.4957  22.4958  22.5116  22.5736  22.5736  22.5809  22.5809  22.5817
    22.5817  22.5922  22.5923  22.6065  22.6331  22.6332  22.6431  22.8212
    22.8212  22.8217  22.8218  22.8344  22.8344  22.8616  22.9062  22.9939
    22.9939  23.0068  23.6487  23.6487  23.6691  23.7020  23.7020  23.7061
    23.8090  23.8090  23.8266  23.9039  24.6293  24.6293  24.6316  24.6626
    24.6820  24.6972  24.7119  24.7119  24.9832  24.9917  24.9917  25.0120
    25.0120  25.0220  25.1657  25.1657  25.1670  25.1670  25.1782  25.1818
    25.1818  25.1917  25.1917  26.6102  26.6102  26.6321  26.7476  26.8072
    26.8072  27.1407  27.1407

[...]

          k = 0.3889-0.4984-0.5000 ( 30268 PWs)   bands (ev):

[...]

          k =-0.5000 0.0554-0.5000 ( 30264 PWs)   bands (ev):

[...]

          k =-0.5000-0.4984-0.5000 ( 30328 PWs)   bands (ev):

   -49.9096 -49.9094 -49.9094 -49.9094 -49.9092 -49.9092 -49.9092 -49.9090
   -49.8005 -49.8003 -49.8003 -49.8003 -49.8002 -49.8001 -49.8001 -49.8000
   -49.7995 -49.7994 -49.7993 -49.7993 -49.7992 -49.7992 -49.7992 -49.7992
   -49.7991 -49.7991 -49.7990 -49.7990 -49.7990 -49.7989 -49.7989 -49.7988
   -20.2237 -20.2237 -20.2237 -20.2236 -20.2236 -20.2236 -20.2236 -20.2236
   -20.2235 -20.2235 -20.2235 -20.2235 -20.2235 -20.2234 -20.2234 -20.2234
   -20.2214 -20.2214 -20.2213 -20.2213 -20.2213 -20.2212 -20.2212 -20.2211
   -19.9061 -19.9060 -19.9060 -19.9060 -19.9060 -19.9060 -19.9060 -19.9059
   -19.7958 -19.7957 -19.7957 -19.7957 -19.7957 -19.7957 -19.7956 -19.7956
   -19.7948 -19.7948 -19.7948 -19.7947 -19.7947 -19.7947 -19.7947 -19.7947
   -19.7947 -19.7947 -19.7946 -19.7946 -19.7946 -19.7946 -19.7946 -19.7946
   -19.6482 -19.6481 -19.6481 -19.6481 -19.6481 -19.6481 -19.6481 -19.6480
   -19.6480 -19.6479 -19.6479 -19.6479 -19.6479 -19.6479 -19.6478 -19.6478
   -19.6436 -19.6436 -19.6436 -19.6436 -19.6435 -19.6435 -19.6435 -19.6435
   -19.4669 -19.4669 -19.4668 -19.4668 -19.4667 -19.4667 -19.4667 -19.4666
   -19.4643 -19.4643 -19.4643 -19.4643 -19.4642 -19.4642 -19.4641 -19.4641
    17.0706  17.0706  17.0707  17.0708  17.0708  17.0709  17.0709  17.0710
    17.9311  17.9311  17.9311  17.9311  17.9312  17.9312  17.9312  17.9312
    17.9312  17.9313  17.9313  17.9313  17.9313  17.9313  17.9314  17.9314
    17.9317  17.9317  17.9317  17.9317  17.9318  17.9319  17.9319  17.9319
    18.9549  18.9549  18.9549  18.9549  18.9549  18.9550  18.9550  18.9550
    18.9551  18.9551  18.9551  18.9551  18.9551  18.9552  18.9552  18.9552
    18.9602  18.9603  18.9603  18.9603  18.9604  18.9604  18.9605  18.9605
    20.2727  20.2727  20.2728  20.2728  20.2728  20.2728  20.2728  20.2728
    20.8943  20.8943  20.8943  20.8944  20.8944  20.8944  20.8944  20.8944
    20.9301  20.9302  20.9302  20.9302  20.9302  20.9302  20.9302  20.9303
    21.0045  21.0046  21.0046  21.0046  21.0046  21.0047  21.0047  21.0048
    21.0263  21.0263  21.0263  21.0264  21.0264  21.0264  21.0264  21.0264
    21.0264  21.0265  21.0265  21.0265  21.0265  21.0265  21.0265  21.0265
    22.2244  22.2244  22.2244  22.2245  22.2245  22.2245  22.2245  22.2245
    22.2245  22.2246  22.2246  22.2246  22.2246  22.2246  22.2246  22.2247
    22.2429  22.2430  22.2430  22.2430  22.2430  22.2431  22.2431  22.2432
    23.0523  23.0524  23.0524  23.0524  23.0524  23.0525  23.0525  23.0526
    23.0644  23.0645  23.0645  23.0645  23.0646  23.0646  23.0646  23.0647
    24.8416  24.8416  24.8416  24.8417  24.8417  24.8417  24.8417  24.8417
    24.8489  24.8489  24.8489  24.8489  24.8489  24.8490  24.8490  24.8490
    24.8490  24.8490  24.8490  24.8490  24.8490  24.8491  24.8491  24.8491
    28.2028  28.2035  28.2045  28.2052  28.2056  28.2111  28.2116  28.2138
    28.2246  28.2246  28.2247

     the Fermi energy is    23.0260 ev

!    total energy              =  -13813.30059308 Ry

     total all-electron energy =   -289989.690932 Ry
     estimated scf accuracy    <       0.00000047 Ry
     smearing contrib. (-TS)   =       0.02020974 Ry
     internal energy E=F+TS    =  -13813.32080282 Ry

     The total energy is F=E-TS. E is the sum of the following terms:
     one-electron contribution =   -1003.45459234 Ry
     hartree contribution      =     918.37599990 Ry
     xc contribution           =    -927.94279430 Ry
     ewald contribution        =   -5210.86240978 Ry
     one-center paw contrib.   =   -7589.43700628 Ry

     convergence has been achieved in  12 iterations

     Forces acting on atoms (cartesian axes, Ry/au):

     atom    1 type  1   force =     0.00000000    0.00000000    0.00000000
     atom    2 type  1   force =    -0.00007106    0.00006986   -0.00000000
     atom    3 type  1   force =    -0.00013311    0.00000000   -0.00013311
     atom    4 type  1   force =     0.00000000    0.00006986   -0.00007106
     atom    5 type  1   force =     0.00000000    0.00000000    0.00000000
     atom    6 type  1   force =    -0.00006372    0.00020302    0.00000000
     atom    7 type  1   force =    -0.00013311   -0.00000000    0.00013311
     atom    8 type  1   force =     0.00000000    0.00006986    0.00007106
     atom    9 type  1   force =     0.00000000    0.00000000    0.00000000
     atom   10 type  1   force =    -0.00007106   -0.00006986    0.00000000
     atom   11 type  1   force =    -0.00000718    0.00000000   -0.00000718
     atom   12 type  1   force =     0.00000000   -0.00006986   -0.00007106
     atom   13 type  1   force =     0.00000000    0.00000000    0.00000000
     atom   14 type  1   force =    -0.00006372   -0.00020302   -0.00000000
     atom   15 type  1   force =    -0.00000718    0.00000000    0.00000718
     atom   16 type  1   force =     0.00000000   -0.00006986    0.00007106
     atom   17 type  1   force =     0.00000000    0.00000000    0.00000000
     atom   18 type  1   force =     0.00007106    0.00006986    0.00000000
     atom   19 type  1   force =     0.00013311   -0.00000000   -0.00013311
     atom   20 type  1   force =     0.00000000    0.00020302   -0.00006372
     atom   21 type  1   force =     0.00000000    0.00000000    0.00000000
     atom   22 type  1   force =     0.00006372    0.00020302   -0.00000000
     atom   23 type  1   force =     0.00013311    0.00000000    0.00013311
     atom   24 type  1   force =    -0.00000000    0.00020302    0.00006372
     atom   25 type  1   force =     0.00000000    0.00000000    0.00000000
     atom   26 type  1   force =     0.00007106   -0.00006986   -0.00000000
     atom   27 type  1   force =     0.00000718    0.00000000   -0.00000718
     atom   28 type  1   force =     0.00000000   -0.00020302   -0.00006372
     atom   29 type  1   force =     0.00000000    0.00000000    0.00000000
     atom   30 type  1   force =     0.00006372   -0.00020302    0.00000000
     atom   31 type  1   force =     0.00000718    0.00000000    0.00000718
     atom   32 type  1   force =     0.00000000   -0.00020302    0.00006372

     Total force =     0.000764     Total SCF correction =     0.002090
     SCF correction compared to forces is large: reduce conv_thr to get better values

     Computing stress (Cartesian axis) and pressure

          total   stress  (Ry/bohr**3)                   (kbar)     P=      -14.48
  -0.00008067   0.00000000   0.00000000          -11.87        0.00        0.00
   0.00000000  -0.00013393   0.00000000            0.00      -19.70        0.00
   0.00000000   0.00000000  -0.00008067            0.00        0.00      -11.87

     Writing output data file /scratch/HpHDgbRwqRDTvuVJ.save/

     General routines

     Parallel routines

   This run was terminated on:  18:16: 1  23Nov2021

   JOB DONE.