     Program PWSCF v.6.7MaX starts on 23Nov2021 at 16:31: 2

     R & G space division:  proc/nbgrp/npool/nimage =      72
     Reading input from /rds/homes/b/bxp912/jobs/20211014_ru_eos/wd/ec/ec_2_002.in
Warning: card &CELL ignored
Warning: card CELL_DYNAMICS = 'BFGS', ignored
Warning: card CELL_FACTOR = 2.0, ignored
Warning: card PRESS = 0.0, ignored
Warning: card / ignored

     Current dimensions of program PWSCF are:
     Max number of different atomic species (ntypx) = 10
     Max number of k-points (npk) =  40000
     Max angular momentum in pseudopotentials (lmaxx) =  3
     file Ru.pbe-spn-kjpaw_psl.1.0.0.UPF: wavefunction(s)  4D renormalized

     Subspace diagonalization in iterative solution of the eigenvalue problem:
     one sub-group per band group will be used

     Found symmetry operation: I + (  0.2500  0.2500  0.0000)
     This is a supercell, fractional translations are disabled
     Message from routine setup:
     using ibrav=0 with symmetry is DISCOURAGED, use correct ibrav instead

     bravais-lattice index     =            0
     lattice parameter (alat)  =      14.4007  a.u.
     unit-cell volume          =    2988.3119 (a.u.)^3
     number of atoms/cell      =           32
     number of atomic types    =            1
     number of electrons       =       512.00
     number of Kohn-Sham states=          307
     kinetic-energy cutoff     =      71.0000  Ry
     charge density cutoff     =     430.0000  Ry
     scf convergence threshold =      1.0E-06
     mixing beta               =       0.1000
     number of iterations used =           10  plain     mixing
     Exchange-correlation= SLA  PW   PBX  PBC
                           (   1   4   3   4   0   0   0)

     celldm(1)=  14.400742  celldm(2)=   0.000000  celldm(3)=   0.000000
     celldm(4)=   0.000000  celldm(5)=   0.000000  celldm(6)=   0.000000

     crystal axes: (cart. coord. in units of alat)
               a(1) = (   1.000000   0.000000   0.000000 )
               a(2) = (   0.000000   1.000625   0.000000 )
               a(3) = (   0.000000   0.000000   1.000000 )

     reciprocal axes: (cart. coord. in units 2 pi/alat)
               b(1) = (  1.000000  0.000000  0.000000 )
               b(2) = (  0.000000  0.999375  0.000000 )
               b(3) = (  0.000000  0.000000  1.000000 )

     PseudoPot. # 1 for Ru read from file:
     /rds/homes/b/bxp912/pp/Ru.pbe-spn-kjpaw_psl.1.0.0.UPF
     MD5 check sum: 0ae1f594dea09af7be8575c3a481d1ae
     Pseudo is Projector augmented-wave + core cor, Zval = 16.0
     Generated using "atomic" code by A. Dal Corso  v.5.1
     Shape of augmentation charge: PSQ
     Using radial grid of 1233 points,  6 beta functions with:
                l(1) =   0
                l(2) =   0
                l(3) =   1
                l(4) =   1
                l(5) =   2
                l(6) =   2
     Q(r) pseudized with 0 coefficients

     atomic species   valence    mass     pseudopotential
        Ru            16.00   101.07000     Ru( 1.00)

     16 Sym. Ops., with inversion, found

   Cartesian axes

     site n.     atom                  positions (alat units)
         1           Ru  tau(   1) = (   0.0000000   0.0000000   0.0000000  )
         2           Ru  tau(   2) = (   0.2500000   0.2501563   0.0000000  )
         3           Ru  tau(   3) = (   0.2500000   0.0000000   0.2499995  )
         4           Ru  tau(   4) = (   0.0000000   0.2501563   0.2499995  )
         5           Ru  tau(   5) = (   0.0000000   0.0000000   0.5000000  )
         6           Ru  tau(   6) = (   0.2499990   0.2501552   0.5000000  )
         7           Ru  tau(   7) = (   0.2500000   0.0000000   0.7499995  )
         8           Ru  tau(   8) = (   0.0000000   0.2501563   0.7499995  )
         9           Ru  tau(   9) = (   0.0000000   0.5003127   0.0000000  )
        10           Ru  tau(  10) = (   0.2500000   0.7504692   0.0000000  )
        11           Ru  tau(  11) = (   0.2499990   0.5003127   0.2499984  )
        12           Ru  tau(  12) = (   0.0000000   0.7504692   0.2499995  )
        13           Ru  tau(  13) = (   0.0000000   0.5003127   0.5000000  )
        14           Ru  tau(  14) = (   0.2499990   0.7504702   0.5000000  )
        15           Ru  tau(  15) = (   0.2499990   0.5003127   0.7500005  )
        16           Ru  tau(  16) = (   0.0000000   0.7504692   0.7499995  )
        17           Ru  tau(  17) = (   0.5000002   0.0000000   0.0000000  )
        18           Ru  tau(  18) = (   0.7500004   0.2501563   0.0000000  )
        19           Ru  tau(  19) = (   0.7500004   0.0000000   0.2499995  )
        20           Ru  tau(  20) = (   0.5000002   0.2501552   0.2499984  )
        21           Ru  tau(  21) = (   0.5000002   0.0000000   0.5000000  )
        22           Ru  tau(  22) = (   0.7500015   0.2501552   0.5000000  )
        23           Ru  tau(  23) = (   0.7500004   0.0000000   0.7499995  )
        24           Ru  tau(  24) = (   0.5000002   0.2501552   0.7500005  )
        25           Ru  tau(  25) = (   0.5000002   0.5003127   0.0000000  )
        26           Ru  tau(  26) = (   0.7500004   0.7504692   0.0000000  )
        27           Ru  tau(  27) = (   0.7500015   0.5003127   0.2499984  )
        28           Ru  tau(  28) = (   0.5000002   0.7504702   0.2499984  )
        29           Ru  tau(  29) = (   0.5000002   0.5003127   0.5000000  )
        30           Ru  tau(  30) = (   0.7500015   0.7504702   0.5000000  )
        31           Ru  tau(  31) = (   0.7500015   0.5003127   0.7500005  )
        32           Ru  tau(  32) = (   0.5000002   0.7504702   0.7500005  )

     number of k points=    75  Marzari-Vanderbilt smearing, width (Ry)=  0.0400
                       cart. coord. in units 2pi/alat
        k(    1) = (   0.0555556   0.0555209   0.0555556), wk =   0.0219479
        k(    2) = (   0.0555556   0.0555209   0.1666667), wk =   0.0438957
        k(    3) = (   0.0555556   0.0555209   0.2777778), wk =   0.0438957
        k(    4) = (   0.0555556   0.0555209   0.3888889), wk =   0.0438957
        k(    5) = (   0.0555556   0.0555209  -0.5000000), wk =   0.0219479
        k(    6) = (   0.0555556   0.1665626   0.0555556), wk =   0.0219479
        k(    7) = (   0.0555556   0.1665626   0.1666667), wk =   0.0438957
        k(    8) = (   0.0555556   0.1665626   0.2777778), wk =   0.0438957
        k(    9) = (   0.0555556   0.1665626   0.3888889), wk =   0.0438957
        k(   10) = (   0.0555556   0.1665626  -0.5000000), wk =   0.0219479
        k(   11) = (   0.0555556   0.2776043   0.0555556), wk =   0.0219479
        k(   12) = (   0.0555556   0.2776043   0.1666667), wk =   0.0438957
        k(   13) = (   0.0555556   0.2776043   0.2777778), wk =   0.0438957
        k(   14) = (   0.0555556   0.2776043   0.3888889), wk =   0.0438957
        k(   15) = (   0.0555556   0.2776043  -0.5000000), wk =   0.0219479
        k(   16) = (   0.0555556   0.3886460   0.0555556), wk =   0.0219479
        k(   17) = (   0.0555556   0.3886460   0.1666667), wk =   0.0438957
        k(   18) = (   0.0555556   0.3886460   0.2777778), wk =   0.0438957
        k(   19) = (   0.0555556   0.3886460   0.3888889), wk =   0.0438957
        k(   20) = (   0.0555556   0.3886460  -0.5000000), wk =   0.0219479
        k(   21) = (   0.0555556  -0.4996877   0.0555556), wk =   0.0109739
        k(   22) = (   0.0555556  -0.4996877   0.1666667), wk =   0.0219479
        k(   23) = (   0.0555556  -0.4996877   0.2777778), wk =   0.0219479
        k(   24) = (   0.0555556  -0.4996877   0.3888889), wk =   0.0219479
        k(   25) = (   0.0555556  -0.4996877  -0.5000000), wk =   0.0109739
        k(   26) = (   0.1666667   0.0555209   0.1666667), wk =   0.0219479
        k(   27) = (   0.1666667   0.0555209   0.2777778), wk =   0.0438957
        k(   28) = (   0.1666667   0.0555209   0.3888889), wk =   0.0438957
        k(   29) = (   0.1666667   0.0555209  -0.5000000), wk =   0.0219479
        k(   30) = (   0.1666667   0.1665626   0.1666667), wk =   0.0219479
        k(   31) = (   0.1666667   0.1665626   0.2777778), wk =   0.0438957
        k(   32) = (   0.1666667   0.1665626   0.3888889), wk =   0.0438957
        k(   33) = (   0.1666667   0.1665626  -0.5000000), wk =   0.0219479
        k(   34) = (   0.1666667   0.2776043   0.1666667), wk =   0.0219479
        k(   35) = (   0.1666667   0.2776043   0.2777778), wk =   0.0438957
        k(   36) = (   0.1666667   0.2776043   0.3888889), wk =   0.0438957
        k(   37) = (   0.1666667   0.2776043  -0.5000000), wk =   0.0219479
        k(   38) = (   0.1666667   0.3886460   0.1666667), wk =   0.0219479
        k(   39) = (   0.1666667   0.3886460   0.2777778), wk =   0.0438957
        k(   40) = (   0.1666667   0.3886460   0.3888889), wk =   0.0438957
        k(   41) = (   0.1666667   0.3886460  -0.5000000), wk =   0.0219479
        k(   42) = (   0.1666667  -0.4996877   0.1666667), wk =   0.0109739
        k(   43) = (   0.1666667  -0.4996877   0.2777778), wk =   0.0219479
        k(   44) = (   0.1666667  -0.4996877   0.3888889), wk =   0.0219479
        k(   45) = (   0.1666667  -0.4996877  -0.5000000), wk =   0.0109739
        k(   46) = (   0.2777778   0.0555209   0.2777778), wk =   0.0219479
        k(   47) = (   0.2777778   0.0555209   0.3888889), wk =   0.0438957
        k(   48) = (   0.2777778   0.0555209  -0.5000000), wk =   0.0219479
        k(   49) = (   0.2777778   0.1665626   0.2777778), wk =   0.0219479
        k(   50) = (   0.2777778   0.1665626   0.3888889), wk =   0.0438957
        k(   51) = (   0.2777778   0.1665626  -0.5000000), wk =   0.0219479
        k(   52) = (   0.2777778   0.2776043   0.2777778), wk =   0.0219479
        k(   53) = (   0.2777778   0.2776043   0.3888889), wk =   0.0438957
        k(   54) = (   0.2777778   0.2776043  -0.5000000), wk =   0.0219479
        k(   55) = (   0.2777778   0.3886460   0.2777778), wk =   0.0219479
        k(   56) = (   0.2777778   0.3886460   0.3888889), wk =   0.0438957
        k(   57) = (   0.2777778   0.3886460  -0.5000000), wk =   0.0219479
        k(   58) = (   0.2777778  -0.4996877   0.2777778), wk =   0.0109739
        k(   59) = (   0.2777778  -0.4996877   0.3888889), wk =   0.0219479
        k(   60) = (   0.2777778  -0.4996877  -0.5000000), wk =   0.0109739
        k(   61) = (   0.3888889   0.0555209   0.3888889), wk =   0.0219479
        k(   62) = (   0.3888889   0.0555209  -0.5000000), wk =   0.0219479
        k(   63) = (   0.3888889   0.1665626   0.3888889), wk =   0.0219479
        k(   64) = (   0.3888889   0.1665626  -0.5000000), wk =   0.0219479
        k(   65) = (   0.3888889   0.2776043   0.3888889), wk =   0.0219479
        k(   66) = (   0.3888889   0.2776043  -0.5000000), wk =   0.0219479
        k(   67) = (   0.3888889   0.3886460   0.3888889), wk =   0.0219479
        k(   68) = (   0.3888889   0.3886460  -0.5000000), wk =   0.0219479
        k(   69) = (   0.3888889  -0.4996877   0.3888889), wk =   0.0109739
        k(   70) = (   0.3888889  -0.4996877  -0.5000000), wk =   0.0109739
        k(   71) = (  -0.5000000   0.0555209  -0.5000000), wk =   0.0054870
        k(   72) = (  -0.5000000   0.1665626  -0.5000000), wk =   0.0054870
        k(   73) = (  -0.5000000   0.2776043  -0.5000000), wk =   0.0054870
        k(   74) = (  -0.5000000   0.3886460  -0.5000000), wk =   0.0054870
        k(   75) = (  -0.5000000  -0.4996877  -0.5000000), wk =   0.0027435

     Check: negative core charge=   -0.000002

     Initial potential from superposition of free atoms

     starting charge  511.97959, renormalised to  512.00000
     Starting wfcs are  320 randomized atomic wfcs
     Checking if some PAW data can be deallocated...

     Self-consistent Calculation

     iteration #  1     ecut=    71.00 Ry     beta= 0.10
     Davidson diagonalization with overlap
     ethr =  1.00E-02,  avg # of iterations =  3.3

     Threshold (ethr) on eigenvalues was too large:
     Diagonalizing with lowered threshold

     Davidson diagonalization with overlap
     ethr =  8.32E-05,  avg # of iterations =  5.4

     total energy              =  -13813.41289453 Ry
     estimated scf accuracy    <       0.63832046 Ry

[...]

     total energy              =  -13813.30090239 Ry
     estimated scf accuracy    <       0.00000243 Ry

     iteration # 12     ecut=    71.00 Ry     beta= 0.10
     Davidson diagonalization with overlap
     ethr =  4.75E-10,  avg # of iterations =  3.3

     End of self-consistent calculation

          k = 0.0556 0.0555 0.0556 ( 30239 PWs)   bands (ev):

   -49.9249 -49.8254 -49.8252 -49.8252 -49.8062 -49.8060 -49.8060 -49.7702
   -49.7702 -49.7701 -49.7608 -49.7598 -49.7597 -49.7597 -49.7596 -49.7596
   -49.7596 -49.7591 -49.7591 -49.7590 -49.7509 -49.7508 -49.7508 -49.7058
   -49.7054 -49.7054 -49.7051 -49.7051 -49.7051 -49.7050 -49.7049 -49.7048
   -20.3285 -20.3285 -20.3285 -20.3244 -20.2660 -20.2660 -20.2658 -20.0666
   -20.0657 -20.0657 -20.0553 -20.0553 -20.0543 -20.0543 -20.0543 -20.0543
   -20.0351 -20.0341 -20.0341 -20.0123 -20.0123 -20.0116 -20.0116 -20.0115
   -20.0115 -19.9618 -19.9618 -19.9611 -19.9611 -19.9609 -19.9609 -19.8622
   -19.8622 -19.8620 -19.7892 -19.7892 -19.7890 -19.7814 -19.7814 -19.7812
   -19.7478 -19.7478 -19.7477 -19.7476 -19.7475 -19.7475 -19.7076 -19.7076
   -19.7074 -19.7009 -19.7009 -19.7008 -19.7008 -19.7004 -19.7004 -19.6954
   -19.6953 -19.6942 -19.6906 -19.6906 -19.6896 -19.5284 -19.5284 -19.5277
   -19.5276 -19.5276 -19.5271 -19.4963 -19.4963 -19.4958 -19.4958 -19.4956
   -19.4955 -19.4812 -19.4812 -19.4805 -19.4692 -19.4686 -19.4686 -19.4679
   -19.4679 -19.4679 -19.4678 -19.4672 -19.4672 -19.4659 -19.4659 -19.4652
   -19.4633 -19.4624 -19.4494 -19.4494 -19.4488 -19.3365 -19.3296 -19.3296
    15.3298  16.8884  16.8884  16.8890  17.1677  17.1854  17.1854  17.1854
    17.3564  17.3564  17.3571  17.5816  17.5839  17.5839  17.7532  17.7553
    17.7553  18.2943  18.2943  18.2976  18.2976  18.2977  18.2977  18.6105
    18.6126  18.6126  18.8775  18.8775  18.8776  18.8830  18.8858  18.8858
    18.9832  18.9835  18.9835  18.9868  18.9868  18.9868  18.9868  18.9870
    18.9870  19.4757  19.4757  19.4774  19.4774  19.4788  19.4788  19.6194
    19.6226  19.6227  19.6512  19.6512  19.6545  19.6545  19.6547  19.6547
    19.7158  19.7188  19.7188  19.9802  19.9802  19.9804  19.9804  19.9814
    19.9814  19.9814  19.9814  19.9815  19.9824  19.9824  19.9828  19.9828
    19.9840  19.9840  20.1515  20.1515  20.1522  20.4320  20.4375  20.4375
    20.4680  20.4758  20.4853  20.4853  20.4908  20.5652  20.5949  20.5995
    21.5684  21.5742  21.5742  21.7382  21.7445  21.7445  21.7896  21.7896
    21.7917  21.8897  21.8897  21.8899  21.8899  21.8916  21.8916  21.9037
    21.9037  21.9053  22.1997  22.1997  22.2031  22.3200  22.3200  22.3221
    22.5683  22.5683  22.5714  22.6458  22.6458  22.6473  22.6473  22.6474
    22.6474  22.6644  22.6644  22.6672  22.7047  22.7047  22.7067  22.8941
    22.8941  22.8942  22.8942  22.8967  22.8967  22.9496  22.9585  23.0672
    23.0672  23.0698  23.7272  23.7273  23.7313  23.7755  23.7755  23.7763
    23.8874  23.8874  23.8910  23.9764  24.7070  24.7070  24.7075  24.7474
    24.7513  24.7824  24.7854  24.7854  25.0666  25.0685  25.0685  25.0919
    25.0919  25.0940  25.2522  25.2522  25.2524  25.2524  25.2574  25.2574
    25.2587  25.2592  25.2592  26.6998  26.6998  26.7042  26.8591  26.8711
    26.8711  27.2329  27.2330

[...]

          k = 0.3889-0.4997-0.5000 ( 30196 PWs)   bands (ev):

[...]

          k =-0.5000 0.0555-0.5000 ( 30200 PWs)   bands (ev):

[...]

          k =-0.5000-0.4997-0.5000 ( 30280 PWs)   bands (ev):

   -49.8437 -49.8435 -49.8435 -49.8434 -49.8433 -49.8433 -49.8432 -49.8431
   -49.7329 -49.7328 -49.7327 -49.7327 -49.7327 -49.7326 -49.7325 -49.7325
   -49.7325 -49.7325 -49.7324 -49.7324 -49.7324 -49.7323 -49.7323 -49.7323
   -49.7322 -49.7322 -49.7322 -49.7322 -49.7321 -49.7321 -49.7321 -49.7319
   -20.1605 -20.1605 -20.1605 -20.1605 -20.1604 -20.1604 -20.1604 -20.1604
   -20.1603 -20.1603 -20.1603 -20.1603 -20.1602 -20.1602 -20.1602 -20.1602
   -20.1600 -20.1599 -20.1599 -20.1599 -20.1598 -20.1598 -20.1598 -20.1597
   -19.8409 -19.8409 -19.8409 -19.8408 -19.8408 -19.8408 -19.8408 -19.8407
   -19.7291 -19.7290 -19.7290 -19.7290 -19.7290 -19.7290 -19.7289 -19.7289
   -19.7289 -19.7289 -19.7288 -19.7288 -19.7288 -19.7288 -19.7288 -19.7288
   -19.7288 -19.7288 -19.7287 -19.7287 -19.7287 -19.7287 -19.7287 -19.7287
   -19.5796 -19.5795 -19.5795 -19.5795 -19.5795 -19.5795 -19.5794 -19.5794
   -19.5793 -19.5793 -19.5793 -19.5793 -19.5793 -19.5793 -19.5792 -19.5792
   -19.5786 -19.5786 -19.5786 -19.5786 -19.5784 -19.5784 -19.5784 -19.5784
   -19.3970 -19.3969 -19.3969 -19.3969 -19.3968 -19.3968 -19.3967 -19.3967
   -19.3964 -19.3964 -19.3964 -19.3964 -19.3962 -19.3962 -19.3962 -19.3962
    17.1284  17.1284  17.1285  17.1286  17.1286  17.1287  17.1288  17.1288
    17.9841  17.9842  17.9842  17.9842  17.9842  17.9842  17.9842  17.9842
    17.9843  17.9843  17.9843  17.9843  17.9843  17.9843  17.9843  17.9844
    17.9844  17.9844  17.9844  17.9844  17.9845  17.9845  17.9845  17.9845
    19.0124  19.0125  19.0125  19.0125  19.0125  19.0126  19.0126  19.0126
    19.0126  19.0127  19.0127  19.0127  19.0127  19.0128  19.0128  19.0128
    19.0136  19.0136  19.0137  19.0137  19.0137  19.0137  19.0138  19.0138
    20.3347  20.3347  20.3347  20.3347  20.3347  20.3347  20.3347  20.3348
    20.9709  20.9709  20.9709  20.9709  20.9709  20.9710  20.9710  20.9710
    20.9781  20.9781  20.9781  20.9781  20.9781  20.9782  20.9782  20.9782
    21.0806  21.0807  21.0807  21.0808  21.0808  21.0808  21.0809  21.0809
    21.0850  21.0850  21.0850  21.0851  21.0851  21.0851  21.0851  21.0851
    21.0851  21.0852  21.0852  21.0852  21.0852  21.0852  21.0853  21.0853
    22.2964  22.2964  22.2964  22.2964  22.2964  22.2965  22.2965  22.2965
    22.2965  22.2965  22.2966  22.2966  22.2966  22.2966  22.2966  22.2967
    22.3001  22.3001  22.3002  22.3002  22.3002  22.3003  22.3003  22.3004
    23.1275  23.1275  23.1276  23.1276  23.1276  23.1276  23.1277  23.1277
    23.1299  23.1299  23.1300  23.1300  23.1301  23.1301  23.1301  23.1302
    24.9233  24.9234  24.9234  24.9234  24.9234  24.9235  24.9235  24.9235
    24.9248  24.9248  24.9249  24.9249  24.9249  24.9249  24.9249  24.9249
    24.9249  24.9250  24.9250  24.9250  24.9250  24.9250  24.9250  24.9250
    28.3006  28.3010  28.3014  28.3018  28.3026  28.3029  28.3037  28.3044
    28.3046  28.3047  28.3047

     the Fermi energy is    23.0962 ev

!    total energy              =  -13813.30090469 Ry

     total all-electron energy =   -289989.691244 Ry
     estimated scf accuracy    <       0.00000088 Ry
     smearing contrib. (-TS)   =       0.02038373 Ry
     internal energy E=F+TS    =  -13813.32128842 Ry

     The total energy is F=E-TS. E is the sum of the following terms:
     one-electron contribution =    -997.14899983 Ry
     hartree contribution      =     916.51518334 Ry
     xc contribution           =    -928.04608135 Ry
     ewald contribution        =   -5215.19923817 Ry
     one-center paw contrib.   =   -7589.44215241 Ry

     convergence has been achieved in  12 iterations

     Forces acting on atoms (cartesian axes, Ry/au):

     atom    1 type  1   force =     0.00000000    0.00000000    0.00000000
     atom    2 type  1   force =    -0.00009842    0.00006091    0.00000000
     atom    3 type  1   force =    -0.00018588    0.00000000   -0.00018588
     atom    4 type  1   force =     0.00000000    0.00006091   -0.00009842
     atom    5 type  1   force =     0.00000000    0.00000000    0.00000000
     atom    6 type  1   force =    -0.00008877    0.00028028   -0.00000000
     atom    7 type  1   force =    -0.00018588    0.00000000    0.00018588
     atom    8 type  1   force =     0.00000000    0.00006091    0.00009842
     atom    9 type  1   force =     0.00000000    0.00000000    0.00000000
     atom   10 type  1   force =    -0.00009842   -0.00006091    0.00000000
     atom   11 type  1   force =     0.00001574    0.00000000    0.00001574
     atom   12 type  1   force =     0.00000000   -0.00006091   -0.00009842
     atom   13 type  1   force =     0.00000000    0.00000000    0.00000000
     atom   14 type  1   force =    -0.00008877   -0.00028028    0.00000000
     atom   15 type  1   force =     0.00001574   -0.00000000   -0.00001574
     atom   16 type  1   force =     0.00000000   -0.00006091    0.00009842
     atom   17 type  1   force =     0.00000000    0.00000000    0.00000000
     atom   18 type  1   force =     0.00009842    0.00006091    0.00000000
     atom   19 type  1   force =     0.00018588    0.00000000   -0.00018588
     atom   20 type  1   force =     0.00000000    0.00028028   -0.00008877
     atom   21 type  1   force =     0.00000000    0.00000000    0.00000000
     atom   22 type  1   force =     0.00008877    0.00028028    0.00000000
     atom   23 type  1   force =     0.00018588    0.00000000    0.00018588
     atom   24 type  1   force =     0.00000000    0.00028028    0.00008877
     atom   25 type  1   force =     0.00000000    0.00000000    0.00000000
     atom   26 type  1   force =     0.00009842   -0.00006091    0.00000000
     atom   27 type  1   force =    -0.00001574   -0.00000000    0.00001574
     atom   28 type  1   force =     0.00000000   -0.00028028   -0.00008877
     atom   29 type  1   force =     0.00000000    0.00000000    0.00000000
     atom   30 type  1   force =     0.00008877   -0.00028028   -0.00000000
     atom   31 type  1   force =    -0.00001574    0.00000000   -0.00001574
     atom   32 type  1   force =     0.00000000   -0.00028028    0.00008877

     Total force =     0.001038     Total SCF correction =     0.003426
     SCF correction compared to forces is large: reduce conv_thr to get better values

     Computing stress (Cartesian axis) and pressure

          total   stress  (Ry/bohr**3)                   (kbar)     P=       -5.38
  -0.00003300   0.00000000   0.00000000           -4.85        0.00        0.00
   0.00000000  -0.00004381   0.00000000            0.00       -6.44        0.00
   0.00000000   0.00000000  -0.00003300            0.00        0.00       -4.85

     Writing output data file /scratch/nnovrTMcIEWWltYc.save/

     General routines

     Parallel routines

   This run was terminated on:  16:50:29  23Nov2021

   JOB DONE.