     Program PWSCF v.6.7MaX starts on 23Nov2021 at 16:51:15

     R & G space division:  proc/nbgrp/npool/nimage =      72
     Reading input from /rds/homes/b/bxp912/jobs/20211014_ru_eos/wd/ec/ec_2_003.in
Warning: card &CELL ignored
Warning: card CELL_DYNAMICS = 'BFGS', ignored
Warning: card CELL_FACTOR = 2.0, ignored
Warning: card PRESS = 0.0, ignored
Warning: card / ignored

     Current dimensions of program PWSCF are:
     Max number of different atomic species (ntypx) = 10
     Max number of k-points (npk) =  40000
     Max angular momentum in pseudopotentials (lmaxx) =  3
     file Ru.pbe-spn-kjpaw_psl.1.0.0.UPF: wavefunction(s)  4D renormalized

     Subspace diagonalization in iterative solution of the eigenvalue problem:
     one sub-group per band group will be used

     Found symmetry operation: I + (  0.2500  0.2500  0.0000)
     This is a supercell, fractional translations are disabled
     Message from routine setup:
     using ibrav=0 with symmetry is DISCOURAGED, use correct ibrav instead

     bravais-lattice index     =            0
     lattice parameter (alat)  =      14.4007  a.u.
     unit-cell volume          =    2990.1784 (a.u.)^3
     number of atoms/cell      =           32
     number of atomic types    =            1
     number of electrons       =       512.00
     number of Kohn-Sham states=          307
     kinetic-energy cutoff     =      71.0000  Ry
     charge density cutoff     =     430.0000  Ry
     scf convergence threshold =      1.0E-06
     mixing beta               =       0.1000
     number of iterations used =           10  plain     mixing
     Exchange-correlation= SLA  PW   PBX  PBC
                           (   1   4   3   4   0   0   0)

     celldm(1)=  14.400742  celldm(2)=   0.000000  celldm(3)=   0.000000
     celldm(4)=   0.000000  celldm(5)=   0.000000  celldm(6)=   0.000000

     crystal axes: (cart. coord. in units of alat)
               a(1) = (   1.000000   0.000000   0.000000 )
               a(2) = (   0.000000   1.001250   0.000000 )
               a(3) = (   0.000000   0.000000   1.000000 )

     reciprocal axes: (cart. coord. in units 2 pi/alat)
               b(1) = (  1.000000  0.000000  0.000000 )
               b(2) = (  0.000000  0.998752  0.000000 )
               b(3) = (  0.000000  0.000000  1.000000 )

     PseudoPot. # 1 for Ru read from file:
     /rds/homes/b/bxp912/pp/Ru.pbe-spn-kjpaw_psl.1.0.0.UPF
     MD5 check sum: 0ae1f594dea09af7be8575c3a481d1ae
     Pseudo is Projector augmented-wave + core cor, Zval = 16.0
     Generated using "atomic" code by A. Dal Corso  v.5.1
     Shape of augmentation charge: PSQ
     Using radial grid of 1233 points,  6 beta functions with:
                l(1) =   0
                l(2) =   0
                l(3) =   1
                l(4) =   1
                l(5) =   2
                l(6) =   2
     Q(r) pseudized with 0 coefficients

     atomic species   valence    mass     pseudopotential
        Ru            16.00   101.07000     Ru( 1.00)

     16 Sym. Ops., with inversion, found

   Cartesian axes

     site n.     atom                  positions (alat units)
         1           Ru  tau(   1) = (   0.0000000   0.0000000   0.0000000  )
         2           Ru  tau(   2) = (   0.2500000   0.2503125   0.0000000  )
         3           Ru  tau(   3) = (   0.2500000   0.0000000   0.2499995  )
         4           Ru  tau(   4) = (   0.0000000   0.2503125   0.2499995  )
         5           Ru  tau(   5) = (   0.0000000   0.0000000   0.5000000  )
         6           Ru  tau(   6) = (   0.2499990   0.2503114   0.5000000  )
         7           Ru  tau(   7) = (   0.2500000   0.0000000   0.7499995  )
         8           Ru  tau(   8) = (   0.0000000   0.2503125   0.7499995  )
         9           Ru  tau(   9) = (   0.0000000   0.5006252   0.0000000  )
        10           Ru  tau(  10) = (   0.2500000   0.7509379   0.0000000  )
        11           Ru  tau(  11) = (   0.2499990   0.5006252   0.2499984  )
        12           Ru  tau(  12) = (   0.0000000   0.7509379   0.2499995  )
        13           Ru  tau(  13) = (   0.0000000   0.5006252   0.5000000  )
        14           Ru  tau(  14) = (   0.2499990   0.7509390   0.5000000  )
        15           Ru  tau(  15) = (   0.2499990   0.5006252   0.7500005  )
        16           Ru  tau(  16) = (   0.0000000   0.7509379   0.7499995  )
        17           Ru  tau(  17) = (   0.5000002   0.0000000   0.0000000  )
        18           Ru  tau(  18) = (   0.7500004   0.2503125   0.0000000  )
        19           Ru  tau(  19) = (   0.7500004   0.0000000   0.2499995  )
        20           Ru  tau(  20) = (   0.5000002   0.2503114   0.2499984  )
        21           Ru  tau(  21) = (   0.5000002   0.0000000   0.5000000  )
        22           Ru  tau(  22) = (   0.7500015   0.2503114   0.5000000  )
        23           Ru  tau(  23) = (   0.7500004   0.0000000   0.7499995  )
        24           Ru  tau(  24) = (   0.5000002   0.2503114   0.7500005  )
        25           Ru  tau(  25) = (   0.5000002   0.5006252   0.0000000  )
        26           Ru  tau(  26) = (   0.7500004   0.7509379   0.0000000  )
        27           Ru  tau(  27) = (   0.7500015   0.5006252   0.2499984  )
        28           Ru  tau(  28) = (   0.5000002   0.7509390   0.2499984  )
        29           Ru  tau(  29) = (   0.5000002   0.5006252   0.5000000  )
        30           Ru  tau(  30) = (   0.7500015   0.7509390   0.5000000  )
        31           Ru  tau(  31) = (   0.7500015   0.5006252   0.7500005  )
        32           Ru  tau(  32) = (   0.5000002   0.7509390   0.7500005  )

     number of k points=    75  Marzari-Vanderbilt smearing, width (Ry)=  0.0400
                       cart. coord. in units 2pi/alat
        k(    1) = (   0.0555556   0.0554862   0.0555556), wk =   0.0219479
        k(    2) = (   0.0555556   0.0554862   0.1666667), wk =   0.0438957
        k(    3) = (   0.0555556   0.0554862   0.2777778), wk =   0.0438957
        k(    4) = (   0.0555556   0.0554862   0.3888889), wk =   0.0438957
        k(    5) = (   0.0555556   0.0554862  -0.5000000), wk =   0.0219479
        k(    6) = (   0.0555556   0.1664586   0.0555556), wk =   0.0219479
        k(    7) = (   0.0555556   0.1664586   0.1666667), wk =   0.0438957
        k(    8) = (   0.0555556   0.1664586   0.2777778), wk =   0.0438957
        k(    9) = (   0.0555556   0.1664586   0.3888889), wk =   0.0438957
        k(   10) = (   0.0555556   0.1664586  -0.5000000), wk =   0.0219479
        k(   11) = (   0.0555556   0.2774310   0.0555556), wk =   0.0219479
        k(   12) = (   0.0555556   0.2774310   0.1666667), wk =   0.0438957
        k(   13) = (   0.0555556   0.2774310   0.2777778), wk =   0.0438957
        k(   14) = (   0.0555556   0.2774310   0.3888889), wk =   0.0438957
        k(   15) = (   0.0555556   0.2774310  -0.5000000), wk =   0.0219479
        k(   16) = (   0.0555556   0.3884034   0.0555556), wk =   0.0219479
        k(   17) = (   0.0555556   0.3884034   0.1666667), wk =   0.0438957
        k(   18) = (   0.0555556   0.3884034   0.2777778), wk =   0.0438957
        k(   19) = (   0.0555556   0.3884034   0.3888889), wk =   0.0438957
        k(   20) = (   0.0555556   0.3884034  -0.5000000), wk =   0.0219479
        k(   21) = (   0.0555556  -0.4993758   0.0555556), wk =   0.0109739
        k(   22) = (   0.0555556  -0.4993758   0.1666667), wk =   0.0219479
        k(   23) = (   0.0555556  -0.4993758   0.2777778), wk =   0.0219479
        k(   24) = (   0.0555556  -0.4993758   0.3888889), wk =   0.0219479
        k(   25) = (   0.0555556  -0.4993758  -0.5000000), wk =   0.0109739
        k(   26) = (   0.1666667   0.0554862   0.1666667), wk =   0.0219479
        k(   27) = (   0.1666667   0.0554862   0.2777778), wk =   0.0438957
        k(   28) = (   0.1666667   0.0554862   0.3888889), wk =   0.0438957
        k(   29) = (   0.1666667   0.0554862  -0.5000000), wk =   0.0219479
        k(   30) = (   0.1666667   0.1664586   0.1666667), wk =   0.0219479
        k(   31) = (   0.1666667   0.1664586   0.2777778), wk =   0.0438957
        k(   32) = (   0.1666667   0.1664586   0.3888889), wk =   0.0438957
        k(   33) = (   0.1666667   0.1664586  -0.5000000), wk =   0.0219479
        k(   34) = (   0.1666667   0.2774310   0.1666667), wk =   0.0219479
        k(   35) = (   0.1666667   0.2774310   0.2777778), wk =   0.0438957
        k(   36) = (   0.1666667   0.2774310   0.3888889), wk =   0.0438957
        k(   37) = (   0.1666667   0.2774310  -0.5000000), wk =   0.0219479
        k(   38) = (   0.1666667   0.3884034   0.1666667), wk =   0.0219479
        k(   39) = (   0.1666667   0.3884034   0.2777778), wk =   0.0438957
        k(   40) = (   0.1666667   0.3884034   0.3888889), wk =   0.0438957
        k(   41) = (   0.1666667   0.3884034  -0.5000000), wk =   0.0219479
        k(   42) = (   0.1666667  -0.4993758   0.1666667), wk =   0.0109739
        k(   43) = (   0.1666667  -0.4993758   0.2777778), wk =   0.0219479
        k(   44) = (   0.1666667  -0.4993758   0.3888889), wk =   0.0219479
        k(   45) = (   0.1666667  -0.4993758  -0.5000000), wk =   0.0109739
        k(   46) = (   0.2777778   0.0554862   0.2777778), wk =   0.0219479
        k(   47) = (   0.2777778   0.0554862   0.3888889), wk =   0.0438957
        k(   48) = (   0.2777778   0.0554862  -0.5000000), wk =   0.0219479
        k(   49) = (   0.2777778   0.1664586   0.2777778), wk =   0.0219479
        k(   50) = (   0.2777778   0.1664586   0.3888889), wk =   0.0438957
        k(   51) = (   0.2777778   0.1664586  -0.5000000), wk =   0.0219479
        k(   52) = (   0.2777778   0.2774310   0.2777778), wk =   0.0219479
        k(   53) = (   0.2777778   0.2774310   0.3888889), wk =   0.0438957
        k(   54) = (   0.2777778   0.2774310  -0.5000000), wk =   0.0219479
        k(   55) = (   0.2777778   0.3884034   0.2777778), wk =   0.0219479
        k(   56) = (   0.2777778   0.3884034   0.3888889), wk =   0.0438957
        k(   57) = (   0.2777778   0.3884034  -0.5000000), wk =   0.0219479
        k(   58) = (   0.2777778  -0.4993758   0.2777778), wk =   0.0109739
        k(   59) = (   0.2777778  -0.4993758   0.3888889), wk =   0.0219479
        k(   60) = (   0.2777778  -0.4993758  -0.5000000), wk =   0.0109739
        k(   61) = (   0.3888889   0.0554862   0.3888889), wk =   0.0219479
        k(   62) = (   0.3888889   0.0554862  -0.5000000), wk =   0.0219479
        k(   63) = (   0.3888889   0.1664586   0.3888889), wk =   0.0219479
        k(   64) = (   0.3888889   0.1664586  -0.5000000), wk =   0.0219479
        k(   65) = (   0.3888889   0.2774310   0.3888889), wk =   0.0219479
        k(   66) = (   0.3888889   0.2774310  -0.5000000), wk =   0.0219479
        k(   67) = (   0.3888889   0.3884034   0.3888889), wk =   0.0219479
        k(   68) = (   0.3888889   0.3884034  -0.5000000), wk =   0.0219479
        k(   69) = (   0.3888889  -0.4993758   0.3888889), wk =   0.0109739
        k(   70) = (   0.3888889  -0.4993758  -0.5000000), wk =   0.0109739
        k(   71) = (  -0.5000000   0.0554862  -0.5000000), wk =   0.0054870
        k(   72) = (  -0.5000000   0.1664586  -0.5000000), wk =   0.0054870
        k(   73) = (  -0.5000000   0.2774310  -0.5000000), wk =   0.0054870
        k(   74) = (  -0.5000000   0.3884034  -0.5000000), wk =   0.0054870
        k(   75) = (  -0.5000000  -0.4993758  -0.5000000), wk =   0.0027435

     Check: negative core charge=   -0.000002

     Initial potential from superposition of free atoms

     starting charge  511.97959, renormalised to  512.00000
     Starting wfcs are  320 randomized atomic wfcs
     Checking if some PAW data can be deallocated...

     Self-consistent Calculation

     iteration #  1     ecut=    71.00 Ry     beta= 0.10
     Davidson diagonalization with overlap
     ethr =  1.00E-02,  avg # of iterations =  3.4

     Threshold (ethr) on eigenvalues was too large:
     Diagonalizing with lowered threshold

     Davidson diagonalization with overlap
     ethr =  8.35E-05,  avg # of iterations =  5.3

     total energy              =  -13813.41276590 Ry
     estimated scf accuracy    <       0.63801279 Ry

[...]

     total energy              =  -13813.30087913 Ry
     estimated scf accuracy    <       0.00000111 Ry

     iteration # 13     ecut=    71.00 Ry     beta= 0.10
     Davidson diagonalization with overlap
     ethr =  2.17E-10,  avg # of iterations =  2.0

     End of self-consistent calculation

          k = 0.0556 0.0555 0.0556 ( 30259 PWs)   bands (ev):

   -49.9406 -49.8416 -49.8412 -49.8412 -49.8224 -49.8220 -49.8220 -49.7864
   -49.7864 -49.7863 -49.7770 -49.7760 -49.7759 -49.7759 -49.7759 -49.7758
   -49.7758 -49.7753 -49.7753 -49.7753 -49.7671 -49.7670 -49.7670 -49.7224
   -49.7217 -49.7216 -49.7215 -49.7215 -49.7214 -49.7214 -49.7211 -49.7211
   -20.3434 -20.3434 -20.3434 -20.3393 -20.2811 -20.2811 -20.2807 -20.0826
   -20.0808 -20.0808 -20.0713 -20.0713 -20.0695 -20.0695 -20.0694 -20.0694
   -20.0513 -20.0492 -20.0492 -20.0283 -20.0283 -20.0269 -20.0269 -20.0268
   -20.0268 -19.9780 -19.9780 -19.9765 -19.9765 -19.9762 -19.9762 -19.8781
   -19.8781 -19.8777 -19.8053 -19.8053 -19.8048 -19.7974 -19.7974 -19.7971
   -19.7640 -19.7640 -19.7637 -19.7637 -19.7634 -19.7634 -19.7238 -19.7238
   -19.7234 -19.7173 -19.7173 -19.7170 -19.7170 -19.7162 -19.7162 -19.7121
   -19.7121 -19.7097 -19.7069 -19.7069 -19.7051 -19.5454 -19.5454 -19.5440
   -19.5440 -19.5438 -19.5432 -19.5133 -19.5133 -19.5122 -19.5122 -19.5118
   -19.5118 -19.4981 -19.4981 -19.4966 -19.4863 -19.4852 -19.4852 -19.4848
   -19.4847 -19.4847 -19.4847 -19.4834 -19.4834 -19.4826 -19.4825 -19.4814
   -19.4805 -19.4786 -19.4663 -19.4663 -19.4650 -19.3534 -19.3466 -19.3464
    15.3157  16.8762  16.8762  16.8773  17.1548  17.1725  17.1725  17.1725
    17.3439  17.3439  17.3453  17.5654  17.5699  17.5699  17.7374  17.7417
    17.7417  18.2789  18.2789  18.2855  18.2855  18.2858  18.2858  18.5958
    18.6001  18.6001  18.8626  18.8626  18.8628  18.8677  18.8732  18.8733
    18.9686  18.9692  18.9692  18.9721  18.9721  18.9721  18.9721  18.9724
    18.9724  19.4598  19.4598  19.4632  19.4632  19.4660  19.4660  19.6028
    19.6093  19.6093  19.6345  19.6345  19.6410  19.6410  19.6415  19.6415
    19.6994  19.7053  19.7053  19.9637  19.9637  19.9647  19.9648  19.9662
    19.9662  19.9662  19.9662  19.9672  19.9677  19.9677  19.9689  19.9689
    19.9708  19.9708  20.1365  20.1365  20.1378  20.4134  20.4238  20.4238
    20.4493  20.4648  20.4693  20.4693  20.4798  20.5489  20.5787  20.5870
    21.5484  21.5600  21.5600  21.7175  21.7301  21.7301  21.7729  21.7730
    21.7771  21.8729  21.8729  21.8734  21.8734  21.8767  21.8767  21.8871
    21.8872  21.8903  22.1821  22.1821  22.1889  22.3027  22.3027  22.3068
    22.5504  22.5504  22.5568  22.6280  22.6280  22.6309  22.6310  22.6313
    22.6313  22.6466  22.6466  22.6523  22.6871  22.6871  22.6910  22.8761
    22.8761  22.8764  22.8764  22.8814  22.8814  22.9279  22.9458  23.0492
    23.0492  23.0544  23.7079  23.7079  23.7161  23.7571  23.7571  23.7588
    23.8682  23.8682  23.8752  23.9583  24.6880  24.6880  24.6889  24.7266
    24.7344  24.7614  24.7674  24.7674  25.0461  25.0498  25.0498  25.0722
    25.0722  25.0763  25.2309  25.2309  25.2314  25.2314  25.2389  25.2400
    25.2401  25.2413  25.2413  26.6777  26.6777  26.6865  26.8312  26.8551
    26.8551  27.2101  27.2101

[...]

          k = 0.3889-0.4994-0.5000 ( 30220 PWs)   bands (ev):

[...]

          k =-0.5000 0.0555-0.5000 ( 30216 PWs)   bands (ev):

[...]

          k =-0.5000-0.4994-0.5000 ( 30280 PWs)   bands (ev):

   -49.8596 -49.8595 -49.8595 -49.8594 -49.8593 -49.8593 -49.8592 -49.8591
   -49.7492 -49.7491 -49.7491 -49.7490 -49.7489 -49.7489 -49.7489 -49.7488
   -49.7488 -49.7487 -49.7487 -49.7487 -49.7486 -49.7486 -49.7485 -49.7485
   -49.7485 -49.7485 -49.7485 -49.7484 -49.7484 -49.7483 -49.7483 -49.7482
   -20.1759 -20.1759 -20.1759 -20.1758 -20.1758 -20.1758 -20.1758 -20.1757
   -20.1757 -20.1757 -20.1757 -20.1757 -20.1756 -20.1756 -20.1756 -20.1756
   -20.1749 -20.1749 -20.1748 -20.1748 -20.1748 -20.1747 -20.1747 -20.1746
   -19.8568 -19.8567 -19.8567 -19.8567 -19.8567 -19.8567 -19.8567 -19.8566
   -19.7453 -19.7452 -19.7452 -19.7452 -19.7452 -19.7452 -19.7452 -19.7451
   -19.7449 -19.7449 -19.7449 -19.7449 -19.7449 -19.7448 -19.7448 -19.7448
   -19.7448 -19.7448 -19.7448 -19.7448 -19.7448 -19.7448 -19.7448 -19.7447
   -19.5962 -19.5962 -19.5962 -19.5962 -19.5962 -19.5962 -19.5962 -19.5961
   -19.5961 -19.5960 -19.5960 -19.5960 -19.5960 -19.5960 -19.5960 -19.5960
   -19.5944 -19.5944 -19.5944 -19.5944 -19.5942 -19.5942 -19.5942 -19.5942
   -19.4140 -19.4139 -19.4139 -19.4139 -19.4139 -19.4138 -19.4137 -19.4137
   -19.4129 -19.4129 -19.4129 -19.4129 -19.4128 -19.4128 -19.4128 -19.4128
    17.1139  17.1141  17.1141  17.1141  17.1142  17.1143  17.1143  17.1144
    17.9710  17.9710  17.9711  17.9711  17.9711  17.9711  17.9711  17.9711
    17.9712  17.9712  17.9712  17.9712  17.9713  17.9713  17.9713  17.9713
    17.9713  17.9713  17.9713  17.9713  17.9715  17.9715  17.9715  17.9715
    18.9982  18.9983  18.9983  18.9983  18.9983  18.9983  18.9983  18.9984
    18.9984  18.9985  18.9985  18.9985  18.9985  18.9985  18.9985  18.9986
    19.0004  19.0004  19.0005  19.0005  19.0006  19.0006  19.0006  19.0007
    20.3193  20.3194  20.3194  20.3194  20.3194  20.3194  20.3194  20.3194
    20.9520  20.9520  20.9520  20.9520  20.9520  20.9521  20.9521  20.9521
    20.9663  20.9664  20.9664  20.9664  20.9664  20.9664  20.9664  20.9665
    21.0618  21.0618  21.0619  21.0619  21.0619  21.0619  21.0620  21.0620
    21.0705  21.0705  21.0705  21.0706  21.0706  21.0706  21.0706  21.0706
    21.0706  21.0706  21.0707  21.0707  21.0707  21.0707  21.0707  21.0707
    22.2786  22.2787  22.2787  22.2787  22.2787  22.2788  22.2788  22.2788
    22.2788  22.2788  22.2788  22.2788  22.2789  22.2789  22.2789  22.2790
    22.2861  22.2861  22.2862  22.2862  22.2862  22.2863  22.2863  22.2863
    23.1090  23.1091  23.1091  23.1091  23.1091  23.1092  23.1092  23.1092
    23.1138  23.1139  23.1139  23.1139  23.1140  23.1140  23.1141  23.1141
    24.9032  24.9033  24.9033  24.9033  24.9033  24.9034  24.9034  24.9034
    24.9062  24.9062  24.9062  24.9062  24.9063  24.9063  24.9063  24.9063
    24.9063  24.9063  24.9063  24.9063  24.9064  24.9064  24.9064  24.9064
    28.2761  28.2769  28.2774  28.2781  28.2792  28.2809  28.2822  28.2837
    28.2848  28.2848  28.2848

     the Fermi energy is    23.0789 ev

!    total energy              =  -13813.30088077 Ry

     total all-electron energy =   -289989.691220 Ry
     estimated scf accuracy    <       0.00000003 Ry
     smearing contrib. (-TS)   =       0.02033590 Ry
     internal energy E=F+TS    =  -13813.32121667 Ry

     The total energy is F=E-TS. E is the sum of the following terms:
     one-electron contribution =    -998.71489708 Ry
     hartree contribution      =     916.96540946 Ry
     xc contribution           =    -928.01744155 Ry
     ewald contribution        =   -5214.11377420 Ry
     one-center paw contrib.   =   -7589.44051330 Ry

     convergence has been achieved in  13 iterations

     Forces acting on atoms (cartesian axes, Ry/au):

     atom    1 type  1   force =     0.00000000    0.00000000    0.00000000
     atom    2 type  1   force =    -0.00000722    0.00002519   -0.00000000
     atom    3 type  1   force =     0.00000387   -0.00000000    0.00000387
     atom    4 type  1   force =     0.00000000    0.00002519   -0.00000722
     atom    5 type  1   force =     0.00000000    0.00000000    0.00000000
     atom    6 type  1   force =    -0.00001841    0.00002272   -0.00000000
     atom    7 type  1   force =     0.00000387    0.00000000   -0.00000387
     atom    8 type  1   force =     0.00000000    0.00002519    0.00000722
     atom    9 type  1   force =     0.00000000    0.00000000    0.00000000
     atom   10 type  1   force =    -0.00000722   -0.00002519    0.00000000
     atom   11 type  1   force =    -0.00001292    0.00000000   -0.00001292
     atom   12 type  1   force =     0.00000000   -0.00002519   -0.00000722
     atom   13 type  1   force =     0.00000000    0.00000000    0.00000000
     atom   14 type  1   force =    -0.00001841   -0.00002272   -0.00000000
     atom   15 type  1   force =    -0.00001292   -0.00000000    0.00001292
     atom   16 type  1   force =     0.00000000   -0.00002519    0.00000722
     atom   17 type  1   force =     0.00000000    0.00000000    0.00000000
     atom   18 type  1   force =     0.00000722    0.00002519    0.00000000
     atom   19 type  1   force =    -0.00000387    0.00000000    0.00000387
     atom   20 type  1   force =     0.00000000    0.00002272   -0.00001841
     atom   21 type  1   force =     0.00000000    0.00000000    0.00000000
     atom   22 type  1   force =     0.00001841    0.00002272   -0.00000000
     atom   23 type  1   force =    -0.00000387   -0.00000000   -0.00000387
     atom   24 type  1   force =     0.00000000    0.00002272    0.00001841
     atom   25 type  1   force =     0.00000000    0.00000000    0.00000000
     atom   26 type  1   force =     0.00000722   -0.00002519   -0.00000000
     atom   27 type  1   force =     0.00001292   -0.00000000   -0.00001292
     atom   28 type  1   force =     0.00000000   -0.00002272   -0.00001841
     atom   29 type  1   force =     0.00000000    0.00000000    0.00000000
     atom   30 type  1   force =     0.00001841   -0.00002272   -0.00000000
     atom   31 type  1   force =     0.00001292    0.00000000    0.00001292
     atom   32 type  1   force =     0.00000000   -0.00002272    0.00001841

     Total force =     0.000117     Total SCF correction =     0.000499
     SCF correction compared to forces is large: reduce conv_thr to get better values

     Computing stress (Cartesian axis) and pressure

          total   stress  (Ry/bohr**3)                   (kbar)     P=       -8.11
  -0.00004803   0.00000000   0.00000000           -7.06        0.00        0.00
   0.00000000  -0.00006943   0.00000000            0.00      -10.21        0.00
   0.00000000   0.00000000  -0.00004803            0.00        0.00       -7.06

     Writing output data file /scratch/hcOoMotcjEQqkRiR.save/

     General routines

     Parallel routines

   This run was terminated on:  17:12:16  23Nov2021

   JOB DONE.