     Program PWSCF v.6.7MaX starts on 23Nov2021 at 21:40:40

     R & G space division:  proc/nbgrp/npool/nimage =      72
     Reading input from /rds/homes/b/bxp912/jobs/20211014_ru_eos/wd/ec/ec_3_009.in
Warning: card &CELL ignored
Warning: card CELL_DYNAMICS = 'BFGS', ignored
Warning: card CELL_FACTOR = 2.0, ignored
Warning: card PRESS = 0.0, ignored
Warning: card / ignored

     Current dimensions of program PWSCF are:
     Max number of different atomic species (ntypx) = 10
     Max number of k-points (npk) =  40000
     Max angular momentum in pseudopotentials (lmaxx) =  3
     file Ru.pbe-spn-kjpaw_psl.1.0.0.UPF: wavefunction(s)  4D renormalized

     Subspace diagonalization in iterative solution of the eigenvalue problem:
     one sub-group per band group will be used

     Found symmetry operation: I + (  0.2500  0.2500  0.0000)
     This is a supercell, fractional translations are disabled
     Message from routine setup:
     using ibrav=0 with symmetry is DISCOURAGED, use correct ibrav instead

     bravais-lattice index     =            0
     lattice parameter (alat)  =      14.4007  a.u.
     unit-cell volume          =    3001.3776 (a.u.)^3
     number of atoms/cell      =           32
     number of atomic types    =            1
     number of electrons       =       512.00
     number of Kohn-Sham states=          307
     kinetic-energy cutoff     =      71.0000  Ry
     charge density cutoff     =     430.0000  Ry
     scf convergence threshold =      1.0E-06
     mixing beta               =       0.1000
     number of iterations used =           10  plain     mixing
     Exchange-correlation= SLA  PW   PBX  PBC
                           (   1   4   3   4   0   0   0)

     celldm(1)=  14.400742  celldm(2)=   0.000000  celldm(3)=   0.000000
     celldm(4)=   0.000000  celldm(5)=   0.000000  celldm(6)=   0.000000

     crystal axes: (cart. coord. in units of alat)
               a(1) = (   1.000000   0.000000   0.000000 )
               a(2) = (   0.000000   1.000000   0.000000 )
               a(3) = (   0.000000   0.000000   1.005000 )

     reciprocal axes: (cart. coord. in units 2 pi/alat)
               b(1) = (  1.000000  0.000000  0.000000 )
               b(2) = (  0.000000  1.000000  0.000000 )
               b(3) = (  0.000000  0.000000  0.995025 )

     PseudoPot. # 1 for Ru read from file:
     /rds/homes/b/bxp912/pp/Ru.pbe-spn-kjpaw_psl.1.0.0.UPF
     MD5 check sum: 0ae1f594dea09af7be8575c3a481d1ae
     Pseudo is Projector augmented-wave + core cor, Zval = 16.0
     Generated using "atomic" code by A. Dal Corso  v.5.1
     Shape of augmentation charge: PSQ
     Using radial grid of 1233 points,  6 beta functions with:
                l(1) =   0
                l(2) =   0
                l(3) =   1
                l(4) =   1
                l(5) =   2
                l(6) =   2
     Q(r) pseudized with 0 coefficients

     atomic species   valence    mass     pseudopotential
        Ru            16.00   101.07000     Ru( 1.00)

     16 Sym. Ops., with inversion, found

   Cartesian axes

     site n.     atom                  positions (alat units)
         1           Ru  tau(   1) = (   0.0000000   0.0000000   0.0000000  )
         2           Ru  tau(   2) = (   0.2500000   0.2500000   0.0000000  )
         3           Ru  tau(   3) = (   0.2500000   0.0000000   0.2512495  )
         4           Ru  tau(   4) = (   0.0000000   0.2500000   0.2512495  )
         5           Ru  tau(   5) = (   0.0000000   0.0000000   0.5025000  )
         6           Ru  tau(   6) = (   0.2499990   0.2499990   0.5025000  )
         7           Ru  tau(   7) = (   0.2500000   0.0000000   0.7537495  )
         8           Ru  tau(   8) = (   0.0000000   0.2500000   0.7537495  )
         9           Ru  tau(   9) = (   0.0000000   0.5000002   0.0000000  )
        10           Ru  tau(  10) = (   0.2500000   0.7500004   0.0000000  )
        11           Ru  tau(  11) = (   0.2499990   0.5000002   0.2512484  )
        12           Ru  tau(  12) = (   0.0000000   0.7500004   0.2512495  )
        13           Ru  tau(  13) = (   0.0000000   0.5000002   0.5025000  )
        14           Ru  tau(  14) = (   0.2499990   0.7500015   0.5025000  )
        15           Ru  tau(  15) = (   0.2499990   0.5000002   0.7537505  )
        16           Ru  tau(  16) = (   0.0000000   0.7500004   0.7537495  )
        17           Ru  tau(  17) = (   0.5000002   0.0000000   0.0000000  )
        18           Ru  tau(  18) = (   0.7500004   0.2500000   0.0000000  )
        19           Ru  tau(  19) = (   0.7500004   0.0000000   0.2512495  )
        20           Ru  tau(  20) = (   0.5000002   0.2499990   0.2512484  )
        21           Ru  tau(  21) = (   0.5000002   0.0000000   0.5025000  )
        22           Ru  tau(  22) = (   0.7500015   0.2499990   0.5025000  )
        23           Ru  tau(  23) = (   0.7500004   0.0000000   0.7537495  )
        24           Ru  tau(  24) = (   0.5000002   0.2499990   0.7537505  )
        25           Ru  tau(  25) = (   0.5000002   0.5000002   0.0000000  )
        26           Ru  tau(  26) = (   0.7500004   0.7500004   0.0000000  )
        27           Ru  tau(  27) = (   0.7500015   0.5000002   0.2512484  )
        28           Ru  tau(  28) = (   0.5000002   0.7500015   0.2512484  )
        29           Ru  tau(  29) = (   0.5000002   0.5000002   0.5025000  )
        30           Ru  tau(  30) = (   0.7500015   0.7500015   0.5025000  )
        31           Ru  tau(  31) = (   0.7500015   0.5000002   0.7537505  )
        32           Ru  tau(  32) = (   0.5000002   0.7500015   0.7537505  )

     number of k points=    75  Marzari-Vanderbilt smearing, width (Ry)=  0.0400
                       cart. coord. in units 2pi/alat
        k(    1) = (   0.0555556   0.0555556   0.0552792), wk =   0.0219479
        k(    2) = (   0.0555556   0.0555556   0.1658375), wk =   0.0219479
        k(    3) = (   0.0555556   0.0555556   0.2763958), wk =   0.0219479
        k(    4) = (   0.0555556   0.0555556   0.3869541), wk =   0.0219479
        k(    5) = (   0.0555556   0.0555556  -0.4975124), wk =   0.0109739
        k(    6) = (   0.0555556   0.1666667   0.0552792), wk =   0.0438957
        k(    7) = (   0.0555556   0.1666667   0.1658375), wk =   0.0438957
        k(    8) = (   0.0555556   0.1666667   0.2763958), wk =   0.0438957
        k(    9) = (   0.0555556   0.1666667   0.3869541), wk =   0.0438957
        k(   10) = (   0.0555556   0.1666667  -0.4975124), wk =   0.0219479
        k(   11) = (   0.0555556   0.2777778   0.0552792), wk =   0.0438957
        k(   12) = (   0.0555556   0.2777778   0.1658375), wk =   0.0438957
        k(   13) = (   0.0555556   0.2777778   0.2763958), wk =   0.0438957
        k(   14) = (   0.0555556   0.2777778   0.3869541), wk =   0.0438957
        k(   15) = (   0.0555556   0.2777778  -0.4975124), wk =   0.0219479
        k(   16) = (   0.0555556   0.3888889   0.0552792), wk =   0.0438957
        k(   17) = (   0.0555556   0.3888889   0.1658375), wk =   0.0438957
        k(   18) = (   0.0555556   0.3888889   0.2763958), wk =   0.0438957
        k(   19) = (   0.0555556   0.3888889   0.3869541), wk =   0.0438957
        k(   20) = (   0.0555556   0.3888889  -0.4975124), wk =   0.0219479
        k(   21) = (   0.0555556  -0.5000000   0.0552792), wk =   0.0219479
        k(   22) = (   0.0555556  -0.5000000   0.1658375), wk =   0.0219479
        k(   23) = (   0.0555556  -0.5000000   0.2763958), wk =   0.0219479
        k(   24) = (   0.0555556  -0.5000000   0.3869541), wk =   0.0219479
        k(   25) = (   0.0555556  -0.5000000  -0.4975124), wk =   0.0109739
        k(   26) = (   0.1666667   0.1666667   0.0552792), wk =   0.0219479
        k(   27) = (   0.1666667   0.1666667   0.1658375), wk =   0.0219479
        k(   28) = (   0.1666667   0.1666667   0.2763958), wk =   0.0219479
        k(   29) = (   0.1666667   0.1666667   0.3869541), wk =   0.0219479
        k(   30) = (   0.1666667   0.1666667  -0.4975124), wk =   0.0109739
        k(   31) = (   0.1666667   0.2777778   0.0552792), wk =   0.0438957
        k(   32) = (   0.1666667   0.2777778   0.1658375), wk =   0.0438957
        k(   33) = (   0.1666667   0.2777778   0.2763958), wk =   0.0438957
        k(   34) = (   0.1666667   0.2777778   0.3869541), wk =   0.0438957
        k(   35) = (   0.1666667   0.2777778  -0.4975124), wk =   0.0219479
        k(   36) = (   0.1666667   0.3888889   0.0552792), wk =   0.0438957
        k(   37) = (   0.1666667   0.3888889   0.1658375), wk =   0.0438957
        k(   38) = (   0.1666667   0.3888889   0.2763958), wk =   0.0438957
        k(   39) = (   0.1666667   0.3888889   0.3869541), wk =   0.0438957
        k(   40) = (   0.1666667   0.3888889  -0.4975124), wk =   0.0219479
        k(   41) = (   0.1666667  -0.5000000   0.0552792), wk =   0.0219479
        k(   42) = (   0.1666667  -0.5000000   0.1658375), wk =   0.0219479
        k(   43) = (   0.1666667  -0.5000000   0.2763958), wk =   0.0219479
        k(   44) = (   0.1666667  -0.5000000   0.3869541), wk =   0.0219479
        k(   45) = (   0.1666667  -0.5000000  -0.4975124), wk =   0.0109739
        k(   46) = (   0.2777778   0.2777778   0.0552792), wk =   0.0219479
        k(   47) = (   0.2777778   0.2777778   0.1658375), wk =   0.0219479
        k(   48) = (   0.2777778   0.2777778   0.2763958), wk =   0.0219479
        k(   49) = (   0.2777778   0.2777778   0.3869541), wk =   0.0219479
        k(   50) = (   0.2777778   0.2777778  -0.4975124), wk =   0.0109739
        k(   51) = (   0.2777778   0.3888889   0.0552792), wk =   0.0438957
        k(   52) = (   0.2777778   0.3888889   0.1658375), wk =   0.0438957
        k(   53) = (   0.2777778   0.3888889   0.2763958), wk =   0.0438957
        k(   54) = (   0.2777778   0.3888889   0.3869541), wk =   0.0438957
        k(   55) = (   0.2777778   0.3888889  -0.4975124), wk =   0.0219479
        k(   56) = (   0.2777778  -0.5000000   0.0552792), wk =   0.0219479
        k(   57) = (   0.2777778  -0.5000000   0.1658375), wk =   0.0219479
        k(   58) = (   0.2777778  -0.5000000   0.2763958), wk =   0.0219479
        k(   59) = (   0.2777778  -0.5000000   0.3869541), wk =   0.0219479
        k(   60) = (   0.2777778  -0.5000000  -0.4975124), wk =   0.0109739
        k(   61) = (   0.3888889   0.3888889   0.0552792), wk =   0.0219479
        k(   62) = (   0.3888889   0.3888889   0.1658375), wk =   0.0219479
        k(   63) = (   0.3888889   0.3888889   0.2763958), wk =   0.0219479
        k(   64) = (   0.3888889   0.3888889   0.3869541), wk =   0.0219479
        k(   65) = (   0.3888889   0.3888889  -0.4975124), wk =   0.0109739
        k(   66) = (   0.3888889  -0.5000000   0.0552792), wk =   0.0219479
        k(   67) = (   0.3888889  -0.5000000   0.1658375), wk =   0.0219479
        k(   68) = (   0.3888889  -0.5000000   0.2763958), wk =   0.0219479
        k(   69) = (   0.3888889  -0.5000000   0.3869541), wk =   0.0219479
        k(   70) = (   0.3888889  -0.5000000  -0.4975124), wk =   0.0109739
        k(   71) = (  -0.5000000  -0.5000000   0.0552792), wk =   0.0054870
        k(   72) = (  -0.5000000  -0.5000000   0.1658375), wk =   0.0054870
        k(   73) = (  -0.5000000  -0.5000000   0.2763958), wk =   0.0054870
        k(   74) = (  -0.5000000  -0.5000000   0.3869541), wk =   0.0054870
        k(   75) = (  -0.5000000  -0.5000000  -0.4975124), wk =   0.0027435

     Check: negative core charge=   -0.000002

     Initial potential from superposition of free atoms

     starting charge  511.97959, renormalised to  512.00000
     Starting wfcs are  320 randomized atomic wfcs
     Checking if some PAW data can be deallocated...

     Self-consistent Calculation

     iteration #  1     ecut=    71.00 Ry     beta= 0.10
     Davidson diagonalization with overlap
     ethr =  1.00E-02,  avg # of iterations =  3.4

     Threshold (ethr) on eigenvalues was too large:
     Diagonalizing with lowered threshold

     Davidson diagonalization with overlap
     ethr =  8.26E-05,  avg # of iterations =  5.5

     total energy              =  -13813.41118805 Ry
     estimated scf accuracy    <       0.63667872 Ry

[...]

     total energy              =  -13813.29996344 Ry
     estimated scf accuracy    <       0.00000661 Ry

     iteration # 11     ecut=    71.00 Ry     beta= 0.10
     Davidson diagonalization with overlap
     ethr =  1.29E-09,  avg # of iterations =  4.3

     End of self-consistent calculation

          k = 0.0556 0.0556 0.0553 ( 30395 PWs)   bands (ev):

   -50.0391 -49.9423 -49.9408 -49.9408 -49.9236 -49.9218 -49.9218 -49.8873
   -49.8872 -49.8871 -49.8780 -49.8771 -49.8770 -49.8769 -49.8768 -49.8768
   -49.8768 -49.8764 -49.8763 -49.8763 -49.8683 -49.8682 -49.8682 -49.8259
   -49.8239 -49.8239 -49.8237 -49.8236 -49.8226 -49.8226 -49.8222 -49.8222
   -20.4359 -20.4359 -20.4358 -20.4318 -20.3749 -20.3749 -20.3733 -20.1819
   -20.1747 -20.1747 -20.1710 -20.1710 -20.1637 -20.1636 -20.1632 -20.1631
   -20.1513 -20.1433 -20.1433 -20.1275 -20.1275 -20.1221 -20.1221 -20.1216
   -20.1216 -20.0784 -20.0784 -20.0723 -20.0723 -20.0713 -20.0713 -19.9766
   -19.9766 -19.9753 -19.9049 -19.9049 -19.9031 -19.8969 -19.8969 -19.8957
   -19.8646 -19.8646 -19.8634 -19.8634 -19.8622 -19.8622 -19.8244 -19.8244
   -19.8227 -19.8190 -19.8190 -19.8178 -19.8178 -19.8177 -19.8177 -19.8145
   -19.8145 -19.8066 -19.8066 -19.8059 -19.8014 -19.6510 -19.6510 -19.6457
   -19.6457 -19.6440 -19.6432 -19.6187 -19.6187 -19.6145 -19.6145 -19.6126
   -19.6125 -19.6027 -19.6027 -19.5967 -19.5922 -19.5903 -19.5903 -19.5894
   -19.5894 -19.5893 -19.5893 -19.5865 -19.5839 -19.5839 -19.5839 -19.5839
   -19.5818 -19.5791 -19.5711 -19.5711 -19.5658 -19.4581 -19.4515 -19.4510
    15.2314  16.8021  16.8021  16.8064  17.0765  17.0941  17.0941  17.0942
    17.2680  17.2680  17.2731  17.4681  17.4860  17.4861  17.6425  17.6597
    17.6599  18.1855  18.1855  18.2119  18.2120  18.2130  18.2131  18.5066
    18.5239  18.5239  18.7726  18.7727  18.7737  18.7745  18.7969  18.7970
    18.8805  18.8827  18.8828  18.8830  18.8831  18.8831  18.8831  18.8843
    18.8843  19.3628  19.3629  19.3763  19.3763  19.3874  19.3874  19.5021
    19.5276  19.5277  19.5330  19.5330  19.5592  19.5592  19.5612  19.5612
    19.5991  19.6231  19.6231  19.8622  19.8623  19.8713  19.8713  19.8736
    19.8737  19.8737  19.8738  19.8783  19.8783  19.8815  19.8845  19.8845
    19.8907  19.8908  20.0453  20.0454  20.0503  20.3004  20.3280  20.3280
    20.3358  20.3838  20.3838  20.3970  20.4118  20.4362  20.4932  20.5103
    21.4271  21.4732  21.4732  21.5921  21.6422  21.6423  21.6715  21.6715
    21.6876  21.7706  21.7707  21.7725  21.7725  21.7855  21.7855  21.7860
    21.7860  21.7983  22.0744  22.0744  22.1017  22.1975  22.1976  22.2140
    22.4413  22.4413  22.4666  22.5197  22.5197  22.5311  22.5312  22.5324
    22.5324  22.5381  22.5382  22.5609  22.5795  22.5795  22.5954  22.7665
    22.7665  22.7674  22.7674  22.7876  22.7876  22.7956  22.8668  22.9389
    22.9389  22.9595  23.5897  23.5897  23.6224  23.6470  23.6471  23.6537
    23.7501  23.7501  23.7783  23.8498  24.5708  24.5708  24.5748  24.5990
    24.6299  24.6334  24.6566  24.6566  24.9206  24.9329  24.9329  24.9523
    24.9523  24.9680  25.1008  25.1008  25.1028  25.1028  25.1178  25.1247
    25.1247  25.1424  25.1424  26.5430  26.5430  26.5780  26.6644  26.7594
    26.7594  27.0715  27.0716

[...]

          k = 0.3889-0.5000-0.4975 ( 30340 PWs)   bands (ev):

[...]

          k =-0.5000-0.5000 0.0553 ( 30320 PWs)   bands (ev):

[...]

          k =-0.5000-0.5000-0.4975 ( 30376 PWs)   bands (ev):

   -49.9592 -49.9592 -49.9591 -49.9591 -49.9591 -49.9590 -49.9589 -49.9589
   -49.8514 -49.8514 -49.8513 -49.8512 -49.8512 -49.8512 -49.8511 -49.8511
   -49.8498 -49.8497 -49.8497 -49.8497 -49.8496 -49.8496 -49.8496 -49.8495
   -49.8495 -49.8495 -49.8495 -49.8495 -49.8495 -49.8494 -49.8494 -49.8494
   -20.2713 -20.2713 -20.2713 -20.2713 -20.2713 -20.2712 -20.2712 -20.2712
   -20.2712 -20.2712 -20.2712 -20.2712 -20.2712 -20.2712 -20.2712 -20.2711
   -20.2676 -20.2676 -20.2676 -20.2676 -20.2675 -20.2675 -20.2674 -20.2674
   -19.9551 -19.9551 -19.9551 -19.9551 -19.9551 -19.9551 -19.9550 -19.9550
   -19.8460 -19.8459 -19.8459 -19.8459 -19.8459 -19.8459 -19.8458 -19.8458
   -19.8445 -19.8444 -19.8444 -19.8444 -19.8444 -19.8444 -19.8444 -19.8444
   -19.8444 -19.8444 -19.8444 -19.8444 -19.8443 -19.8443 -19.8443 -19.8443
   -19.6998 -19.6998 -19.6998 -19.6998 -19.6997 -19.6997 -19.6997 -19.6997
   -19.6996 -19.6996 -19.6996 -19.6996 -19.6996 -19.6996 -19.6996 -19.6996
   -19.6926 -19.6926 -19.6926 -19.6926 -19.6926 -19.6926 -19.6926 -19.6926
   -19.5195 -19.5195 -19.5194 -19.5194 -19.5194 -19.5194 -19.5193 -19.5193
   -19.5154 -19.5154 -19.5154 -19.5154 -19.5154 -19.5154 -19.5153 -19.5153
    17.0274  17.0274  17.0275  17.0275  17.0276  17.0277  17.0277  17.0277
    17.8914  17.8914  17.8914  17.8914  17.8915  17.8915  17.8915  17.8915
    17.8916  17.8916  17.8916  17.8916  17.8916  17.8916  17.8916  17.8916
    17.8923  17.8923  17.8923  17.8923  17.8923  17.8924  17.8924  17.8924
    18.9118  18.9118  18.9118  18.9118  18.9118  18.9119  18.9119  18.9119
    18.9119  18.9120  18.9120  18.9120  18.9120  18.9120  18.9121  18.9121
    18.9204  18.9204  18.9204  18.9204  18.9205  18.9205  18.9205  18.9205
    20.2263  20.2263  20.2263  20.2264  20.2264  20.2264  20.2264  20.2264
    20.8370  20.8370  20.8370  20.8370  20.8370  20.8370  20.8370  20.8371
    20.8941  20.8941  20.8941  20.8942  20.8942  20.8942  20.8942  20.8942
    20.9476  20.9476  20.9476  20.9477  20.9477  20.9477  20.9477  20.9477
    20.9823  20.9823  20.9823  20.9823  20.9824  20.9824  20.9824  20.9824
    20.9824  20.9824  20.9825  20.9825  20.9825  20.9825  20.9825  20.9825
    22.1705  22.1706  22.1706  22.1706  22.1706  22.1706  22.1706  22.1706
    22.1706  22.1706  22.1707  22.1707  22.1707  22.1707  22.1707  22.1707
    22.2000  22.2000  22.2001  22.2001  22.2001  22.2001  22.2002  22.2002
    22.9960  22.9960  22.9960  22.9960  22.9960  22.9961  22.9961  22.9961
    23.0153  23.0153  23.0154  23.0154  23.0154  23.0154  23.0155  23.0155
    24.7803  24.7803  24.7803  24.7803  24.7804  24.7804  24.7804  24.7804
    24.7919  24.7919  24.7919  24.7919  24.7919  24.7919  24.7919  24.7919
    24.7919  24.7919  24.7919  24.7919  24.7920  24.7920  24.7920  24.7920
    28.1296  28.1300  28.1304  28.1318  28.1331  28.1339  28.1348  28.1407
    28.1647  28.1648  28.1648

     the Fermi energy is    22.9735 ev

!    total energy              =  -13813.29996695 Ry

     total all-electron energy =   -289989.690306 Ry
     estimated scf accuracy    <       0.00000064 Ry
     smearing contrib. (-TS)   =       0.02009642 Ry
     internal energy E=F+TS    =  -13813.32006337 Ry

     The total energy is F=E-TS. E is the sum of the following terms:
     one-electron contribution =   -1008.18434449 Ry
     hartree contribution      =     919.78582361 Ry
     xc contribution           =    -927.86886141 Ry
     ewald contribution        =   -5207.61854749 Ry
     one-center paw contrib.   =   -7589.43413360 Ry

     convergence has been achieved in  11 iterations

     Forces acting on atoms (cartesian axes, Ry/au):

     atom    1 type  1   force =     0.00000000    0.00000000    0.00000000
     atom    2 type  1   force =    -0.00012501   -0.00012501    0.00000000
     atom    3 type  1   force =    -0.00026627    0.00000000   -0.00012987
     atom    4 type  1   force =     0.00000000   -0.00026627   -0.00012987
     atom    5 type  1   force =     0.00000000    0.00000000    0.00000000
     atom    6 type  1   force =     0.00011461    0.00011461   -0.00000000
     atom    7 type  1   force =    -0.00026627    0.00000000    0.00012987
     atom    8 type  1   force =     0.00000000   -0.00026627    0.00012987
     atom    9 type  1   force =     0.00000000    0.00000000    0.00000000
     atom   10 type  1   force =    -0.00012501    0.00012501    0.00000000
     atom   11 type  1   force =     0.00028259    0.00000000    0.00008655
     atom   12 type  1   force =     0.00000000    0.00026627   -0.00012987
     atom   13 type  1   force =     0.00000000    0.00000000    0.00000000
     atom   14 type  1   force =     0.00011461   -0.00011461   -0.00000000
     atom   15 type  1   force =     0.00028259    0.00000000   -0.00008655
     atom   16 type  1   force =     0.00000000    0.00026627    0.00012987
     atom   17 type  1   force =     0.00000000    0.00000000    0.00000000
     atom   18 type  1   force =     0.00012501   -0.00012501    0.00000000
     atom   19 type  1   force =     0.00026627    0.00000000   -0.00012987
     atom   20 type  1   force =     0.00000000    0.00028259    0.00008655
     atom   21 type  1   force =     0.00000000    0.00000000    0.00000000
     atom   22 type  1   force =    -0.00011461    0.00011461   -0.00000000
     atom   23 type  1   force =     0.00026627    0.00000000    0.00012987
     atom   24 type  1   force =     0.00000000    0.00028259   -0.00008655
     atom   25 type  1   force =     0.00000000    0.00000000    0.00000000
     atom   26 type  1   force =     0.00012501    0.00012501    0.00000000
     atom   27 type  1   force =    -0.00028259    0.00000000    0.00008655
     atom   28 type  1   force =     0.00000000   -0.00028259    0.00008655
     atom   29 type  1   force =     0.00000000    0.00000000    0.00000000
     atom   30 type  1   force =    -0.00011461   -0.00011461   -0.00000000
     atom   31 type  1   force =    -0.00028259    0.00000000   -0.00008655
     atom   32 type  1   force =     0.00000000   -0.00028259   -0.00008655

     Total force =     0.001277     Total SCF correction =     0.005196
     SCF correction compared to forces is large: reduce conv_thr to get better values

     Computing stress (Cartesian axis) and pressure

          total   stress  (Ry/bohr**3)                   (kbar)     P=      -20.38
  -0.00011021   0.00000000   0.00000000          -16.21        0.00        0.00
   0.00000000  -0.00011021   0.00000000            0.00      -16.21        0.00
   0.00000000   0.00000000  -0.00019519            0.00        0.00      -28.71

     Writing output data file /scratch/WrwgEibfpoevjNTw.save/

     General routines

     Parallel routines

   This run was terminated on:  21:59:16  23Nov2021

   JOB DONE.