     Program PWSCF v.6.7MaX starts on 23Nov2021 at 21: 2: 2

     R & G space division:  proc/nbgrp/npool/nimage =      72
     Reading input from /rds/homes/b/bxp912/jobs/20211014_ru_eos/wd/ec/ec_3_007.in
Warning: card &CELL ignored
Warning: card CELL_DYNAMICS = 'BFGS', ignored
Warning: card CELL_FACTOR = 2.0, ignored
Warning: card PRESS = 0.0, ignored
Warning: card / ignored

     Current dimensions of program PWSCF are:
     Max number of different atomic species (ntypx) = 10
     Max number of k-points (npk) =  40000
     Max angular momentum in pseudopotentials (lmaxx) =  3
     file Ru.pbe-spn-kjpaw_psl.1.0.0.UPF: wavefunction(s)  4D renormalized

     Subspace diagonalization in iterative solution of the eigenvalue problem:
     one sub-group per band group will be used

     Found symmetry operation: I + (  0.2500  0.2500  0.0000)
     This is a supercell, fractional translations are disabled
     Message from routine setup:
     using ibrav=0 with symmetry is DISCOURAGED, use correct ibrav instead

     bravais-lattice index     =            0
     lattice parameter (alat)  =      14.4007  a.u.
     unit-cell volume          =    2997.6445 (a.u.)^3
     number of atoms/cell      =           32
     number of atomic types    =            1
     number of electrons       =       512.00
     number of Kohn-Sham states=          307
     kinetic-energy cutoff     =      71.0000  Ry
     charge density cutoff     =     430.0000  Ry
     scf convergence threshold =      1.0E-06
     mixing beta               =       0.1000
     number of iterations used =           10  plain     mixing
     Exchange-correlation= SLA  PW   PBX  PBC
                           (   1   4   3   4   0   0   0)

     celldm(1)=  14.400742  celldm(2)=   0.000000  celldm(3)=   0.000000
     celldm(4)=   0.000000  celldm(5)=   0.000000  celldm(6)=   0.000000

     crystal axes: (cart. coord. in units of alat)
               a(1) = (   1.000000   0.000000   0.000000 )
               a(2) = (   0.000000   1.000000   0.000000 )
               a(3) = (   0.000000   0.000000   1.003750 )

     reciprocal axes: (cart. coord. in units 2 pi/alat)
               b(1) = (  1.000000  0.000000  0.000000 )
               b(2) = (  0.000000  1.000000  0.000000 )
               b(3) = (  0.000000  0.000000  0.996264 )

     PseudoPot. # 1 for Ru read from file:
     /rds/homes/b/bxp912/pp/Ru.pbe-spn-kjpaw_psl.1.0.0.UPF
     MD5 check sum: 0ae1f594dea09af7be8575c3a481d1ae
     Pseudo is Projector augmented-wave + core cor, Zval = 16.0
     Generated using "atomic" code by A. Dal Corso  v.5.1
     Shape of augmentation charge: PSQ
     Using radial grid of 1233 points,  6 beta functions with:
                l(1) =   0
                l(2) =   0
                l(3) =   1
                l(4) =   1
                l(5) =   2
                l(6) =   2
     Q(r) pseudized with 0 coefficients

     atomic species   valence    mass     pseudopotential
        Ru            16.00   101.07000     Ru( 1.00)

     16 Sym. Ops., with inversion, found

   Cartesian axes

     site n.     atom                  positions (alat units)
         1           Ru  tau(   1) = (   0.0000000   0.0000000   0.0000000  )
         2           Ru  tau(   2) = (   0.2500000   0.2500000   0.0000000  )
         3           Ru  tau(   3) = (   0.2500000   0.0000000   0.2509370  )
         4           Ru  tau(   4) = (   0.0000000   0.2500000   0.2509370  )
         5           Ru  tau(   5) = (   0.0000000   0.0000000   0.5018750  )
         6           Ru  tau(   6) = (   0.2499990   0.2499990   0.5018750  )
         7           Ru  tau(   7) = (   0.2500000   0.0000000   0.7528120  )
         8           Ru  tau(   8) = (   0.0000000   0.2500000   0.7528120  )
         9           Ru  tau(   9) = (   0.0000000   0.5000002   0.0000000  )
        10           Ru  tau(  10) = (   0.2500000   0.7500004   0.0000000  )
        11           Ru  tau(  11) = (   0.2499990   0.5000002   0.2509359  )
        12           Ru  tau(  12) = (   0.0000000   0.7500004   0.2509370  )
        13           Ru  tau(  13) = (   0.0000000   0.5000002   0.5018750  )
        14           Ru  tau(  14) = (   0.2499990   0.7500015   0.5018750  )
        15           Ru  tau(  15) = (   0.2499990   0.5000002   0.7528130  )
        16           Ru  tau(  16) = (   0.0000000   0.7500004   0.7528120  )
        17           Ru  tau(  17) = (   0.5000002   0.0000000   0.0000000  )
        18           Ru  tau(  18) = (   0.7500004   0.2500000   0.0000000  )
        19           Ru  tau(  19) = (   0.7500004   0.0000000   0.2509370  )
        20           Ru  tau(  20) = (   0.5000002   0.2499990   0.2509359  )
        21           Ru  tau(  21) = (   0.5000002   0.0000000   0.5018750  )
        22           Ru  tau(  22) = (   0.7500015   0.2499990   0.5018750  )
        23           Ru  tau(  23) = (   0.7500004   0.0000000   0.7528120  )
        24           Ru  tau(  24) = (   0.5000002   0.2499990   0.7528130  )
        25           Ru  tau(  25) = (   0.5000002   0.5000002   0.0000000  )
        26           Ru  tau(  26) = (   0.7500004   0.7500004   0.0000000  )
        27           Ru  tau(  27) = (   0.7500015   0.5000002   0.2509359  )
        28           Ru  tau(  28) = (   0.5000002   0.7500015   0.2509359  )
        29           Ru  tau(  29) = (   0.5000002   0.5000002   0.5018750  )
        30           Ru  tau(  30) = (   0.7500015   0.7500015   0.5018750  )
        31           Ru  tau(  31) = (   0.7500015   0.5000002   0.7528130  )
        32           Ru  tau(  32) = (   0.5000002   0.7500015   0.7528130  )

     number of k points=    75  Marzari-Vanderbilt smearing, width (Ry)=  0.0400
                       cart. coord. in units 2pi/alat
        k(    1) = (   0.0555556   0.0555556   0.0553480), wk =   0.0219479
        k(    2) = (   0.0555556   0.0555556   0.1660440), wk =   0.0219479
        k(    3) = (   0.0555556   0.0555556   0.2767400), wk =   0.0219479
        k(    4) = (   0.0555556   0.0555556   0.3874360), wk =   0.0219479
        k(    5) = (   0.0555556   0.0555556  -0.4981320), wk =   0.0109739
        k(    6) = (   0.0555556   0.1666667   0.0553480), wk =   0.0438957
        k(    7) = (   0.0555556   0.1666667   0.1660440), wk =   0.0438957
        k(    8) = (   0.0555556   0.1666667   0.2767400), wk =   0.0438957
        k(    9) = (   0.0555556   0.1666667   0.3874360), wk =   0.0438957
        k(   10) = (   0.0555556   0.1666667  -0.4981320), wk =   0.0219479
        k(   11) = (   0.0555556   0.2777778   0.0553480), wk =   0.0438957
        k(   12) = (   0.0555556   0.2777778   0.1660440), wk =   0.0438957
        k(   13) = (   0.0555556   0.2777778   0.2767400), wk =   0.0438957
        k(   14) = (   0.0555556   0.2777778   0.3874360), wk =   0.0438957
        k(   15) = (   0.0555556   0.2777778  -0.4981320), wk =   0.0219479
        k(   16) = (   0.0555556   0.3888889   0.0553480), wk =   0.0438957
        k(   17) = (   0.0555556   0.3888889   0.1660440), wk =   0.0438957
        k(   18) = (   0.0555556   0.3888889   0.2767400), wk =   0.0438957
        k(   19) = (   0.0555556   0.3888889   0.3874360), wk =   0.0438957
        k(   20) = (   0.0555556   0.3888889  -0.4981320), wk =   0.0219479
        k(   21) = (   0.0555556  -0.5000000   0.0553480), wk =   0.0219479
        k(   22) = (   0.0555556  -0.5000000   0.1660440), wk =   0.0219479
        k(   23) = (   0.0555556  -0.5000000   0.2767400), wk =   0.0219479
        k(   24) = (   0.0555556  -0.5000000   0.3874360), wk =   0.0219479
        k(   25) = (   0.0555556  -0.5000000  -0.4981320), wk =   0.0109739
        k(   26) = (   0.1666667   0.1666667   0.0553480), wk =   0.0219479
        k(   27) = (   0.1666667   0.1666667   0.1660440), wk =   0.0219479
        k(   28) = (   0.1666667   0.1666667   0.2767400), wk =   0.0219479
        k(   29) = (   0.1666667   0.1666667   0.3874360), wk =   0.0219479
        k(   30) = (   0.1666667   0.1666667  -0.4981320), wk =   0.0109739
        k(   31) = (   0.1666667   0.2777778   0.0553480), wk =   0.0438957
        k(   32) = (   0.1666667   0.2777778   0.1660440), wk =   0.0438957
        k(   33) = (   0.1666667   0.2777778   0.2767400), wk =   0.0438957
        k(   34) = (   0.1666667   0.2777778   0.3874360), wk =   0.0438957
        k(   35) = (   0.1666667   0.2777778  -0.4981320), wk =   0.0219479
        k(   36) = (   0.1666667   0.3888889   0.0553480), wk =   0.0438957
        k(   37) = (   0.1666667   0.3888889   0.1660440), wk =   0.0438957
        k(   38) = (   0.1666667   0.3888889   0.2767400), wk =   0.0438957
        k(   39) = (   0.1666667   0.3888889   0.3874360), wk =   0.0438957
        k(   40) = (   0.1666667   0.3888889  -0.4981320), wk =   0.0219479
        k(   41) = (   0.1666667  -0.5000000   0.0553480), wk =   0.0219479
        k(   42) = (   0.1666667  -0.5000000   0.1660440), wk =   0.0219479
        k(   43) = (   0.1666667  -0.5000000   0.2767400), wk =   0.0219479
        k(   44) = (   0.1666667  -0.5000000   0.3874360), wk =   0.0219479
        k(   45) = (   0.1666667  -0.5000000  -0.4981320), wk =   0.0109739
        k(   46) = (   0.2777778   0.2777778   0.0553480), wk =   0.0219479
        k(   47) = (   0.2777778   0.2777778   0.1660440), wk =   0.0219479
        k(   48) = (   0.2777778   0.2777778   0.2767400), wk =   0.0219479
        k(   49) = (   0.2777778   0.2777778   0.3874360), wk =   0.0219479
        k(   50) = (   0.2777778   0.2777778  -0.4981320), wk =   0.0109739
        k(   51) = (   0.2777778   0.3888889   0.0553480), wk =   0.0438957
        k(   52) = (   0.2777778   0.3888889   0.1660440), wk =   0.0438957
        k(   53) = (   0.2777778   0.3888889   0.2767400), wk =   0.0438957
        k(   54) = (   0.2777778   0.3888889   0.3874360), wk =   0.0438957
        k(   55) = (   0.2777778   0.3888889  -0.4981320), wk =   0.0219479
        k(   56) = (   0.2777778  -0.5000000   0.0553480), wk =   0.0219479
        k(   57) = (   0.2777778  -0.5000000   0.1660440), wk =   0.0219479
        k(   58) = (   0.2777778  -0.5000000   0.2767400), wk =   0.0219479
        k(   59) = (   0.2777778  -0.5000000   0.3874360), wk =   0.0219479
        k(   60) = (   0.2777778  -0.5000000  -0.4981320), wk =   0.0109739
        k(   61) = (   0.3888889   0.3888889   0.0553480), wk =   0.0219479
        k(   62) = (   0.3888889   0.3888889   0.1660440), wk =   0.0219479
        k(   63) = (   0.3888889   0.3888889   0.2767400), wk =   0.0219479
        k(   64) = (   0.3888889   0.3888889   0.3874360), wk =   0.0219479
        k(   65) = (   0.3888889   0.3888889  -0.4981320), wk =   0.0109739
        k(   66) = (   0.3888889  -0.5000000   0.0553480), wk =   0.0219479
        k(   67) = (   0.3888889  -0.5000000   0.1660440), wk =   0.0219479
        k(   68) = (   0.3888889  -0.5000000   0.2767400), wk =   0.0219479
        k(   69) = (   0.3888889  -0.5000000   0.3874360), wk =   0.0219479
        k(   70) = (   0.3888889  -0.5000000  -0.4981320), wk =   0.0109739
        k(   71) = (  -0.5000000  -0.5000000   0.0553480), wk =   0.0054870
        k(   72) = (  -0.5000000  -0.5000000   0.1660440), wk =   0.0054870
        k(   73) = (  -0.5000000  -0.5000000   0.2767400), wk =   0.0054870
        k(   74) = (  -0.5000000  -0.5000000   0.3874360), wk =   0.0054870
        k(   75) = (  -0.5000000  -0.5000000  -0.4981320), wk =   0.0027435

     Check: negative core charge=   -0.000002

     Initial potential from superposition of free atoms

     starting charge  511.97959, renormalised to  512.00000
     Starting wfcs are  320 randomized atomic wfcs
     Checking if some PAW data can be deallocated...

     Self-consistent Calculation

     iteration #  1     ecut=    71.00 Ry     beta= 0.10
     Davidson diagonalization with overlap
     ethr =  1.00E-02,  avg # of iterations =  3.4

     Threshold (ethr) on eigenvalues was too large:
     Diagonalizing with lowered threshold

     Davidson diagonalization with overlap
     ethr =  8.32E-05,  avg # of iterations =  5.4

     total energy              =  -13813.41186826 Ry
     estimated scf accuracy    <       0.63693861 Ry

[...]

     total energy              =  -13813.30041705 Ry
     estimated scf accuracy    <       0.00001141 Ry

     iteration # 11     ecut=    71.00 Ry     beta= 0.10
     Davidson diagonalization with overlap
     ethr =  2.23E-09,  avg # of iterations =  4.5

     End of self-consistent calculation

          k = 0.0556 0.0556 0.0553 ( 30350 PWs)   bands (ev):

   -50.0059 -49.9084 -49.9073 -49.9073 -49.8896 -49.8883 -49.8882 -49.8533
   -49.8533 -49.8532 -49.8441 -49.8431 -49.8430 -49.8429 -49.8429 -49.8429
   -49.8428 -49.8424 -49.8424 -49.8423 -49.8342 -49.8342 -49.8341 -49.7911
   -49.7895 -49.7895 -49.7893 -49.7893 -49.7886 -49.7886 -49.7882 -49.7882
   -20.4048 -20.4048 -20.4047 -20.4007 -20.3433 -20.3433 -20.3422 -20.1486
   -20.1431 -20.1431 -20.1375 -20.1375 -20.1320 -20.1320 -20.1317 -20.1316
   -20.1177 -20.1117 -20.1117 -20.0942 -20.0942 -20.0901 -20.0901 -20.0898
   -20.0898 -20.0447 -20.0447 -20.0401 -20.0401 -20.0394 -20.0394 -19.9435
   -19.9435 -19.9426 -19.8714 -19.8714 -19.8700 -19.8635 -19.8635 -19.8626
   -19.8308 -19.8308 -19.8299 -19.8299 -19.8290 -19.8290 -19.7907 -19.7907
   -19.7894 -19.7849 -19.7849 -19.7840 -19.7840 -19.7821 -19.7821 -19.7815
   -19.7815 -19.7736 -19.7733 -19.7733 -19.7690 -19.6155 -19.6155 -19.6116
   -19.6115 -19.6103 -19.6096 -19.5834 -19.5834 -19.5802 -19.5801 -19.5787
   -19.5787 -19.5676 -19.5676 -19.5630 -19.5567 -19.5548 -19.5548 -19.5543
   -19.5542 -19.5542 -19.5542 -19.5509 -19.5501 -19.5501 -19.5500 -19.5500
   -19.5481 -19.5453 -19.5360 -19.5359 -19.5320 -19.4230 -19.4163 -19.4159
    15.2594  16.8269  16.8269  16.8301  17.1026  17.1203  17.1203  17.1203
    17.2934  17.2934  17.2973  17.5005  17.5139  17.5140  17.6741  17.6870
    17.6872  18.2166  18.2167  18.2365  18.2366  18.2373  18.2374  18.5364
    18.5493  18.5494  18.8026  18.8027  18.8034  18.8056  18.8225  18.8225
    18.9100  18.9117  18.9117  18.9127  18.9128  18.9128  18.9128  18.9137
    18.9138  19.3952  19.3952  19.4053  19.4053  19.4137  19.4137  19.5357
    19.5549  19.5550  19.5669  19.5669  19.5866  19.5866  19.5881  19.5881
    19.6327  19.6506  19.6506  19.8961  19.8961  19.9024  19.9025  19.9045
    19.9045  19.9046  19.9046  19.9082  19.9082  19.9100  19.9127  19.9127
    19.9175  19.9176  20.0758  20.0758  20.0795  20.3381  20.3621  20.3621
    20.3737  20.4103  20.4103  20.4197  20.4346  20.4753  20.5204  20.5360
    21.4676  21.5022  21.5022  21.6339  21.6716  21.6716  21.7054  21.7054
    21.7175  21.8048  21.8048  21.8062  21.8062  21.8160  21.8160  21.8197
    21.8198  21.8291  22.1105  22.1105  22.1309  22.2326  22.2327  22.2450
    22.4778  22.4778  22.4968  22.5559  22.5559  22.5645  22.5645  22.5655
    22.5655  22.5744  22.5744  22.5915  22.6155  22.6155  22.6274  22.8032
    22.8032  22.8038  22.8038  22.8190  22.8190  22.8398  22.8933  22.9758
    22.9758  22.9913  23.6293  23.6293  23.6538  23.6837  23.6837  23.6887
    23.7896  23.7896  23.8108  23.8859  24.6101  24.6101  24.6129  24.6417
    24.6649  24.6762  24.6937  24.6937  24.9626  24.9724  24.9724  24.9923
    24.9923  25.0042  25.1444  25.1444  25.1458  25.1458  25.1583  25.1629
    25.1629  25.1755  25.1755  26.5880  26.5880  26.6143  26.7199  26.7912
    26.7912  27.1178  27.1178

[...]

          k = 0.3889-0.5000-0.4981 ( 30284 PWs)   bands (ev):

[...]

          k =-0.5000-0.5000 0.0553 ( 30308 PWs)   bands (ev):

[...]

          k =-0.5000-0.5000-0.4981 ( 30376 PWs)   bands (ev):

   -49.9257 -49.9257 -49.9256 -49.9255 -49.9255 -49.9255 -49.9254 -49.9254
   -49.8170 -49.8170 -49.8169 -49.8169 -49.8169 -49.8168 -49.8167 -49.8167
   -49.8158 -49.8157 -49.8157 -49.8157 -49.8157 -49.8156 -49.8156 -49.8156
   -49.8156 -49.8156 -49.8156 -49.8155 -49.8155 -49.8154 -49.8154 -49.8154
   -20.2392 -20.2392 -20.2392 -20.2392 -20.2392 -20.2392 -20.2392 -20.2392
   -20.2391 -20.2391 -20.2391 -20.2391 -20.2391 -20.2391 -20.2391 -20.2390
   -20.2365 -20.2365 -20.2364 -20.2364 -20.2364 -20.2364 -20.2363 -20.2363
   -19.9221 -19.9221 -19.9221 -19.9220 -19.9220 -19.9220 -19.9220 -19.9220
   -19.8122 -19.8121 -19.8121 -19.8121 -19.8121 -19.8121 -19.8120 -19.8120
   -19.8110 -19.8110 -19.8110 -19.8110 -19.8110 -19.8110 -19.8109 -19.8109
   -19.8109 -19.8109 -19.8109 -19.8109 -19.8109 -19.8109 -19.8109 -19.8109
   -19.6650 -19.6650 -19.6650 -19.6650 -19.6650 -19.6650 -19.6650 -19.6650
   -19.6649 -19.6648 -19.6648 -19.6648 -19.6648 -19.6648 -19.6648 -19.6648
   -19.6596 -19.6596 -19.6596 -19.6596 -19.6596 -19.6596 -19.6596 -19.6595
   -19.4841 -19.4841 -19.4840 -19.4840 -19.4840 -19.4839 -19.4839 -19.4839
   -19.4810 -19.4810 -19.4810 -19.4810 -19.4809 -19.4809 -19.4809 -19.4809
    17.0562  17.0563  17.0564  17.0564  17.0564  17.0565  17.0565  17.0566
    17.9180  17.9180  17.9180  17.9180  17.9181  17.9181  17.9181  17.9181
    17.9182  17.9182  17.9182  17.9182  17.9182  17.9182  17.9182  17.9182
    17.9188  17.9188  17.9188  17.9188  17.9188  17.9188  17.9188  17.9188
    18.9407  18.9407  18.9407  18.9407  18.9407  18.9407  18.9408  18.9408
    18.9408  18.9409  18.9409  18.9409  18.9409  18.9409  18.9409  18.9410
    18.9471  18.9472  18.9472  18.9472  18.9472  18.9472  18.9473  18.9473
    20.2574  20.2574  20.2574  20.2574  20.2574  20.2574  20.2574  20.2574
    20.8754  20.8754  20.8754  20.8754  20.8755  20.8755  20.8755  20.8755
    20.9183  20.9183  20.9184  20.9184  20.9184  20.9184  20.9184  20.9184
    20.9857  20.9857  20.9858  20.9858  20.9858  20.9858  20.9858  20.9858
    21.0118  21.0118  21.0118  21.0118  21.0118  21.0119  21.0119  21.0119
    21.0119  21.0119  21.0119  21.0120  21.0120  21.0120  21.0120  21.0120
    22.2067  22.2067  22.2067  22.2067  22.2068  22.2068  22.2068  22.2068
    22.2068  22.2068  22.2068  22.2068  22.2068  22.2069  22.2069  22.2069
    22.2289  22.2289  22.2289  22.2289  22.2290  22.2290  22.2290  22.2290
    23.0338  23.0338  23.0338  23.0339  23.0339  23.0339  23.0339  23.0340
    23.0483  23.0483  23.0484  23.0484  23.0484  23.0484  23.0485  23.0485
    24.8214  24.8214  24.8215  24.8215  24.8215  24.8215  24.8215  24.8215
    24.8302  24.8302  24.8302  24.8302  24.8302  24.8302  24.8302  24.8302
    24.8302  24.8302  24.8302  24.8302  24.8303  24.8303  24.8303  24.8303
    28.1788  28.1795  28.1801  28.1805  28.1817  28.1843  28.1867  28.1953
    28.2048  28.2048  28.2048

     the Fermi energy is    23.0087 ev

!    total energy              =  -13813.30042094 Ry

     total all-electron energy =   -289989.690760 Ry
     estimated scf accuracy    <       0.00000094 Ry
     smearing contrib. (-TS)   =       0.02016815 Ry
     internal energy E=F+TS    =  -13813.32058909 Ry

     The total energy is F=E-TS. E is the sum of the following terms:
     one-electron contribution =   -1005.01983124 Ry
     hartree contribution      =     918.83032436 Ry
     xc contribution           =    -927.91520024 Ry
     ewald contribution        =   -5209.78029126 Ry
     one-center paw contrib.   =   -7589.43559070 Ry

     convergence has been achieved in  11 iterations

     Forces acting on atoms (cartesian axes, Ry/au):

     atom    1 type  1   force =     0.00000000    0.00000000    0.00000000
     atom    2 type  1   force =    -0.00012353   -0.00012353    0.00000000
     atom    3 type  1   force =    -0.00025899    0.00000000   -0.00013009
     atom    4 type  1   force =     0.00000000   -0.00025899   -0.00013009
     atom    5 type  1   force =     0.00000000    0.00000000    0.00000000
     atom    6 type  1   force =     0.00011558    0.00011558    0.00000000
     atom    7 type  1   force =    -0.00025899    0.00000000    0.00013009
     atom    8 type  1   force =     0.00000000   -0.00025899    0.00013009
     atom    9 type  1   force =     0.00000000    0.00000000    0.00000000
     atom   10 type  1   force =    -0.00012353    0.00012353    0.00000000
     atom   11 type  1   force =     0.00027755    0.00000000    0.00008577
     atom   12 type  1   force =     0.00000000    0.00025899   -0.00013009
     atom   13 type  1   force =     0.00000000    0.00000000    0.00000000
     atom   14 type  1   force =     0.00011558   -0.00011558    0.00000000
     atom   15 type  1   force =     0.00027755    0.00000000   -0.00008577
     atom   16 type  1   force =     0.00000000    0.00025899    0.00013009
     atom   17 type  1   force =     0.00000000    0.00000000    0.00000000
     atom   18 type  1   force =     0.00012353   -0.00012353    0.00000000
     atom   19 type  1   force =     0.00025899    0.00000000   -0.00013009
     atom   20 type  1   force =     0.00000000    0.00027755    0.00008577
     atom   21 type  1   force =     0.00000000    0.00000000    0.00000000
     atom   22 type  1   force =    -0.00011558    0.00011558    0.00000000
     atom   23 type  1   force =     0.00025899    0.00000000    0.00013009
     atom   24 type  1   force =     0.00000000    0.00027755   -0.00008577
     atom   25 type  1   force =     0.00000000    0.00000000    0.00000000
     atom   26 type  1   force =     0.00012353    0.00012353    0.00000000
     atom   27 type  1   force =    -0.00027755    0.00000000    0.00008577
     atom   28 type  1   force =     0.00000000   -0.00027755    0.00008577
     atom   29 type  1   force =     0.00000000    0.00000000    0.00000000
     atom   30 type  1   force =    -0.00011558   -0.00011558    0.00000000
     atom   31 type  1   force =    -0.00027755    0.00000000   -0.00008577
     atom   32 type  1   force =     0.00000000   -0.00027755   -0.00008577

     Total force =     0.001255     Total SCF correction =     0.005123
     SCF correction compared to forces is large: reduce conv_thr to get better values

     Computing stress (Cartesian axis) and pressure

          total   stress  (Ry/bohr**3)                   (kbar)     P=      -16.97
  -0.00009403   0.00000000   0.00000000          -13.83        0.00        0.00
   0.00000000  -0.00009403   0.00000000            0.00      -13.83        0.00
   0.00000000   0.00000000  -0.00015792            0.00        0.00      -23.23

     Writing output data file /scratch/YRylprKrHaeNnkGN.save/

     General routines

     Parallel routines

   This run was terminated on:  21:20:58  23Nov2021

   JOB DONE.