     Program PWSCF v.6.7MaX starts on 23Nov2021 at 19:12:45

     R & G space division:  proc/nbgrp/npool/nimage =      72
     Reading input from /rds/homes/b/bxp912/jobs/20211014_ru_eos/wd/ec/ec_3_002.in
Warning: card &CELL ignored
Warning: card CELL_DYNAMICS = 'BFGS', ignored
Warning: card CELL_FACTOR = 2.0, ignored
Warning: card PRESS = 0.0, ignored
Warning: card / ignored

     Current dimensions of program PWSCF are:
     Max number of different atomic species (ntypx) = 10
     Max number of k-points (npk) =  40000
     Max angular momentum in pseudopotentials (lmaxx) =  3
     file Ru.pbe-spn-kjpaw_psl.1.0.0.UPF: wavefunction(s)  4D renormalized

     Subspace diagonalization in iterative solution of the eigenvalue problem:
     one sub-group per band group will be used

     Found symmetry operation: I + (  0.2500  0.2500  0.0000)
     This is a supercell, fractional translations are disabled
     Message from routine setup:
     using ibrav=0 with symmetry is DISCOURAGED, use correct ibrav instead

     bravais-lattice index     =            0
     lattice parameter (alat)  =      14.4007  a.u.
     unit-cell volume          =    2988.3119 (a.u.)^3
     number of atoms/cell      =           32
     number of atomic types    =            1
     number of electrons       =       512.00
     number of Kohn-Sham states=          307
     kinetic-energy cutoff     =      71.0000  Ry
     charge density cutoff     =     430.0000  Ry
     scf convergence threshold =      1.0E-06
     mixing beta               =       0.1000
     number of iterations used =           10  plain     mixing
     Exchange-correlation= SLA  PW   PBX  PBC
                           (   1   4   3   4   0   0   0)

     celldm(1)=  14.400742  celldm(2)=   0.000000  celldm(3)=   0.000000
     celldm(4)=   0.000000  celldm(5)=   0.000000  celldm(6)=   0.000000

     crystal axes: (cart. coord. in units of alat)
               a(1) = (   1.000000   0.000000   0.000000 )
               a(2) = (   0.000000   1.000000   0.000000 )
               a(3) = (   0.000000   0.000000   1.000625 )

     reciprocal axes: (cart. coord. in units 2 pi/alat)
               b(1) = (  1.000000  0.000000  0.000000 )
               b(2) = (  0.000000  1.000000  0.000000 )
               b(3) = (  0.000000  0.000000  0.999375 )

     PseudoPot. # 1 for Ru read from file:
     /rds/homes/b/bxp912/pp/Ru.pbe-spn-kjpaw_psl.1.0.0.UPF
     MD5 check sum: 0ae1f594dea09af7be8575c3a481d1ae
     Pseudo is Projector augmented-wave + core cor, Zval = 16.0
     Generated using "atomic" code by A. Dal Corso  v.5.1
     Shape of augmentation charge: PSQ
     Using radial grid of 1233 points,  6 beta functions with:
                l(1) =   0
                l(2) =   0
                l(3) =   1
                l(4) =   1
                l(5) =   2
                l(6) =   2
     Q(r) pseudized with 0 coefficients

     atomic species   valence    mass     pseudopotential
        Ru            16.00   101.07000     Ru( 1.00)

     16 Sym. Ops., with inversion, found

   Cartesian axes

     site n.     atom                  positions (alat units)
         1           Ru  tau(   1) = (   0.0000000   0.0000000   0.0000000  )
         2           Ru  tau(   2) = (   0.2500000   0.2500000   0.0000000  )
         3           Ru  tau(   3) = (   0.2500000   0.0000000   0.2501557  )
         4           Ru  tau(   4) = (   0.0000000   0.2500000   0.2501557  )
         5           Ru  tau(   5) = (   0.0000000   0.0000000   0.5003125  )
         6           Ru  tau(   6) = (   0.2499990   0.2499990   0.5003125  )
         7           Ru  tau(   7) = (   0.2500000   0.0000000   0.7504682  )
         8           Ru  tau(   8) = (   0.0000000   0.2500000   0.7504682  )
         9           Ru  tau(   9) = (   0.0000000   0.5000002   0.0000000  )
        10           Ru  tau(  10) = (   0.2500000   0.7500004   0.0000000  )
        11           Ru  tau(  11) = (   0.2499990   0.5000002   0.2501547  )
        12           Ru  tau(  12) = (   0.0000000   0.7500004   0.2501557  )
        13           Ru  tau(  13) = (   0.0000000   0.5000002   0.5003125  )
        14           Ru  tau(  14) = (   0.2499990   0.7500015   0.5003125  )
        15           Ru  tau(  15) = (   0.2499990   0.5000002   0.7504693  )
        16           Ru  tau(  16) = (   0.0000000   0.7500004   0.7504682  )
        17           Ru  tau(  17) = (   0.5000002   0.0000000   0.0000000  )
        18           Ru  tau(  18) = (   0.7500004   0.2500000   0.0000000  )
        19           Ru  tau(  19) = (   0.7500004   0.0000000   0.2501557  )
        20           Ru  tau(  20) = (   0.5000002   0.2499990   0.2501547  )
        21           Ru  tau(  21) = (   0.5000002   0.0000000   0.5003125  )
        22           Ru  tau(  22) = (   0.7500015   0.2499990   0.5003125  )
        23           Ru  tau(  23) = (   0.7500004   0.0000000   0.7504682  )
        24           Ru  tau(  24) = (   0.5000002   0.2499990   0.7504693  )
        25           Ru  tau(  25) = (   0.5000002   0.5000002   0.0000000  )
        26           Ru  tau(  26) = (   0.7500004   0.7500004   0.0000000  )
        27           Ru  tau(  27) = (   0.7500015   0.5000002   0.2501547  )
        28           Ru  tau(  28) = (   0.5000002   0.7500015   0.2501547  )
        29           Ru  tau(  29) = (   0.5000002   0.5000002   0.5003125  )
        30           Ru  tau(  30) = (   0.7500015   0.7500015   0.5003125  )
        31           Ru  tau(  31) = (   0.7500015   0.5000002   0.7504693  )
        32           Ru  tau(  32) = (   0.5000002   0.7500015   0.7504693  )

     number of k points=    75  Marzari-Vanderbilt smearing, width (Ry)=  0.0400
                       cart. coord. in units 2pi/alat
        k(    1) = (   0.0555556   0.0555556   0.0555209), wk =   0.0219479
        k(    2) = (   0.0555556   0.0555556   0.1665626), wk =   0.0219479
        k(    3) = (   0.0555556   0.0555556   0.2776043), wk =   0.0219479
        k(    4) = (   0.0555556   0.0555556   0.3886460), wk =   0.0219479
        k(    5) = (   0.0555556   0.0555556  -0.4996877), wk =   0.0109739
        k(    6) = (   0.0555556   0.1666667   0.0555209), wk =   0.0438957
        k(    7) = (   0.0555556   0.1666667   0.1665626), wk =   0.0438957
        k(    8) = (   0.0555556   0.1666667   0.2776043), wk =   0.0438957
        k(    9) = (   0.0555556   0.1666667   0.3886460), wk =   0.0438957
        k(   10) = (   0.0555556   0.1666667  -0.4996877), wk =   0.0219479
        k(   11) = (   0.0555556   0.2777778   0.0555209), wk =   0.0438957
        k(   12) = (   0.0555556   0.2777778   0.1665626), wk =   0.0438957
        k(   13) = (   0.0555556   0.2777778   0.2776043), wk =   0.0438957
        k(   14) = (   0.0555556   0.2777778   0.3886460), wk =   0.0438957
        k(   15) = (   0.0555556   0.2777778  -0.4996877), wk =   0.0219479
        k(   16) = (   0.0555556   0.3888889   0.0555209), wk =   0.0438957
        k(   17) = (   0.0555556   0.3888889   0.1665626), wk =   0.0438957
        k(   18) = (   0.0555556   0.3888889   0.2776043), wk =   0.0438957
        k(   19) = (   0.0555556   0.3888889   0.3886460), wk =   0.0438957
        k(   20) = (   0.0555556   0.3888889  -0.4996877), wk =   0.0219479
        k(   21) = (   0.0555556  -0.5000000   0.0555209), wk =   0.0219479
        k(   22) = (   0.0555556  -0.5000000   0.1665626), wk =   0.0219479
        k(   23) = (   0.0555556  -0.5000000   0.2776043), wk =   0.0219479
        k(   24) = (   0.0555556  -0.5000000   0.3886460), wk =   0.0219479
        k(   25) = (   0.0555556  -0.5000000  -0.4996877), wk =   0.0109739
        k(   26) = (   0.1666667   0.1666667   0.0555209), wk =   0.0219479
        k(   27) = (   0.1666667   0.1666667   0.1665626), wk =   0.0219479
        k(   28) = (   0.1666667   0.1666667   0.2776043), wk =   0.0219479
        k(   29) = (   0.1666667   0.1666667   0.3886460), wk =   0.0219479
        k(   30) = (   0.1666667   0.1666667  -0.4996877), wk =   0.0109739
        k(   31) = (   0.1666667   0.2777778   0.0555209), wk =   0.0438957
        k(   32) = (   0.1666667   0.2777778   0.1665626), wk =   0.0438957
        k(   33) = (   0.1666667   0.2777778   0.2776043), wk =   0.0438957
        k(   34) = (   0.1666667   0.2777778   0.3886460), wk =   0.0438957
        k(   35) = (   0.1666667   0.2777778  -0.4996877), wk =   0.0219479
        k(   36) = (   0.1666667   0.3888889   0.0555209), wk =   0.0438957
        k(   37) = (   0.1666667   0.3888889   0.1665626), wk =   0.0438957
        k(   38) = (   0.1666667   0.3888889   0.2776043), wk =   0.0438957
        k(   39) = (   0.1666667   0.3888889   0.3886460), wk =   0.0438957
        k(   40) = (   0.1666667   0.3888889  -0.4996877), wk =   0.0219479
        k(   41) = (   0.1666667  -0.5000000   0.0555209), wk =   0.0219479
        k(   42) = (   0.1666667  -0.5000000   0.1665626), wk =   0.0219479
        k(   43) = (   0.1666667  -0.5000000   0.2776043), wk =   0.0219479
        k(   44) = (   0.1666667  -0.5000000   0.3886460), wk =   0.0219479
        k(   45) = (   0.1666667  -0.5000000  -0.4996877), wk =   0.0109739
        k(   46) = (   0.2777778   0.2777778   0.0555209), wk =   0.0219479
        k(   47) = (   0.2777778   0.2777778   0.1665626), wk =   0.0219479
        k(   48) = (   0.2777778   0.2777778   0.2776043), wk =   0.0219479
        k(   49) = (   0.2777778   0.2777778   0.3886460), wk =   0.0219479
        k(   50) = (   0.2777778   0.2777778  -0.4996877), wk =   0.0109739
        k(   51) = (   0.2777778   0.3888889   0.0555209), wk =   0.0438957
        k(   52) = (   0.2777778   0.3888889   0.1665626), wk =   0.0438957
        k(   53) = (   0.2777778   0.3888889   0.2776043), wk =   0.0438957
        k(   54) = (   0.2777778   0.3888889   0.3886460), wk =   0.0438957
        k(   55) = (   0.2777778   0.3888889  -0.4996877), wk =   0.0219479
        k(   56) = (   0.2777778  -0.5000000   0.0555209), wk =   0.0219479
        k(   57) = (   0.2777778  -0.5000000   0.1665626), wk =   0.0219479
        k(   58) = (   0.2777778  -0.5000000   0.2776043), wk =   0.0219479
        k(   59) = (   0.2777778  -0.5000000   0.3886460), wk =   0.0219479
        k(   60) = (   0.2777778  -0.5000000  -0.4996877), wk =   0.0109739
        k(   61) = (   0.3888889   0.3888889   0.0555209), wk =   0.0219479
        k(   62) = (   0.3888889   0.3888889   0.1665626), wk =   0.0219479
        k(   63) = (   0.3888889   0.3888889   0.2776043), wk =   0.0219479
        k(   64) = (   0.3888889   0.3888889   0.3886460), wk =   0.0219479
        k(   65) = (   0.3888889   0.3888889  -0.4996877), wk =   0.0109739
        k(   66) = (   0.3888889  -0.5000000   0.0555209), wk =   0.0219479
        k(   67) = (   0.3888889  -0.5000000   0.1665626), wk =   0.0219479
        k(   68) = (   0.3888889  -0.5000000   0.2776043), wk =   0.0219479
        k(   69) = (   0.3888889  -0.5000000   0.3886460), wk =   0.0219479
        k(   70) = (   0.3888889  -0.5000000  -0.4996877), wk =   0.0109739
        k(   71) = (  -0.5000000  -0.5000000   0.0555209), wk =   0.0054870
        k(   72) = (  -0.5000000  -0.5000000   0.1665626), wk =   0.0054870
        k(   73) = (  -0.5000000  -0.5000000   0.2776043), wk =   0.0054870
        k(   74) = (  -0.5000000  -0.5000000   0.3886460), wk =   0.0054870
        k(   75) = (  -0.5000000  -0.5000000  -0.4996877), wk =   0.0027435

     Check: negative core charge=   -0.000002

     Initial potential from superposition of free atoms

     starting charge  511.97959, renormalised to  512.00000
     Starting wfcs are  320 randomized atomic wfcs
     Checking if some PAW data can be deallocated...

     Self-consistent Calculation

     iteration #  1     ecut=    71.00 Ry     beta= 0.10
     Davidson diagonalization with overlap
     ethr =  1.00E-02,  avg # of iterations =  3.3

     Threshold (ethr) on eigenvalues was too large:
     Diagonalizing with lowered threshold

     Davidson diagonalization with overlap
     ethr =  8.30E-05,  avg # of iterations =  5.3

     total energy              =  -13813.41289316 Ry
     estimated scf accuracy    <       0.63830219 Ry

[...]

     total energy              =  -13813.30090308 Ry
     estimated scf accuracy    <       0.00000288 Ry

     iteration # 13     ecut=    71.00 Ry     beta= 0.10
     Davidson diagonalization with overlap
     ethr =  5.62E-10,  avg # of iterations =  2.0

     End of self-consistent calculation

          k = 0.0556 0.0556 0.0555 ( 30239 PWs)   bands (ev):

   -49.9243 -49.8248 -49.8246 -49.8246 -49.8056 -49.8054 -49.8054 -49.7696
   -49.7696 -49.7696 -49.7602 -49.7591 -49.7591 -49.7591 -49.7591 -49.7591
   -49.7590 -49.7586 -49.7585 -49.7585 -49.7503 -49.7502 -49.7502 -49.7052
   -49.7048 -49.7048 -49.7046 -49.7045 -49.7045 -49.7045 -49.7043 -49.7043
   -20.3280 -20.3280 -20.3280 -20.3239 -20.2655 -20.2655 -20.2653 -20.0661
   -20.0652 -20.0652 -20.0548 -20.0548 -20.0538 -20.0538 -20.0538 -20.0538
   -20.0346 -20.0336 -20.0336 -20.0118 -20.0118 -20.0111 -20.0111 -20.0110
   -20.0110 -19.9613 -19.9613 -19.9606 -19.9606 -19.9604 -19.9604 -19.8617
   -19.8617 -19.8615 -19.7887 -19.7887 -19.7885 -19.7809 -19.7809 -19.7807
   -19.7473 -19.7473 -19.7471 -19.7471 -19.7470 -19.7470 -19.7071 -19.7071
   -19.7069 -19.7004 -19.7004 -19.7003 -19.7003 -19.6998 -19.6998 -19.6948
   -19.6948 -19.6937 -19.6901 -19.6901 -19.6891 -19.5279 -19.5279 -19.5272
   -19.5270 -19.5270 -19.5266 -19.4958 -19.4958 -19.4952 -19.4952 -19.4951
   -19.4949 -19.4807 -19.4807 -19.4800 -19.4687 -19.4680 -19.4680 -19.4674
   -19.4674 -19.4673 -19.4673 -19.4667 -19.4667 -19.4654 -19.4654 -19.4647
   -19.4628 -19.4618 -19.4489 -19.4489 -19.4482 -19.3360 -19.3291 -19.3290
    15.3298  16.8886  16.8886  16.8891  17.1679  17.1856  17.1856  17.1856
    17.3566  17.3566  17.3573  17.5817  17.5839  17.5839  17.7532  17.7554
    17.7554  18.2945  18.2945  18.2978  18.2978  18.2979  18.2979  18.6107
    18.6128  18.6129  18.8776  18.8776  18.8777  18.8832  18.8860  18.8860
    18.9834  18.9837  18.9837  18.9870  18.9870  18.9870  18.9870  18.9871
    18.9871  19.4760  19.4760  19.4777  19.4777  19.4791  19.4791  19.6197
    19.6229  19.6229  19.6514  19.6514  19.6547  19.6547  19.6549  19.6550
    19.7161  19.7190  19.7190  19.9804  19.9804  19.9806  19.9806  19.9816
    19.9816  19.9817  19.9817  19.9817  19.9826  19.9826  19.9830  19.9830
    19.9842  19.9842  20.1517  20.1518  20.1524  20.4323  20.4378  20.4378
    20.4683  20.4761  20.4856  20.4856  20.4911  20.5655  20.5952  20.5998
    21.5686  21.5744  21.5744  21.7384  21.7447  21.7447  21.7899  21.7899
    21.7920  21.8900  21.8900  21.8903  21.8903  21.8919  21.8919  21.9041
    21.9041  21.9057  22.2001  22.2001  22.2035  22.3203  22.3203  22.3224
    22.5686  22.5686  22.5718  22.6461  22.6461  22.6476  22.6476  22.6478
    22.6478  22.6647  22.6647  22.6676  22.7050  22.7050  22.7070  22.8944
    22.8944  22.8945  22.8946  22.8971  22.8971  22.9500  22.9589  23.0676
    23.0676  23.0702  23.7276  23.7277  23.7317  23.7756  23.7756  23.7764
    23.8878  23.8878  23.8914  23.9764  24.7075  24.7075  24.7079  24.7479
    24.7518  24.7828  24.7858  24.7858  25.0670  25.0689  25.0689  25.0923
    25.0923  25.0943  25.2526  25.2526  25.2529  25.2529  25.2578  25.2578
    25.2591  25.2596  25.2596  26.7002  26.7002  26.7046  26.8592  26.8711
    26.8711  27.2333  27.2333

[...]

          k = 0.3889-0.5000-0.4997 ( 30196 PWs)   bands (ev):

[...]

          k =-0.5000-0.5000 0.0555 ( 30200 PWs)   bands (ev):

[...]

          k =-0.5000-0.5000-0.4997 ( 30280 PWs)   bands (ev):

   -49.8430 -49.8429 -49.8428 -49.8428 -49.8428 -49.8428 -49.8427 -49.8427
   -49.7322 -49.7321 -49.7320 -49.7320 -49.7320 -49.7320 -49.7319 -49.7319
   -49.7319 -49.7319 -49.7319 -49.7318 -49.7318 -49.7318 -49.7318 -49.7317
   -49.7317 -49.7317 -49.7317 -49.7317 -49.7316 -49.7316 -49.7316 -49.7316
   -20.1599 -20.1599 -20.1599 -20.1599 -20.1599 -20.1599 -20.1599 -20.1599
   -20.1598 -20.1598 -20.1598 -20.1598 -20.1598 -20.1598 -20.1598 -20.1598
   -20.1595 -20.1595 -20.1594 -20.1594 -20.1594 -20.1594 -20.1593 -20.1593
   -19.8404 -19.8404 -19.8403 -19.8403 -19.8403 -19.8403 -19.8403 -19.8403
   -19.7285 -19.7285 -19.7285 -19.7285 -19.7285 -19.7285 -19.7284 -19.7284
   -19.7283 -19.7283 -19.7283 -19.7283 -19.7283 -19.7283 -19.7283 -19.7283
   -19.7283 -19.7283 -19.7283 -19.7283 -19.7282 -19.7282 -19.7282 -19.7282
   -19.5789 -19.5789 -19.5789 -19.5789 -19.5789 -19.5789 -19.5789 -19.5789
   -19.5788 -19.5788 -19.5788 -19.5788 -19.5788 -19.5788 -19.5788 -19.5788
   -19.5780 -19.5780 -19.5780 -19.5780 -19.5780 -19.5780 -19.5780 -19.5780
   -19.3964 -19.3964 -19.3963 -19.3963 -19.3963 -19.3963 -19.3962 -19.3962
   -19.3958 -19.3958 -19.3958 -19.3958 -19.3958 -19.3958 -19.3958 -19.3958
    17.1285  17.1285  17.1286  17.1287  17.1287  17.1287  17.1288  17.1288
    17.9844  17.9844  17.9844  17.9844  17.9844  17.9844  17.9844  17.9844
    17.9845  17.9845  17.9845  17.9845  17.9845  17.9846  17.9846  17.9846
    17.9846  17.9846  17.9846  17.9846  17.9846  17.9846  17.9846  17.9846
    19.0127  19.0127  19.0127  19.0127  19.0128  19.0128  19.0128  19.0128
    19.0129  19.0129  19.0129  19.0129  19.0129  19.0129  19.0129  19.0129
    19.0139  19.0139  19.0139  19.0139  19.0139  19.0139  19.0140  19.0140
    20.3349  20.3349  20.3349  20.3349  20.3349  20.3349  20.3349  20.3350
    20.9712  20.9712  20.9712  20.9712  20.9713  20.9713  20.9713  20.9713
    20.9784  20.9784  20.9784  20.9784  20.9785  20.9785  20.9785  20.9785
    21.0809  21.0809  21.0810  21.0810  21.0810  21.0810  21.0810  21.0810
    21.0853  21.0853  21.0853  21.0853  21.0853  21.0853  21.0853  21.0853
    21.0854  21.0854  21.0854  21.0854  21.0854  21.0854  21.0854  21.0854
    22.2968  22.2968  22.2968  22.2968  22.2968  22.2968  22.2968  22.2968
    22.2968  22.2969  22.2969  22.2969  22.2969  22.2969  22.2969  22.2969
    22.3005  22.3005  22.3006  22.3006  22.3006  22.3006  22.3006  22.3006
    23.1279  23.1279  23.1280  23.1280  23.1280  23.1280  23.1280  23.1281
    23.1303  23.1303  23.1304  23.1304  23.1304  23.1304  23.1305  23.1305
    24.9238  24.9238  24.9239  24.9239  24.9239  24.9239  24.9239  24.9239
    24.9253  24.9253  24.9253  24.9253  24.9253  24.9253  24.9253  24.9253
    24.9254  24.9254  24.9254  24.9254  24.9254  24.9254  24.9254  24.9254
    28.3007  28.3011  28.3012  28.3018  28.3028  28.3032  28.3036  28.3043
    28.3048  28.3049  28.3049

     the Fermi energy is    23.0965 ev

!    total energy              =  -13813.30090499 Ry

     total all-electron energy =   -289989.691244 Ry
     estimated scf accuracy    <       0.00000012 Ry
     smearing contrib. (-TS)   =       0.02038320 Ry
     internal energy E=F+TS    =  -13813.32128819 Ry

     The total energy is F=E-TS. E is the sum of the following terms:
     one-electron contribution =    -997.13658771 Ry
     hartree contribution      =     916.49986473 Ry
     xc contribution           =    -928.04336306 Ry
     ewald contribution        =   -5215.19923817 Ry
     one-center paw contrib.   =   -7589.44196398 Ry

     convergence has been achieved in  13 iterations

     Forces acting on atoms (cartesian axes, Ry/au):

     atom    1 type  1   force =     0.00000000    0.00000000    0.00000000
     atom    2 type  1   force =    -0.00002763   -0.00002763    0.00000000
     atom    3 type  1   force =    -0.00006079    0.00000000   -0.00001149
     atom    4 type  1   force =     0.00000000   -0.00006079   -0.00001149
     atom    5 type  1   force =     0.00000000    0.00000000    0.00000000
     atom    6 type  1   force =     0.00001534    0.00001534    0.00000000
     atom    7 type  1   force =    -0.00006079    0.00000000    0.00001149
     atom    8 type  1   force =     0.00000000   -0.00006079    0.00001149
     atom    9 type  1   force =     0.00000000    0.00000000    0.00000000
     atom   10 type  1   force =    -0.00002763    0.00002763    0.00000000
     atom   11 type  1   force =     0.00006639    0.00000000    0.00001917
     atom   12 type  1   force =     0.00000000    0.00006079   -0.00001149
     atom   13 type  1   force =     0.00000000    0.00000000    0.00000000
     atom   14 type  1   force =     0.00001534   -0.00001534    0.00000000
     atom   15 type  1   force =     0.00006639    0.00000000   -0.00001917
     atom   16 type  1   force =     0.00000000    0.00006079    0.00001149
     atom   17 type  1   force =     0.00000000    0.00000000    0.00000000
     atom   18 type  1   force =     0.00002763   -0.00002763    0.00000000
     atom   19 type  1   force =     0.00006079    0.00000000   -0.00001149
     atom   20 type  1   force =     0.00000000    0.00006639    0.00001917
     atom   21 type  1   force =     0.00000000    0.00000000    0.00000000
     atom   22 type  1   force =    -0.00001534    0.00001534    0.00000000
     atom   23 type  1   force =     0.00006079    0.00000000    0.00001149
     atom   24 type  1   force =     0.00000000    0.00006639   -0.00001917
     atom   25 type  1   force =     0.00000000    0.00000000    0.00000000
     atom   26 type  1   force =     0.00002763    0.00002763    0.00000000
     atom   27 type  1   force =    -0.00006639    0.00000000    0.00001917
     atom   28 type  1   force =     0.00000000   -0.00006639    0.00001917
     atom   29 type  1   force =     0.00000000    0.00000000    0.00000000
     atom   30 type  1   force =    -0.00001534   -0.00001534    0.00000000
     atom   31 type  1   force =    -0.00006639    0.00000000   -0.00001917
     atom   32 type  1   force =     0.00000000   -0.00006639   -0.00001917

     Total force =     0.000277     Total SCF correction =     0.000738
     SCF correction compared to forces is large: reduce conv_thr to get better values

     Computing stress (Cartesian axis) and pressure

          total   stress  (Ry/bohr**3)                   (kbar)     P=       -5.74
  -0.00003548   0.00000000   0.00000000           -5.22        0.00        0.00
   0.00000000  -0.00003548   0.00000000            0.00       -5.22        0.00
   0.00000000   0.00000000  -0.00004610            0.00        0.00       -6.78

     Writing output data file /scratch/gAxbEeQIqFNQKiVQ.save/

     General routines

     Parallel routines

   This run was terminated on:  19:33:25  23Nov2021

   JOB DONE.