     Program PWSCF v.6.7MaX starts on 23Nov2021 at 19:33:51

     R & G space division:  proc/nbgrp/npool/nimage =      72
     Reading input from /rds/homes/b/bxp912/jobs/20211014_ru_eos/wd/ec/ec_3_003.in
Warning: card &CELL ignored
Warning: card CELL_DYNAMICS = 'BFGS', ignored
Warning: card CELL_FACTOR = 2.0, ignored
Warning: card PRESS = 0.0, ignored
Warning: card / ignored

     Current dimensions of program PWSCF are:
     Max number of different atomic species (ntypx) = 10
     Max number of k-points (npk) =  40000
     Max angular momentum in pseudopotentials (lmaxx) =  3
     file Ru.pbe-spn-kjpaw_psl.1.0.0.UPF: wavefunction(s)  4D renormalized

     Subspace diagonalization in iterative solution of the eigenvalue problem:
     one sub-group per band group will be used

     Found symmetry operation: I + (  0.2500  0.2500  0.0000)
     This is a supercell, fractional translations are disabled
     Message from routine setup:
     using ibrav=0 with symmetry is DISCOURAGED, use correct ibrav instead

     bravais-lattice index     =            0
     lattice parameter (alat)  =      14.4007  a.u.
     unit-cell volume          =    2990.1784 (a.u.)^3
     number of atoms/cell      =           32
     number of atomic types    =            1
     number of electrons       =       512.00
     number of Kohn-Sham states=          307
     kinetic-energy cutoff     =      71.0000  Ry
     charge density cutoff     =     430.0000  Ry
     scf convergence threshold =      1.0E-06
     mixing beta               =       0.1000
     number of iterations used =           10  plain     mixing
     Exchange-correlation= SLA  PW   PBX  PBC
                           (   1   4   3   4   0   0   0)

     celldm(1)=  14.400742  celldm(2)=   0.000000  celldm(3)=   0.000000
     celldm(4)=   0.000000  celldm(5)=   0.000000  celldm(6)=   0.000000

     crystal axes: (cart. coord. in units of alat)
               a(1) = (   1.000000   0.000000   0.000000 )
               a(2) = (   0.000000   1.000000   0.000000 )
               a(3) = (   0.000000   0.000000   1.001250 )

     reciprocal axes: (cart. coord. in units 2 pi/alat)
               b(1) = (  1.000000  0.000000  0.000000 )
               b(2) = (  0.000000  1.000000  0.000000 )
               b(3) = (  0.000000  0.000000  0.998752 )

     PseudoPot. # 1 for Ru read from file:
     /rds/homes/b/bxp912/pp/Ru.pbe-spn-kjpaw_psl.1.0.0.UPF
     MD5 check sum: 0ae1f594dea09af7be8575c3a481d1ae
     Pseudo is Projector augmented-wave + core cor, Zval = 16.0
     Generated using "atomic" code by A. Dal Corso  v.5.1
     Shape of augmentation charge: PSQ
     Using radial grid of 1233 points,  6 beta functions with:
                l(1) =   0
                l(2) =   0
                l(3) =   1
                l(4) =   1
                l(5) =   2
                l(6) =   2
     Q(r) pseudized with 0 coefficients

     atomic species   valence    mass     pseudopotential
        Ru            16.00   101.07000     Ru( 1.00)

     16 Sym. Ops., with inversion, found

   Cartesian axes

     site n.     atom                  positions (alat units)
         1           Ru  tau(   1) = (   0.0000000   0.0000000   0.0000000  )
         2           Ru  tau(   2) = (   0.2500000   0.2500000   0.0000000  )
         3           Ru  tau(   3) = (   0.2500000   0.0000000   0.2503120  )
         4           Ru  tau(   4) = (   0.0000000   0.2500000   0.2503120  )
         5           Ru  tau(   5) = (   0.0000000   0.0000000   0.5006250  )
         6           Ru  tau(   6) = (   0.2499990   0.2499990   0.5006250  )
         7           Ru  tau(   7) = (   0.2500000   0.0000000   0.7509370  )
         8           Ru  tau(   8) = (   0.0000000   0.2500000   0.7509370  )
         9           Ru  tau(   9) = (   0.0000000   0.5000002   0.0000000  )
        10           Ru  tau(  10) = (   0.2500000   0.7500004   0.0000000  )
        11           Ru  tau(  11) = (   0.2499990   0.5000002   0.2503109  )
        12           Ru  tau(  12) = (   0.0000000   0.7500004   0.2503120  )
        13           Ru  tau(  13) = (   0.0000000   0.5000002   0.5006250  )
        14           Ru  tau(  14) = (   0.2499990   0.7500015   0.5006250  )
        15           Ru  tau(  15) = (   0.2499990   0.5000002   0.7509380  )
        16           Ru  tau(  16) = (   0.0000000   0.7500004   0.7509370  )
        17           Ru  tau(  17) = (   0.5000002   0.0000000   0.0000000  )
        18           Ru  tau(  18) = (   0.7500004   0.2500000   0.0000000  )
        19           Ru  tau(  19) = (   0.7500004   0.0000000   0.2503120  )
        20           Ru  tau(  20) = (   0.5000002   0.2499990   0.2503109  )
        21           Ru  tau(  21) = (   0.5000002   0.0000000   0.5006250  )
        22           Ru  tau(  22) = (   0.7500015   0.2499990   0.5006250  )
        23           Ru  tau(  23) = (   0.7500004   0.0000000   0.7509370  )
        24           Ru  tau(  24) = (   0.5000002   0.2499990   0.7509380  )
        25           Ru  tau(  25) = (   0.5000002   0.5000002   0.0000000  )
        26           Ru  tau(  26) = (   0.7500004   0.7500004   0.0000000  )
        27           Ru  tau(  27) = (   0.7500015   0.5000002   0.2503109  )
        28           Ru  tau(  28) = (   0.5000002   0.7500015   0.2503109  )
        29           Ru  tau(  29) = (   0.5000002   0.5000002   0.5006250  )
        30           Ru  tau(  30) = (   0.7500015   0.7500015   0.5006250  )
        31           Ru  tau(  31) = (   0.7500015   0.5000002   0.7509380  )
        32           Ru  tau(  32) = (   0.5000002   0.7500015   0.7509380  )

     number of k points=    75  Marzari-Vanderbilt smearing, width (Ry)=  0.0400
                       cart. coord. in units 2pi/alat
        k(    1) = (   0.0555556   0.0555556   0.0554862), wk =   0.0219479
        k(    2) = (   0.0555556   0.0555556   0.1664586), wk =   0.0219479
        k(    3) = (   0.0555556   0.0555556   0.2774310), wk =   0.0219479
        k(    4) = (   0.0555556   0.0555556   0.3884034), wk =   0.0219479
        k(    5) = (   0.0555556   0.0555556  -0.4993758), wk =   0.0109739
        k(    6) = (   0.0555556   0.1666667   0.0554862), wk =   0.0438957
        k(    7) = (   0.0555556   0.1666667   0.1664586), wk =   0.0438957
        k(    8) = (   0.0555556   0.1666667   0.2774310), wk =   0.0438957
        k(    9) = (   0.0555556   0.1666667   0.3884034), wk =   0.0438957
        k(   10) = (   0.0555556   0.1666667  -0.4993758), wk =   0.0219479
        k(   11) = (   0.0555556   0.2777778   0.0554862), wk =   0.0438957
        k(   12) = (   0.0555556   0.2777778   0.1664586), wk =   0.0438957
        k(   13) = (   0.0555556   0.2777778   0.2774310), wk =   0.0438957
        k(   14) = (   0.0555556   0.2777778   0.3884034), wk =   0.0438957
        k(   15) = (   0.0555556   0.2777778  -0.4993758), wk =   0.0219479
        k(   16) = (   0.0555556   0.3888889   0.0554862), wk =   0.0438957
        k(   17) = (   0.0555556   0.3888889   0.1664586), wk =   0.0438957
        k(   18) = (   0.0555556   0.3888889   0.2774310), wk =   0.0438957
        k(   19) = (   0.0555556   0.3888889   0.3884034), wk =   0.0438957
        k(   20) = (   0.0555556   0.3888889  -0.4993758), wk =   0.0219479
        k(   21) = (   0.0555556  -0.5000000   0.0554862), wk =   0.0219479
        k(   22) = (   0.0555556  -0.5000000   0.1664586), wk =   0.0219479
        k(   23) = (   0.0555556  -0.5000000   0.2774310), wk =   0.0219479
        k(   24) = (   0.0555556  -0.5000000   0.3884034), wk =   0.0219479
        k(   25) = (   0.0555556  -0.5000000  -0.4993758), wk =   0.0109739
        k(   26) = (   0.1666667   0.1666667   0.0554862), wk =   0.0219479
        k(   27) = (   0.1666667   0.1666667   0.1664586), wk =   0.0219479
        k(   28) = (   0.1666667   0.1666667   0.2774310), wk =   0.0219479
        k(   29) = (   0.1666667   0.1666667   0.3884034), wk =   0.0219479
        k(   30) = (   0.1666667   0.1666667  -0.4993758), wk =   0.0109739
        k(   31) = (   0.1666667   0.2777778   0.0554862), wk =   0.0438957
        k(   32) = (   0.1666667   0.2777778   0.1664586), wk =   0.0438957
        k(   33) = (   0.1666667   0.2777778   0.2774310), wk =   0.0438957
        k(   34) = (   0.1666667   0.2777778   0.3884034), wk =   0.0438957
        k(   35) = (   0.1666667   0.2777778  -0.4993758), wk =   0.0219479
        k(   36) = (   0.1666667   0.3888889   0.0554862), wk =   0.0438957
        k(   37) = (   0.1666667   0.3888889   0.1664586), wk =   0.0438957
        k(   38) = (   0.1666667   0.3888889   0.2774310), wk =   0.0438957
        k(   39) = (   0.1666667   0.3888889   0.3884034), wk =   0.0438957
        k(   40) = (   0.1666667   0.3888889  -0.4993758), wk =   0.0219479
        k(   41) = (   0.1666667  -0.5000000   0.0554862), wk =   0.0219479
        k(   42) = (   0.1666667  -0.5000000   0.1664586), wk =   0.0219479
        k(   43) = (   0.1666667  -0.5000000   0.2774310), wk =   0.0219479
        k(   44) = (   0.1666667  -0.5000000   0.3884034), wk =   0.0219479
        k(   45) = (   0.1666667  -0.5000000  -0.4993758), wk =   0.0109739
        k(   46) = (   0.2777778   0.2777778   0.0554862), wk =   0.0219479
        k(   47) = (   0.2777778   0.2777778   0.1664586), wk =   0.0219479
        k(   48) = (   0.2777778   0.2777778   0.2774310), wk =   0.0219479
        k(   49) = (   0.2777778   0.2777778   0.3884034), wk =   0.0219479
        k(   50) = (   0.2777778   0.2777778  -0.4993758), wk =   0.0109739
        k(   51) = (   0.2777778   0.3888889   0.0554862), wk =   0.0438957
        k(   52) = (   0.2777778   0.3888889   0.1664586), wk =   0.0438957
        k(   53) = (   0.2777778   0.3888889   0.2774310), wk =   0.0438957
        k(   54) = (   0.2777778   0.3888889   0.3884034), wk =   0.0438957
        k(   55) = (   0.2777778   0.3888889  -0.4993758), wk =   0.0219479
        k(   56) = (   0.2777778  -0.5000000   0.0554862), wk =   0.0219479
        k(   57) = (   0.2777778  -0.5000000   0.1664586), wk =   0.0219479
        k(   58) = (   0.2777778  -0.5000000   0.2774310), wk =   0.0219479
        k(   59) = (   0.2777778  -0.5000000   0.3884034), wk =   0.0219479
        k(   60) = (   0.2777778  -0.5000000  -0.4993758), wk =   0.0109739
        k(   61) = (   0.3888889   0.3888889   0.0554862), wk =   0.0219479
        k(   62) = (   0.3888889   0.3888889   0.1664586), wk =   0.0219479
        k(   63) = (   0.3888889   0.3888889   0.2774310), wk =   0.0219479
        k(   64) = (   0.3888889   0.3888889   0.3884034), wk =   0.0219479
        k(   65) = (   0.3888889   0.3888889  -0.4993758), wk =   0.0109739
        k(   66) = (   0.3888889  -0.5000000   0.0554862), wk =   0.0219479
        k(   67) = (   0.3888889  -0.5000000   0.1664586), wk =   0.0219479
        k(   68) = (   0.3888889  -0.5000000   0.2774310), wk =   0.0219479
        k(   69) = (   0.3888889  -0.5000000   0.3884034), wk =   0.0219479
        k(   70) = (   0.3888889  -0.5000000  -0.4993758), wk =   0.0109739
        k(   71) = (  -0.5000000  -0.5000000   0.0554862), wk =   0.0054870
        k(   72) = (  -0.5000000  -0.5000000   0.1664586), wk =   0.0054870
        k(   73) = (  -0.5000000  -0.5000000   0.2774310), wk =   0.0054870
        k(   74) = (  -0.5000000  -0.5000000   0.3884034), wk =   0.0054870
        k(   75) = (  -0.5000000  -0.5000000  -0.4993758), wk =   0.0027435

     Check: negative core charge=   -0.000002

     Initial potential from superposition of free atoms

     starting charge  511.97959, renormalised to  512.00000
     Starting wfcs are  320 randomized atomic wfcs
     Checking if some PAW data can be deallocated...

     Self-consistent Calculation

     iteration #  1     ecut=    71.00 Ry     beta= 0.10
     Davidson diagonalization with overlap
     ethr =  1.00E-02,  avg # of iterations =  3.3

     Threshold (ethr) on eigenvalues was too large:
     Diagonalizing with lowered threshold

     Davidson diagonalization with overlap
     ethr =  8.32E-05,  avg # of iterations =  5.3

     total energy              =  -13813.41276771 Ry
     estimated scf accuracy    <       0.63799041 Ry

[...]

     total energy              =  -13813.30087889 Ry
     estimated scf accuracy    <       0.00000192 Ry

     iteration # 13     ecut=    71.00 Ry     beta= 0.10
     Davidson diagonalization with overlap
     ethr =  3.75E-10,  avg # of iterations =  2.0

     End of self-consistent calculation

          k = 0.0556 0.0556 0.0555 ( 30259 PWs)   bands (ev):

   -49.9407 -49.8416 -49.8413 -49.8412 -49.8225 -49.8221 -49.8221 -49.7865
   -49.7864 -49.7864 -49.7771 -49.7760 -49.7760 -49.7760 -49.7759 -49.7759
   -49.7759 -49.7754 -49.7754 -49.7754 -49.7672 -49.7671 -49.7671 -49.7225
   -49.7217 -49.7217 -49.7216 -49.7216 -49.7215 -49.7215 -49.7212 -49.7212
   -20.3435 -20.3435 -20.3435 -20.3393 -20.2812 -20.2812 -20.2808 -20.0827
   -20.0809 -20.0809 -20.0714 -20.0714 -20.0696 -20.0695 -20.0695 -20.0695
   -20.0513 -20.0493 -20.0493 -20.0283 -20.0283 -20.0270 -20.0270 -20.0269
   -20.0269 -19.9781 -19.9781 -19.9766 -19.9766 -19.9763 -19.9763 -19.8782
   -19.8782 -19.8778 -19.8054 -19.8054 -19.8049 -19.7975 -19.7975 -19.7972
   -19.7641 -19.7641 -19.7638 -19.7638 -19.7635 -19.7635 -19.7239 -19.7239
   -19.7235 -19.7174 -19.7174 -19.7171 -19.7171 -19.7163 -19.7163 -19.7122
   -19.7122 -19.7098 -19.7070 -19.7070 -19.7052 -19.5455 -19.5455 -19.5441
   -19.5441 -19.5439 -19.5433 -19.5134 -19.5134 -19.5123 -19.5123 -19.5119
   -19.5118 -19.4982 -19.4982 -19.4967 -19.4864 -19.4853 -19.4853 -19.4848
   -19.4848 -19.4848 -19.4848 -19.4835 -19.4835 -19.4826 -19.4826 -19.4815
   -19.4805 -19.4786 -19.4664 -19.4664 -19.4651 -19.3535 -19.3466 -19.3465
    15.3157  16.8762  16.8762  16.8773  17.1548  17.1725  17.1725  17.1725
    17.3439  17.3439  17.3453  17.5654  17.5699  17.5699  17.7374  17.7417
    17.7417  18.2788  18.2788  18.2855  18.2855  18.2858  18.2858  18.5958
    18.6001  18.6001  18.8626  18.8626  18.8628  18.8676  18.8732  18.8732
    18.9686  18.9692  18.9692  18.9721  18.9721  18.9721  18.9721  18.9724
    18.9724  19.4597  19.4598  19.4631  19.4631  19.4659  19.4659  19.6028
    19.6092  19.6092  19.6344  19.6344  19.6410  19.6410  19.6415  19.6415
    19.6993  19.7053  19.7053  19.9636  19.9636  19.9647  19.9647  19.9662
    19.9662  19.9662  19.9662  19.9672  19.9677  19.9677  19.9689  19.9689
    19.9708  19.9708  20.1365  20.1365  20.1378  20.4133  20.4238  20.4238
    20.4493  20.4647  20.4692  20.4692  20.4798  20.5489  20.5787  20.5870
    21.5483  21.5599  21.5599  21.7174  21.7301  21.7301  21.7729  21.7729
    21.7770  21.8729  21.8729  21.8733  21.8733  21.8767  21.8767  21.8871
    21.8871  21.8903  22.1821  22.1821  22.1889  22.3027  22.3027  22.3068
    22.5504  22.5504  22.5567  22.6280  22.6280  22.6309  22.6309  22.6312
    22.6312  22.6466  22.6466  22.6523  22.6870  22.6870  22.6910  22.8761
    22.8761  22.8763  22.8763  22.8814  22.8814  22.9279  22.9457  23.0491
    23.0491  23.0543  23.7079  23.7079  23.7161  23.7571  23.7571  23.7588
    23.8681  23.8681  23.8752  23.9582  24.6879  24.6879  24.6888  24.7265
    24.7343  24.7614  24.7673  24.7673  25.0460  25.0497  25.0497  25.0721
    25.0721  25.0762  25.2309  25.2309  25.2314  25.2314  25.2389  25.2400
    25.2400  25.2413  25.2413  26.6776  26.6776  26.6864  26.8312  26.8551
    26.8551  27.2101  27.2101

[...]

          k = 0.3889-0.5000-0.4994 ( 30220 PWs)   bands (ev):

[...]

          k =-0.5000-0.5000 0.0555 ( 30216 PWs)   bands (ev):

[...]

          k =-0.5000-0.5000-0.4994 ( 30280 PWs)   bands (ev):

   -49.8596 -49.8596 -49.8595 -49.8595 -49.8594 -49.8594 -49.8593 -49.8593
   -49.7492 -49.7492 -49.7491 -49.7491 -49.7491 -49.7491 -49.7489 -49.7489
   -49.7488 -49.7488 -49.7488 -49.7488 -49.7487 -49.7487 -49.7486 -49.7486
   -49.7486 -49.7486 -49.7486 -49.7486 -49.7485 -49.7485 -49.7485 -49.7485
   -20.1759 -20.1759 -20.1759 -20.1759 -20.1758 -20.1758 -20.1758 -20.1758
   -20.1758 -20.1758 -20.1758 -20.1758 -20.1757 -20.1757 -20.1757 -20.1757
   -20.1750 -20.1750 -20.1749 -20.1749 -20.1749 -20.1749 -20.1748 -20.1748
   -19.8568 -19.8568 -19.8568 -19.8568 -19.8568 -19.8568 -19.8567 -19.8567
   -19.7453 -19.7453 -19.7453 -19.7453 -19.7453 -19.7453 -19.7452 -19.7452
   -19.7450 -19.7449 -19.7449 -19.7449 -19.7449 -19.7449 -19.7449 -19.7449
   -19.7449 -19.7449 -19.7449 -19.7449 -19.7448 -19.7448 -19.7448 -19.7448
   -19.5963 -19.5963 -19.5963 -19.5963 -19.5963 -19.5962 -19.5962 -19.5962
   -19.5961 -19.5961 -19.5961 -19.5961 -19.5961 -19.5961 -19.5961 -19.5961
   -19.5944 -19.5944 -19.5944 -19.5944 -19.5944 -19.5944 -19.5944 -19.5944
   -19.4140 -19.4140 -19.4139 -19.4139 -19.4139 -19.4139 -19.4138 -19.4138
   -19.4129 -19.4129 -19.4129 -19.4129 -19.4129 -19.4129 -19.4129 -19.4129
    17.1140  17.1140  17.1141  17.1142  17.1142  17.1142  17.1143  17.1143
    17.9711  17.9711  17.9711  17.9711  17.9711  17.9711  17.9711  17.9711
    17.9712  17.9712  17.9712  17.9712  17.9712  17.9712  17.9712  17.9712
    17.9714  17.9714  17.9714  17.9714  17.9714  17.9714  17.9714  17.9714
    18.9983  18.9983  18.9983  18.9983  18.9983  18.9983  18.9983  18.9983
    18.9984  18.9984  18.9984  18.9984  18.9985  18.9985  18.9985  18.9985
    19.0005  19.0005  19.0005  19.0005  19.0005  19.0005  19.0006  19.0006
    20.3193  20.3193  20.3193  20.3194  20.3194  20.3194  20.3194  20.3194
    20.9520  20.9520  20.9520  20.9520  20.9520  20.9520  20.9520  20.9520
    20.9663  20.9663  20.9664  20.9664  20.9664  20.9664  20.9664  20.9664
    21.0618  21.0618  21.0619  21.0619  21.0619  21.0619  21.0619  21.0619
    21.0705  21.0705  21.0705  21.0705  21.0706  21.0706  21.0706  21.0706
    21.0706  21.0706  21.0706  21.0706  21.0707  21.0707  21.0707  21.0707
    22.2787  22.2787  22.2787  22.2787  22.2787  22.2787  22.2787  22.2787
    22.2787  22.2788  22.2788  22.2788  22.2788  22.2788  22.2788  22.2788
    22.2861  22.2861  22.2862  22.2862  22.2862  22.2862  22.2863  22.2863
    23.1090  23.1090  23.1091  23.1091  23.1091  23.1091  23.1091  23.1092
    23.1138  23.1138  23.1139  23.1139  23.1139  23.1139  23.1140  23.1140
    24.9032  24.9032  24.9033  24.9033  24.9033  24.9033  24.9033  24.9033
    24.9062  24.9062  24.9062  24.9062  24.9062  24.9062  24.9062  24.9062
    24.9063  24.9063  24.9063  24.9063  24.9063  24.9063  24.9063  24.9063
    28.2761  28.2765  28.2771  28.2784  28.2797  28.2805  28.2826  28.2831
    28.2847  28.2848  28.2848

     the Fermi energy is    23.0789 ev

!    total energy              =  -13813.30088072 Ry

     total all-electron energy =   -289989.691220 Ry
     estimated scf accuracy    <       0.00000007 Ry
     smearing contrib. (-TS)   =       0.02033581 Ry
     internal energy E=F+TS    =  -13813.32121653 Ry

     The total energy is F=E-TS. E is the sum of the following terms:
     one-electron contribution =    -998.71790513 Ry
     hartree contribution      =     916.96957611 Ry
     xc contribution           =    -928.01827880 Ry
     ewald contribution        =   -5214.11377420 Ry
     one-center paw contrib.   =   -7589.44083450 Ry

     convergence has been achieved in  13 iterations

     Forces acting on atoms (cartesian axes, Ry/au):

     atom    1 type  1   force =     0.00000000    0.00000000    0.00000000
     atom    2 type  1   force =    -0.00002698   -0.00002698   -0.00000000
     atom    3 type  1   force =    -0.00005840    0.00000000   -0.00001100
     atom    4 type  1   force =     0.00000000   -0.00005840   -0.00001100
     atom    5 type  1   force =     0.00000000    0.00000000    0.00000000
     atom    6 type  1   force =     0.00001192    0.00001192    0.00000000
     atom    7 type  1   force =    -0.00005840    0.00000000    0.00001100
     atom    8 type  1   force =     0.00000000   -0.00005840    0.00001100
     atom    9 type  1   force =     0.00000000    0.00000000    0.00000000
     atom   10 type  1   force =    -0.00002698    0.00002698   -0.00000000
     atom   11 type  1   force =     0.00006104    0.00000000    0.00001532
     atom   12 type  1   force =     0.00000000    0.00005840   -0.00001100
     atom   13 type  1   force =     0.00000000    0.00000000    0.00000000
     atom   14 type  1   force =     0.00001192   -0.00001192   -0.00000000
     atom   15 type  1   force =     0.00006104    0.00000000   -0.00001532
     atom   16 type  1   force =     0.00000000    0.00005840    0.00001100
     atom   17 type  1   force =     0.00000000    0.00000000    0.00000000
     atom   18 type  1   force =     0.00002698   -0.00002698   -0.00000000
     atom   19 type  1   force =     0.00005840    0.00000000   -0.00001100
     atom   20 type  1   force =     0.00000000    0.00006104    0.00001532
     atom   21 type  1   force =     0.00000000    0.00000000    0.00000000
     atom   22 type  1   force =    -0.00001192    0.00001192   -0.00000000
     atom   23 type  1   force =     0.00005840    0.00000000    0.00001100
     atom   24 type  1   force =     0.00000000    0.00006104   -0.00001532
     atom   25 type  1   force =     0.00000000    0.00000000    0.00000000
     atom   26 type  1   force =     0.00002698    0.00002698   -0.00000000
     atom   27 type  1   force =    -0.00006104    0.00000000    0.00001532
     atom   28 type  1   force =     0.00000000   -0.00006104    0.00001532
     atom   29 type  1   force =     0.00000000    0.00000000    0.00000000
     atom   30 type  1   force =    -0.00001192   -0.00001192    0.00000000
     atom   31 type  1   force =    -0.00006104    0.00000000   -0.00001532
     atom   32 type  1   force =     0.00000000   -0.00006104   -0.00001532

     Total force =     0.000259     Total SCF correction =     0.000682
     SCF correction compared to forces is large: reduce conv_thr to get better values

     Computing stress (Cartesian axis) and pressure

          total   stress  (Ry/bohr**3)                   (kbar)     P=       -7.86
  -0.00004634   0.00000000   0.00000000           -6.82        0.00        0.00
   0.00000000  -0.00004634   0.00000000            0.00       -6.82        0.00
   0.00000000   0.00000000  -0.00006763            0.00        0.00       -9.95

     Writing output data file /scratch/GTrqzHburNzvdFVd.save/

     General routines

     Parallel routines

   This run was terminated on:  19:55: 7  23Nov2021

   JOB DONE.