     Program PWSCF v.6.7MaX starts on 23Nov2021 at 20:39:47

     R & G space division:  proc/nbgrp/npool/nimage =      72
     Reading input from /rds/homes/b/bxp912/jobs/20211014_ru_eos/wd/ec/ec_3_006.in
Warning: card &CELL ignored
Warning: card CELL_DYNAMICS = 'BFGS', ignored
Warning: card CELL_FACTOR = 2.0, ignored
Warning: card PRESS = 0.0, ignored
Warning: card / ignored

     Current dimensions of program PWSCF are:
     Max number of different atomic species (ntypx) = 10
     Max number of k-points (npk) =  40000
     Max angular momentum in pseudopotentials (lmaxx) =  3
     file Ru.pbe-spn-kjpaw_psl.1.0.0.UPF: wavefunction(s)  4D renormalized

     Subspace diagonalization in iterative solution of the eigenvalue problem:
     one sub-group per band group will be used

     Found symmetry operation: I + (  0.2500  0.2500  0.0000)
     This is a supercell, fractional translations are disabled
     Message from routine setup:
     using ibrav=0 with symmetry is DISCOURAGED, use correct ibrav instead

     bravais-lattice index     =            0
     lattice parameter (alat)  =      14.4007  a.u.
     unit-cell volume          =    2995.7780 (a.u.)^3
     number of atoms/cell      =           32
     number of atomic types    =            1
     number of electrons       =       512.00
     number of Kohn-Sham states=          307
     kinetic-energy cutoff     =      71.0000  Ry
     charge density cutoff     =     430.0000  Ry
     scf convergence threshold =      1.0E-06
     mixing beta               =       0.1000
     number of iterations used =           10  plain     mixing
     Exchange-correlation= SLA  PW   PBX  PBC
                           (   1   4   3   4   0   0   0)

     celldm(1)=  14.400742  celldm(2)=   0.000000  celldm(3)=   0.000000
     celldm(4)=   0.000000  celldm(5)=   0.000000  celldm(6)=   0.000000

     crystal axes: (cart. coord. in units of alat)
               a(1) = (   1.000000   0.000000   0.000000 )
               a(2) = (   0.000000   1.000000   0.000000 )
               a(3) = (   0.000000   0.000000   1.003125 )

     reciprocal axes: (cart. coord. in units 2 pi/alat)
               b(1) = (  1.000000  0.000000  0.000000 )
               b(2) = (  0.000000  1.000000  0.000000 )
               b(3) = (  0.000000  0.000000  0.996885 )

     PseudoPot. # 1 for Ru read from file:
     /rds/homes/b/bxp912/pp/Ru.pbe-spn-kjpaw_psl.1.0.0.UPF
     MD5 check sum: 0ae1f594dea09af7be8575c3a481d1ae
     Pseudo is Projector augmented-wave + core cor, Zval = 16.0
     Generated using "atomic" code by A. Dal Corso  v.5.1
     Shape of augmentation charge: PSQ
     Using radial grid of 1233 points,  6 beta functions with:
                l(1) =   0
                l(2) =   0
                l(3) =   1
                l(4) =   1
                l(5) =   2
                l(6) =   2
     Q(r) pseudized with 0 coefficients

     atomic species   valence    mass     pseudopotential
        Ru            16.00   101.07000     Ru( 1.00)

     16 Sym. Ops., with inversion, found

   Cartesian axes

     site n.     atom                  positions (alat units)
         1           Ru  tau(   1) = (   0.0000000   0.0000000   0.0000000  )
         2           Ru  tau(   2) = (   0.2500000   0.2500000   0.0000000  )
         3           Ru  tau(   3) = (   0.2500000   0.0000000   0.2507807  )
         4           Ru  tau(   4) = (   0.0000000   0.2500000   0.2507807  )
         5           Ru  tau(   5) = (   0.0000000   0.0000000   0.5015625  )
         6           Ru  tau(   6) = (   0.2499990   0.2499990   0.5015625  )
         7           Ru  tau(   7) = (   0.2500000   0.0000000   0.7523432  )
         8           Ru  tau(   8) = (   0.0000000   0.2500000   0.7523432  )
         9           Ru  tau(   9) = (   0.0000000   0.5000002   0.0000000  )
        10           Ru  tau(  10) = (   0.2500000   0.7500004   0.0000000  )
        11           Ru  tau(  11) = (   0.2499990   0.5000002   0.2507797  )
        12           Ru  tau(  12) = (   0.0000000   0.7500004   0.2507807  )
        13           Ru  tau(  13) = (   0.0000000   0.5000002   0.5015625  )
        14           Ru  tau(  14) = (   0.2499990   0.7500015   0.5015625  )
        15           Ru  tau(  15) = (   0.2499990   0.5000002   0.7523443  )
        16           Ru  tau(  16) = (   0.0000000   0.7500004   0.7523432  )
        17           Ru  tau(  17) = (   0.5000002   0.0000000   0.0000000  )
        18           Ru  tau(  18) = (   0.7500004   0.2500000   0.0000000  )
        19           Ru  tau(  19) = (   0.7500004   0.0000000   0.2507807  )
        20           Ru  tau(  20) = (   0.5000002   0.2499990   0.2507797  )
        21           Ru  tau(  21) = (   0.5000002   0.0000000   0.5015625  )
        22           Ru  tau(  22) = (   0.7500015   0.2499990   0.5015625  )
        23           Ru  tau(  23) = (   0.7500004   0.0000000   0.7523432  )
        24           Ru  tau(  24) = (   0.5000002   0.2499990   0.7523443  )
        25           Ru  tau(  25) = (   0.5000002   0.5000002   0.0000000  )
        26           Ru  tau(  26) = (   0.7500004   0.7500004   0.0000000  )
        27           Ru  tau(  27) = (   0.7500015   0.5000002   0.2507797  )
        28           Ru  tau(  28) = (   0.5000002   0.7500015   0.2507797  )
        29           Ru  tau(  29) = (   0.5000002   0.5000002   0.5015625  )
        30           Ru  tau(  30) = (   0.7500015   0.7500015   0.5015625  )
        31           Ru  tau(  31) = (   0.7500015   0.5000002   0.7523443  )
        32           Ru  tau(  32) = (   0.5000002   0.7500015   0.7523443  )

     number of k points=    75  Marzari-Vanderbilt smearing, width (Ry)=  0.0400
                       cart. coord. in units 2pi/alat
        k(    1) = (   0.0555556   0.0555556   0.0553825), wk =   0.0219479
        k(    2) = (   0.0555556   0.0555556   0.1661475), wk =   0.0219479
        k(    3) = (   0.0555556   0.0555556   0.2769124), wk =   0.0219479
        k(    4) = (   0.0555556   0.0555556   0.3876774), wk =   0.0219479
        k(    5) = (   0.0555556   0.0555556  -0.4984424), wk =   0.0109739
        k(    6) = (   0.0555556   0.1666667   0.0553825), wk =   0.0438957
        k(    7) = (   0.0555556   0.1666667   0.1661475), wk =   0.0438957
        k(    8) = (   0.0555556   0.1666667   0.2769124), wk =   0.0438957
        k(    9) = (   0.0555556   0.1666667   0.3876774), wk =   0.0438957
        k(   10) = (   0.0555556   0.1666667  -0.4984424), wk =   0.0219479
        k(   11) = (   0.0555556   0.2777778   0.0553825), wk =   0.0438957
        k(   12) = (   0.0555556   0.2777778   0.1661475), wk =   0.0438957
        k(   13) = (   0.0555556   0.2777778   0.2769124), wk =   0.0438957
        k(   14) = (   0.0555556   0.2777778   0.3876774), wk =   0.0438957
        k(   15) = (   0.0555556   0.2777778  -0.4984424), wk =   0.0219479
        k(   16) = (   0.0555556   0.3888889   0.0553825), wk =   0.0438957
        k(   17) = (   0.0555556   0.3888889   0.1661475), wk =   0.0438957
        k(   18) = (   0.0555556   0.3888889   0.2769124), wk =   0.0438957
        k(   19) = (   0.0555556   0.3888889   0.3876774), wk =   0.0438957
        k(   20) = (   0.0555556   0.3888889  -0.4984424), wk =   0.0219479
        k(   21) = (   0.0555556  -0.5000000   0.0553825), wk =   0.0219479
        k(   22) = (   0.0555556  -0.5000000   0.1661475), wk =   0.0219479
        k(   23) = (   0.0555556  -0.5000000   0.2769124), wk =   0.0219479
        k(   24) = (   0.0555556  -0.5000000   0.3876774), wk =   0.0219479
        k(   25) = (   0.0555556  -0.5000000  -0.4984424), wk =   0.0109739
        k(   26) = (   0.1666667   0.1666667   0.0553825), wk =   0.0219479
        k(   27) = (   0.1666667   0.1666667   0.1661475), wk =   0.0219479
        k(   28) = (   0.1666667   0.1666667   0.2769124), wk =   0.0219479
        k(   29) = (   0.1666667   0.1666667   0.3876774), wk =   0.0219479
        k(   30) = (   0.1666667   0.1666667  -0.4984424), wk =   0.0109739
        k(   31) = (   0.1666667   0.2777778   0.0553825), wk =   0.0438957
        k(   32) = (   0.1666667   0.2777778   0.1661475), wk =   0.0438957
        k(   33) = (   0.1666667   0.2777778   0.2769124), wk =   0.0438957
        k(   34) = (   0.1666667   0.2777778   0.3876774), wk =   0.0438957
        k(   35) = (   0.1666667   0.2777778  -0.4984424), wk =   0.0219479
        k(   36) = (   0.1666667   0.3888889   0.0553825), wk =   0.0438957
        k(   37) = (   0.1666667   0.3888889   0.1661475), wk =   0.0438957
        k(   38) = (   0.1666667   0.3888889   0.2769124), wk =   0.0438957
        k(   39) = (   0.1666667   0.3888889   0.3876774), wk =   0.0438957
        k(   40) = (   0.1666667   0.3888889  -0.4984424), wk =   0.0219479
        k(   41) = (   0.1666667  -0.5000000   0.0553825), wk =   0.0219479
        k(   42) = (   0.1666667  -0.5000000   0.1661475), wk =   0.0219479
        k(   43) = (   0.1666667  -0.5000000   0.2769124), wk =   0.0219479
        k(   44) = (   0.1666667  -0.5000000   0.3876774), wk =   0.0219479
        k(   45) = (   0.1666667  -0.5000000  -0.4984424), wk =   0.0109739
        k(   46) = (   0.2777778   0.2777778   0.0553825), wk =   0.0219479
        k(   47) = (   0.2777778   0.2777778   0.1661475), wk =   0.0219479
        k(   48) = (   0.2777778   0.2777778   0.2769124), wk =   0.0219479
        k(   49) = (   0.2777778   0.2777778   0.3876774), wk =   0.0219479
        k(   50) = (   0.2777778   0.2777778  -0.4984424), wk =   0.0109739
        k(   51) = (   0.2777778   0.3888889   0.0553825), wk =   0.0438957
        k(   52) = (   0.2777778   0.3888889   0.1661475), wk =   0.0438957
        k(   53) = (   0.2777778   0.3888889   0.2769124), wk =   0.0438957
        k(   54) = (   0.2777778   0.3888889   0.3876774), wk =   0.0438957
        k(   55) = (   0.2777778   0.3888889  -0.4984424), wk =   0.0219479
        k(   56) = (   0.2777778  -0.5000000   0.0553825), wk =   0.0219479
        k(   57) = (   0.2777778  -0.5000000   0.1661475), wk =   0.0219479
        k(   58) = (   0.2777778  -0.5000000   0.2769124), wk =   0.0219479
        k(   59) = (   0.2777778  -0.5000000   0.3876774), wk =   0.0219479
        k(   60) = (   0.2777778  -0.5000000  -0.4984424), wk =   0.0109739
        k(   61) = (   0.3888889   0.3888889   0.0553825), wk =   0.0219479
        k(   62) = (   0.3888889   0.3888889   0.1661475), wk =   0.0219479
        k(   63) = (   0.3888889   0.3888889   0.2769124), wk =   0.0219479
        k(   64) = (   0.3888889   0.3888889   0.3876774), wk =   0.0219479
        k(   65) = (   0.3888889   0.3888889  -0.4984424), wk =   0.0109739
        k(   66) = (   0.3888889  -0.5000000   0.0553825), wk =   0.0219479
        k(   67) = (   0.3888889  -0.5000000   0.1661475), wk =   0.0219479
        k(   68) = (   0.3888889  -0.5000000   0.2769124), wk =   0.0219479
        k(   69) = (   0.3888889  -0.5000000   0.3876774), wk =   0.0219479
        k(   70) = (   0.3888889  -0.5000000  -0.4984424), wk =   0.0109739
        k(   71) = (  -0.5000000  -0.5000000   0.0553825), wk =   0.0054870
        k(   72) = (  -0.5000000  -0.5000000   0.1661475), wk =   0.0054870
        k(   73) = (  -0.5000000  -0.5000000   0.2769124), wk =   0.0054870
        k(   74) = (  -0.5000000  -0.5000000   0.3876774), wk =   0.0054870
        k(   75) = (  -0.5000000  -0.5000000  -0.4984424), wk =   0.0027435

     Check: negative core charge=   -0.000002

     Initial potential from superposition of free atoms

     starting charge  511.97959, renormalised to  512.00000
     Starting wfcs are  320 randomized atomic wfcs
     Checking if some PAW data can be deallocated...

     Self-consistent Calculation

     iteration #  1     ecut=    71.00 Ry     beta= 0.10
     Davidson diagonalization with overlap
     ethr =  1.00E-02,  avg # of iterations =  3.4

     Threshold (ethr) on eigenvalues was too large:
     Diagonalizing with lowered threshold

     Davidson diagonalization with overlap
     ethr =  8.27E-05,  avg # of iterations =  5.4

     total energy              =  -13813.41216686 Ry
     estimated scf accuracy    <       0.63710879 Ry

[...]

     total energy              =  -13813.30059151 Ry
     estimated scf accuracy    <       0.00000140 Ry

     iteration # 13     ecut=    71.00 Ry     beta= 0.10
     Davidson diagonalization with overlap
     ethr =  2.55E-10,  avg # of iterations =  2.1

     End of self-consistent calculation

          k = 0.0556 0.0556 0.0554 ( 30326 PWs)   bands (ev):

   -49.9902 -49.8923 -49.8914 -49.8913 -49.8734 -49.8723 -49.8723 -49.8372
   -49.8372 -49.8371 -49.8279 -49.8269 -49.8269 -49.8267 -49.8267 -49.8267
   -49.8267 -49.8263 -49.8262 -49.8262 -49.8181 -49.8180 -49.8180 -49.7745
   -49.7731 -49.7731 -49.7730 -49.7730 -49.7724 -49.7724 -49.7720 -49.7720
   -20.3900 -20.3900 -20.3899 -20.3859 -20.3283 -20.3283 -20.3273 -20.1326
   -20.1280 -20.1280 -20.1215 -20.1215 -20.1169 -20.1169 -20.1166 -20.1166
   -20.1016 -20.0966 -20.0966 -20.0782 -20.0782 -20.0748 -20.0748 -20.0746
   -20.0746 -20.0286 -20.0286 -20.0248 -20.0248 -20.0241 -20.0241 -19.9277
   -19.9277 -19.9269 -19.8554 -19.8554 -19.8543 -19.8475 -19.8475 -19.8467
   -19.8147 -19.8146 -19.8139 -19.8139 -19.8131 -19.8131 -19.7745 -19.7745
   -19.7734 -19.7686 -19.7686 -19.7678 -19.7678 -19.7657 -19.7657 -19.7651
   -19.7651 -19.7581 -19.7573 -19.7573 -19.7536 -19.5986 -19.5986 -19.5952
   -19.5952 -19.5943 -19.5935 -19.5664 -19.5664 -19.5637 -19.5637 -19.5625
   -19.5625 -19.5508 -19.5508 -19.5470 -19.5396 -19.5379 -19.5379 -19.5374
   -19.5374 -19.5374 -19.5374 -19.5340 -19.5340 -19.5338 -19.5338 -19.5338
   -19.5320 -19.5292 -19.5191 -19.5191 -19.5158 -19.4061 -19.3994 -19.3991
    15.2734  16.8390  16.8390  16.8417  17.1155  17.1332  17.1332  17.1332
    17.3058  17.3058  17.3091  17.5166  17.5278  17.5278  17.6898  17.7006
    17.7006  18.2320  18.2320  18.2486  18.2486  18.2493  18.2493  18.5510
    18.5618  18.5618  18.8175  18.8175  18.8181  18.8209  18.8349  18.8349
    18.9244  18.9259  18.9259  18.9274  18.9274  18.9274  18.9274  18.9282
    18.9282  19.4111  19.4111  19.4195  19.4195  19.4265  19.4265  19.5522
    19.5683  19.5683  19.5835  19.5835  19.5999  19.5999  19.6012  19.6012
    19.6491  19.6640  19.6640  19.9127  19.9127  19.9178  19.9178  19.9197
    19.9197  19.9198  19.9198  19.9228  19.9228  19.9241  19.9266  19.9266
    19.9306  19.9306  20.0907  20.0907  20.0938  20.3566  20.3782  20.3782
    20.3923  20.4238  20.4238  20.4307  20.4456  20.4941  20.5339  20.5484
    21.4875  21.5164  21.5164  21.6546  21.6860  21.6860  21.7219  21.7219
    21.7321  21.8215  21.8215  21.8226  21.8226  21.8309  21.8309  21.8363
    21.8363  21.8441  22.1280  22.1281  22.1450  22.2498  22.2498  22.2601
    22.4956  22.4956  22.5114  22.5736  22.5736  22.5808  22.5808  22.5816
    22.5816  22.5921  22.5921  22.6064  22.6330  22.6330  22.6429  22.8211
    22.8211  22.8216  22.8216  22.8342  22.8342  22.8615  22.9061  22.9938
    22.9938  23.0067  23.6486  23.6486  23.6690  23.7019  23.7019  23.7061
    23.8089  23.8089  23.8265  23.9039  24.6291  24.6291  24.6315  24.6625
    24.6819  24.6971  24.7117  24.7117  24.9831  24.9915  24.9915  25.0119
    25.0119  25.0219  25.1656  25.1656  25.1668  25.1668  25.1781  25.1816
    25.1816  25.1916  25.1916  26.6100  26.6101  26.6320  26.7475  26.8071
    26.8071  27.1405  27.1405

[...]

          k = 0.3889-0.5000-0.4984 ( 30268 PWs)   bands (ev):

[...]

          k =-0.5000-0.5000 0.0554 ( 30264 PWs)   bands (ev):

[...]

          k =-0.5000-0.5000-0.4984 ( 30328 PWs)   bands (ev):

   -49.9097 -49.9097 -49.9096 -49.9096 -49.9096 -49.9096 -49.9095 -49.9094
   -49.8007 -49.8006 -49.8005 -49.8005 -49.8005 -49.8005 -49.8004 -49.8004
   -49.7996 -49.7996 -49.7996 -49.7996 -49.7995 -49.7994 -49.7994 -49.7994
   -49.7994 -49.7994 -49.7994 -49.7994 -49.7993 -49.7993 -49.7993 -49.7993
   -20.2239 -20.2239 -20.2239 -20.2239 -20.2238 -20.2238 -20.2238 -20.2238
   -20.2238 -20.2238 -20.2238 -20.2238 -20.2237 -20.2237 -20.2237 -20.2237
   -20.2216 -20.2216 -20.2215 -20.2215 -20.2215 -20.2215 -20.2214 -20.2214
   -19.9063 -19.9063 -19.9062 -19.9062 -19.9062 -19.9062 -19.9062 -19.9062
   -19.7960 -19.7960 -19.7959 -19.7959 -19.7959 -19.7959 -19.7959 -19.7959
   -19.7950 -19.7950 -19.7950 -19.7950 -19.7949 -19.7949 -19.7949 -19.7949
   -19.7949 -19.7949 -19.7949 -19.7949 -19.7949 -19.7949 -19.7949 -19.7949
   -19.6483 -19.6483 -19.6483 -19.6483 -19.6483 -19.6483 -19.6483 -19.6483
   -19.6482 -19.6482 -19.6482 -19.6482 -19.6482 -19.6482 -19.6482 -19.6482
   -19.6438 -19.6438 -19.6438 -19.6438 -19.6438 -19.6438 -19.6438 -19.6438
   -19.4671 -19.4671 -19.4670 -19.4670 -19.4670 -19.4670 -19.4669 -19.4669
   -19.4645 -19.4645 -19.4645 -19.4645 -19.4645 -19.4645 -19.4645 -19.4645
    17.0706  17.0706  17.0707  17.0707  17.0707  17.0707  17.0709  17.0709
    17.9311  17.9311  17.9311  17.9311  17.9311  17.9311  17.9311  17.9311
    17.9312  17.9312  17.9312  17.9312  17.9312  17.9312  17.9312  17.9312
    17.9317  17.9317  17.9317  17.9317  17.9317  17.9317  17.9317  17.9317
    18.9549  18.9549  18.9549  18.9549  18.9549  18.9549  18.9549  18.9549
    18.9550  18.9550  18.9550  18.9550  18.9551  18.9551  18.9551  18.9551
    18.9603  18.9603  18.9603  18.9603  18.9603  18.9603  18.9604  18.9604
    20.2726  20.2727  20.2727  20.2727  20.2727  20.2727  20.2727  20.2727
    20.8942  20.8942  20.8943  20.8943  20.8943  20.8943  20.8943  20.8943
    20.9300  20.9300  20.9301  20.9301  20.9301  20.9301  20.9301  20.9301
    21.0045  21.0045  21.0045  21.0045  21.0045  21.0046  21.0046  21.0046
    21.0262  21.0262  21.0263  21.0263  21.0263  21.0263  21.0263  21.0263
    21.0263  21.0263  21.0263  21.0263  21.0264  21.0264  21.0264  21.0264
    22.2244  22.2244  22.2244  22.2244  22.2244  22.2244  22.2244  22.2244
    22.2244  22.2244  22.2245  22.2245  22.2245  22.2245  22.2245  22.2245
    22.2428  22.2428  22.2429  22.2429  22.2429  22.2429  22.2430  22.2430
    23.0522  23.0522  23.0523  23.0523  23.0523  23.0523  23.0524  23.0524
    23.0643  23.0643  23.0644  23.0644  23.0644  23.0644  23.0645  23.0645
    24.8415  24.8415  24.8415  24.8415  24.8415  24.8415  24.8416  24.8416
    24.8488  24.8488  24.8488  24.8488  24.8488  24.8488  24.8488  24.8488
    24.8488  24.8488  24.8489  24.8489  24.8489  24.8489  24.8489  24.8489
    28.2025  28.2034  28.2037  28.2049  28.2052  28.2065  28.2131  28.2179
    28.2245  28.2245  28.2245

     the Fermi energy is    23.0259 ev

!    total energy              =  -13813.30059325 Ry

     total all-electron energy =   -289989.690932 Ry
     estimated scf accuracy    <       0.00000003 Ry
     smearing contrib. (-TS)   =       0.02020646 Ry
     internal energy E=F+TS    =  -13813.32079971 Ry

     The total energy is F=E-TS. E is the sum of the following terms:
     one-electron contribution =   -1003.46415357 Ry
     hartree contribution      =     918.38921727 Ry
     xc contribution           =    -927.94545913 Ry
     ewald contribution        =   -5210.86240978 Ry
     one-center paw contrib.   =   -7589.43799451 Ry

     convergence has been achieved in  13 iterations

     Forces acting on atoms (cartesian axes, Ry/au):

     atom    1 type  1   force =     0.00000000    0.00000000    0.00000000
     atom    2 type  1   force =    -0.00001457   -0.00001457    0.00000000
     atom    3 type  1   force =    -0.00003166    0.00000000   -0.00000560
     atom    4 type  1   force =     0.00000000   -0.00003166   -0.00000560
     atom    5 type  1   force =     0.00000000    0.00000000    0.00000000
     atom    6 type  1   force =     0.00000300    0.00000300    0.00000000
     atom    7 type  1   force =    -0.00003166    0.00000000    0.00000560
     atom    8 type  1   force =     0.00000000   -0.00003166    0.00000560
     atom    9 type  1   force =     0.00000000    0.00000000    0.00000000
     atom   10 type  1   force =    -0.00001457    0.00001457   -0.00000000
     atom   11 type  1   force =     0.00003568    0.00000000    0.00000103
     atom   12 type  1   force =     0.00000000    0.00003166   -0.00000560
     atom   13 type  1   force =     0.00000000    0.00000000    0.00000000
     atom   14 type  1   force =     0.00000300   -0.00000300    0.00000000
     atom   15 type  1   force =     0.00003568    0.00000000   -0.00000103
     atom   16 type  1   force =     0.00000000    0.00003166    0.00000560
     atom   17 type  1   force =     0.00000000    0.00000000    0.00000000
     atom   18 type  1   force =     0.00001457   -0.00001457   -0.00000000
     atom   19 type  1   force =     0.00003166    0.00000000   -0.00000560
     atom   20 type  1   force =     0.00000000    0.00003568    0.00000103
     atom   21 type  1   force =     0.00000000    0.00000000    0.00000000
     atom   22 type  1   force =    -0.00000300    0.00000300    0.00000000
     atom   23 type  1   force =     0.00003166    0.00000000    0.00000560
     atom   24 type  1   force =     0.00000000    0.00003568   -0.00000103
     atom   25 type  1   force =     0.00000000    0.00000000    0.00000000
     atom   26 type  1   force =     0.00001457    0.00001457    0.00000000
     atom   27 type  1   force =    -0.00003568    0.00000000    0.00000103
     atom   28 type  1   force =     0.00000000   -0.00003568    0.00000103
     atom   29 type  1   force =     0.00000000    0.00000000    0.00000000
     atom   30 type  1   force =    -0.00000300   -0.00000300    0.00000000
     atom   31 type  1   force =    -0.00003568    0.00000000   -0.00000103
     atom   32 type  1   force =     0.00000000   -0.00003568   -0.00000103

     Total force =     0.000142     Total SCF correction =     0.000189
     SCF correction compared to forces is large: reduce conv_thr to get better values

     Computing stress (Cartesian axis) and pressure

          total   stress  (Ry/bohr**3)                   (kbar)     P=      -13.68
  -0.00007529   0.00000000   0.00000000          -11.08        0.00        0.00
   0.00000000  -0.00007529   0.00000000            0.00      -11.08        0.00
   0.00000000   0.00000000  -0.00012838            0.00        0.00      -18.89

     Writing output data file /scratch/yQFGEbShlLuwDFUH.save/

     General routines

     Parallel routines

   This run was terminated on:  21: 1:18  23Nov2021

   JOB DONE.