     Program PWSCF v.6.7MaX starts on 23Nov2021 at 21:21:21

     R & G space division:  proc/nbgrp/npool/nimage =      72
     Reading input from /rds/homes/b/bxp912/jobs/20211014_ru_eos/wd/ec/ec_3_008.in
Warning: card &CELL ignored
Warning: card CELL_DYNAMICS = 'BFGS', ignored
Warning: card CELL_FACTOR = 2.0, ignored
Warning: card PRESS = 0.0, ignored
Warning: card / ignored

     Current dimensions of program PWSCF are:
     Max number of different atomic species (ntypx) = 10
     Max number of k-points (npk) =  40000
     Max angular momentum in pseudopotentials (lmaxx) =  3
     file Ru.pbe-spn-kjpaw_psl.1.0.0.UPF: wavefunction(s)  4D renormalized

     Subspace diagonalization in iterative solution of the eigenvalue problem:
     one sub-group per band group will be used

     Found symmetry operation: I + (  0.2500  0.2500  0.0000)
     This is a supercell, fractional translations are disabled
     Message from routine setup:
     using ibrav=0 with symmetry is DISCOURAGED, use correct ibrav instead

     bravais-lattice index     =            0
     lattice parameter (alat)  =      14.4007  a.u.
     unit-cell volume          =    2999.5111 (a.u.)^3
     number of atoms/cell      =           32
     number of atomic types    =            1
     number of electrons       =       512.00
     number of Kohn-Sham states=          307
     kinetic-energy cutoff     =      71.0000  Ry
     charge density cutoff     =     430.0000  Ry
     scf convergence threshold =      1.0E-06
     mixing beta               =       0.1000
     number of iterations used =           10  plain     mixing
     Exchange-correlation= SLA  PW   PBX  PBC
                           (   1   4   3   4   0   0   0)

     celldm(1)=  14.400742  celldm(2)=   0.000000  celldm(3)=   0.000000
     celldm(4)=   0.000000  celldm(5)=   0.000000  celldm(6)=   0.000000

     crystal axes: (cart. coord. in units of alat)
               a(1) = (   1.000000   0.000000   0.000000 )
               a(2) = (   0.000000   1.000000   0.000000 )
               a(3) = (   0.000000   0.000000   1.004375 )

     reciprocal axes: (cart. coord. in units 2 pi/alat)
               b(1) = (  1.000000  0.000000  0.000000 )
               b(2) = (  0.000000  1.000000  0.000000 )
               b(3) = (  0.000000  0.000000  0.995644 )

     PseudoPot. # 1 for Ru read from file:
     /rds/homes/b/bxp912/pp/Ru.pbe-spn-kjpaw_psl.1.0.0.UPF
     MD5 check sum: 0ae1f594dea09af7be8575c3a481d1ae
     Pseudo is Projector augmented-wave + core cor, Zval = 16.0
     Generated using "atomic" code by A. Dal Corso  v.5.1
     Shape of augmentation charge: PSQ
     Using radial grid of 1233 points,  6 beta functions with:
                l(1) =   0
                l(2) =   0
                l(3) =   1
                l(4) =   1
                l(5) =   2
                l(6) =   2
     Q(r) pseudized with 0 coefficients

     atomic species   valence    mass     pseudopotential
        Ru            16.00   101.07000     Ru( 1.00)

     16 Sym. Ops., with inversion, found

   Cartesian axes

     site n.     atom                  positions (alat units)
         1           Ru  tau(   1) = (   0.0000000   0.0000000   0.0000000  )
         2           Ru  tau(   2) = (   0.2500000   0.2500000   0.0000000  )
         3           Ru  tau(   3) = (   0.2500000   0.0000000   0.2510932  )
         4           Ru  tau(   4) = (   0.0000000   0.2500000   0.2510932  )
         5           Ru  tau(   5) = (   0.0000000   0.0000000   0.5021875  )
         6           Ru  tau(   6) = (   0.2499990   0.2499990   0.5021875  )
         7           Ru  tau(   7) = (   0.2500000   0.0000000   0.7532807  )
         8           Ru  tau(   8) = (   0.0000000   0.2500000   0.7532807  )
         9           Ru  tau(   9) = (   0.0000000   0.5000002   0.0000000  )
        10           Ru  tau(  10) = (   0.2500000   0.7500004   0.0000000  )
        11           Ru  tau(  11) = (   0.2499990   0.5000002   0.2510922  )
        12           Ru  tau(  12) = (   0.0000000   0.7500004   0.2510932  )
        13           Ru  tau(  13) = (   0.0000000   0.5000002   0.5021875  )
        14           Ru  tau(  14) = (   0.2499990   0.7500015   0.5021875  )
        15           Ru  tau(  15) = (   0.2499990   0.5000002   0.7532818  )
        16           Ru  tau(  16) = (   0.0000000   0.7500004   0.7532807  )
        17           Ru  tau(  17) = (   0.5000002   0.0000000   0.0000000  )
        18           Ru  tau(  18) = (   0.7500004   0.2500000   0.0000000  )
        19           Ru  tau(  19) = (   0.7500004   0.0000000   0.2510932  )
        20           Ru  tau(  20) = (   0.5000002   0.2499990   0.2510922  )
        21           Ru  tau(  21) = (   0.5000002   0.0000000   0.5021875  )
        22           Ru  tau(  22) = (   0.7500015   0.2499990   0.5021875  )
        23           Ru  tau(  23) = (   0.7500004   0.0000000   0.7532807  )
        24           Ru  tau(  24) = (   0.5000002   0.2499990   0.7532818  )
        25           Ru  tau(  25) = (   0.5000002   0.5000002   0.0000000  )
        26           Ru  tau(  26) = (   0.7500004   0.7500004   0.0000000  )
        27           Ru  tau(  27) = (   0.7500015   0.5000002   0.2510922  )
        28           Ru  tau(  28) = (   0.5000002   0.7500015   0.2510922  )
        29           Ru  tau(  29) = (   0.5000002   0.5000002   0.5021875  )
        30           Ru  tau(  30) = (   0.7500015   0.7500015   0.5021875  )
        31           Ru  tau(  31) = (   0.7500015   0.5000002   0.7532818  )
        32           Ru  tau(  32) = (   0.5000002   0.7500015   0.7532818  )

     number of k points=    75  Marzari-Vanderbilt smearing, width (Ry)=  0.0400
                       cart. coord. in units 2pi/alat
        k(    1) = (   0.0555556   0.0555556   0.0553136), wk =   0.0219479
        k(    2) = (   0.0555556   0.0555556   0.1659407), wk =   0.0219479
        k(    3) = (   0.0555556   0.0555556   0.2765678), wk =   0.0219479
        k(    4) = (   0.0555556   0.0555556   0.3871949), wk =   0.0219479
        k(    5) = (   0.0555556   0.0555556  -0.4978220), wk =   0.0109739
        k(    6) = (   0.0555556   0.1666667   0.0553136), wk =   0.0438957
        k(    7) = (   0.0555556   0.1666667   0.1659407), wk =   0.0438957
        k(    8) = (   0.0555556   0.1666667   0.2765678), wk =   0.0438957
        k(    9) = (   0.0555556   0.1666667   0.3871949), wk =   0.0438957
        k(   10) = (   0.0555556   0.1666667  -0.4978220), wk =   0.0219479
        k(   11) = (   0.0555556   0.2777778   0.0553136), wk =   0.0438957
        k(   12) = (   0.0555556   0.2777778   0.1659407), wk =   0.0438957
        k(   13) = (   0.0555556   0.2777778   0.2765678), wk =   0.0438957
        k(   14) = (   0.0555556   0.2777778   0.3871949), wk =   0.0438957
        k(   15) = (   0.0555556   0.2777778  -0.4978220), wk =   0.0219479
        k(   16) = (   0.0555556   0.3888889   0.0553136), wk =   0.0438957
        k(   17) = (   0.0555556   0.3888889   0.1659407), wk =   0.0438957
        k(   18) = (   0.0555556   0.3888889   0.2765678), wk =   0.0438957
        k(   19) = (   0.0555556   0.3888889   0.3871949), wk =   0.0438957
        k(   20) = (   0.0555556   0.3888889  -0.4978220), wk =   0.0219479
        k(   21) = (   0.0555556  -0.5000000   0.0553136), wk =   0.0219479
        k(   22) = (   0.0555556  -0.5000000   0.1659407), wk =   0.0219479
        k(   23) = (   0.0555556  -0.5000000   0.2765678), wk =   0.0219479
        k(   24) = (   0.0555556  -0.5000000   0.3871949), wk =   0.0219479
        k(   25) = (   0.0555556  -0.5000000  -0.4978220), wk =   0.0109739
        k(   26) = (   0.1666667   0.1666667   0.0553136), wk =   0.0219479
        k(   27) = (   0.1666667   0.1666667   0.1659407), wk =   0.0219479
        k(   28) = (   0.1666667   0.1666667   0.2765678), wk =   0.0219479
        k(   29) = (   0.1666667   0.1666667   0.3871949), wk =   0.0219479
        k(   30) = (   0.1666667   0.1666667  -0.4978220), wk =   0.0109739
        k(   31) = (   0.1666667   0.2777778   0.0553136), wk =   0.0438957
        k(   32) = (   0.1666667   0.2777778   0.1659407), wk =   0.0438957
        k(   33) = (   0.1666667   0.2777778   0.2765678), wk =   0.0438957
        k(   34) = (   0.1666667   0.2777778   0.3871949), wk =   0.0438957
        k(   35) = (   0.1666667   0.2777778  -0.4978220), wk =   0.0219479
        k(   36) = (   0.1666667   0.3888889   0.0553136), wk =   0.0438957
        k(   37) = (   0.1666667   0.3888889   0.1659407), wk =   0.0438957
        k(   38) = (   0.1666667   0.3888889   0.2765678), wk =   0.0438957
        k(   39) = (   0.1666667   0.3888889   0.3871949), wk =   0.0438957
        k(   40) = (   0.1666667   0.3888889  -0.4978220), wk =   0.0219479
        k(   41) = (   0.1666667  -0.5000000   0.0553136), wk =   0.0219479
        k(   42) = (   0.1666667  -0.5000000   0.1659407), wk =   0.0219479
        k(   43) = (   0.1666667  -0.5000000   0.2765678), wk =   0.0219479
        k(   44) = (   0.1666667  -0.5000000   0.3871949), wk =   0.0219479
        k(   45) = (   0.1666667  -0.5000000  -0.4978220), wk =   0.0109739
        k(   46) = (   0.2777778   0.2777778   0.0553136), wk =   0.0219479
        k(   47) = (   0.2777778   0.2777778   0.1659407), wk =   0.0219479
        k(   48) = (   0.2777778   0.2777778   0.2765678), wk =   0.0219479
        k(   49) = (   0.2777778   0.2777778   0.3871949), wk =   0.0219479
        k(   50) = (   0.2777778   0.2777778  -0.4978220), wk =   0.0109739
        k(   51) = (   0.2777778   0.3888889   0.0553136), wk =   0.0438957
        k(   52) = (   0.2777778   0.3888889   0.1659407), wk =   0.0438957
        k(   53) = (   0.2777778   0.3888889   0.2765678), wk =   0.0438957
        k(   54) = (   0.2777778   0.3888889   0.3871949), wk =   0.0438957
        k(   55) = (   0.2777778   0.3888889  -0.4978220), wk =   0.0219479
        k(   56) = (   0.2777778  -0.5000000   0.0553136), wk =   0.0219479
        k(   57) = (   0.2777778  -0.5000000   0.1659407), wk =   0.0219479
        k(   58) = (   0.2777778  -0.5000000   0.2765678), wk =   0.0219479
        k(   59) = (   0.2777778  -0.5000000   0.3871949), wk =   0.0219479
        k(   60) = (   0.2777778  -0.5000000  -0.4978220), wk =   0.0109739
        k(   61) = (   0.3888889   0.3888889   0.0553136), wk =   0.0219479
        k(   62) = (   0.3888889   0.3888889   0.1659407), wk =   0.0219479
        k(   63) = (   0.3888889   0.3888889   0.2765678), wk =   0.0219479
        k(   64) = (   0.3888889   0.3888889   0.3871949), wk =   0.0219479
        k(   65) = (   0.3888889   0.3888889  -0.4978220), wk =   0.0109739
        k(   66) = (   0.3888889  -0.5000000   0.0553136), wk =   0.0219479
        k(   67) = (   0.3888889  -0.5000000   0.1659407), wk =   0.0219479
        k(   68) = (   0.3888889  -0.5000000   0.2765678), wk =   0.0219479
        k(   69) = (   0.3888889  -0.5000000   0.3871949), wk =   0.0219479
        k(   70) = (   0.3888889  -0.5000000  -0.4978220), wk =   0.0109739
        k(   71) = (  -0.5000000  -0.5000000   0.0553136), wk =   0.0054870
        k(   72) = (  -0.5000000  -0.5000000   0.1659407), wk =   0.0054870
        k(   73) = (  -0.5000000  -0.5000000   0.2765678), wk =   0.0054870
        k(   74) = (  -0.5000000  -0.5000000   0.3871949), wk =   0.0054870
        k(   75) = (  -0.5000000  -0.5000000  -0.4978220), wk =   0.0027435

     Check: negative core charge=   -0.000002

     Initial potential from superposition of free atoms

     starting charge  511.97959, renormalised to  512.00000
     Starting wfcs are  320 randomized atomic wfcs
     Checking if some PAW data can be deallocated...

     Self-consistent Calculation

     iteration #  1     ecut=    71.00 Ry     beta= 0.10
     Davidson diagonalization with overlap
     ethr =  1.00E-02,  avg # of iterations =  3.4

     Threshold (ethr) on eigenvalues was too large:
     Diagonalizing with lowered threshold

     Davidson diagonalization with overlap
     ethr =  8.31E-05,  avg # of iterations =  5.5

     total energy              =  -13813.41154293 Ry
     estimated scf accuracy    <       0.63669836 Ry

[...]

     total energy              =  -13813.30020598 Ry
     estimated scf accuracy    <       0.00000914 Ry

     iteration # 11     ecut=    71.00 Ry     beta= 0.10
     Davidson diagonalization with overlap
     ethr =  1.79E-09,  avg # of iterations =  4.3

     End of self-consistent calculation

          k = 0.0556 0.0556 0.0553 ( 30368 PWs)   bands (ev):

   -50.0225 -49.9254 -49.9240 -49.9240 -49.9066 -49.9051 -49.9050 -49.8703
   -49.8703 -49.8702 -49.8610 -49.8601 -49.8600 -49.8599 -49.8599 -49.8598
   -49.8598 -49.8594 -49.8593 -49.8593 -49.8513 -49.8512 -49.8512 -49.8085
   -49.8068 -49.8067 -49.8065 -49.8065 -49.8056 -49.8056 -49.8052 -49.8052
   -20.4204 -20.4204 -20.4203 -20.4163 -20.3591 -20.3591 -20.3577 -20.1653
   -20.1589 -20.1589 -20.1543 -20.1543 -20.1478 -20.1478 -20.1474 -20.1474
   -20.1345 -20.1275 -20.1275 -20.1108 -20.1108 -20.1062 -20.1061 -20.1057
   -20.1057 -20.0615 -20.0615 -20.0562 -20.0562 -20.0554 -20.0554 -19.9601
   -19.9601 -19.9589 -19.8882 -19.8882 -19.8866 -19.8802 -19.8802 -19.8791
   -19.8477 -19.8477 -19.8467 -19.8467 -19.8456 -19.8456 -19.8076 -19.8076
   -19.8061 -19.8020 -19.8020 -19.8009 -19.8009 -19.7999 -19.7999 -19.7980
   -19.7980 -19.7900 -19.7900 -19.7898 -19.7852 -19.6333 -19.6333 -19.6287
   -19.6286 -19.6271 -19.6264 -19.6011 -19.6011 -19.5974 -19.5973 -19.5957
   -19.5956 -19.5852 -19.5851 -19.5799 -19.5744 -19.5726 -19.5726 -19.5719
   -19.5718 -19.5718 -19.5718 -19.5687 -19.5670 -19.5670 -19.5670 -19.5670
   -19.5650 -19.5622 -19.5536 -19.5535 -19.5489 -19.4406 -19.4339 -19.4335
    15.2454  16.8145  16.8145  16.8183  17.0895  17.1072  17.1072  17.1072
    17.2807  17.2807  17.2852  17.4843  17.4999  17.5001  17.6583  17.6734
    17.6735  18.2011  18.2011  18.2242  18.2243  18.2252  18.2253  18.5215
    18.5366  18.5366  18.7876  18.7877  18.7886  18.7900  18.8097  18.8097
    18.8952  18.8972  18.8973  18.8979  18.8979  18.8980  18.8980  18.8990
    18.8990  19.3790  19.3790  19.3908  19.3908  19.4005  19.4006  19.5189
    19.5413  19.5413  19.5500  19.5500  19.5729  19.5729  19.5746  19.5746
    19.6159  19.6368  19.6369  19.8792  19.8792  19.8868  19.8869  19.8890
    19.8891  19.8891  19.8892  19.8932  19.8932  19.8957  19.8986  19.8986
    19.9041  19.9042  20.0605  20.0606  20.0649  20.3192  20.3453  20.3453
    20.3547  20.3968  20.3968  20.4083  20.4232  20.4558  20.5067  20.5231
    21.4473  21.4877  21.4877  21.6130  21.6569  21.6570  21.6884  21.6884
    21.7026  21.7877  21.7877  21.7893  21.7893  21.8008  21.8008  21.8028
    21.8029  21.8137  22.0924  22.0924  22.1163  22.2151  22.2151  22.2295
    22.4596  22.4596  22.4817  22.5377  22.5378  22.5478  22.5478  22.5490
    22.5490  22.5563  22.5563  22.5762  22.5975  22.5975  22.6114  22.7848
    22.7848  22.7856  22.7856  22.8033  22.8033  22.8177  22.8801  22.9573
    22.9573  22.9754  23.6095  23.6095  23.6381  23.6654  23.6654  23.6712
    23.7698  23.7699  23.7945  23.8679  24.5904  24.5905  24.5938  24.6203
    24.6474  24.6548  24.6751  24.6751  24.9416  24.9527  24.9527  24.9723
    24.9723  24.9861  25.1226  25.1226  25.1243  25.1243  25.1380  25.1437
    25.1437  25.1589  25.1589  26.5655  26.5655  26.5961  26.6921  26.7753
    26.7753  27.0946  27.0947

[...]

          k = 0.3889-0.5000-0.4978 ( 30312 PWs)   bands (ev):

[...]

          k =-0.5000-0.5000 0.0553 ( 30320 PWs)   bands (ev):

[...]

          k =-0.5000-0.5000-0.4978 ( 30376 PWs)   bands (ev):

   -49.9425 -49.9424 -49.9423 -49.9423 -49.9423 -49.9423 -49.9422 -49.9421
   -49.8342 -49.8342 -49.8341 -49.8341 -49.8341 -49.8340 -49.8339 -49.8339
   -49.8328 -49.8327 -49.8327 -49.8327 -49.8327 -49.8326 -49.8326 -49.8326
   -49.8326 -49.8326 -49.8326 -49.8325 -49.8325 -49.8324 -49.8324 -49.8324
   -20.2553 -20.2553 -20.2553 -20.2553 -20.2553 -20.2552 -20.2552 -20.2552
   -20.2552 -20.2552 -20.2552 -20.2552 -20.2551 -20.2551 -20.2551 -20.2551
   -20.2521 -20.2521 -20.2520 -20.2520 -20.2520 -20.2520 -20.2519 -20.2519
   -19.9386 -19.9386 -19.9386 -19.9386 -19.9386 -19.9386 -19.9385 -19.9385
   -19.8291 -19.8291 -19.8290 -19.8290 -19.8290 -19.8290 -19.8290 -19.8289
   -19.8278 -19.8277 -19.8277 -19.8277 -19.8277 -19.8277 -19.8277 -19.8277
   -19.8277 -19.8277 -19.8277 -19.8276 -19.8276 -19.8276 -19.8276 -19.8276
   -19.6824 -19.6824 -19.6824 -19.6824 -19.6824 -19.6824 -19.6824 -19.6824
   -19.6823 -19.6822 -19.6822 -19.6822 -19.6822 -19.6822 -19.6822 -19.6822
   -19.6761 -19.6761 -19.6761 -19.6761 -19.6761 -19.6761 -19.6761 -19.6761
   -19.5018 -19.5018 -19.5017 -19.5017 -19.5017 -19.5017 -19.5016 -19.5016
   -19.4982 -19.4982 -19.4982 -19.4982 -19.4982 -19.4982 -19.4981 -19.4981
    17.0418  17.0418  17.0419  17.0419  17.0420  17.0421  17.0421  17.0421
    17.9047  17.9047  17.9047  17.9047  17.9047  17.9047  17.9048  17.9048
    17.9049  17.9049  17.9049  17.9049  17.9049  17.9049  17.9049  17.9049
    17.9055  17.9055  17.9055  17.9055  17.9056  17.9056  17.9056  17.9056
    18.9262  18.9262  18.9263  18.9263  18.9263  18.9263  18.9263  18.9263
    18.9264  18.9264  18.9264  18.9264  18.9265  18.9265  18.9265  18.9265
    18.9337  18.9338  18.9338  18.9338  18.9338  18.9339  18.9339  18.9339
    20.2418  20.2418  20.2419  20.2419  20.2419  20.2419  20.2419  20.2419
    20.8562  20.8562  20.8562  20.8562  20.8562  20.8562  20.8562  20.8563
    20.9062  20.9062  20.9062  20.9063  20.9063  20.9063  20.9063  20.9063
    20.9666  20.9666  20.9667  20.9667  20.9667  20.9667  20.9668  20.9668
    20.9970  20.9970  20.9971  20.9971  20.9971  20.9971  20.9971  20.9971
    20.9972  20.9972  20.9972  20.9972  20.9972  20.9972  20.9972  20.9973
    22.1886  22.1886  22.1886  22.1886  22.1887  22.1887  22.1887  22.1887
    22.1887  22.1887  22.1887  22.1887  22.1888  22.1888  22.1888  22.1888
    22.2144  22.2144  22.2145  22.2145  22.2145  22.2145  22.2146  22.2146
    23.0149  23.0149  23.0149  23.0149  23.0149  23.0150  23.0150  23.0150
    23.0318  23.0318  23.0319  23.0319  23.0319  23.0319  23.0320  23.0320
    24.8008  24.8008  24.8009  24.8009  24.8009  24.8009  24.8009  24.8010
    24.8110  24.8110  24.8110  24.8110  24.8110  24.8110  24.8111  24.8111
    24.8111  24.8111  24.8111  24.8111  24.8111  24.8111  24.8111  24.8111
    28.1539  28.1545  28.1549  28.1561  28.1572  28.1588  28.1588  28.1597
    28.1847  28.1847  28.1848

     the Fermi energy is    22.9911 ev

!    total energy              =  -13813.30020974 Ry

     total all-electron energy =   -289989.690549 Ry
     estimated scf accuracy    <       0.00000078 Ry
     smearing contrib. (-TS)   =       0.02013120 Ry
     internal energy E=F+TS    =  -13813.32034094 Ry

     The total energy is F=E-TS. E is the sum of the following terms:
     one-electron contribution =   -1006.60266602 Ry
     hartree contribution      =     919.30823665 Ry
     xc contribution           =    -927.89203255 Ry
     ewald contribution        =   -5208.69900445 Ry
     one-center paw contrib.   =   -7589.43487457 Ry

     convergence has been achieved in  11 iterations

     Forces acting on atoms (cartesian axes, Ry/au):

     atom    1 type  1   force =     0.00000000    0.00000000    0.00000000
     atom    2 type  1   force =    -0.00012611   -0.00012611    0.00000000
     atom    3 type  1   force =    -0.00026306    0.00000000   -0.00012962
     atom    4 type  1   force =     0.00000000   -0.00026306   -0.00012962
     atom    5 type  1   force =     0.00000000    0.00000000    0.00000000
     atom    6 type  1   force =     0.00011314    0.00011314    0.00000000
     atom    7 type  1   force =    -0.00026306    0.00000000    0.00012962
     atom    8 type  1   force =     0.00000000   -0.00026306    0.00012962
     atom    9 type  1   force =     0.00000000    0.00000000    0.00000000
     atom   10 type  1   force =    -0.00012611    0.00012611    0.00000000
     atom   11 type  1   force =     0.00027891    0.00000000    0.00008539
     atom   12 type  1   force =     0.00000000    0.00026306   -0.00012962
     atom   13 type  1   force =     0.00000000    0.00000000    0.00000000
     atom   14 type  1   force =     0.00011314   -0.00011314   -0.00000000
     atom   15 type  1   force =     0.00027891    0.00000000   -0.00008539
     atom   16 type  1   force =     0.00000000    0.00026306    0.00012962
     atom   17 type  1   force =     0.00000000    0.00000000    0.00000000
     atom   18 type  1   force =     0.00012611   -0.00012611    0.00000000
     atom   19 type  1   force =     0.00026306    0.00000000   -0.00012962
     atom   20 type  1   force =     0.00000000    0.00027891    0.00008539
     atom   21 type  1   force =     0.00000000    0.00000000    0.00000000
     atom   22 type  1   force =    -0.00011314    0.00011314   -0.00000000
     atom   23 type  1   force =     0.00026306    0.00000000    0.00012962
     atom   24 type  1   force =     0.00000000    0.00027891   -0.00008539
     atom   25 type  1   force =     0.00000000    0.00000000    0.00000000
     atom   26 type  1   force =     0.00012611    0.00012611    0.00000000
     atom   27 type  1   force =    -0.00027891    0.00000000    0.00008539
     atom   28 type  1   force =     0.00000000   -0.00027891    0.00008539
     atom   29 type  1   force =     0.00000000    0.00000000    0.00000000
     atom   30 type  1   force =    -0.00011314   -0.00011314    0.00000000
     atom   31 type  1   force =    -0.00027891    0.00000000   -0.00008539
     atom   32 type  1   force =     0.00000000   -0.00027891   -0.00008539

     Total force =     0.001264     Total SCF correction =     0.005149
     SCF correction compared to forces is large: reduce conv_thr to get better values

     Computing stress (Cartesian axis) and pressure

          total   stress  (Ry/bohr**3)                   (kbar)     P=      -18.67
  -0.00010209   0.00000000   0.00000000          -15.02        0.00        0.00
   0.00000000  -0.00010209   0.00000000            0.00      -15.02        0.00
   0.00000000   0.00000000  -0.00017653            0.00        0.00      -25.97

     Writing output data file /scratch/KofLQGyMdSyIGwpS.save/

     General routines

     Parallel routines

   This run was terminated on:  21:40:15  23Nov2021

   JOB DONE.