     Program PWSCF v.6.7MaX starts on 25Nov2021 at 12:41:58

     R & G space division:  proc/nbgrp/npool/nimage =      72
     Reading input from /rds/homes/b/bxp912/jobs/20211014_ru_eos/wd/ec/ec_6_005.in
Warning: card &CELL ignored
Warning: card CELL_DYNAMICS = 'BFGS', ignored
Warning: card CELL_FACTOR = 2.0, ignored
Warning: card PRESS = 0.0, ignored
Warning: card / ignored

     Current dimensions of program PWSCF are:
     Max number of different atomic species (ntypx) = 10
     Max number of k-points (npk) =  40000
     Max angular momentum in pseudopotentials (lmaxx) =  3
     file Ru.pbe-spn-kjpaw_psl.1.0.0.UPF: wavefunction(s)  4D renormalized

     Subspace diagonalization in iterative solution of the eigenvalue problem:
     one sub-group per band group will be used

     Found symmetry operation: I + (  0.2500  0.2500  0.0000)
     This is a supercell, fractional translations are disabled
     Message from routine setup:
     using ibrav=0 with symmetry is DISCOURAGED, use correct ibrav instead

     bravais-lattice index     =            0
     lattice parameter (alat)  =      14.4007  a.u.
     unit-cell volume          =    2986.4454 (a.u.)^3
     number of atoms/cell      =           32
     number of atomic types    =            1
     number of electrons       =       512.00
     number of Kohn-Sham states=          307
     kinetic-energy cutoff     =      71.0000  Ry
     charge density cutoff     =     430.0000  Ry
     scf convergence threshold =      1.0E-06
     mixing beta               =       0.1000
     number of iterations used =           10  plain     mixing
     Exchange-correlation= SLA  PW   PBX  PBC
                           (   1   4   3   4   0   0   0)

     celldm(1)=  14.400742  celldm(2)=   0.000000  celldm(3)=   0.000000
     celldm(4)=   0.000000  celldm(5)=   0.000000  celldm(6)=   0.000000

     crystal axes: (cart. coord. in units of alat)
               a(1) = (   1.000002   0.002500   0.000000 )
               a(2) = (   0.002500   1.000002   0.000000 )
               a(3) = (   0.000000   0.000000   1.000002 )

     reciprocal axes: (cart. coord. in units 2 pi/alat)
               b(1) = (  1.000004 -0.002500  0.000000 )
               b(2) = ( -0.002500  1.000004  0.000000 )
               b(3) = (  0.000000  0.000000  0.999998 )

     PseudoPot. # 1 for Ru read from file:
     /rds/homes/b/bxp912/pp/Ru.pbe-spn-kjpaw_psl.1.0.0.UPF
     MD5 check sum: 0ae1f594dea09af7be8575c3a481d1ae
     Pseudo is Projector augmented-wave + core cor, Zval = 16.0
     Generated using "atomic" code by A. Dal Corso  v.5.1
     Shape of augmentation charge: PSQ
     Using radial grid of 1233 points,  6 beta functions with:
                l(1) =   0
                l(2) =   0
                l(3) =   1
                l(4) =   1
                l(5) =   2
                l(6) =   2
     Q(r) pseudized with 0 coefficients

     atomic species   valence    mass     pseudopotential
        Ru            16.00   101.07000     Ru( 1.00)

      8 Sym. Ops., with inversion, found

   Cartesian axes

     site n.     atom                  positions (alat units)
         1           Ru  tau(   1) = (   0.0000000   0.0000000   0.0000000  )
         2           Ru  tau(   2) = (   0.2506255   0.2506255   0.0000000  )
         3           Ru  tau(   3) = (   0.2500005   0.0006250   0.2500000  )
         4           Ru  tau(   4) = (   0.0006250   0.2500005   0.2500000  )
         5           Ru  tau(   5) = (   0.0000000   0.0000000   0.5000010  )
         6           Ru  tau(   6) = (   0.2506245   0.2506245   0.5000010  )
         7           Ru  tau(   7) = (   0.2500005   0.0006250   0.7500010  )
         8           Ru  tau(   8) = (   0.0006250   0.2500005   0.7500010  )
         9           Ru  tau(   9) = (   0.0012500   0.5000013   0.0000000  )
        10           Ru  tau(  10) = (   0.2518755   0.7506270   0.0000000  )
        11           Ru  tau(  11) = (   0.2512495   0.5006263   0.2499989  )
        12           Ru  tau(  12) = (   0.0018750   0.7500020   0.2500000  )
        13           Ru  tau(  13) = (   0.0012500   0.5000013   0.5000010  )
        14           Ru  tau(  14) = (   0.2518745   0.7506280   0.5000010  )
        15           Ru  tau(  15) = (   0.2512495   0.5006263   0.7500021  )
        16           Ru  tau(  16) = (   0.0018750   0.7500020   0.7500010  )
        17           Ru  tau(  17) = (   0.5000013   0.0012500   0.0000000  )
        18           Ru  tau(  18) = (   0.7506270   0.2518755   0.0000000  )
        19           Ru  tau(  19) = (   0.7500020   0.0018750   0.2500000  )
        20           Ru  tau(  20) = (   0.5006263   0.2512495   0.2499989  )
        21           Ru  tau(  21) = (   0.5000013   0.0012500   0.5000010  )
        22           Ru  tau(  22) = (   0.7506280   0.2518745   0.5000010  )
        23           Ru  tau(  23) = (   0.7500020   0.0018750   0.7500010  )
        24           Ru  tau(  24) = (   0.5006263   0.2512495   0.7500021  )
        25           Ru  tau(  25) = (   0.5012513   0.5012513   0.0000000  )
        26           Ru  tau(  26) = (   0.7518770   0.7518770   0.0000000  )
        27           Ru  tau(  27) = (   0.7512530   0.5018763   0.2499989  )
        28           Ru  tau(  28) = (   0.5018763   0.7512530   0.2499989  )
        29           Ru  tau(  29) = (   0.5012513   0.5012513   0.5000010  )
        30           Ru  tau(  30) = (   0.7518780   0.7518780   0.5000010  )
        31           Ru  tau(  31) = (   0.7512530   0.5018763   0.7500021  )
        32           Ru  tau(  32) = (   0.5018763   0.7512530   0.7500021  )

     number of k points=   125  Marzari-Vanderbilt smearing, width (Ry)=  0.0400

     Number of k-points >= 100: set verbosity='high' to print them.

     Check: negative core charge=   -0.000002

     Initial potential from superposition of free atoms

     starting charge  511.97959, renormalised to  512.00000
     Starting wfcs are  320 randomized atomic wfcs
     Checking if some PAW data can be deallocated...

     Self-consistent Calculation

     iteration #  1     ecut=    71.00 Ry     beta= 0.10
     Davidson diagonalization with overlap
     ethr =  1.00E-02,  avg # of iterations =  3.4

     Threshold (ethr) on eigenvalues was too large:
     Diagonalizing with lowered threshold

     Davidson diagonalization with overlap
     ethr =  8.32E-05,  avg # of iterations =  5.8

     total energy              =  -13813.41238660 Ry
     estimated scf accuracy    <       0.63839724 Ry

[...]

     iteration #  4     ecut=    71.00 Ry     beta= 0.10
     Davidson diagonalization with overlap
     c_bands:  1 eigenvalues not converged
     ethr =  2.40E-06,  avg # of iterations =  2.9

[...]

     total energy              =  -13813.30026278 Ry
     estimated scf accuracy    <       0.00000316 Ry

     iteration # 13     ecut=    71.00 Ry     beta= 0.10
     Davidson diagonalization with overlap
     ethr =  6.17E-10,  avg # of iterations =  2.0

     End of self-consistent calculation

     Number of k-points >= 100: set verbosity='high' to print the bands.

     the Fermi energy is    23.1142 ev

!    total energy              =  -13813.30026449 Ry

     total all-electron energy =   -289989.690604 Ry
     estimated scf accuracy    <       0.00000025 Ry
     smearing contrib. (-TS)   =       0.02041319 Ry
     internal energy E=F+TS    =  -13813.32067768 Ry

     The total energy is F=E-TS. E is the sum of the following terms:
     one-electron contribution =    -995.58171376 Ry
     hartree contribution      =     916.04581231 Ry
     xc contribution           =    -928.06956118 Ry
     ewald contribution        =   -5216.27205630 Ry
     one-center paw contrib.   =   -7589.44315875 Ry

     convergence has been achieved in  13 iterations

     Forces acting on atoms (cartesian axes, Ry/au):

     atom    1 type  1   force =     0.00000000    0.00000000    0.00000000
     atom    2 type  1   force =    -0.00002801   -0.00002801    0.00000000
     atom    3 type  1   force =    -0.00003609    0.00000936   -0.00000003
     atom    4 type  1   force =     0.00000936   -0.00003609   -0.00000003
     atom    5 type  1   force =     0.00000000    0.00000000    0.00000000
     atom    6 type  1   force =     0.00001575    0.00001575    0.00000000
     atom    7 type  1   force =    -0.00003609    0.00000936    0.00000003
     atom    8 type  1   force =     0.00000936   -0.00003609    0.00000003
     atom    9 type  1   force =     0.00000000    0.00000000    0.00000000
     atom   10 type  1   force =    -0.00001381    0.00001381    0.00000000
     atom   11 type  1   force =     0.00004380   -0.00002157    0.00001892
     atom   12 type  1   force =    -0.00000936    0.00003609   -0.00000003
     atom   13 type  1   force =     0.00000000    0.00000000    0.00000000
     atom   14 type  1   force =     0.00000422   -0.00000422    0.00000000
     atom   15 type  1   force =     0.00004380   -0.00002157   -0.00001892
     atom   16 type  1   force =    -0.00000936    0.00003609    0.00000003
     atom   17 type  1   force =     0.00000000    0.00000000    0.00000000
     atom   18 type  1   force =     0.00001381   -0.00001381    0.00000000
     atom   19 type  1   force =     0.00003609   -0.00000936   -0.00000003
     atom   20 type  1   force =    -0.00002157    0.00004380    0.00001892
     atom   21 type  1   force =     0.00000000    0.00000000    0.00000000
     atom   22 type  1   force =    -0.00000422    0.00000422    0.00000000
     atom   23 type  1   force =     0.00003609   -0.00000936    0.00000003
     atom   24 type  1   force =    -0.00002157    0.00004380   -0.00001892
     atom   25 type  1   force =     0.00000000    0.00000000    0.00000000
     atom   26 type  1   force =     0.00002801    0.00002801    0.00000000
     atom   27 type  1   force =    -0.00004380    0.00002157    0.00001892
     atom   28 type  1   force =     0.00002157   -0.00004380    0.00001892
     atom   29 type  1   force =     0.00000000    0.00000000    0.00000000
     atom   30 type  1   force =    -0.00001575   -0.00001575    0.00000000
     atom   31 type  1   force =    -0.00004380    0.00002157   -0.00001892
     atom   32 type  1   force =     0.00002157   -0.00004380   -0.00001892

     Total force =     0.000195     Total SCF correction =     0.000454
     SCF correction compared to forces is large: reduce conv_thr to get better values

     Computing stress (Cartesian axis) and pressure

          total   stress  (Ry/bohr**3)                   (kbar)     P=       -3.46
  -0.00002336  -0.00008255   0.00000000           -3.44      -12.14        0.00
  -0.00008255  -0.00002336   0.00000000          -12.14       -3.44        0.00
   0.00000000   0.00000000  -0.00002392            0.00        0.00       -3.52

     Writing output data file /scratch/agkupBMUFdONsKzb.save/

     General routines

     Parallel routines

   This run was terminated on:  13:19:33  25Nov2021

   JOB DONE.