     Program PWSCF v.6.7MaX starts on 23Nov2021 at 12:39:54

     R & G space division:  proc/nbgrp/npool/nimage =      72
     Reading input from /rds/homes/b/bxp912/jobs/20211014_ru_eos/wd/eos/eos_006.in
Warning: card &CELL ignored
Warning: card CELL_DYNAMICS = 'BFGS', ignored
Warning: card CELL_FACTOR = 2.0, ignored
Warning: card PRESS = 0.0, ignored
Warning: card / ignored

     Current dimensions of program PWSCF are:
     Max number of different atomic species (ntypx) = 10
     Max number of k-points (npk) =  40000
     Max angular momentum in pseudopotentials (lmaxx) =  3
     file Ru.pbe-spn-kjpaw_psl.1.0.0.UPF: wavefunction(s)  4D renormalized

     Subspace diagonalization in iterative solution of the eigenvalue problem:
     one sub-group per band group will be used

     Found symmetry operation: I + (  0.2500  0.2500  0.0000)
     This is a supercell, fractional translations are disabled
     Message from routine setup:
     using ibrav=0 with symmetry is DISCOURAGED, use correct ibrav instead

     bravais-lattice index     =            0
     lattice parameter (alat)  =      14.4007  a.u.
     unit-cell volume          =    2986.4454 (a.u.)^3
     number of atoms/cell      =           32
     number of atomic types    =            1
     number of electrons       =       512.00
     number of Kohn-Sham states=          307
     kinetic-energy cutoff     =      71.0000  Ry
     charge density cutoff     =     430.0000  Ry
     scf convergence threshold =      1.0E-06
     mixing beta               =       0.1000
     number of iterations used =           10  plain     mixing
     Exchange-correlation= SLA  PW   PBX  PBC
                           (   1   4   3   4   0   0   0)

     celldm(1)=  14.400742  celldm(2)=   0.000000  celldm(3)=   0.000000
     celldm(4)=   0.000000  celldm(5)=   0.000000  celldm(6)=   0.000000

     crystal axes: (cart. coord. in units of alat)
               a(1) = (   1.000000   0.000000   0.000000 )
               a(2) = (   0.000000   1.000000   0.000000 )
               a(3) = (   0.000000   0.000000   1.000000 )

     reciprocal axes: (cart. coord. in units 2 pi/alat)
               b(1) = (  1.000000  0.000000  0.000000 )
               b(2) = (  0.000000  1.000000  0.000000 )
               b(3) = (  0.000000  0.000000  1.000000 )

     PseudoPot. # 1 for Ru read from file:
     /rds/homes/b/bxp912/pp/Ru.pbe-spn-kjpaw_psl.1.0.0.UPF
     MD5 check sum: 0ae1f594dea09af7be8575c3a481d1ae
     Pseudo is Projector augmented-wave + core cor, Zval = 16.0
     Generated using "atomic" code by A. Dal Corso  v.5.1
     Shape of augmentation charge: PSQ
     Using radial grid of 1233 points,  6 beta functions with:
                l(1) =   0
                l(2) =   0
                l(3) =   1
                l(4) =   1
                l(5) =   2
                l(6) =   2
     Q(r) pseudized with 0 coefficients

     atomic species   valence    mass     pseudopotential
        Ru            16.00   101.07000     Ru( 1.00)

     48 Sym. Ops., with inversion, found

   Cartesian axes

     site n.     atom                  positions (alat units)
         1           Ru  tau(   1) = (   0.0000000   0.0000000   0.0000000  )
         2           Ru  tau(   2) = (   0.2500000   0.2500000   0.0000000  )
         3           Ru  tau(   3) = (   0.2500000   0.0000000   0.2499995  )
         4           Ru  tau(   4) = (   0.0000000   0.2500000   0.2499995  )
         5           Ru  tau(   5) = (   0.0000000   0.0000000   0.5000000  )
         6           Ru  tau(   6) = (   0.2499990   0.2499990   0.5000000  )
         7           Ru  tau(   7) = (   0.2500000   0.0000000   0.7499995  )
         8           Ru  tau(   8) = (   0.0000000   0.2500000   0.7499995  )
         9           Ru  tau(   9) = (   0.0000000   0.5000002   0.0000000  )
        10           Ru  tau(  10) = (   0.2500000   0.7500004   0.0000000  )
        11           Ru  tau(  11) = (   0.2499990   0.5000002   0.2499984  )
        12           Ru  tau(  12) = (   0.0000000   0.7500004   0.2499995  )
        13           Ru  tau(  13) = (   0.0000000   0.5000002   0.5000000  )
        14           Ru  tau(  14) = (   0.2499990   0.7500015   0.5000000  )
        15           Ru  tau(  15) = (   0.2499990   0.5000002   0.7500005  )
        16           Ru  tau(  16) = (   0.0000000   0.7500004   0.7499995  )
        17           Ru  tau(  17) = (   0.5000002   0.0000000   0.0000000  )
        18           Ru  tau(  18) = (   0.7500004   0.2500000   0.0000000  )
        19           Ru  tau(  19) = (   0.7500004   0.0000000   0.2499995  )
        20           Ru  tau(  20) = (   0.5000002   0.2499990   0.2499984  )
        21           Ru  tau(  21) = (   0.5000002   0.0000000   0.5000000  )
        22           Ru  tau(  22) = (   0.7500015   0.2499990   0.5000000  )
        23           Ru  tau(  23) = (   0.7500004   0.0000000   0.7499995  )
        24           Ru  tau(  24) = (   0.5000002   0.2499990   0.7500005  )
        25           Ru  tau(  25) = (   0.5000002   0.5000002   0.0000000  )
        26           Ru  tau(  26) = (   0.7500004   0.7500004   0.0000000  )
        27           Ru  tau(  27) = (   0.7500015   0.5000002   0.2499984  )
        28           Ru  tau(  28) = (   0.5000002   0.7500015   0.2499984  )
        29           Ru  tau(  29) = (   0.5000002   0.5000002   0.5000000  )
        30           Ru  tau(  30) = (   0.7500015   0.7500015   0.5000000  )
        31           Ru  tau(  31) = (   0.7500015   0.5000002   0.7500005  )
        32           Ru  tau(  32) = (   0.5000002   0.7500015   0.7500005  )

     number of k points=    35  Marzari-Vanderbilt smearing, width (Ry)=  0.0400
                       cart. coord. in units 2pi/alat
        k(    1) = (   0.0555556   0.0555556   0.0555556), wk =   0.0219479
        k(    2) = (   0.0555556   0.0555556   0.1666667), wk =   0.0658436
        k(    3) = (   0.0555556   0.0555556   0.2777778), wk =   0.0658436
        k(    4) = (   0.0555556   0.0555556   0.3888889), wk =   0.0658436
        k(    5) = (   0.0555556   0.0555556  -0.5000000), wk =   0.0329218
        k(    6) = (   0.0555556   0.1666667   0.1666667), wk =   0.0658436
        k(    7) = (   0.0555556   0.1666667   0.2777778), wk =   0.1316872
        k(    8) = (   0.0555556   0.1666667   0.3888889), wk =   0.1316872
        k(    9) = (   0.0555556   0.1666667  -0.5000000), wk =   0.0658436
        k(   10) = (   0.0555556   0.2777778   0.2777778), wk =   0.0658436
        k(   11) = (   0.0555556   0.2777778   0.3888889), wk =   0.1316872
        k(   12) = (   0.0555556   0.2777778  -0.5000000), wk =   0.0658436
        k(   13) = (   0.0555556   0.3888889   0.3888889), wk =   0.0658436
        k(   14) = (   0.0555556   0.3888889  -0.5000000), wk =   0.0658436
        k(   15) = (   0.0555556  -0.5000000  -0.5000000), wk =   0.0164609
        k(   16) = (   0.1666667   0.1666667   0.1666667), wk =   0.0219479
        k(   17) = (   0.1666667   0.1666667   0.2777778), wk =   0.0658436
        k(   18) = (   0.1666667   0.1666667   0.3888889), wk =   0.0658436
        k(   19) = (   0.1666667   0.1666667  -0.5000000), wk =   0.0329218
        k(   20) = (   0.1666667   0.2777778   0.2777778), wk =   0.0658436
        k(   21) = (   0.1666667   0.2777778   0.3888889), wk =   0.1316872
        k(   22) = (   0.1666667   0.2777778  -0.5000000), wk =   0.0658436
        k(   23) = (   0.1666667   0.3888889   0.3888889), wk =   0.0658436
        k(   24) = (   0.1666667   0.3888889  -0.5000000), wk =   0.0658436
        k(   25) = (   0.1666667  -0.5000000  -0.5000000), wk =   0.0164609
        k(   26) = (   0.2777778   0.2777778   0.2777778), wk =   0.0219479
        k(   27) = (   0.2777778   0.2777778   0.3888889), wk =   0.0658436
        k(   28) = (   0.2777778   0.2777778  -0.5000000), wk =   0.0329218
        k(   29) = (   0.2777778   0.3888889   0.3888889), wk =   0.0658436
        k(   30) = (   0.2777778   0.3888889  -0.5000000), wk =   0.0658436
        k(   31) = (   0.2777778  -0.5000000  -0.5000000), wk =   0.0164609
        k(   32) = (   0.3888889   0.3888889   0.3888889), wk =   0.0219479
        k(   33) = (   0.3888889   0.3888889  -0.5000000), wk =   0.0329218
        k(   34) = (   0.3888889  -0.5000000  -0.5000000), wk =   0.0164609
        k(   35) = (  -0.5000000  -0.5000000  -0.5000000), wk =   0.0027435

     Check: negative core charge=   -0.000002

     Initial potential from superposition of free atoms

     starting charge  511.97959, renormalised to  512.00000
     Starting wfcs are  320 randomized atomic wfcs
     Checking if some PAW data can be deallocated...

     Self-consistent Calculation

     iteration #  1     ecut=    71.00 Ry     beta= 0.10
     Davidson diagonalization with overlap
     ethr =  1.00E-02,  avg # of iterations =  3.5

     Threshold (ethr) on eigenvalues was too large:
     Diagonalizing with lowered threshold

     Davidson diagonalization with overlap
     ethr =  8.38E-05,  avg # of iterations =  5.4

     total energy              =  -13813.41291596 Ry
     estimated scf accuracy    <       0.63775835 Ry

[...]

     total energy              =  -13813.30087371 Ry
     estimated scf accuracy    <       0.00002906 Ry

     iteration # 13     ecut=    71.00 Ry     beta= 0.10
     Davidson diagonalization with overlap
     ethr =  5.23E-10,  avg # of iterations =  3.9

     End of self-consistent calculation

          k = 0.0556 0.0556 0.0556 ( 30224 PWs)   bands (ev):

   -49.9075 -49.8077 -49.8076 -49.8076 -49.7884 -49.7884 -49.7884 -49.7524
   -49.7524 -49.7524 -49.7430 -49.7419 -49.7419 -49.7419 -49.7419 -49.7419
   -49.7418 -49.7413 -49.7413 -49.7413 -49.7330 -49.7330 -49.7330 -49.6876
   -49.6876 -49.6876 -49.6871 -49.6871 -49.6871 -49.6871 -49.6870 -49.6870
   -20.3123 -20.3123 -20.3123 -20.3081 -20.2496 -20.2496 -20.2496 -20.0492
   -20.0492 -20.0492 -20.0378 -20.0378 -20.0378 -20.0378 -20.0378 -20.0378
   -20.0176 -20.0176 -20.0176 -19.9949 -19.9949 -19.9949 -19.9949 -19.9949
   -19.9949 -19.9443 -19.9443 -19.9443 -19.9443 -19.9443 -19.9443 -19.8449
   -19.8449 -19.8449 -19.7718 -19.7718 -19.7718 -19.7640 -19.7640 -19.7640
   -19.7302 -19.7302 -19.7302 -19.7302 -19.7302 -19.7302 -19.6900 -19.6900
   -19.6900 -19.6831 -19.6831 -19.6831 -19.6831 -19.6831 -19.6831 -19.6773
   -19.6773 -19.6773 -19.6727 -19.6727 -19.6727 -19.5101 -19.5101 -19.5101
   -19.5096 -19.5096 -19.5096 -19.4779 -19.4779 -19.4779 -19.4778 -19.4778
   -19.4778 -19.4629 -19.4629 -19.4629 -19.4507 -19.4507 -19.4506 -19.4496
   -19.4496 -19.4496 -19.4496 -19.4496 -19.4495 -19.4476 -19.4476 -19.4476
   -19.4447 -19.4447 -19.4311 -19.4311 -19.4311 -19.3182 -19.3112 -19.3112
    15.3440  16.9011  16.9011  16.9011  17.1811  17.1988  17.1988  17.1988
    17.3695  17.3695  17.3695  17.5980  17.5980  17.5980  17.7692  17.7692
    17.7692  18.3102  18.3102  18.3102  18.3102  18.3102  18.3102  18.6258
    18.6258  18.6258  18.8927  18.8927  18.8927  18.8989  18.8989  18.8990
    18.9982  18.9982  18.9982  19.0019  19.0019  19.0019  19.0019  19.0020
    19.0020  19.4923  19.4923  19.4923  19.4924  19.4924  19.4924  19.6367
    19.6367  19.6367  19.6685  19.6685  19.6685  19.6685  19.6685  19.6685
    19.7329  19.7329  19.7329  19.9962  19.9962  19.9962  19.9973  19.9973
    19.9973  19.9973  19.9973  19.9973  19.9977  19.9977  19.9977  19.9977
    19.9977  19.9977  20.1671  20.1671  20.1672  20.4514  20.4514  20.4514
    20.4876  20.4876  20.5027  20.5027  20.5027  20.5814  20.6128  20.6128
    21.5891  21.5891  21.5891  21.7595  21.7595  21.7596  21.8071  21.8072
    21.8072  21.9074  21.9074  21.9074  21.9074  21.9074  21.9074  21.9212
    21.9213  21.9213  22.2182  22.2182  22.2182  22.3382  22.3382  22.3382
    22.5870  22.5871  22.5871  22.6645  22.6645  22.6645  22.6645  22.6645
    22.6645  22.6831  22.6831  22.6831  22.7232  22.7232  22.7233  22.9130
    22.9130  22.9130  22.9130  22.9130  22.9130  22.9723  22.9723  23.0862
    23.0863  23.0863  23.7476  23.7476  23.7476  23.7941  23.7941  23.7941
    23.9078  23.9078  23.9078  23.9946  24.7273  24.7273  24.7273  24.7695
    24.7695  24.8045  24.8045  24.8045  25.0882  25.0882  25.0882  25.1126
    25.1126  25.1126  25.2746  25.2746  25.2746  25.2746  25.2746  25.2746
    25.2796  25.2796  25.2796  26.7229  26.7229  26.7229  26.8872  26.8872
    26.8872  27.2566  27.2566

[...]

          k = 0.3889-0.5000-0.5000 ( 30188 PWs)   bands (ev):

[...]

          k =-0.5000-0.5000-0.5000 ( 30280 PWs)   bands (ev):

   -49.8261 -49.8259 -49.8259 -49.8259 -49.8257 -49.8257 -49.8257 -49.8255
   -49.7149 -49.7149 -49.7148 -49.7147 -49.7147 -49.7147 -49.7147 -49.7147
   -49.7146 -49.7146 -49.7146 -49.7146 -49.7145 -49.7145 -49.7145 -49.7145
   -49.7144 -49.7144 -49.7143 -49.7143 -49.7143 -49.7143 -49.7142 -49.7141
   -20.1438 -20.1438 -20.1438 -20.1438 -20.1438 -20.1437 -20.1437 -20.1437
   -20.1437 -20.1437 -20.1437 -20.1436 -20.1436 -20.1436 -20.1435 -20.1435
   -20.1435 -20.1435 -20.1435 -20.1435 -20.1434 -20.1434 -20.1434 -20.1434
   -19.8237 -19.8236 -19.8236 -19.8236 -19.8236 -19.8236 -19.8236 -19.8235
   -19.7115 -19.7115 -19.7114 -19.7114 -19.7114 -19.7114 -19.7114 -19.7114
   -19.7114 -19.7113 -19.7113 -19.7113 -19.7113 -19.7113 -19.7113 -19.7113
   -19.7113 -19.7113 -19.7113 -19.7113 -19.7113 -19.7112 -19.7112 -19.7112
   -19.5614 -19.5614 -19.5614 -19.5614 -19.5614 -19.5614 -19.5613 -19.5613
   -19.5613 -19.5613 -19.5613 -19.5613 -19.5612 -19.5612 -19.5612 -19.5612
   -19.5611 -19.5611 -19.5611 -19.5611 -19.5611 -19.5611 -19.5611 -19.5611
   -19.3785 -19.3785 -19.3785 -19.3784 -19.3784 -19.3784 -19.3784 -19.3784
   -19.3783 -19.3783 -19.3783 -19.3783 -19.3782 -19.3782 -19.3782 -19.3782
    17.1429  17.1431  17.1431  17.1431  17.1433  17.1433  17.1433  17.1434
    17.9978  17.9978  17.9978  17.9978  17.9978  17.9978  17.9978  17.9979
    17.9979  17.9979  17.9979  17.9979  17.9980  17.9980  17.9980  17.9980
    17.9980  17.9980  17.9980  17.9980  17.9980  17.9980  17.9980  17.9980
    19.0272  19.0273  19.0273  19.0273  19.0273  19.0274  19.0274  19.0274
    19.0274  19.0274  19.0274  19.0274  19.0275  19.0275  19.0275  19.0275
    19.0275  19.0275  19.0275  19.0275  19.0276  19.0276  19.0276  19.0276
    20.3506  20.3506  20.3506  20.3506  20.3506  20.3506  20.3506  20.3507
    20.9906  20.9906  20.9906  20.9906  20.9906  20.9906  20.9907  20.9907
    20.9907  20.9907  20.9908  20.9908  20.9908  20.9908  20.9908  20.9908
    21.1001  21.1001  21.1001  21.1002  21.1002  21.1002  21.1002  21.1002
    21.1002  21.1002  21.1002  21.1002  21.1003  21.1003  21.1003  21.1003
    21.1003  21.1003  21.1003  21.1003  21.1003  21.1004  21.1004  21.1004
    22.3150  22.3150  22.3150  22.3150  22.3150  22.3150  22.3151  22.3151
    22.3151  22.3151  22.3151  22.3151  22.3151  22.3152  22.3152  22.3152
    22.3152  22.3152  22.3152  22.3153  22.3153  22.3153  22.3153  22.3154
    23.1469  23.1470  23.1470  23.1470  23.1470  23.1471  23.1471  23.1471
    23.1471  23.1471  23.1471  23.1472  23.1472  23.1472  23.1472  23.1473
    24.9446  24.9446  24.9446  24.9446  24.9446  24.9446  24.9446  24.9446
    24.9446  24.9446  24.9447  24.9447  24.9447  24.9447  24.9447  24.9448
    24.9448  24.9448  24.9448  24.9448  24.9448  24.9448  24.9448  24.9448
    28.3250  28.3250  28.3251  28.3251  28.3251  28.3251  28.3251  28.3252
    28.3252  28.3252  28.3253

     the Fermi energy is    23.1144 ev

!    total energy              =  -13813.30088134 Ry

     total all-electron energy =   -289989.691221 Ry
     estimated scf accuracy    <       0.00000008 Ry
     smearing contrib. (-TS)   =       0.02043201 Ry
     internal energy E=F+TS    =  -13813.32131335 Ry

     The total energy is F=E-TS. E is the sum of the following terms:
     one-electron contribution =    -995.54664267 Ry
     hartree contribution      =     916.02038585 Ry
     xc contribution           =    -928.06674863 Ry
     ewald contribution        =   -5216.28554318 Ry
     one-center paw contrib.   =   -7589.44276472 Ry

     convergence has been achieved in  13 iterations

     Forces acting on atoms (cartesian axes, Ry/au):

     atom    1 type  1   force =     0.00000000    0.00000000    0.00000000
     atom    2 type  1   force =    -0.00000178   -0.00000178    0.00000000
     atom    3 type  1   force =    -0.00000178   -0.00000000   -0.00000178
     atom    4 type  1   force =     0.00000000   -0.00000178   -0.00000178
     atom    5 type  1   force =     0.00000000    0.00000000    0.00000000
     atom    6 type  1   force =    -0.00000251   -0.00000251    0.00000000
     atom    7 type  1   force =    -0.00000178    0.00000000    0.00000178
     atom    8 type  1   force =    -0.00000000   -0.00000178    0.00000178
     atom    9 type  1   force =     0.00000000    0.00000000    0.00000000
     atom   10 type  1   force =    -0.00000178    0.00000178   -0.00000000
     atom   11 type  1   force =    -0.00000251    0.00000000   -0.00000251
     atom   12 type  1   force =     0.00000000    0.00000178   -0.00000178
     atom   13 type  1   force =     0.00000000    0.00000000    0.00000000
     atom   14 type  1   force =    -0.00000251    0.00000251    0.00000000
     atom   15 type  1   force =    -0.00000251    0.00000000    0.00000251
     atom   16 type  1   force =    -0.00000000    0.00000178    0.00000178
     atom   17 type  1   force =     0.00000000    0.00000000    0.00000000
     atom   18 type  1   force =     0.00000178   -0.00000178   -0.00000000
     atom   19 type  1   force =     0.00000178   -0.00000000   -0.00000178
     atom   20 type  1   force =     0.00000000   -0.00000251   -0.00000251
     atom   21 type  1   force =     0.00000000    0.00000000    0.00000000
     atom   22 type  1   force =     0.00000251   -0.00000251    0.00000000
     atom   23 type  1   force =     0.00000178   -0.00000000    0.00000178
     atom   24 type  1   force =     0.00000000   -0.00000251    0.00000251
     atom   25 type  1   force =     0.00000000    0.00000000    0.00000000
     atom   26 type  1   force =     0.00000178    0.00000178    0.00000000
     atom   27 type  1   force =     0.00000251    0.00000000   -0.00000251
     atom   28 type  1   force =     0.00000000    0.00000251   -0.00000251
     atom   29 type  1   force =     0.00000000    0.00000000    0.00000000
     atom   30 type  1   force =     0.00000251    0.00000251    0.00000000
     atom   31 type  1   force =     0.00000251    0.00000000    0.00000251
     atom   32 type  1   force =     0.00000000    0.00000251    0.00000251

     Total force =     0.000015     Total SCF correction =     0.000168
     SCF correction compared to forces is large: reduce conv_thr to get better values

     Computing stress (Cartesian axis) and pressure

          total   stress  (Ry/bohr**3)                   (kbar)     P=       -3.97
  -0.00002700   0.00000000   0.00000000           -3.97        0.00        0.00
   0.00000000  -0.00002700   0.00000000            0.00       -3.97        0.00
   0.00000000   0.00000000  -0.00002700            0.00        0.00       -3.97

     Writing output data file /scratch/YOeGveashAdHvkYX.save/

     General routines

     Parallel routines

   This run was terminated on:  12:50:26  23Nov2021

   JOB DONE.