     Program PWSCF v.6.7MaX starts on 26Nov2021 at 22:24:23

     R & G space division:  proc/nbgrp/npool/nimage =      72
     Reading input from fcc_13.in
Warning: card &CELL ignored
Warning: card CELL_DYNAMICS = 'BFGS', ignored
Warning: card CELL_FACTOR = 2.0, ignored
Warning: card PRESS = 0.0, ignored
Warning: card / ignored

     Current dimensions of program PWSCF are:
     Max number of different atomic species (ntypx) = 10
     Max number of k-points (npk) =  40000
     Max angular momentum in pseudopotentials (lmaxx) =  3
     file Pd.pbe-spn-kjpaw_psl.1.0.0.UPF: wavefunction(s)  4S 5S 4D renormalized

     Subspace diagonalization in iterative solution of the eigenvalue problem:
     one sub-group per band group will be used

     Found symmetry operation: I + (  0.2500  0.2500  0.0000)
     This is a supercell, fractional translations are disabled
     Message from routine setup:
     using ibrav=0 with symmetry is DISCOURAGED, use correct ibrav instead

     bravais-lattice index     =            0
     lattice parameter (alat)  =      14.4000  a.u.
     unit-cell volume          =   10894.4243 (a.u.)^3
     number of atoms/cell      =           32
     number of atomic types    =            1
     number of electrons       =       576.00
     number of Kohn-Sham states=          346
     kinetic-energy cutoff     =      71.0000  Ry
     charge density cutoff     =     430.0000  Ry
     scf convergence threshold =      1.0E-06
     mixing beta               =       0.1000
     number of iterations used =           10  TF        mixing
     Exchange-correlation= SLA  PW   PBX  PBC
                           (   1   4   3   4   0   0   0)

     celldm(1)=  14.400000  celldm(2)=   0.000000  celldm(3)=   0.000000
     celldm(4)=   0.000000  celldm(5)=   0.000000  celldm(6)=   0.000000

     crystal axes: (cart. coord. in units of alat)
               a(1) = (   1.539474   0.000000   0.000000 )
               a(2) = (   0.000000   1.539474   0.000000 )
               a(3) = (   0.000000   0.000000   1.539474 )

     reciprocal axes: (cart. coord. in units 2 pi/alat)
               b(1) = (  0.649573  0.000000  0.000000 )
               b(2) = (  0.000000  0.649573  0.000000 )
               b(3) = (  0.000000  0.000000  0.649573 )

     PseudoPot. # 1 for Pd read from file:
     /rds/homes/b/bxp912/pp/Pd.pbe-spn-kjpaw_psl.1.0.0.UPF
     MD5 check sum: 790f2ebce206edfd9790dcb9844eca51
     Pseudo is Projector augmented-wave + core cor, Zval = 18.0
     Generated using &quot;atomic&quot; code by A. Dal Corso  v.6.3
     Shape of augmentation charge: PSQ
     Using radial grid of 1235 points,  6 beta functions with:
                l(1) =   0
                l(2) =   0
                l(3) =   1
                l(4) =   1
                l(5) =   2
                l(6) =   2
     Q(r) pseudized with 0 coefficients

     atomic species   valence    mass     pseudopotential
        Pd            18.00   106.42000     Pd( 1.00)

     48 Sym. Ops., with inversion, found

   Cartesian axes

     site n.     atom                  positions (alat units)
         1           Pd  tau(   1) = (   0.0000000   0.0000000   0.0000000  )
         2           Pd  tau(   2) = (   0.3848684   0.3848684   0.0000000  )
         3           Pd  tau(   3) = (   0.3848684   0.0000000   0.3848684  )
         4           Pd  tau(   4) = (   0.0000000   0.3848684   0.3848684  )
         5           Pd  tau(   5) = (   0.0000000   0.0000000   0.7697368  )
         6           Pd  tau(   6) = (   0.3848684   0.3848684   0.7697368  )
         7           Pd  tau(   7) = (   0.3848684   0.0000000   1.1546053  )
         8           Pd  tau(   8) = (   0.0000000   0.3848684   1.1546053  )
         9           Pd  tau(   9) = (   0.0000000   0.7697368   0.0000000  )
        10           Pd  tau(  10) = (   0.3848684   1.1546053   0.0000000  )
        11           Pd  tau(  11) = (   0.3848684   0.7697368   0.3848684  )
        12           Pd  tau(  12) = (   0.0000000   1.1546053   0.3848684  )
        13           Pd  tau(  13) = (   0.0000000   0.7697368   0.7697368  )
        14           Pd  tau(  14) = (   0.3848684   1.1546053   0.7697368  )
        15           Pd  tau(  15) = (   0.3848684   0.7697368   1.1546053  )
        16           Pd  tau(  16) = (   0.0000000   1.1546053   1.1546053  )
        17           Pd  tau(  17) = (   0.7697368   0.0000000   0.0000000  )
        18           Pd  tau(  18) = (   1.1546053   0.3848684   0.0000000  )
        19           Pd  tau(  19) = (   1.1546053   0.0000000   0.3848684  )
        20           Pd  tau(  20) = (   0.7697368   0.3848684   0.3848684  )
        21           Pd  tau(  21) = (   0.7697368   0.0000000   0.7697368  )
        22           Pd  tau(  22) = (   1.1546053   0.3848684   0.7697368  )
        23           Pd  tau(  23) = (   1.1546053   0.0000000   1.1546053  )
        24           Pd  tau(  24) = (   0.7697368   0.3848684   1.1546053  )
        25           Pd  tau(  25) = (   0.7697368   0.7697368   0.0000000  )
        26           Pd  tau(  26) = (   1.1546053   1.1546053   0.0000000  )
        27           Pd  tau(  27) = (   1.1546053   0.7697368   0.3848684  )
        28           Pd  tau(  28) = (   0.7697368   1.1546053   0.3848684  )
        29           Pd  tau(  29) = (   0.7697368   0.7697368   0.7697368  )
        30           Pd  tau(  30) = (   1.1546053   1.1546053   0.7697368  )
        31           Pd  tau(  31) = (   1.1546053   0.7697368   1.1546053  )
        32           Pd  tau(  32) = (   0.7697368   1.1546053   1.1546053  )

     number of k points=    35  Marzari-Vanderbilt smearing, width (Ry)=  0.0400
                       cart. coord. in units 2pi/alat
        k(    1) = (   0.0360874   0.0360874   0.0360874), wk =   0.0219479
        k(    2) = (   0.0360874   0.0360874   0.1082621), wk =   0.0658436
        k(    3) = (   0.0360874   0.0360874   0.1804368), wk =   0.0658436
        k(    4) = (   0.0360874   0.0360874   0.2526116), wk =   0.0658436
        k(    5) = (   0.0360874   0.0360874  -0.3247863), wk =   0.0329218
        k(    6) = (   0.0360874   0.1082621   0.1082621), wk =   0.0658436
        k(    7) = (   0.0360874   0.1082621   0.1804368), wk =   0.1316872
        k(    8) = (   0.0360874   0.1082621   0.2526116), wk =   0.1316872
        k(    9) = (   0.0360874   0.1082621  -0.3247863), wk =   0.0658436
        k(   10) = (   0.0360874   0.1804368   0.1804368), wk =   0.0658436
        k(   11) = (   0.0360874   0.1804368   0.2526116), wk =   0.1316872
        k(   12) = (   0.0360874   0.1804368  -0.3247863), wk =   0.0658436
        k(   13) = (   0.0360874   0.2526116   0.2526116), wk =   0.0658436
        k(   14) = (   0.0360874   0.2526116  -0.3247863), wk =   0.0658436
        k(   15) = (   0.0360874  -0.3247863  -0.3247863), wk =   0.0164609
        k(   16) = (   0.1082621   0.1082621   0.1082621), wk =   0.0219479
        k(   17) = (   0.1082621   0.1082621   0.1804368), wk =   0.0658436
        k(   18) = (   0.1082621   0.1082621   0.2526116), wk =   0.0658436
        k(   19) = (   0.1082621   0.1082621  -0.3247863), wk =   0.0329218
        k(   20) = (   0.1082621   0.1804368   0.1804368), wk =   0.0658436
        k(   21) = (   0.1082621   0.1804368   0.2526116), wk =   0.1316872
        k(   22) = (   0.1082621   0.1804368  -0.3247863), wk =   0.0658436
        k(   23) = (   0.1082621   0.2526116   0.2526116), wk =   0.0658436
        k(   24) = (   0.1082621   0.2526116  -0.3247863), wk =   0.0658436
        k(   25) = (   0.1082621  -0.3247863  -0.3247863), wk =   0.0164609
        k(   26) = (   0.1804368   0.1804368   0.1804368), wk =   0.0219479
        k(   27) = (   0.1804368   0.1804368   0.2526116), wk =   0.0658436
        k(   28) = (   0.1804368   0.1804368  -0.3247863), wk =   0.0329218
        k(   29) = (   0.1804368   0.2526116   0.2526116), wk =   0.0658436
        k(   30) = (   0.1804368   0.2526116  -0.3247863), wk =   0.0658436
        k(   31) = (   0.1804368  -0.3247863  -0.3247863), wk =   0.0164609
        k(   32) = (   0.2526116   0.2526116   0.2526116), wk =   0.0219479
        k(   33) = (   0.2526116   0.2526116  -0.3247863), wk =   0.0329218
        k(   34) = (   0.2526116  -0.3247863  -0.3247863), wk =   0.0164609
        k(   35) = (  -0.3247863  -0.3247863  -0.3247863), wk =   0.0027435

     Initial potential from superposition of free atoms

     starting charge  575.98776, renormalised to  576.00000
     Starting wfcs are  320 randomized atomic wfcs +   26 random wfcs
     Checking if some PAW data can be deallocated...

     Self-consistent Calculation

     iteration #  1     ecut=    71.00 Ry     beta= 0.10
     Davidson diagonalization with overlap
     ethr =  1.00E-02,  avg # of iterations =  4.6

     total energy              =  -16381.17297597 Ry
     estimated scf accuracy    <      22.30477728 Ry

[...]

     iteration # 15     ecut=    71.00 Ry     beta= 0.10
     Davidson diagonalization with overlap
     c_bands:  1 eigenvalues not converged
     c_bands:  3 eigenvalues not converged
     ethr =  7.41E-06,  avg # of iterations =  4.4

[...]

     iteration # 17     ecut=    71.00 Ry     beta= 0.10
     Davidson diagonalization with overlap
     c_bands:  1 eigenvalues not converged
     ethr =  7.84E-07,  avg # of iterations =  1.5

[...]

     total energy              =  -16377.48226980 Ry
     estimated scf accuracy    <       0.00000109 Ry

     iteration # 27     ecut=    71.00 Ry     beta= 0.10
     Davidson diagonalization with overlap
     ethr =  1.90E-10,  avg # of iterations =  2.0

     End of self-consistent calculation

          k = 0.0361 0.0361 0.0361 (110087 PWs)   bands (ev):

   -80.0960 -80.0960 -80.0960 -80.0960 -80.0960 -80.0960 -80.0960 -80.0960
   -80.0960 -80.0960 -80.0960 -80.0960 -80.0960 -80.0960 -80.0960 -80.0960
   -80.0960 -80.0960 -80.0960 -80.0960 -80.0960 -80.0960 -80.0959 -80.0959
   -80.0959 -80.0959 -80.0959 -80.0959 -80.0959 -80.0959 -80.0959 -80.0957
   -45.8895 -45.8895 -45.8895 -45.8894 -45.8893 -45.8893 -45.8893 -45.8891
   -45.8891 -45.8890 -45.8890 -45.8890 -45.8890 -45.8890 -45.8890 -45.8890
   -45.8889 -45.8889 -45.8889 -45.8889 -45.8889 -45.8889 -45.8889 -45.8889
   -45.8889 -45.8888 -45.8888 -45.8888 -45.8888 -45.8888 -45.8888 -45.8888
   -45.8888 -45.8888 -45.8887 -45.8887 -45.8887 -45.8886 -45.8886 -45.8886
   -45.8886 -45.8886 -45.8886 -45.8885 -45.8885 -45.8885 -45.8885 -45.8885
   -45.8885 -45.8885 -45.8885 -45.8885 -45.8885 -45.8885 -45.8885 -45.8884
   -45.8884 -45.8884 -45.8884 -45.8884 -45.8884 -45.8883 -45.8882 -45.8882
   -45.8882 -45.8882 -45.8882 -45.8882 -45.8882 -45.8882 -45.8882 -45.8882
   -45.8882 -45.8881 -45.8881 -45.8881 -45.8881 -45.8881 -45.8881 -45.8881
   -45.8881 -45.8881 -45.8881 -45.8881 -45.8881 -45.8881 -45.8881 -45.8881
   -45.8880 -45.8880 -45.8880 -45.8880 -45.8880 -45.8879 -45.8879 -45.8879
     0.5798   1.2418   1.2446   1.2446   1.2446   1.2797   1.2797   1.2797
     1.2892   1.2892   1.2892   1.3543   1.3543   1.3543   1.3855   1.3855
     1.3855   1.4089   1.4089   1.4089   1.4320   1.4320   1.4320   1.4432
     1.4432   1.4433   1.4433   1.4433   1.4433   1.4575   1.4575   1.4575
     1.4679   1.4679   1.4680   1.4680   1.4680   1.4680   1.4680   1.4680
     1.4680   1.5186   1.5186   1.5186   1.5186   1.5186   1.5186   1.5229
     1.5229   1.5229   1.5270   1.5270   1.5270   1.5270   1.5270   1.5270
     1.5407   1.5407   1.5407   1.5539   1.5550   1.5550   1.5550   1.5560
     1.5560   1.5569   1.5569   1.5585   1.5585   1.5585   1.5707   1.5707
     1.5707   1.5707   1.5707   1.5707   1.6408   1.6408   1.6408   1.6408
     1.6408   1.6408   1.6518   1.6518   1.6518   1.6600   1.6600   1.6600
     1.6786   1.6786   1.6786   1.6901   1.6901   1.6902   1.6987   1.6987
     1.6987   1.6987   1.6987   1.6987   1.6994   1.6994   1.6994   1.7058
     1.7058   1.7058   1.7330   1.7330   1.7330   1.7370   1.7370   1.7370
     1.7380   1.7380   1.7380   1.7390   1.7390   1.7567   1.7567   1.7567
     1.7568   1.7568   1.7568   1.7586   1.7586   1.7586   1.7586   1.7586
     1.7586   1.7692   1.7692   1.7692   1.8040   1.8040   1.8040   1.8167
     1.8167   1.8167   1.8737   1.8738   1.8738   1.8775   1.8775   1.8775
     1.8817   1.8817   1.8817   1.8850   1.8850   1.8872   1.8872   1.8872
     1.9206   1.9206   1.9206   1.9228   1.9228   1.9228   1.9228   1.9229
     1.9229   1.9231   1.9231   1.9231   2.0727   2.0727   2.0727   2.9002
     2.9002   2.9002   3.1413   3.1413   3.1413   3.1413   3.1413   3.1413
     3.3814   3.3815   3.3815   3.9003   4.0758   4.0759   4.0759   4.7090
     4.7090   4.7090   4.8844   5.0913   5.0913   5.0913   5.3373   5.3374
     5.3374   5.3374   5.3374   5.3374   5.6303   5.6303   5.6303   6.7906
     6.7906   6.7906   6.7906   6.7906   6.7906   7.0834   7.0834   7.0834
     7.0834   7.0834   7.0834   7.3544   7.3544   7.3544   7.5831   7.5831
     7.5831   7.5834

[...]

          k = 0.2526-0.3248-0.3248 (109936 PWs)   bands (ev):

[...]

          k =-0.3248-0.3248-0.3248 (109816 PWs)   bands (ev):

   -80.0960 -80.0960 -80.0960 -80.0960 -80.0960 -80.0960 -80.0960 -80.0960
   -80.0960 -80.0960 -80.0960 -80.0960 -80.0960 -80.0960 -80.0960 -80.0960
   -80.0960 -80.0960 -80.0960 -80.0960 -80.0960 -80.0960 -80.0960 -80.0960
   -80.0960 -80.0960 -80.0960 -80.0959 -80.0959 -80.0959 -80.0959 -80.0957
   -45.8892 -45.8892 -45.8892 -45.8892 -45.8892 -45.8892 -45.8892 -45.8892
   -45.8892 -45.8892 -45.8891 -45.8891 -45.8891 -45.8891 -45.8891 -45.8891
   -45.8891 -45.8891 -45.8891 -45.8891 -45.8891 -45.8891 -45.8891 -45.8891
   -45.8886 -45.8886 -45.8886 -45.8886 -45.8885 -45.8885 -45.8885 -45.8885
   -45.8885 -45.8885 -45.8885 -45.8885 -45.8885 -45.8885 -45.8885 -45.8885
   -45.8885 -45.8885 -45.8885 -45.8885 -45.8885 -45.8885 -45.8885 -45.8885
   -45.8885 -45.8885 -45.8885 -45.8885 -45.8885 -45.8885 -45.8885 -45.8885
   -45.8883 -45.8883 -45.8883 -45.8883 -45.8883 -45.8883 -45.8883 -45.8883
   -45.8883 -45.8883 -45.8883 -45.8883 -45.8883 -45.8882 -45.8882 -45.8882
   -45.8882 -45.8882 -45.8882 -45.8882 -45.8882 -45.8882 -45.8882 -45.8882
   -45.8879 -45.8879 -45.8879 -45.8879 -45.8879 -45.8879 -45.8879 -45.8879
   -45.8879 -45.8879 -45.8879 -45.8879 -45.8879 -45.8878 -45.8878 -45.8878
     1.2042   1.2042   1.2042   1.2042   1.2042   1.2042   1.2042   1.2042
     1.3628   1.3628   1.3628   1.3628   1.3628   1.3628   1.3628   1.3628
     1.3628   1.3628   1.3628   1.3628   1.3628   1.3628   1.3628   1.3628
     1.3628   1.3628   1.3628   1.3628   1.3628   1.3628   1.3628   1.3628
     1.5003   1.5003   1.5003   1.5003   1.5003   1.5003   1.5003   1.5003
     1.5003   1.5003   1.5003   1.5003   1.5003   1.5003   1.5003   1.5003
     1.5003   1.5003   1.5003   1.5003   1.5003   1.5003   1.5003   1.5003
     1.5949   1.5949   1.5949   1.5949   1.5949   1.5949   1.5949   1.5949
     1.5949   1.5949   1.5949   1.5949   1.5949   1.5949   1.5949   1.5949
     1.6918   1.6918   1.6918   1.6918   1.6918   1.6918   1.6918   1.6918
     1.6918   1.6918   1.6918   1.6918   1.6918   1.6918   1.6918   1.6918
     1.6918   1.6918   1.6918   1.6918   1.6918   1.6918   1.6918   1.6918
     1.7176   1.7176   1.7176   1.7176   1.7176   1.7176   1.7176   1.7176
     1.7176   1.7176   1.7176   1.7176   1.7176   1.7176   1.7176   1.7176
     1.7176   1.7176   1.7176   1.7176   1.7176   1.7176   1.7176   1.7176
     1.7464   1.7465   1.7465   1.7465   1.7465   1.7465   1.7465   1.7465
     1.7694   1.7694   1.7694   1.7694   1.7694   1.7694   1.7694   1.7694
     1.7694   1.7694   1.7694   1.7694   1.7694   1.7694   1.7694   1.7694
     1.8970   1.8970   1.8970   1.8970   1.8970   1.8970   1.8970   1.8970
     1.8970   1.8970   1.8970   1.8970   1.8970   1.8970   1.8970   1.8970
     1.8970   1.8970   1.8970   1.8970   1.8970   1.8970   1.8970   1.8970
     3.9440   3.9441   3.9441   3.9441   3.9441   3.9441   3.9441   3.9441
     3.9441   3.9441   3.9441   3.9441   3.9441   3.9441   3.9441   3.9441
     3.9441   3.9441   3.9441   3.9441   3.9441   3.9441   3.9441   3.9441
     6.4217   6.4218   6.4218   6.4218   6.4218   6.4218   6.4218   6.4218
     6.4218   6.4218   6.4218   6.4218   6.4218   6.4218   6.4218   6.4218
     6.4218   6.4218   6.4218   6.4218   6.4218   6.4218   6.4218   6.4218
     8.8394   8.8433

     the Fermi energy is     2.1526 ev

!    total energy              =  -16377.48227214 Ry

     total all-electron energy =   -322938.335979 Ry
     estimated scf accuracy    <       0.00000080 Ry
     smearing contrib. (-TS)   =       0.84422211 Ry
     internal energy E=F+TS    =  -16378.32649425 Ry

     The total energy is F=E-TS. E is the sum of the following terms:
     one-electron contribution =   -6065.88246768 Ry
     hartree contribution      =    3124.67945833 Ry
     xc contribution           =    -981.82268400 Ry
     ewald contribution        =   -4288.60944779 Ry
     one-center paw contrib.   =   -8166.69135311 Ry

     convergence has been achieved in  27 iterations

     Forces acting on atoms (cartesian axes, Ry/au):

     atom    1 type  1   force =     0.00000000    0.00000000    0.00000000
     atom    2 type  1   force =    -0.00003083   -0.00003083    0.00000000
     atom    3 type  1   force =    -0.00003083    0.00000000   -0.00003083
     atom    4 type  1   force =    -0.00000000   -0.00003083   -0.00003083
     atom    5 type  1   force =     0.00000000    0.00000000    0.00000000
     atom    6 type  1   force =     0.00000212    0.00000212    0.00000000
     atom    7 type  1   force =    -0.00003083    0.00000000    0.00003083
     atom    8 type  1   force =     0.00000000   -0.00003083    0.00003083
     atom    9 type  1   force =     0.00000000    0.00000000    0.00000000
     atom   10 type  1   force =    -0.00003083    0.00003083   -0.00000000
     atom   11 type  1   force =     0.00000212    0.00000000    0.00000212
     atom   12 type  1   force =    -0.00000000    0.00003083   -0.00003083
     atom   13 type  1   force =     0.00000000    0.00000000    0.00000000
     atom   14 type  1   force =     0.00000212   -0.00000212    0.00000000
     atom   15 type  1   force =     0.00000212    0.00000000   -0.00000212
     atom   16 type  1   force =    -0.00000000    0.00003083    0.00003083
     atom   17 type  1   force =     0.00000000    0.00000000    0.00000000
     atom   18 type  1   force =     0.00003083   -0.00003083    0.00000000
     atom   19 type  1   force =     0.00003083   -0.00000000   -0.00003083
     atom   20 type  1   force =    -0.00000000    0.00000212    0.00000212
     atom   21 type  1   force =     0.00000000    0.00000000    0.00000000
     atom   22 type  1   force =    -0.00000212    0.00000212    0.00000000
     atom   23 type  1   force =     0.00003083   -0.00000000    0.00003083
     atom   24 type  1   force =     0.00000000    0.00000212   -0.00000212
     atom   25 type  1   force =     0.00000000    0.00000000    0.00000000
     atom   26 type  1   force =     0.00003083    0.00003083    0.00000000
     atom   27 type  1   force =    -0.00000212    0.00000000    0.00000212
     atom   28 type  1   force =     0.00000000   -0.00000212    0.00000212
     atom   29 type  1   force =     0.00000000    0.00000000    0.00000000
     atom   30 type  1   force =    -0.00000212   -0.00000212    0.00000000
     atom   31 type  1   force =    -0.00000212    0.00000000   -0.00000212
     atom   32 type  1   force =    -0.00000000   -0.00000212   -0.00000212

     Total force =     0.000151     Total SCF correction =     0.001280
     SCF correction compared to forces is large: reduce conv_thr to get better values

     Computing stress (Cartesian axis) and pressure

          total   stress  (Ry/bohr**3)                   (kbar)     P=      -67.30
  -0.00045753   0.00000000   0.00000000          -67.30        0.00        0.00
   0.00000000  -0.00045753   0.00000000            0.00      -67.30        0.00
   0.00000000   0.00000000  -0.00045753            0.00        0.00      -67.30

     Writing output data file /scratch/gvRNTazxnUlSahiu.save/

     General routines

     Parallel routines

   This run was terminated on:  23: 6:13  26Nov2021

   JOB DONE.