     Program PWSCF v.6.7MaX starts on 26Nov2021 at 19:15:15

     R & G space division:  proc/nbgrp/npool/nimage =      72
     Reading input from fcc_3.in
Warning: card &CELL ignored
Warning: card CELL_DYNAMICS = 'BFGS', ignored
Warning: card CELL_FACTOR = 2.0, ignored
Warning: card PRESS = 0.0, ignored
Warning: card / ignored

     Current dimensions of program PWSCF are:
     Max number of different atomic species (ntypx) = 10
     Max number of k-points (npk) =  40000
     Max angular momentum in pseudopotentials (lmaxx) =  3
     file Pd.pbe-spn-kjpaw_psl.1.0.0.UPF: wavefunction(s)  4S 5S 4D renormalized

     Subspace diagonalization in iterative solution of the eigenvalue problem:
     one sub-group per band group will be used

     Found symmetry operation: I + (  0.2500  0.2500  0.0000)
     This is a supercell, fractional translations are disabled
     Message from routine setup:
     using ibrav=0 with symmetry is DISCOURAGED, use correct ibrav instead

     bravais-lattice index     =            0
     lattice parameter (alat)  =      14.4000  a.u.
     unit-cell volume          =    2045.8374 (a.u.)^3
     number of atoms/cell      =           32
     number of atomic types    =            1
     number of electrons       =       576.00
     number of Kohn-Sham states=          346
     kinetic-energy cutoff     =      71.0000  Ry
     charge density cutoff     =     430.0000  Ry
     scf convergence threshold =      1.0E-06
     mixing beta               =       0.1000
     number of iterations used =           10  TF        mixing
     Exchange-correlation= SLA  PW   PBX  PBC
                           (   1   4   3   4   0   0   0)

     celldm(1)=  14.400000  celldm(2)=   0.000000  celldm(3)=   0.000000
     celldm(4)=   0.000000  celldm(5)=   0.000000  celldm(6)=   0.000000

     crystal axes: (cart. coord. in units of alat)
               a(1) = (   0.881579   0.000000   0.000000 )
               a(2) = (   0.000000   0.881579   0.000000 )
               a(3) = (   0.000000   0.000000   0.881579 )

     reciprocal axes: (cart. coord. in units 2 pi/alat)
               b(1) = (  1.134328  0.000000  0.000000 )
               b(2) = (  0.000000  1.134328  0.000000 )
               b(3) = (  0.000000  0.000000  1.134328 )

     PseudoPot. # 1 for Pd read from file:
     /rds/homes/b/bxp912/pp/Pd.pbe-spn-kjpaw_psl.1.0.0.UPF
     MD5 check sum: 790f2ebce206edfd9790dcb9844eca51
     Pseudo is Projector augmented-wave + core cor, Zval = 18.0
     Generated using &quot;atomic&quot; code by A. Dal Corso  v.6.3
     Shape of augmentation charge: PSQ
     Using radial grid of 1235 points,  6 beta functions with:
                l(1) =   0
                l(2) =   0
                l(3) =   1
                l(4) =   1
                l(5) =   2
                l(6) =   2
     Q(r) pseudized with 0 coefficients

     atomic species   valence    mass     pseudopotential
        Pd            18.00   106.42000     Pd( 1.00)

     48 Sym. Ops., with inversion, found

   Cartesian axes

     site n.     atom                  positions (alat units)
         1           Pd  tau(   1) = (   0.0000000   0.0000000   0.0000000  )
         2           Pd  tau(   2) = (   0.2203947   0.2203947   0.0000000  )
         3           Pd  tau(   3) = (   0.2203947   0.0000000   0.2203947  )
         4           Pd  tau(   4) = (   0.0000000   0.2203947   0.2203947  )
         5           Pd  tau(   5) = (   0.0000000   0.0000000   0.4407895  )
         6           Pd  tau(   6) = (   0.2203947   0.2203947   0.4407895  )
         7           Pd  tau(   7) = (   0.2203947   0.0000000   0.6611842  )
         8           Pd  tau(   8) = (   0.0000000   0.2203947   0.6611842  )
         9           Pd  tau(   9) = (   0.0000000   0.4407895   0.0000000  )
        10           Pd  tau(  10) = (   0.2203947   0.6611842   0.0000000  )
        11           Pd  tau(  11) = (   0.2203947   0.4407895   0.2203947  )
        12           Pd  tau(  12) = (   0.0000000   0.6611842   0.2203947  )
        13           Pd  tau(  13) = (   0.0000000   0.4407895   0.4407895  )
        14           Pd  tau(  14) = (   0.2203947   0.6611842   0.4407895  )
        15           Pd  tau(  15) = (   0.2203947   0.4407895   0.6611842  )
        16           Pd  tau(  16) = (   0.0000000   0.6611842   0.6611842  )
        17           Pd  tau(  17) = (   0.4407895   0.0000000   0.0000000  )
        18           Pd  tau(  18) = (   0.6611842   0.2203947   0.0000000  )
        19           Pd  tau(  19) = (   0.6611842   0.0000000   0.2203947  )
        20           Pd  tau(  20) = (   0.4407895   0.2203947   0.2203947  )
        21           Pd  tau(  21) = (   0.4407895   0.0000000   0.4407895  )
        22           Pd  tau(  22) = (   0.6611842   0.2203947   0.4407895  )
        23           Pd  tau(  23) = (   0.6611842   0.0000000   0.6611842  )
        24           Pd  tau(  24) = (   0.4407895   0.2203947   0.6611842  )
        25           Pd  tau(  25) = (   0.4407895   0.4407895   0.0000000  )
        26           Pd  tau(  26) = (   0.6611842   0.6611842   0.0000000  )
        27           Pd  tau(  27) = (   0.6611842   0.4407895   0.2203947  )
        28           Pd  tau(  28) = (   0.4407895   0.6611842   0.2203947  )
        29           Pd  tau(  29) = (   0.4407895   0.4407895   0.4407895  )
        30           Pd  tau(  30) = (   0.6611842   0.6611842   0.4407895  )
        31           Pd  tau(  31) = (   0.6611842   0.4407895   0.6611842  )
        32           Pd  tau(  32) = (   0.4407895   0.6611842   0.6611842  )

     number of k points=    35  Marzari-Vanderbilt smearing, width (Ry)=  0.0400
                       cart. coord. in units 2pi/alat
        k(    1) = (   0.0630182   0.0630182   0.0630182), wk =   0.0219479
        k(    2) = (   0.0630182   0.0630182   0.1890547), wk =   0.0658436
        k(    3) = (   0.0630182   0.0630182   0.3150912), wk =   0.0658436
        k(    4) = (   0.0630182   0.0630182   0.4411277), wk =   0.0658436
        k(    5) = (   0.0630182   0.0630182  -0.5671642), wk =   0.0329218
        k(    6) = (   0.0630182   0.1890547   0.1890547), wk =   0.0658436
        k(    7) = (   0.0630182   0.1890547   0.3150912), wk =   0.1316872
        k(    8) = (   0.0630182   0.1890547   0.4411277), wk =   0.1316872
        k(    9) = (   0.0630182   0.1890547  -0.5671642), wk =   0.0658436
        k(   10) = (   0.0630182   0.3150912   0.3150912), wk =   0.0658436
        k(   11) = (   0.0630182   0.3150912   0.4411277), wk =   0.1316872
        k(   12) = (   0.0630182   0.3150912  -0.5671642), wk =   0.0658436
        k(   13) = (   0.0630182   0.4411277   0.4411277), wk =   0.0658436
        k(   14) = (   0.0630182   0.4411277  -0.5671642), wk =   0.0658436
        k(   15) = (   0.0630182  -0.5671642  -0.5671642), wk =   0.0164609
        k(   16) = (   0.1890547   0.1890547   0.1890547), wk =   0.0219479
        k(   17) = (   0.1890547   0.1890547   0.3150912), wk =   0.0658436
        k(   18) = (   0.1890547   0.1890547   0.4411277), wk =   0.0658436
        k(   19) = (   0.1890547   0.1890547  -0.5671642), wk =   0.0329218
        k(   20) = (   0.1890547   0.3150912   0.3150912), wk =   0.0658436
        k(   21) = (   0.1890547   0.3150912   0.4411277), wk =   0.1316872
        k(   22) = (   0.1890547   0.3150912  -0.5671642), wk =   0.0658436
        k(   23) = (   0.1890547   0.4411277   0.4411277), wk =   0.0658436
        k(   24) = (   0.1890547   0.4411277  -0.5671642), wk =   0.0658436
        k(   25) = (   0.1890547  -0.5671642  -0.5671642), wk =   0.0164609
        k(   26) = (   0.3150912   0.3150912   0.3150912), wk =   0.0219479
        k(   27) = (   0.3150912   0.3150912   0.4411277), wk =   0.0658436
        k(   28) = (   0.3150912   0.3150912  -0.5671642), wk =   0.0329218
        k(   29) = (   0.3150912   0.4411277   0.4411277), wk =   0.0658436
        k(   30) = (   0.3150912   0.4411277  -0.5671642), wk =   0.0658436
        k(   31) = (   0.3150912  -0.5671642  -0.5671642), wk =   0.0164609
        k(   32) = (   0.4411277   0.4411277   0.4411277), wk =   0.0219479
        k(   33) = (   0.4411277   0.4411277  -0.5671642), wk =   0.0329218
        k(   34) = (   0.4411277  -0.5671642  -0.5671642), wk =   0.0164609
        k(   35) = (  -0.5671642  -0.5671642  -0.5671642), wk =   0.0027435

     Check: negative core charge=   -0.000002

     Initial potential from superposition of free atoms

     starting charge  575.98776, renormalised to  576.00000
     Starting wfcs are  320 randomized atomic wfcs +   26 random wfcs
     Checking if some PAW data can be deallocated...

     Self-consistent Calculation

     iteration #  1     ecut=    71.00 Ry     beta= 0.10
     Davidson diagonalization with overlap
     ethr =  1.00E-02,  avg # of iterations =  4.0

     Threshold (ethr) on eigenvalues was too large:
     Diagonalizing with lowered threshold

     Davidson diagonalization with overlap
     c_bands:  1 eigenvalues not converged
     ethr =  1.17E-05,  avg # of iterations =  8.2

     total energy              =  -16377.32715946 Ry
     estimated scf accuracy    <       0.05564428 Ry

[...]

     iteration #  4     ecut=    71.00 Ry     beta= 0.10
     Davidson diagonalization with overlap
     c_bands:  1 eigenvalues not converged
     ethr =  9.19E-07,  avg # of iterations =  4.8

[...]

     iteration #  6     ecut=    71.00 Ry     beta= 0.10
     Davidson diagonalization with overlap
     c_bands:  1 eigenvalues not converged
     ethr =  1.03E-07,  avg # of iterations =  2.5

[...]

     total energy              =  -16377.31161929 Ry
     estimated scf accuracy    <       0.00000144 Ry

     iteration # 11     ecut=    71.00 Ry     beta= 0.10
     Davidson diagonalization with overlap
     ethr =  2.51E-10,  avg # of iterations =  1.8

     End of self-consistent calculation

          k = 0.0630 0.0630 0.0630 ( 20608 PWs)   bands (ev):

   -51.2359 -51.0165 -51.0165 -51.0164 -50.9739 -50.9739 -50.9739 -50.8937
   -50.8937 -50.8937 -50.8722 -50.8703 -50.8703 -50.8703 -50.8703 -50.8703
   -50.8702 -50.8684 -50.8684 -50.8684 -50.8506 -50.8506 -50.8505 -50.7497
   -50.7497 -50.7497 -50.7485 -50.7485 -50.7484 -50.7484 -50.7484 -50.7484
   -17.8361 -17.8360 -17.8360 -17.8288 -17.7114 -17.7114 -17.7114 -17.3491
   -17.3491 -17.3490 -17.3280 -17.3280 -17.3280 -17.3280 -17.3279 -17.3279
   -17.2905 -17.2905 -17.2904 -17.2428 -17.2428 -17.2428 -17.2428 -17.2428
   -17.2428 -17.1487 -17.1487 -17.1487 -17.1487 -17.1487 -17.1487 -16.9687
   -16.9687 -16.9687 -16.8315 -16.8315 -16.8315 -16.8191 -16.8191 -16.8191
   -16.7542 -16.7542 -16.7542 -16.7541 -16.7541 -16.7541 -16.6794 -16.6794
   -16.6794 -16.6638 -16.6638 -16.6638 -16.6638 -16.6638 -16.6638 -16.6458
   -16.6458 -16.6458 -16.6371 -16.6371 -16.6371 -16.3408 -16.3408 -16.3408
   -16.3397 -16.3397 -16.3397 -16.2818 -16.2817 -16.2817 -16.2814 -16.2814
   -16.2814 -16.2490 -16.2490 -16.2490 -16.2258 -16.2258 -16.2258 -16.2246
   -16.2246 -16.2246 -16.2245 -16.2245 -16.2245 -16.2198 -16.2197 -16.2197
   -16.2145 -16.2145 -16.1904 -16.1904 -16.1904 -15.9866 -15.9737 -15.9737
    24.0310  24.4007  24.4007  24.4007  24.8990  24.8990  24.8990  25.1076
    25.1273  25.1273  25.1273  26.3161  26.3161  26.3161  26.3161  26.3161
    26.3161  26.3870  26.3870  26.3870  26.4679  26.4679  26.4679  26.5764
    26.5764  26.5764  26.9421  26.9421  26.9421  27.4341  27.4341  27.4341
    27.6081  27.6081  27.6081  27.6081  27.6081  27.6081  27.6215  27.6215
    27.6215  27.9933  27.9933  27.9933  27.9933  27.9933  27.9933  28.1673
    28.1673  28.1673  28.1673  28.1673  28.1673  28.1721  28.1721  28.1721
    28.2984  28.2984  28.2984  28.7160  28.7160  28.7160  28.7160  28.7160
    28.7160  28.9670  28.9670  28.9670  28.9670  28.9670  28.9670  29.0388
    29.0388  29.0388  29.0461  29.0461  29.0461  29.0946  29.0946  29.1017
    29.1017  29.1017  29.1156  29.1156  29.1156  29.2249  29.2668  29.2668
    30.9008  30.9008  30.9008  30.9978  30.9978  30.9978  31.0635  31.0635
    31.0635  31.0635  31.0635  31.0635  31.0640  31.0640  31.0640  31.4610
    31.4610  31.4610  31.4952  31.4952  31.4952  31.7898  31.7898  31.7898
    32.0018  32.0018  32.0018  32.0678  32.0678  32.0678  32.1322  32.1322
    32.1322  32.1322  32.1322  32.1322  32.3706  32.3706  32.3706  32.3847
    32.3847  32.3847  32.3848  32.3848  32.3848  32.4995  32.4995  32.6177
    32.6177  32.6177  33.5586  33.5586  33.5586  33.7786  33.7787  33.7787
    34.3261  34.3261  34.3261  34.9119  34.9119  34.9119  34.9522  34.9522
    35.0005  35.0006  35.0006  35.0813  35.4835  35.4835  35.4835  35.6444
    35.6444  35.6444  35.6445  35.6445  35.6445  35.6504  35.6505  35.6505
    35.8916  35.8916  35.8916  38.1036  38.1036  38.1036  38.8872  38.8872
    38.8872  38.8872  38.8872  38.8872  38.9399  38.9399  38.9399  39.6529
    39.6529  39.6529  46.7065  46.7065  46.7065  46.7065  46.7065  46.7065
    47.0735  47.0735  47.0735  47.2096  47.5356  47.5356  47.5356  47.5356
    47.5356  47.5356  49.9042  49.9042  49.9042  49.9043  49.9043  49.9043
    50.6662  50.6663  50.8860  50.8877  50.8877  50.9957  50.9960  50.9960
    50.9960  50.9960

[...]

          k = 0.4411-0.5672-0.5672 ( 20668 PWs)   bands (ev):

[...]

          k =-0.5672-0.5672-0.5672 ( 20672 PWs)   bands (ev):

   -51.0564 -51.0564 -51.0564 -51.0563 -51.0563 -51.0563 -51.0563 -51.0563
   -50.8096 -50.8096 -50.8096 -50.8095 -50.8095 -50.8095 -50.8095 -50.8095
   -50.8095 -50.8095 -50.8095 -50.8095 -50.8095 -50.8095 -50.8095 -50.8095
   -50.8095 -50.8095 -50.8095 -50.8095 -50.8095 -50.8095 -50.8095 -50.8093
   -17.5213 -17.5213 -17.5213 -17.5213 -17.5213 -17.5213 -17.5213 -17.5213
   -17.5213 -17.5213 -17.5213 -17.5213 -17.5213 -17.5213 -17.5213 -17.5213
   -17.5213 -17.5213 -17.5213 -17.5213 -17.5213 -17.5212 -17.5212 -17.5212
   -16.9328 -16.9327 -16.9327 -16.9327 -16.9327 -16.9327 -16.9327 -16.9327
   -16.7172 -16.7171 -16.7171 -16.7171 -16.7171 -16.7171 -16.7171 -16.7171
   -16.7171 -16.7171 -16.7171 -16.7171 -16.7171 -16.7171 -16.7171 -16.7171
   -16.7171 -16.7171 -16.7171 -16.7171 -16.7170 -16.7170 -16.7170 -16.7170
   -16.4313 -16.4313 -16.4313 -16.4313 -16.4313 -16.4313 -16.4313 -16.4313
   -16.4313 -16.4313 -16.4313 -16.4313 -16.4313 -16.4313 -16.4313 -16.4313
   -16.4313 -16.4313 -16.4313 -16.4313 -16.4313 -16.4312 -16.4312 -16.4312
   -16.0955 -16.0955 -16.0955 -16.0955 -16.0955 -16.0954 -16.0954 -16.0954
   -16.0954 -16.0954 -16.0954 -16.0954 -16.0954 -16.0954 -16.0954 -16.0954
    25.8272  25.8272  25.8272  25.8272  25.8272  25.8272  25.8272  25.8272
    25.9370  25.9370  25.9370  25.9370  25.9370  25.9370  25.9370  25.9370
    25.9370  25.9370  25.9370  25.9370  25.9370  25.9370  25.9370  25.9370
    25.9371  25.9371  25.9371  25.9371  25.9371  25.9371  25.9371  25.9371
    27.3400  27.3400  27.3400  27.3400  27.3400  27.3400  27.3400  27.3400
    27.3400  27.3400  27.3400  27.3400  27.3400  27.3400  27.3401  27.3401
    27.3401  27.3401  27.3401  27.3401  27.3401  27.3401  27.3401  27.3401
    29.5702  29.5702  29.5702  29.5702  29.5702  29.5702  29.5702  29.5702
    29.7822  29.7822  29.7822  29.7822  29.7822  29.7822  29.7822  29.7822
    29.7822  29.7822  29.7822  29.7823  29.7823  29.7823  29.7823  29.7823
    30.4020  30.4020  30.4020  30.4020  30.4020  30.4020  30.4020  30.4020
    30.4020  30.4020  30.4020  30.4020  30.4020  30.4020  30.4020  30.4020
    30.4020  30.4020  30.4020  30.4020  30.4020  30.4021  30.4021  30.4021
    31.6124  31.6124  31.6124  31.6124  31.6124  31.6124  31.6124  31.6124
    31.6124  31.6124  31.6124  31.6124  31.6124  31.6124  31.6124  31.6124
    31.6124  31.6124  31.6124  31.6125  31.6125  31.6125  31.6125  31.6125
    32.7233  32.7233  32.7233  32.7233  32.7233  32.7233  32.7233  32.7233
    32.7233  32.7233  32.7233  32.7233  32.7233  32.7233  32.7234  32.7234
    35.1943  35.1943  35.1943  35.1943  35.1943  35.1943  35.1943  35.1943
    35.1943  35.1943  35.1943  35.1943  35.1943  35.1943  35.1943  35.1943
    35.1944  35.1944  35.1944  35.1944  35.1944  35.1944  35.1944  35.1944
    40.4807  40.4807  40.4807  40.4807  40.4807  40.4807  40.4807  40.4807
    40.4807  40.4807  40.4807  40.4807  40.4807  40.4807  40.4807  40.4807
    40.4807  40.4807  40.4807  40.4807  40.4807  40.4807  40.4807  40.4807
    47.8214  47.8214  47.8214  47.8214  47.8214  47.8214  47.8214  47.8214
    47.8214  47.8214  47.8214  47.8214  47.8214  47.8214  47.8214  47.8214
    47.8214  47.8214  47.8214  47.8214  47.8214  47.8214  47.8214  47.8215
    52.0255  52.0255

     the Fermi energy is    35.0540 ev

!    total energy              =  -16377.31162430 Ry

     total all-electron energy =   -322938.165331 Ry
     estimated scf accuracy    <       0.00000093 Ry
     smearing contrib. (-TS)   =      -0.01491534 Ry
     internal energy E=F+TS    =  -16377.29670896 Ry

     The total energy is F=E-TS. E is the sum of the following terms:
     one-electron contribution =    -860.59773912 Ry
     hartree contribution      =    1145.60471222 Ry
     xc contribution           =   -1005.06482782 Ry
     ewald contribution        =   -7489.06425957 Ry
     one-center paw contrib.   =   -8168.17459466 Ry

     convergence has been achieved in  11 iterations

     Forces acting on atoms (cartesian axes, Ry/au):

     atom    1 type  1   force =     0.00000000    0.00000000    0.00000000
     atom    2 type  1   force =     0.00000868    0.00000868    0.00000000
     atom    3 type  1   force =     0.00000868   -0.00000000    0.00000868
     atom    4 type  1   force =     0.00000000    0.00000868    0.00000868
     atom    5 type  1   force =     0.00000000    0.00000000    0.00000000
     atom    6 type  1   force =    -0.00001311   -0.00001311    0.00000000
     atom    7 type  1   force =     0.00000868    0.00000000   -0.00000868
     atom    8 type  1   force =     0.00000000    0.00000868   -0.00000868
     atom    9 type  1   force =     0.00000000    0.00000000    0.00000000
     atom   10 type  1   force =     0.00000868   -0.00000868    0.00000000
     atom   11 type  1   force =    -0.00001311   -0.00000000   -0.00001311
     atom   12 type  1   force =     0.00000000   -0.00000868    0.00000868
     atom   13 type  1   force =     0.00000000    0.00000000    0.00000000
     atom   14 type  1   force =    -0.00001311    0.00001311   -0.00000000
     atom   15 type  1   force =    -0.00001311    0.00000000    0.00001311
     atom   16 type  1   force =     0.00000000   -0.00000868   -0.00000868
     atom   17 type  1   force =     0.00000000    0.00000000    0.00000000
     atom   18 type  1   force =    -0.00000868    0.00000868    0.00000000
     atom   19 type  1   force =    -0.00000868    0.00000000    0.00000868
     atom   20 type  1   force =    -0.00000000   -0.00001311   -0.00001311
     atom   21 type  1   force =     0.00000000    0.00000000    0.00000000
     atom   22 type  1   force =     0.00001311   -0.00001311   -0.00000000
     atom   23 type  1   force =    -0.00000868   -0.00000000   -0.00000868
     atom   24 type  1   force =    -0.00000000   -0.00001311    0.00001311
     atom   25 type  1   force =     0.00000000    0.00000000    0.00000000
     atom   26 type  1   force =    -0.00000868   -0.00000868    0.00000000
     atom   27 type  1   force =     0.00001311   -0.00000000   -0.00001311
     atom   28 type  1   force =     0.00000000    0.00001311   -0.00001311
     atom   29 type  1   force =     0.00000000    0.00000000    0.00000000
     atom   30 type  1   force =     0.00001311    0.00001311    0.00000000
     atom   31 type  1   force =     0.00001311    0.00000000    0.00001311
     atom   32 type  1   force =     0.00000000    0.00001311    0.00001311

     Total force =     0.000077     Total SCF correction =     0.000455
     SCF correction compared to forces is large: reduce conv_thr to get better values

     Computing stress (Cartesian axis) and pressure

          total   stress  (Ry/bohr**3)                   (kbar)     P=     2889.95
   0.01964550   0.00000000   0.00000000         2889.95        0.00        0.00
   0.00000000   0.01964550   0.00000000            0.00     2889.95        0.00
   0.00000000   0.00000000   0.01964550            0.00        0.00     2889.95

     Writing output data file /scratch/GghMviRozrucfGkE.save/

     General routines

     Parallel routines

   This run was terminated on:  19:23:50  26Nov2021

   JOB DONE.