     Program PWSCF v.6.7MaX starts on 26Nov2021 at 19:34:24

     R & G space division:  proc/nbgrp/npool/nimage =      72
     Reading input from fcc_5.in
Warning: card &CELL ignored
Warning: card CELL_DYNAMICS = 'BFGS', ignored
Warning: card CELL_FACTOR = 2.0, ignored
Warning: card PRESS = 0.0, ignored
Warning: card / ignored

     Current dimensions of program PWSCF are:
     Max number of different atomic species (ntypx) = 10
     Max number of k-points (npk) =  40000
     Max angular momentum in pseudopotentials (lmaxx) =  3
     file Pd.pbe-spn-kjpaw_psl.1.0.0.UPF: wavefunction(s)  4S 5S 4D renormalized

     Subspace diagonalization in iterative solution of the eigenvalue problem:
     one sub-group per band group will be used

     Found symmetry operation: I + (  0.2500  0.2500  0.0000)
     This is a supercell, fractional translations are disabled
     Message from routine setup:
     using ibrav=0 with symmetry is DISCOURAGED, use correct ibrav instead

     bravais-lattice index     =            0
     lattice parameter (alat)  =      14.4000  a.u.
     unit-cell volume          =    3105.4095 (a.u.)^3
     number of atoms/cell      =           32
     number of atomic types    =            1
     number of electrons       =       576.00
     number of Kohn-Sham states=          346
     kinetic-energy cutoff     =      71.0000  Ry
     charge density cutoff     =     430.0000  Ry
     scf convergence threshold =      1.0E-06
     mixing beta               =       0.1000
     number of iterations used =           10  TF        mixing
     Exchange-correlation= SLA  PW   PBX  PBC
                           (   1   4   3   4   0   0   0)

     celldm(1)=  14.400000  celldm(2)=   0.000000  celldm(3)=   0.000000
     celldm(4)=   0.000000  celldm(5)=   0.000000  celldm(6)=   0.000000

     crystal axes: (cart. coord. in units of alat)
               a(1) = (   1.013158   0.000000   0.000000 )
               a(2) = (   0.000000   1.013158   0.000000 )
               a(3) = (   0.000000   0.000000   1.013158 )

     reciprocal axes: (cart. coord. in units 2 pi/alat)
               b(1) = (  0.987013  0.000000  0.000000 )
               b(2) = (  0.000000  0.987013  0.000000 )
               b(3) = (  0.000000  0.000000  0.987013 )

     PseudoPot. # 1 for Pd read from file:
     /rds/homes/b/bxp912/pp/Pd.pbe-spn-kjpaw_psl.1.0.0.UPF
     MD5 check sum: 790f2ebce206edfd9790dcb9844eca51
     Pseudo is Projector augmented-wave + core cor, Zval = 18.0
     Generated using &quot;atomic&quot; code by A. Dal Corso  v.6.3
     Shape of augmentation charge: PSQ
     Using radial grid of 1235 points,  6 beta functions with:
                l(1) =   0
                l(2) =   0
                l(3) =   1
                l(4) =   1
                l(5) =   2
                l(6) =   2
     Q(r) pseudized with 0 coefficients

     atomic species   valence    mass     pseudopotential
        Pd            18.00   106.42000     Pd( 1.00)

     48 Sym. Ops., with inversion, found

   Cartesian axes

     site n.     atom                  positions (alat units)
         1           Pd  tau(   1) = (   0.0000000   0.0000000   0.0000000  )
         2           Pd  tau(   2) = (   0.2532895   0.2532895   0.0000000  )
         3           Pd  tau(   3) = (   0.2532895   0.0000000   0.2532895  )
         4           Pd  tau(   4) = (   0.0000000   0.2532895   0.2532895  )
         5           Pd  tau(   5) = (   0.0000000   0.0000000   0.5065789  )
         6           Pd  tau(   6) = (   0.2532895   0.2532895   0.5065789  )
         7           Pd  tau(   7) = (   0.2532895   0.0000000   0.7598684  )
         8           Pd  tau(   8) = (   0.0000000   0.2532895   0.7598684  )
         9           Pd  tau(   9) = (   0.0000000   0.5065789   0.0000000  )
        10           Pd  tau(  10) = (   0.2532895   0.7598684   0.0000000  )
        11           Pd  tau(  11) = (   0.2532895   0.5065789   0.2532895  )
        12           Pd  tau(  12) = (   0.0000000   0.7598684   0.2532895  )
        13           Pd  tau(  13) = (   0.0000000   0.5065789   0.5065789  )
        14           Pd  tau(  14) = (   0.2532895   0.7598684   0.5065789  )
        15           Pd  tau(  15) = (   0.2532895   0.5065789   0.7598684  )
        16           Pd  tau(  16) = (   0.0000000   0.7598684   0.7598684  )
        17           Pd  tau(  17) = (   0.5065789   0.0000000   0.0000000  )
        18           Pd  tau(  18) = (   0.7598684   0.2532895   0.0000000  )
        19           Pd  tau(  19) = (   0.7598684   0.0000000   0.2532895  )
        20           Pd  tau(  20) = (   0.5065789   0.2532895   0.2532895  )
        21           Pd  tau(  21) = (   0.5065789   0.0000000   0.5065789  )
        22           Pd  tau(  22) = (   0.7598684   0.2532895   0.5065789  )
        23           Pd  tau(  23) = (   0.7598684   0.0000000   0.7598684  )
        24           Pd  tau(  24) = (   0.5065789   0.2532895   0.7598684  )
        25           Pd  tau(  25) = (   0.5065789   0.5065789   0.0000000  )
        26           Pd  tau(  26) = (   0.7598684   0.7598684   0.0000000  )
        27           Pd  tau(  27) = (   0.7598684   0.5065789   0.2532895  )
        28           Pd  tau(  28) = (   0.5065789   0.7598684   0.2532895  )
        29           Pd  tau(  29) = (   0.5065789   0.5065789   0.5065789  )
        30           Pd  tau(  30) = (   0.7598684   0.7598684   0.5065789  )
        31           Pd  tau(  31) = (   0.7598684   0.5065789   0.7598684  )
        32           Pd  tau(  32) = (   0.5065789   0.7598684   0.7598684  )

     number of k points=    35  Marzari-Vanderbilt smearing, width (Ry)=  0.0400
                       cart. coord. in units 2pi/alat
        k(    1) = (   0.0548341   0.0548341   0.0548341), wk =   0.0219479
        k(    2) = (   0.0548341   0.0548341   0.1645022), wk =   0.0658436
        k(    3) = (   0.0548341   0.0548341   0.2741703), wk =   0.0658436
        k(    4) = (   0.0548341   0.0548341   0.3838384), wk =   0.0658436
        k(    5) = (   0.0548341   0.0548341  -0.4935065), wk =   0.0329218
        k(    6) = (   0.0548341   0.1645022   0.1645022), wk =   0.0658436
        k(    7) = (   0.0548341   0.1645022   0.2741703), wk =   0.1316872
        k(    8) = (   0.0548341   0.1645022   0.3838384), wk =   0.1316872
        k(    9) = (   0.0548341   0.1645022  -0.4935065), wk =   0.0658436
        k(   10) = (   0.0548341   0.2741703   0.2741703), wk =   0.0658436
        k(   11) = (   0.0548341   0.2741703   0.3838384), wk =   0.1316872
        k(   12) = (   0.0548341   0.2741703  -0.4935065), wk =   0.0658436
        k(   13) = (   0.0548341   0.3838384   0.3838384), wk =   0.0658436
        k(   14) = (   0.0548341   0.3838384  -0.4935065), wk =   0.0658436
        k(   15) = (   0.0548341  -0.4935065  -0.4935065), wk =   0.0164609
        k(   16) = (   0.1645022   0.1645022   0.1645022), wk =   0.0219479
        k(   17) = (   0.1645022   0.1645022   0.2741703), wk =   0.0658436
        k(   18) = (   0.1645022   0.1645022   0.3838384), wk =   0.0658436
        k(   19) = (   0.1645022   0.1645022  -0.4935065), wk =   0.0329218
        k(   20) = (   0.1645022   0.2741703   0.2741703), wk =   0.0658436
        k(   21) = (   0.1645022   0.2741703   0.3838384), wk =   0.1316872
        k(   22) = (   0.1645022   0.2741703  -0.4935065), wk =   0.0658436
        k(   23) = (   0.1645022   0.3838384   0.3838384), wk =   0.0658436
        k(   24) = (   0.1645022   0.3838384  -0.4935065), wk =   0.0658436
        k(   25) = (   0.1645022  -0.4935065  -0.4935065), wk =   0.0164609
        k(   26) = (   0.2741703   0.2741703   0.2741703), wk =   0.0219479
        k(   27) = (   0.2741703   0.2741703   0.3838384), wk =   0.0658436
        k(   28) = (   0.2741703   0.2741703  -0.4935065), wk =   0.0329218
        k(   29) = (   0.2741703   0.3838384   0.3838384), wk =   0.0658436
        k(   30) = (   0.2741703   0.3838384  -0.4935065), wk =   0.0658436
        k(   31) = (   0.2741703  -0.4935065  -0.4935065), wk =   0.0164609
        k(   32) = (   0.3838384   0.3838384   0.3838384), wk =   0.0219479
        k(   33) = (   0.3838384   0.3838384  -0.4935065), wk =   0.0329218
        k(   34) = (   0.3838384  -0.4935065  -0.4935065), wk =   0.0164609
        k(   35) = (  -0.4935065  -0.4935065  -0.4935065), wk =   0.0027435

     Check: negative core charge=   -0.000002

     Initial potential from superposition of free atoms

     starting charge  575.98776, renormalised to  576.00000
     Starting wfcs are  320 randomized atomic wfcs +   26 random wfcs
     Checking if some PAW data can be deallocated...

     Self-consistent Calculation

     iteration #  1     ecut=    71.00 Ry     beta= 0.10
     Davidson diagonalization with overlap
     ethr =  1.00E-02,  avg # of iterations =  3.0

     Threshold (ethr) on eigenvalues was too large:
     Diagonalizing with lowered threshold

     Davidson diagonalization with overlap
     ethr =  6.36E-05,  avg # of iterations =  4.2

     total energy              =  -16384.94964026 Ry
     estimated scf accuracy    <       0.33504155 Ry

[...]

     total energy              =  -16384.88418609 Ry
     estimated scf accuracy    <       0.00000322 Ry

     iteration # 12     ecut=    71.00 Ry     beta= 0.10
     Davidson diagonalization with overlap
     ethr =  5.59E-10,  avg # of iterations =  2.0

     End of self-consistent calculation

          k = 0.0548 0.0548 0.0548 ( 31379 PWs)   bands (ev):

   -63.6643 -63.6275 -63.6275 -63.6275 -63.6204 -63.6204 -63.6204 -63.6074
   -63.6074 -63.6074 -63.6040 -63.6035 -63.6035 -63.6035 -63.6035 -63.6035
   -63.6035 -63.6034 -63.6034 -63.6034 -63.6003 -63.6003 -63.6003 -63.5836
   -63.5836 -63.5836 -63.5835 -63.5835 -63.5835 -63.5835 -63.5835 -63.5835
   -29.5865 -29.5865 -29.5864 -29.5846 -29.5612 -29.5612 -29.5612 -29.4681
   -29.4681 -29.4681 -29.4629 -29.4629 -29.4629 -29.4629 -29.4629 -29.4629
   -29.4536 -29.4536 -29.4536 -29.4466 -29.4466 -29.4466 -29.4465 -29.4465
   -29.4465 -29.4239 -29.4239 -29.4239 -29.4239 -29.4239 -29.4239 -29.3755
   -29.3755 -29.3755 -29.3455 -29.3455 -29.3455 -29.3387 -29.3387 -29.3387
   -29.3268 -29.3268 -29.3268 -29.3268 -29.3268 -29.3267 -29.3086 -29.3086
   -29.3086 -29.3069 -29.3069 -29.3069 -29.3069 -29.3069 -29.3069 -29.3065
   -29.3065 -29.3065 -29.3045 -29.3045 -29.3045 -29.2289 -29.2289 -29.2289
   -29.2286 -29.2286 -29.2286 -29.2139 -29.2139 -29.2139 -29.2138 -29.2138
   -29.2138 -29.2089 -29.2089 -29.2089 -29.2034 -29.2033 -29.2033 -29.2028
   -29.2028 -29.2028 -29.2027 -29.2027 -29.2027 -29.2020 -29.2020 -29.2020
   -29.2007 -29.2007 -29.1943 -29.1943 -29.1943 -29.1401 -29.1370 -29.1370
    13.2698  14.9843  14.9843  14.9844  15.0897  15.1040  15.1040  15.1040
    15.2822  15.2822  15.2822  15.3609  15.3609  15.3609  15.5467  15.5467
    15.5467  16.0694  16.0694  16.0694  16.0695  16.0695  16.0695  16.2416
    16.2416  16.2416  16.4386  16.4386  16.4386  16.4433  16.4433  16.4433
    16.5154  16.5154  16.5154  16.5200  16.5200  16.5200  16.5200  16.5200
    16.5200  16.8711  16.8711  16.8711  16.8711  16.8711  16.8711  16.9868
    16.9868  16.9868  17.0096  17.0096  17.0096  17.0097  17.0097  17.0097
    17.0693  17.0693  17.0693  17.2551  17.2551  17.2551  17.2551  17.2551
    17.2551  17.3624  17.3624  17.3624  17.3647  17.3647  17.3647  17.3647
    17.3647  17.3647  17.4803  17.4803  17.4803  17.5581  17.5581  17.5581
    17.5812  17.5812  17.5926  17.5926  17.5926  17.6162  17.6375  17.6375
    18.4962  18.4962  18.4962  18.5601  18.5601  18.5601  18.6387  18.6387
    18.6387  18.6387  18.6387  18.6387  18.6453  18.6453  18.6453  18.6981
    18.6981  18.6981  18.8153  18.8153  18.8153  18.9422  18.9422  18.9422
    19.0800  19.0800  19.0800  19.1420  19.1420  19.1420  19.2155  19.2155
    19.2155  19.2155  19.2155  19.2155  19.2389  19.2389  19.2389  19.3003
    19.3003  19.3030  19.3030  19.3030  19.3030  19.3030  19.3030  19.4220
    19.4220  19.4220  19.8482  19.8482  19.8482  19.9590  19.9590  19.9590
    20.3593  20.3593  20.3593  20.5131  20.5131  20.5131  20.5420  20.5420
    20.5642  20.5642  20.5642  20.8135  20.8135  20.8135  20.8756  20.8756
    20.8756  20.8757  20.8757  20.8757  20.8789  20.8789  20.8789  21.4026
    21.7417  21.7417  21.7417  22.4425  22.4425  22.4425  22.9748  22.9748
    22.9748  22.9748  22.9748  22.9748  23.5244  23.5244  23.5244  23.9736
    23.9736  23.9736  28.1297  28.1297  28.1297  28.2862  29.1564  29.1564
    29.1564  29.1564  29.1564  29.1564  29.8709  29.8709  29.8709  29.8709
    29.8709  29.8709  31.4060  31.4060  31.4060  31.4060  31.4060  31.4060
    31.6700  31.6700  31.6700  32.5251  32.5304  32.5304  32.5304  32.5304
    32.5304  32.5305

[...]

          k = 0.3838-0.4935-0.4935 ( 31340 PWs)   bands (ev):

[...]

          k =-0.4935-0.4935-0.4935 ( 31408 PWs)   bands (ev):

   -63.6343 -63.6343 -63.6343 -63.6343 -63.6342 -63.6342 -63.6342 -63.6342
   -63.5936 -63.5936 -63.5936 -63.5936 -63.5936 -63.5936 -63.5936 -63.5935
   -63.5935 -63.5935 -63.5935 -63.5935 -63.5935 -63.5935 -63.5935 -63.5935
   -63.5935 -63.5935 -63.5935 -63.5935 -63.5935 -63.5935 -63.5935 -63.5935
   -29.5120 -29.5120 -29.5120 -29.5119 -29.5119 -29.5119 -29.5119 -29.5119
   -29.5119 -29.5119 -29.5119 -29.5119 -29.5119 -29.5119 -29.5119 -29.5119
   -29.5119 -29.5119 -29.5119 -29.5119 -29.5119 -29.5119 -29.5119 -29.5119
   -29.3645 -29.3645 -29.3645 -29.3645 -29.3645 -29.3645 -29.3645 -29.3645
   -29.3190 -29.3190 -29.3190 -29.3190 -29.3190 -29.3190 -29.3190 -29.3190
   -29.3190 -29.3190 -29.3190 -29.3190 -29.3190 -29.3190 -29.3190 -29.3190
   -29.3189 -29.3189 -29.3189 -29.3189 -29.3189 -29.3189 -29.3189 -29.3189
   -29.2536 -29.2536 -29.2536 -29.2536 -29.2536 -29.2536 -29.2536 -29.2536
   -29.2536 -29.2536 -29.2536 -29.2536 -29.2536 -29.2536 -29.2536 -29.2536
   -29.2536 -29.2536 -29.2536 -29.2536 -29.2535 -29.2535 -29.2535 -29.2535
   -29.1691 -29.1691 -29.1691 -29.1691 -29.1691 -29.1691 -29.1691 -29.1691
   -29.1691 -29.1691 -29.1691 -29.1691 -29.1691 -29.1690 -29.1690 -29.1690
    14.9498  14.9498  14.9498  14.9498  14.9498  14.9498  14.9498  14.9498
    15.7753  15.7753  15.7753  15.7753  15.7753  15.7753  15.7753  15.7753
    15.7753  15.7753  15.7753  15.7753  15.7753  15.7753  15.7753  15.7753
    15.7753  15.7753  15.7753  15.7753  15.7753  15.7753  15.7753  15.7753
    16.5808  16.5808  16.5808  16.5808  16.5808  16.5808  16.5808  16.5808
    16.5808  16.5808  16.5808  16.5808  16.5808  16.5808  16.5808  16.5808
    16.5808  16.5808  16.5808  16.5808  16.5808  16.5808  16.5808  16.5808
    17.5970  17.5970  17.5970  17.5970  17.5970  17.5970  17.5970  17.5970
    17.9300  17.9300  17.9300  17.9300  17.9300  17.9300  17.9300  17.9300
    17.9300  17.9300  17.9300  17.9300  17.9300  17.9300  17.9300  17.9300
    18.1295  18.1295  18.1295  18.1295  18.1295  18.1295  18.1295  18.1295
    18.1295  18.1295  18.1295  18.1295  18.1295  18.1295  18.1295  18.1295
    18.1295  18.1295  18.1295  18.1295  18.1295  18.1295  18.1295  18.1295
    18.9082  18.9082  18.9082  18.9082  18.9082  18.9082  18.9082  18.9082
    18.9082  18.9082  18.9082  18.9082  18.9082  18.9082  18.9082  18.9082
    18.9082  18.9082  18.9082  18.9082  18.9082  18.9082  18.9082  18.9083
    19.4616  19.4616  19.4616  19.4616  19.4616  19.4616  19.4616  19.4616
    19.4616  19.4616  19.4616  19.4616  19.4616  19.4616  19.4617  19.4617
    20.6567  20.6567  20.6567  20.6567  20.6567  20.6567  20.6567  20.6567
    20.6567  20.6567  20.6567  20.6567  20.6567  20.6567  20.6567  20.6567
    20.6567  20.6567  20.6567  20.6567  20.6567  20.6567  20.6567  20.6567
    24.3612  24.3612  24.3612  24.3612  24.3612  24.3612  24.3612  24.3612
    24.3612  24.3612  24.3612  24.3612  24.3612  24.3612  24.3612  24.3612
    24.3612  24.3612  24.3612  24.3612  24.3612  24.3612  24.3612  24.3612
    30.0079  30.0079  30.0079  30.0079  30.0079  30.0079  30.0079  30.0079
    30.0079  30.0079  30.0079  30.0079  30.0079  30.0079  30.0079  30.0079
    30.0079  30.0079  30.0079  30.0079  30.0079  30.0079  30.0079  30.0079
    35.3306  35.4898

     the Fermi energy is    20.6645 ev

!    total energy              =  -16384.88419468 Ry

     total all-electron energy =   -322945.737902 Ry
     estimated scf accuracy    <       0.00000033 Ry
     smearing contrib. (-TS)   =       0.01771211 Ry
     internal energy E=F+TS    =  -16384.90190680 Ry

     The total energy is F=E-TS. E is the sum of the following terms:
     one-electron contribution =   -2313.99475938 Ry
     hartree contribution      =    1600.83509633 Ry
     xc contribution           =    -987.79659288 Ry
     ewald contribution        =   -6516.45851155 Ry
     one-center paw contrib.   =   -8167.48713930 Ry

     convergence has been achieved in  12 iterations

     Forces acting on atoms (cartesian axes, Ry/au):

     atom    1 type  1   force =     0.00000000    0.00000000    0.00000000
     atom    2 type  1   force =    -0.00001681   -0.00001681    0.00000000
     atom    3 type  1   force =    -0.00001681   -0.00000000   -0.00001681
     atom    4 type  1   force =     0.00000000   -0.00001681   -0.00001681
     atom    5 type  1   force =     0.00000000    0.00000000    0.00000000
     atom    6 type  1   force =    -0.00001735   -0.00001735   -0.00000000
     atom    7 type  1   force =    -0.00001681   -0.00000000    0.00001681
     atom    8 type  1   force =     0.00000000   -0.00001681    0.00001681
     atom    9 type  1   force =     0.00000000    0.00000000    0.00000000
     atom   10 type  1   force =    -0.00001681    0.00001681    0.00000000
     atom   11 type  1   force =    -0.00001735    0.00000000   -0.00001735
     atom   12 type  1   force =    -0.00000000    0.00001681   -0.00001681
     atom   13 type  1   force =     0.00000000    0.00000000    0.00000000
     atom   14 type  1   force =    -0.00001735    0.00001735    0.00000000
     atom   15 type  1   force =    -0.00001735    0.00000000    0.00001735
     atom   16 type  1   force =     0.00000000    0.00001681    0.00001681
     atom   17 type  1   force =     0.00000000    0.00000000    0.00000000
     atom   18 type  1   force =     0.00001681   -0.00001681    0.00000000
     atom   19 type  1   force =     0.00001681    0.00000000   -0.00001681
     atom   20 type  1   force =     0.00000000   -0.00001735   -0.00001735
     atom   21 type  1   force =     0.00000000    0.00000000    0.00000000
     atom   22 type  1   force =     0.00001735   -0.00001735   -0.00000000
     atom   23 type  1   force =     0.00001681   -0.00000000    0.00001681
     atom   24 type  1   force =     0.00000000   -0.00001735    0.00001735
     atom   25 type  1   force =     0.00000000    0.00000000    0.00000000
     atom   26 type  1   force =     0.00001681    0.00001681    0.00000000
     atom   27 type  1   force =     0.00001735    0.00000000   -0.00001735
     atom   28 type  1   force =     0.00000000    0.00001735   -0.00001735
     atom   29 type  1   force =     0.00000000    0.00000000    0.00000000
     atom   30 type  1   force =     0.00001735    0.00001735   -0.00000000
     atom   31 type  1   force =     0.00001735   -0.00000000    0.00001735
     atom   32 type  1   force =     0.00000000    0.00001735    0.00001735

     Total force =     0.000118     Total SCF correction =     0.001048
     SCF correction compared to forces is large: reduce conv_thr to get better values

     Computing stress (Cartesian axis) and pressure

          total   stress  (Ry/bohr**3)                   (kbar)     P=      108.11
   0.00073489   0.00000000   0.00000000          108.11        0.00        0.00
   0.00000000   0.00073489   0.00000000            0.00      108.11        0.00
   0.00000000   0.00000000   0.00073489            0.00        0.00      108.11

     Writing output data file /scratch/EnCmiHlSiDlxnuCa.save/

     General routines

     Parallel routines

   This run was terminated on:  19:44:16  26Nov2021

   JOB DONE.