     Program PWSCF v.6.7MaX starts on 27Nov2021 at  8: 6: 4

     R & G space division:  proc/nbgrp/npool/nimage =      72
     Reading input from fcc_19.in
Warning: card &CELL ignored
Warning: card CELL_DYNAMICS = 'BFGS', ignored
Warning: card CELL_FACTOR = 2.0, ignored
Warning: card PRESS = 0.0, ignored
Warning: card / ignored

     Current dimensions of program PWSCF are:
     Max number of different atomic species (ntypx) = 10
     Max number of k-points (npk) =  40000
     Max angular momentum in pseudopotentials (lmaxx) =  3
     file Pd.pbe-spn-kjpaw_psl.1.0.0.UPF: wavefunction(s)  4S 5S 4D renormalized

     Subspace diagonalization in iterative solution of the eigenvalue problem:
     one sub-group per band group will be used

     Found symmetry operation: I + (  0.2500  0.2500  0.0000)
     This is a supercell, fractional translations are disabled
     Message from routine setup:
     using ibrav=0 with symmetry is DISCOURAGED, use correct ibrav instead

     bravais-lattice index     =            0
     lattice parameter (alat)  =      14.4000  a.u.
     unit-cell volume          =   21607.2105 (a.u.)^3
     number of atoms/cell      =           32
     number of atomic types    =            1
     number of electrons       =       576.00
     number of Kohn-Sham states=          346
     kinetic-energy cutoff     =      71.0000  Ry
     charge density cutoff     =     430.0000  Ry
     scf convergence threshold =      1.0E-06
     mixing beta               =       0.1000
     number of iterations used =           10  TF        mixing
     Exchange-correlation= SLA  PW   PBX  PBC
                           (   1   4   3   4   0   0   0)

     celldm(1)=  14.400000  celldm(2)=   0.000000  celldm(3)=   0.000000
     celldm(4)=   0.000000  celldm(5)=   0.000000  celldm(6)=   0.000000

     crystal axes: (cart. coord. in units of alat)
               a(1) = (   1.934211   0.000000   0.000000 )
               a(2) = (   0.000000   1.934211   0.000000 )
               a(3) = (   0.000000   0.000000   1.934211 )

     reciprocal axes: (cart. coord. in units 2 pi/alat)
               b(1) = (  0.517007  0.000000  0.000000 )
               b(2) = (  0.000000  0.517007  0.000000 )
               b(3) = (  0.000000  0.000000  0.517007 )

     PseudoPot. # 1 for Pd read from file:
     /rds/homes/b/bxp912/pp/Pd.pbe-spn-kjpaw_psl.1.0.0.UPF
     MD5 check sum: 790f2ebce206edfd9790dcb9844eca51
     Pseudo is Projector augmented-wave + core cor, Zval = 18.0
     Generated using &quot;atomic&quot; code by A. Dal Corso  v.6.3
     Shape of augmentation charge: PSQ
     Using radial grid of 1235 points,  6 beta functions with:
                l(1) =   0
                l(2) =   0
                l(3) =   1
                l(4) =   1
                l(5) =   2
                l(6) =   2
     Q(r) pseudized with 0 coefficients

     atomic species   valence    mass     pseudopotential
        Pd            18.00   106.42000     Pd( 1.00)

     48 Sym. Ops., with inversion, found

   Cartesian axes

     site n.     atom                  positions (alat units)
         1           Pd  tau(   1) = (   0.0000000   0.0000000   0.0000000  )
         2           Pd  tau(   2) = (   0.4835526   0.4835526   0.0000000  )
         3           Pd  tau(   3) = (   0.4835526   0.0000000   0.4835526  )
         4           Pd  tau(   4) = (   0.0000000   0.4835526   0.4835526  )
         5           Pd  tau(   5) = (   0.0000000   0.0000000   0.9671053  )
         6           Pd  tau(   6) = (   0.4835526   0.4835526   0.9671053  )
         7           Pd  tau(   7) = (   0.4835526   0.0000000   1.4506579  )
         8           Pd  tau(   8) = (   0.0000000   0.4835526   1.4506579  )
         9           Pd  tau(   9) = (   0.0000000   0.9671053   0.0000000  )
        10           Pd  tau(  10) = (   0.4835526   1.4506579   0.0000000  )
        11           Pd  tau(  11) = (   0.4835526   0.9671053   0.4835526  )
        12           Pd  tau(  12) = (   0.0000000   1.4506579   0.4835526  )
        13           Pd  tau(  13) = (   0.0000000   0.9671053   0.9671053  )
        14           Pd  tau(  14) = (   0.4835526   1.4506579   0.9671053  )
        15           Pd  tau(  15) = (   0.4835526   0.9671053   1.4506579  )
        16           Pd  tau(  16) = (   0.0000000   1.4506579   1.4506579  )
        17           Pd  tau(  17) = (   0.9671053   0.0000000   0.0000000  )
        18           Pd  tau(  18) = (   1.4506579   0.4835526   0.0000000  )
        19           Pd  tau(  19) = (   1.4506579   0.0000000   0.4835526  )
        20           Pd  tau(  20) = (   0.9671053   0.4835526   0.4835526  )
        21           Pd  tau(  21) = (   0.9671053   0.0000000   0.9671053  )
        22           Pd  tau(  22) = (   1.4506579   0.4835526   0.9671053  )
        23           Pd  tau(  23) = (   1.4506579   0.0000000   1.4506579  )
        24           Pd  tau(  24) = (   0.9671053   0.4835526   1.4506579  )
        25           Pd  tau(  25) = (   0.9671053   0.9671053   0.0000000  )
        26           Pd  tau(  26) = (   1.4506579   1.4506579   0.0000000  )
        27           Pd  tau(  27) = (   1.4506579   0.9671053   0.4835526  )
        28           Pd  tau(  28) = (   0.9671053   1.4506579   0.4835526  )
        29           Pd  tau(  29) = (   0.9671053   0.9671053   0.9671053  )
        30           Pd  tau(  30) = (   1.4506579   1.4506579   0.9671053  )
        31           Pd  tau(  31) = (   1.4506579   0.9671053   1.4506579  )
        32           Pd  tau(  32) = (   0.9671053   1.4506579   1.4506579  )

     number of k points=    35  Marzari-Vanderbilt smearing, width (Ry)=  0.0400
                       cart. coord. in units 2pi/alat
        k(    1) = (   0.0287226   0.0287226   0.0287226), wk =   0.0219479
        k(    2) = (   0.0287226   0.0287226   0.0861678), wk =   0.0658436
        k(    3) = (   0.0287226   0.0287226   0.1436130), wk =   0.0658436
        k(    4) = (   0.0287226   0.0287226   0.2010582), wk =   0.0658436
        k(    5) = (   0.0287226   0.0287226  -0.2585034), wk =   0.0329218
        k(    6) = (   0.0287226   0.0861678   0.0861678), wk =   0.0658436
        k(    7) = (   0.0287226   0.0861678   0.1436130), wk =   0.1316872
        k(    8) = (   0.0287226   0.0861678   0.2010582), wk =   0.1316872
        k(    9) = (   0.0287226   0.0861678  -0.2585034), wk =   0.0658436
        k(   10) = (   0.0287226   0.1436130   0.1436130), wk =   0.0658436
        k(   11) = (   0.0287226   0.1436130   0.2010582), wk =   0.1316872
        k(   12) = (   0.0287226   0.1436130  -0.2585034), wk =   0.0658436
        k(   13) = (   0.0287226   0.2010582   0.2010582), wk =   0.0658436
        k(   14) = (   0.0287226   0.2010582  -0.2585034), wk =   0.0658436
        k(   15) = (   0.0287226  -0.2585034  -0.2585034), wk =   0.0164609
        k(   16) = (   0.0861678   0.0861678   0.0861678), wk =   0.0219479
        k(   17) = (   0.0861678   0.0861678   0.1436130), wk =   0.0658436
        k(   18) = (   0.0861678   0.0861678   0.2010582), wk =   0.0658436
        k(   19) = (   0.0861678   0.0861678  -0.2585034), wk =   0.0329218
        k(   20) = (   0.0861678   0.1436130   0.1436130), wk =   0.0658436
        k(   21) = (   0.0861678   0.1436130   0.2010582), wk =   0.1316872
        k(   22) = (   0.0861678   0.1436130  -0.2585034), wk =   0.0658436
        k(   23) = (   0.0861678   0.2010582   0.2010582), wk =   0.0658436
        k(   24) = (   0.0861678   0.2010582  -0.2585034), wk =   0.0658436
        k(   25) = (   0.0861678  -0.2585034  -0.2585034), wk =   0.0164609
        k(   26) = (   0.1436130   0.1436130   0.1436130), wk =   0.0219479
        k(   27) = (   0.1436130   0.1436130   0.2010582), wk =   0.0658436
        k(   28) = (   0.1436130   0.1436130  -0.2585034), wk =   0.0329218
        k(   29) = (   0.1436130   0.2010582   0.2010582), wk =   0.0658436
        k(   30) = (   0.1436130   0.2010582  -0.2585034), wk =   0.0658436
        k(   31) = (   0.1436130  -0.2585034  -0.2585034), wk =   0.0164609
        k(   32) = (   0.2010582   0.2010582   0.2010582), wk =   0.0219479
        k(   33) = (   0.2010582   0.2010582  -0.2585034), wk =   0.0329218
        k(   34) = (   0.2010582  -0.2585034  -0.2585034), wk =   0.0164609
        k(   35) = (  -0.2585034  -0.2585034  -0.2585034), wk =   0.0027435

     Initial potential from superposition of free atoms

     starting charge  575.98776, renormalised to  576.00000
     Starting wfcs are  320 randomized atomic wfcs +   26 random wfcs
     Checking if some PAW data can be deallocated...

     Self-consistent Calculation

     iteration #  1     ecut=    71.00 Ry     beta= 0.10
     Davidson diagonalization with overlap
     ethr =  1.00E-02,  avg # of iterations =  6.1

     total energy              =  -16381.46455261 Ry
     estimated scf accuracy    <      25.02435585 Ry

[...]

     iteration #  6     ecut=    71.00 Ry     beta= 0.10
     Davidson diagonalization with overlap
     c_bands:  2 eigenvalues not converged
     ethr =  2.39E-04,  avg # of iterations =  3.7

[...]

     iteration # 29     ecut=    71.00 Ry     beta= 0.10
     Davidson diagonalization with overlap
     c_bands:  1 eigenvalues not converged
     c_bands:  3 eigenvalues not converged
     ethr =  3.23E-07,  avg # of iterations =  4.8

[...]

     total energy              =  -16375.67766398 Ry
     estimated scf accuracy    <       0.00000108 Ry

     iteration # 44     ecut=    71.00 Ry     beta= 0.10
     Davidson diagonalization with overlap
     ethr =  1.87E-10,  avg # of iterations =  2.0

     End of self-consistent calculation

          k = 0.0287 0.0287 0.0287 (218368 PWs)   bands (ev):

   -82.6489 -82.6489 -82.6489 -82.6489 -82.6489 -82.6489 -82.6489 -82.6489
   -82.6489 -82.6489 -82.6489 -82.6489 -82.6489 -82.6489 -82.6489 -82.6489
   -82.6489 -82.6489 -82.6489 -82.6489 -82.6489 -82.6489 -82.6489 -82.6489
   -82.6489 -82.6489 -82.6489 -82.6489 -82.6489 -82.6489 -82.6489 -82.6487
   -48.4871 -48.4871 -48.4871 -48.4871 -48.4871 -48.4871 -48.4871 -48.4871
   -48.4871 -48.4871 -48.4871 -48.4871 -48.4871 -48.4871 -48.4871 -48.4871
   -48.4871 -48.4871 -48.4871 -48.4871 -48.4871 -48.4871 -48.4871 -48.4871
   -48.4871 -48.4871 -48.4871 -48.4871 -48.4871 -48.4871 -48.4871 -48.4871
   -48.4871 -48.4871 -48.4871 -48.4871 -48.4871 -48.4871 -48.4871 -48.4871
   -48.4871 -48.4871 -48.4871 -48.4871 -48.4871 -48.4871 -48.4871 -48.4871
   -48.4871 -48.4871 -48.4871 -48.4871 -48.4871 -48.4871 -48.4871 -48.4870
   -48.4870 -48.4870 -48.4870 -48.4870 -48.4870 -48.4870 -48.4870 -48.4870
   -48.4870 -48.4870 -48.4870 -48.4870 -48.4870 -48.4870 -48.4870 -48.4870
   -48.4870 -48.4870 -48.4870 -48.4870 -48.4870 -48.4870 -48.4870 -48.4870
   -48.4870 -48.4870 -48.4870 -48.4870 -48.4870 -48.4870 -48.4870 -48.4870
   -48.4870 -48.4870 -48.4870 -48.4870 -48.4870 -48.4869 -48.4869 -48.4869
    -1.2697  -1.2630  -1.2630  -1.2630  -1.2581  -1.2575  -1.2575  -1.2575
    -1.2548  -1.2548  -1.2548  -1.2337  -1.2337  -1.2337  -1.2281  -1.2281
    -1.2281  -1.2147  -1.2147  -1.2147  -1.2134  -1.2134  -1.2134  -1.2134
    -1.2134  -1.2134  -1.2107  -1.2107  -1.2107  -1.2107  -1.2107  -1.2107
    -1.2085  -1.2085  -1.2085  -1.2077  -1.2077  -1.2077  -1.1991  -1.1991
    -1.1991  -1.1990  -1.1985  -1.1985  -1.1978  -1.1978  -1.1978  -1.1976
    -1.1976  -1.1976  -1.1974  -1.1974  -1.1969  -1.1969  -1.1969  -1.1965
    -1.1965  -1.1965  -1.1965  -1.1965  -1.1965  -1.1955  -1.1955  -1.1955
    -1.1955  -1.1955  -1.1955  -1.1906  -1.1906  -1.1906  -1.1827  -1.1827
    -1.1827  -1.1827  -1.1827  -1.1827  -1.1646  -1.1646  -1.1646  -1.1646
    -1.1646  -1.1646  -1.1643  -1.1643  -1.1643  -1.1609  -1.1609  -1.1609
    -1.1568  -1.1568  -1.1568  -1.1566  -1.1566  -1.1566  -1.1515  -1.1515
    -1.1512  -1.1512  -1.1512  -1.1495  -1.1495  -1.1495  -1.1482  -1.1482
    -1.1482  -1.1481  -1.1481  -1.1481  -1.1477  -1.1477  -1.1477  -1.1477
    -1.1477  -1.1477  -1.1463  -1.1463  -1.1463  -1.1436  -1.1436  -1.1436
    -1.1436  -1.1436  -1.1436  -1.1422  -1.1422  -1.1422  -1.1422  -1.1422
    -1.1422  -1.1411  -1.1411  -1.1411  -1.1335  -1.1335  -1.1335  -1.1300
    -1.1300  -1.1300  -1.1135  -1.1135  -1.1135  -1.1112  -1.1112  -1.1112
    -1.1107  -1.1107  -1.1101  -1.1101  -1.1101  -1.1004  -1.1004  -1.1004
    -1.1001  -1.1001  -1.1001  -1.1001  -1.1001  -1.1001  -1.1000  -1.1000
    -1.1000  -0.6903  -0.6903  -0.6903  -0.5517  -0.5517  -0.5517  -0.1693
    -0.1693  -0.1693  -0.0548  -0.0547  -0.0547  -0.0547  -0.0547  -0.0547
     0.0518   0.0518   0.0518   0.1403   0.1671   0.1671   0.1671   0.6430
     0.6431   0.6431   0.6810   0.6811   0.6811   0.6811   0.6811   0.6811
     1.9030   1.9031   1.9031   1.9310   2.3287   2.3287   2.3287   2.9502
     2.9502   2.9503   2.9975   2.9975   2.9975   2.9976   2.9976   2.9976
     3.0502   3.0502   3.0502   3.0503   3.0503   3.0505   3.1589   3.1591
     3.1656   3.1670

[...]

          k = 0.2011-0.2585-0.2585 (218228 PWs)   bands (ev):

[...]

          k =-0.2585-0.2585-0.2585 (218672 PWs)   bands (ev):

   -82.6489 -82.6489 -82.6489 -82.6489 -82.6489 -82.6489 -82.6489 -82.6489
   -82.6489 -82.6489 -82.6489 -82.6489 -82.6489 -82.6489 -82.6489 -82.6489
   -82.6489 -82.6489 -82.6489 -82.6489 -82.6489 -82.6489 -82.6489 -82.6489
   -82.6489 -82.6489 -82.6489 -82.6489 -82.6489 -82.6489 -82.6489 -82.6487
   -48.4871 -48.4871 -48.4871 -48.4871 -48.4871 -48.4871 -48.4871 -48.4871
   -48.4871 -48.4871 -48.4871 -48.4871 -48.4871 -48.4871 -48.4871 -48.4871
   -48.4871 -48.4871 -48.4871 -48.4871 -48.4871 -48.4871 -48.4871 -48.4871
   -48.4871 -48.4871 -48.4871 -48.4871 -48.4871 -48.4871 -48.4871 -48.4871
   -48.4871 -48.4871 -48.4871 -48.4871 -48.4871 -48.4871 -48.4871 -48.4871
   -48.4871 -48.4871 -48.4871 -48.4871 -48.4871 -48.4871 -48.4871 -48.4871
   -48.4871 -48.4871 -48.4871 -48.4871 -48.4871 -48.4871 -48.4871 -48.4871
   -48.4871 -48.4871 -48.4871 -48.4871 -48.4871 -48.4871 -48.4871 -48.4871
   -48.4871 -48.4871 -48.4871 -48.4871 -48.4871 -48.4871 -48.4870 -48.4870
   -48.4870 -48.4870 -48.4870 -48.4870 -48.4870 -48.4870 -48.4870 -48.4870
   -48.4870 -48.4870 -48.4870 -48.4870 -48.4870 -48.4870 -48.4870 -48.4870
   -48.4870 -48.4870 -48.4870 -48.4870 -48.4870 -48.4869 -48.4869 -48.4869
    -1.2381  -1.2381  -1.2381  -1.2381  -1.2381  -1.2381  -1.2381  -1.2381
    -1.2381  -1.2381  -1.2381  -1.2381  -1.2381  -1.2381  -1.2381  -1.2381
    -1.2381  -1.2381  -1.2381  -1.2381  -1.2381  -1.2381  -1.2381  -1.2381
    -1.2313  -1.2313  -1.2313  -1.2313  -1.2313  -1.2313  -1.2313  -1.2313
    -1.2006  -1.2006  -1.2006  -1.2006  -1.2006  -1.2006  -1.2006  -1.2006
    -1.2006  -1.2006  -1.2006  -1.2006  -1.2006  -1.2006  -1.2006  -1.2006
    -1.2006  -1.2006  -1.2006  -1.2006  -1.2006  -1.2006  -1.2006  -1.2006
    -1.1878  -1.1878  -1.1878  -1.1878  -1.1878  -1.1878  -1.1878  -1.1878
    -1.1878  -1.1878  -1.1878  -1.1878  -1.1878  -1.1878  -1.1878  -1.1878
    -1.1539  -1.1539  -1.1539  -1.1539  -1.1539  -1.1539  -1.1539  -1.1539
    -1.1539  -1.1539  -1.1539  -1.1539  -1.1539  -1.1539  -1.1539  -1.1539
    -1.1539  -1.1539  -1.1539  -1.1539  -1.1539  -1.1539  -1.1539  -1.1539
    -1.1492  -1.1492  -1.1492  -1.1492  -1.1492  -1.1492  -1.1492  -1.1492
    -1.1492  -1.1492  -1.1492  -1.1492  -1.1492  -1.1492  -1.1492  -1.1492
    -1.1492  -1.1492  -1.1492  -1.1492  -1.1492  -1.1492  -1.1492  -1.1492
    -1.1417  -1.1417  -1.1417  -1.1417  -1.1417  -1.1417  -1.1417  -1.1417
    -1.1417  -1.1417  -1.1417  -1.1417  -1.1417  -1.1417  -1.1417  -1.1417
    -1.1075  -1.1075  -1.1075  -1.1075  -1.1075  -1.1075  -1.1075  -1.1075
    -1.1075  -1.1075  -1.1075  -1.1075  -1.1075  -1.1075  -1.1075  -1.1075
    -1.1075  -1.1075  -1.1075  -1.1075  -1.1075  -1.1075  -1.1075  -1.1075
    -0.7759  -0.7759  -0.7759  -0.7759  -0.7759  -0.7759  -0.7759  -0.7759
     0.2821   0.2822   0.2823   0.2823   0.2823   0.2823   0.2823   0.2823
     0.2823   0.2823   0.2823   0.2823   0.2823   0.2824   0.2824   0.2824
     0.2824   0.2824   0.2824   0.2824   0.2824   0.2824   0.2824   0.2824
     2.5896   2.5896   2.5896   2.5896   2.5896   2.5896   2.5896   2.5896
     2.5896   2.5896   2.5896   2.5896   2.5896   2.5896   2.5897   2.5897
     2.5897   2.5897   2.5897   2.5897   2.5897   2.5898   2.5898   2.5898
     3.8196   3.8197

     the Fermi energy is    -0.6965 ev

!    total energy              =  -16375.67766576 Ry

     total all-electron energy =   -322936.531373 Ry
     estimated scf accuracy    <       0.00000041 Ry
     smearing contrib. (-TS)   =       0.72152740 Ry
     internal energy E=F+TS    =  -16376.39919316 Ry

     The total energy is F=E-TS. E is the sum of the following terms:
     one-electron contribution =   -7695.98880371 Ry
     hartree contribution      =    3885.03774130 Ry
     xc contribution           =    -985.54152088 Ry
     ewald contribution        =   -3413.38302986 Ry
     one-center paw contrib.   =   -8166.52358001 Ry

     convergence has been achieved in  44 iterations

     Forces acting on atoms (cartesian axes, Ry/au):

     atom    1 type  1   force =     0.00000000    0.00000000    0.00000000
     atom    2 type  1   force =    -0.00003888   -0.00003888    0.00000000
     atom    3 type  1   force =    -0.00003888    0.00000000   -0.00003888
     atom    4 type  1   force =     0.00000000   -0.00003888   -0.00003888
     atom    5 type  1   force =     0.00000000    0.00000000    0.00000000
     atom    6 type  1   force =     0.00002850    0.00002850   -0.00000000
     atom    7 type  1   force =    -0.00003888   -0.00000000    0.00003888
     atom    8 type  1   force =    -0.00000000   -0.00003888    0.00003888
     atom    9 type  1   force =     0.00000000    0.00000000    0.00000000
     atom   10 type  1   force =    -0.00003888    0.00003888   -0.00000000
     atom   11 type  1   force =     0.00002850    0.00000000    0.00002850
     atom   12 type  1   force =    -0.00000000    0.00003888   -0.00003888
     atom   13 type  1   force =     0.00000000    0.00000000    0.00000000
     atom   14 type  1   force =     0.00002850   -0.00002850    0.00000000
     atom   15 type  1   force =     0.00002850   -0.00000000   -0.00002850
     atom   16 type  1   force =    -0.00000000    0.00003888    0.00003888
     atom   17 type  1   force =     0.00000000    0.00000000    0.00000000
     atom   18 type  1   force =     0.00003888   -0.00003888    0.00000000
     atom   19 type  1   force =     0.00003888   -0.00000000   -0.00003888
     atom   20 type  1   force =     0.00000000    0.00002850    0.00002850
     atom   21 type  1   force =     0.00000000    0.00000000    0.00000000
     atom   22 type  1   force =    -0.00002850    0.00002850    0.00000000
     atom   23 type  1   force =     0.00003888   -0.00000000    0.00003888
     atom   24 type  1   force =     0.00000000    0.00002850   -0.00002850
     atom   25 type  1   force =     0.00000000    0.00000000    0.00000000
     atom   26 type  1   force =     0.00003888    0.00003888    0.00000000
     atom   27 type  1   force =    -0.00002850    0.00000000    0.00002850
     atom   28 type  1   force =     0.00000000   -0.00002850    0.00002850
     atom   29 type  1   force =     0.00000000    0.00000000    0.00000000
     atom   30 type  1   force =    -0.00002850   -0.00002850    0.00000000
     atom   31 type  1   force =    -0.00002850   -0.00000000   -0.00002850
     atom   32 type  1   force =     0.00000000   -0.00002850   -0.00002850

     Total force =     0.000236     Total SCF correction =     0.001495
     SCF correction compared to forces is large: reduce conv_thr to get better values

     Computing stress (Cartesian axis) and pressure

          total   stress  (Ry/bohr**3)                   (kbar)     P=      -10.33
  -0.00007021   0.00000000   0.00000000          -10.33        0.00        0.00
   0.00000000  -0.00007021   0.00000000            0.00      -10.33        0.00
   0.00000000   0.00000000  -0.00007021            0.00        0.00      -10.33

     Writing output data file /scratch/VoUYSRTlQqCygSJT.save/

     General routines

     Parallel routines

   This run was terminated on:  10:43:50  27Nov2021

   JOB DONE.