     Program PWSCF v.6.7MaX starts on 26Nov2021 at 23:54:28

     R & G space division:  proc/nbgrp/npool/nimage =      72
     Reading input from fcc_15.in
Warning: card &CELL ignored
Warning: card CELL_DYNAMICS = 'BFGS', ignored
Warning: card CELL_FACTOR = 2.0, ignored
Warning: card PRESS = 0.0, ignored
Warning: card / ignored

     Current dimensions of program PWSCF are:
     Max number of different atomic species (ntypx) = 10
     Max number of k-points (npk) =  40000
     Max angular momentum in pseudopotentials (lmaxx) =  3
     file Pd.pbe-spn-kjpaw_psl.1.0.0.UPF: wavefunction(s)  4S 5S 4D renormalized

     Subspace diagonalization in iterative solution of the eigenvalue problem:
     one sub-group per band group will be used

     Found symmetry operation: I + (  0.2500  0.2500  0.0000)
     This is a supercell, fractional translations are disabled
     Message from routine setup:
     using ibrav=0 with symmetry is DISCOURAGED, use correct ibrav instead

     bravais-lattice index     =            0
     lattice parameter (alat)  =      14.4000  a.u.
     unit-cell volume          =   13933.4243 (a.u.)^3
     number of atoms/cell      =           32
     number of atomic types    =            1
     number of electrons       =       576.00
     number of Kohn-Sham states=          346
     kinetic-energy cutoff     =      71.0000  Ry
     charge density cutoff     =     430.0000  Ry
     scf convergence threshold =      1.0E-06
     mixing beta               =       0.1000
     number of iterations used =           10  TF        mixing
     Exchange-correlation= SLA  PW   PBX  PBC
                           (   1   4   3   4   0   0   0)

     celldm(1)=  14.400000  celldm(2)=   0.000000  celldm(3)=   0.000000
     celldm(4)=   0.000000  celldm(5)=   0.000000  celldm(6)=   0.000000

     crystal axes: (cart. coord. in units of alat)
               a(1) = (   1.671053   0.000000   0.000000 )
               a(2) = (   0.000000   1.671053   0.000000 )
               a(3) = (   0.000000   0.000000   1.671053 )

     reciprocal axes: (cart. coord. in units 2 pi/alat)
               b(1) = (  0.598425  0.000000  0.000000 )
               b(2) = (  0.000000  0.598425  0.000000 )
               b(3) = (  0.000000  0.000000  0.598425 )

     PseudoPot. # 1 for Pd read from file:
     /rds/homes/b/bxp912/pp/Pd.pbe-spn-kjpaw_psl.1.0.0.UPF
     MD5 check sum: 790f2ebce206edfd9790dcb9844eca51
     Pseudo is Projector augmented-wave + core cor, Zval = 18.0
     Generated using &quot;atomic&quot; code by A. Dal Corso  v.6.3
     Shape of augmentation charge: PSQ
     Using radial grid of 1235 points,  6 beta functions with:
                l(1) =   0
                l(2) =   0
                l(3) =   1
                l(4) =   1
                l(5) =   2
                l(6) =   2
     Q(r) pseudized with 0 coefficients

     atomic species   valence    mass     pseudopotential
        Pd            18.00   106.42000     Pd( 1.00)

     48 Sym. Ops., with inversion, found

   Cartesian axes

     site n.     atom                  positions (alat units)
         1           Pd  tau(   1) = (   0.0000000   0.0000000   0.0000000  )
         2           Pd  tau(   2) = (   0.4177632   0.4177632   0.0000000  )
         3           Pd  tau(   3) = (   0.4177632   0.0000000   0.4177632  )
         4           Pd  tau(   4) = (   0.0000000   0.4177632   0.4177632  )
         5           Pd  tau(   5) = (   0.0000000   0.0000000   0.8355263  )
         6           Pd  tau(   6) = (   0.4177632   0.4177632   0.8355263  )
         7           Pd  tau(   7) = (   0.4177632   0.0000000   1.2532895  )
         8           Pd  tau(   8) = (   0.0000000   0.4177632   1.2532895  )
         9           Pd  tau(   9) = (   0.0000000   0.8355263   0.0000000  )
        10           Pd  tau(  10) = (   0.4177632   1.2532895   0.0000000  )
        11           Pd  tau(  11) = (   0.4177632   0.8355263   0.4177632  )
        12           Pd  tau(  12) = (   0.0000000   1.2532895   0.4177632  )
        13           Pd  tau(  13) = (   0.0000000   0.8355263   0.8355263  )
        14           Pd  tau(  14) = (   0.4177632   1.2532895   0.8355263  )
        15           Pd  tau(  15) = (   0.4177632   0.8355263   1.2532895  )
        16           Pd  tau(  16) = (   0.0000000   1.2532895   1.2532895  )
        17           Pd  tau(  17) = (   0.8355263   0.0000000   0.0000000  )
        18           Pd  tau(  18) = (   1.2532895   0.4177632   0.0000000  )
        19           Pd  tau(  19) = (   1.2532895   0.0000000   0.4177632  )
        20           Pd  tau(  20) = (   0.8355263   0.4177632   0.4177632  )
        21           Pd  tau(  21) = (   0.8355263   0.0000000   0.8355263  )
        22           Pd  tau(  22) = (   1.2532895   0.4177632   0.8355263  )
        23           Pd  tau(  23) = (   1.2532895   0.0000000   1.2532895  )
        24           Pd  tau(  24) = (   0.8355263   0.4177632   1.2532895  )
        25           Pd  tau(  25) = (   0.8355263   0.8355263   0.0000000  )
        26           Pd  tau(  26) = (   1.2532895   1.2532895   0.0000000  )
        27           Pd  tau(  27) = (   1.2532895   0.8355263   0.4177632  )
        28           Pd  tau(  28) = (   0.8355263   1.2532895   0.4177632  )
        29           Pd  tau(  29) = (   0.8355263   0.8355263   0.8355263  )
        30           Pd  tau(  30) = (   1.2532895   1.2532895   0.8355263  )
        31           Pd  tau(  31) = (   1.2532895   0.8355263   1.2532895  )
        32           Pd  tau(  32) = (   0.8355263   1.2532895   1.2532895  )

     number of k points=    35  Marzari-Vanderbilt smearing, width (Ry)=  0.0400
                       cart. coord. in units 2pi/alat
        k(    1) = (   0.0332458   0.0332458   0.0332458), wk =   0.0219479
        k(    2) = (   0.0332458   0.0332458   0.0997375), wk =   0.0658436
        k(    3) = (   0.0332458   0.0332458   0.1662292), wk =   0.0658436
        k(    4) = (   0.0332458   0.0332458   0.2327209), wk =   0.0658436
        k(    5) = (   0.0332458   0.0332458  -0.2992126), wk =   0.0329218
        k(    6) = (   0.0332458   0.0997375   0.0997375), wk =   0.0658436
        k(    7) = (   0.0332458   0.0997375   0.1662292), wk =   0.1316872
        k(    8) = (   0.0332458   0.0997375   0.2327209), wk =   0.1316872
        k(    9) = (   0.0332458   0.0997375  -0.2992126), wk =   0.0658436
        k(   10) = (   0.0332458   0.1662292   0.1662292), wk =   0.0658436
        k(   11) = (   0.0332458   0.1662292   0.2327209), wk =   0.1316872
        k(   12) = (   0.0332458   0.1662292  -0.2992126), wk =   0.0658436
        k(   13) = (   0.0332458   0.2327209   0.2327209), wk =   0.0658436
        k(   14) = (   0.0332458   0.2327209  -0.2992126), wk =   0.0658436
        k(   15) = (   0.0332458  -0.2992126  -0.2992126), wk =   0.0164609
        k(   16) = (   0.0997375   0.0997375   0.0997375), wk =   0.0219479
        k(   17) = (   0.0997375   0.0997375   0.1662292), wk =   0.0658436
        k(   18) = (   0.0997375   0.0997375   0.2327209), wk =   0.0658436
        k(   19) = (   0.0997375   0.0997375  -0.2992126), wk =   0.0329218
        k(   20) = (   0.0997375   0.1662292   0.1662292), wk =   0.0658436
        k(   21) = (   0.0997375   0.1662292   0.2327209), wk =   0.1316872
        k(   22) = (   0.0997375   0.1662292  -0.2992126), wk =   0.0658436
        k(   23) = (   0.0997375   0.2327209   0.2327209), wk =   0.0658436
        k(   24) = (   0.0997375   0.2327209  -0.2992126), wk =   0.0658436
        k(   25) = (   0.0997375  -0.2992126  -0.2992126), wk =   0.0164609
        k(   26) = (   0.1662292   0.1662292   0.1662292), wk =   0.0219479
        k(   27) = (   0.1662292   0.1662292   0.2327209), wk =   0.0658436
        k(   28) = (   0.1662292   0.1662292  -0.2992126), wk =   0.0329218
        k(   29) = (   0.1662292   0.2327209   0.2327209), wk =   0.0658436
        k(   30) = (   0.1662292   0.2327209  -0.2992126), wk =   0.0658436
        k(   31) = (   0.1662292  -0.2992126  -0.2992126), wk =   0.0164609
        k(   32) = (   0.2327209   0.2327209   0.2327209), wk =   0.0219479
        k(   33) = (   0.2327209   0.2327209  -0.2992126), wk =   0.0329218
        k(   34) = (   0.2327209  -0.2992126  -0.2992126), wk =   0.0164609
        k(   35) = (  -0.2992126  -0.2992126  -0.2992126), wk =   0.0027435

     Initial potential from superposition of free atoms

     starting charge  575.98776, renormalised to  576.00000
     Starting wfcs are  320 randomized atomic wfcs +   26 random wfcs
     Checking if some PAW data can be deallocated...

     Self-consistent Calculation

     iteration #  1     ecut=    71.00 Ry     beta= 0.10
     Davidson diagonalization with overlap
     ethr =  1.00E-02,  avg # of iterations =  5.5

     total energy              =  -16381.30159412 Ry
     estimated scf accuracy    <      23.99406868 Ry

[...]

     iteration #  5     ecut=    71.00 Ry     beta= 0.10
     Davidson diagonalization with overlap
     c_bands:  1 eigenvalues not converged
     ethr =  2.49E-04,  avg # of iterations =  3.4

[...]

     iteration # 17     ecut=    71.00 Ry     beta= 0.10
     Davidson diagonalization with overlap
     c_bands:  1 eigenvalues not converged
     ethr =  3.62E-06,  avg # of iterations =  4.5

[...]

     total energy              =  -16376.54809803 Ry
     estimated scf accuracy    <       0.00001074 Ry

     iteration # 28     ecut=    71.00 Ry     beta= 0.10
     Davidson diagonalization with overlap
     ethr =  1.52E-09,  avg # of iterations =  1.0

     End of self-consistent calculation

          k = 0.0332 0.0332 0.0332 (140764 PWs)   bands (ev):

   -81.2624 -81.2622 -81.2622 -81.2622 -81.2622 -81.2622 -81.2622 -81.2622
   -81.2622 -81.2622 -81.2622 -81.2622 -81.2622 -81.2622 -81.2622 -81.2622
   -81.2622 -81.2622 -81.2622 -81.2622 -81.2622 -81.2622 -81.2622 -81.2622
   -81.2622 -81.2622 -81.2622 -81.2622 -81.2622 -81.2622 -81.2622 -81.2621
   -47.0755 -47.0755 -47.0755 -47.0755 -47.0754 -47.0754 -47.0754 -47.0753
   -47.0753 -47.0753 -47.0753 -47.0753 -47.0753 -47.0753 -47.0753 -47.0753
   -47.0753 -47.0753 -47.0753 -47.0753 -47.0753 -47.0753 -47.0753 -47.0753
   -47.0753 -47.0753 -47.0753 -47.0753 -47.0753 -47.0753 -47.0753 -47.0753
   -47.0753 -47.0753 -47.0753 -47.0752 -47.0752 -47.0752 -47.0752 -47.0752
   -47.0752 -47.0752 -47.0752 -47.0752 -47.0752 -47.0752 -47.0752 -47.0752
   -47.0752 -47.0752 -47.0752 -47.0752 -47.0752 -47.0752 -47.0752 -47.0752
   -47.0752 -47.0752 -47.0752 -47.0752 -47.0752 -47.0752 -47.0752 -47.0752
   -47.0752 -47.0752 -47.0752 -47.0752 -47.0751 -47.0751 -47.0751 -47.0751
   -47.0751 -47.0751 -47.0751 -47.0751 -47.0751 -47.0751 -47.0751 -47.0751
   -47.0751 -47.0751 -47.0751 -47.0751 -47.0751 -47.0751 -47.0751 -47.0751
   -47.0751 -47.0751 -47.0751 -47.0751 -47.0751 -47.0751 -47.0751 -47.0751
    -0.2817   0.1257   0.1274   0.1274   0.1274   0.1453   0.1453   0.1453
     0.1475   0.1475   0.1475   0.2196   0.2196   0.2196   0.2337   0.2337
     0.2337   0.2400   0.2400   0.2400   0.2439   0.2439   0.2439   0.2510
     0.2510   0.2510   0.2510   0.2510   0.2510   0.2560   0.2560   0.2560
     0.2643   0.2643   0.2643   0.2643   0.2643   0.2643   0.2669   0.2669
     0.2669   0.2963   0.2963   0.2963   0.2963   0.2963   0.2963   0.2967
     0.2967   0.2967   0.3002   0.3002   0.3002   0.3002   0.3002   0.3002
     0.3086   0.3099   0.3099   0.3099   0.3099   0.3099   0.3101   0.3101
     0.3101   0.3110   0.3110   0.3120   0.3121   0.3121   0.3295   0.3295
     0.3295   0.3295   0.3295   0.3295   0.3783   0.3783   0.3783   0.3783
     0.3783   0.3783   0.3886   0.3886   0.3886   0.3909   0.3909   0.3909
     0.3961   0.3961   0.3961   0.3990   0.3990   0.3990   0.4042   0.4042
     0.4042   0.4064   0.4064   0.4064   0.4084   0.4084   0.4084   0.4084
     0.4084   0.4084   0.4241   0.4241   0.4250   0.4250   0.4250   0.4255
     0.4255   0.4255   0.4262   0.4262   0.4262   0.4376   0.4377   0.4377
     0.4377   0.4377   0.4377   0.4397   0.4397   0.4397   0.4397   0.4397
     0.4397   0.4453   0.4453   0.4453   0.4657   0.4657   0.4657   0.4738
     0.4738   0.4738   0.5124   0.5124   0.5124   0.5162   0.5162   0.5162
     0.5179   0.5179   0.5193   0.5193   0.5193   0.5412   0.5412   0.5412
     0.5423   0.5423   0.5423   0.5423   0.5423   0.5423   0.5425   0.5425
     0.5425   0.6656   0.6656   0.6656   0.8624   0.8624   0.8624   1.5117
     1.5117   1.5117   1.7058   1.7058   1.7058   1.7058   1.7058   1.7058
     1.8946   1.8946   1.8946   2.2233   2.3033   2.3033   2.3033   3.1371
     3.1371   3.1371   3.2396   3.2396   3.2396   3.2396   3.2396   3.2396
     3.4242   3.4242   3.4242   3.5049   4.0843   4.0843   4.0843   5.0756
     5.0756   5.0756   5.0756   5.0756   5.0756   5.3125   5.3125   5.3125
     5.3125   5.3125   5.3125   5.3417   5.3417   5.3417   5.5196   5.5197
     5.5197   5.5197

[...]

          k = 0.2327-0.2992-0.2992 (140828 PWs)   bands (ev):

[...]

          k =-0.2992-0.2992-0.2992 (140936 PWs)   bands (ev):

   -81.2624 -81.2622 -81.2622 -81.2622 -81.2622 -81.2622 -81.2622 -81.2622
   -81.2622 -81.2622 -81.2622 -81.2622 -81.2622 -81.2622 -81.2622 -81.2622
   -81.2622 -81.2622 -81.2622 -81.2622 -81.2622 -81.2622 -81.2622 -81.2622
   -81.2622 -81.2622 -81.2622 -81.2622 -81.2622 -81.2622 -81.2622 -81.2621
   -47.0754 -47.0754 -47.0754 -47.0754 -47.0754 -47.0754 -47.0754 -47.0754
   -47.0754 -47.0754 -47.0754 -47.0754 -47.0754 -47.0754 -47.0754 -47.0754
   -47.0754 -47.0754 -47.0754 -47.0754 -47.0754 -47.0754 -47.0754 -47.0754
   -47.0753 -47.0753 -47.0753 -47.0753 -47.0752 -47.0752 -47.0752 -47.0752
   -47.0752 -47.0752 -47.0752 -47.0752 -47.0752 -47.0752 -47.0752 -47.0752
   -47.0752 -47.0752 -47.0752 -47.0752 -47.0752 -47.0752 -47.0752 -47.0752
   -47.0752 -47.0752 -47.0752 -47.0752 -47.0752 -47.0752 -47.0752 -47.0752
   -47.0752 -47.0752 -47.0752 -47.0752 -47.0752 -47.0752 -47.0752 -47.0752
   -47.0752 -47.0752 -47.0752 -47.0752 -47.0752 -47.0752 -47.0752 -47.0752
   -47.0752 -47.0752 -47.0752 -47.0752 -47.0752 -47.0752 -47.0752 -47.0752
   -47.0751 -47.0751 -47.0751 -47.0751 -47.0751 -47.0751 -47.0751 -47.0751
   -47.0751 -47.0751 -47.0751 -47.0751 -47.0751 -47.0751 -47.0751 -47.0751
     0.1447   0.1447   0.1447   0.1447   0.1447   0.1447   0.1447   0.1447
     0.1965   0.1965   0.1965   0.1965   0.1965   0.1965   0.1965   0.1965
     0.1965   0.1965   0.1965   0.1965   0.1965   0.1965   0.1965   0.1965
     0.1965   0.1965   0.1965   0.1965   0.1965   0.1965   0.1965   0.1965
     0.2854   0.2854   0.2855   0.2855   0.2855   0.2855   0.2855   0.2855
     0.2855   0.2855   0.2855   0.2855   0.2855   0.2855   0.2855   0.2855
     0.2855   0.2855   0.2855   0.2855   0.2855   0.2855   0.2855   0.2855
     0.3347   0.3347   0.3347   0.3347   0.3347   0.3347   0.3347   0.3347
     0.3347   0.3347   0.3347   0.3347   0.3347   0.3347   0.3347   0.3347
     0.4075   0.4075   0.4075   0.4075   0.4075   0.4075   0.4076   0.4076
     0.4076   0.4076   0.4076   0.4076   0.4076   0.4076   0.4076   0.4076
     0.4076   0.4076   0.4076   0.4076   0.4076   0.4076   0.4076   0.4076
     0.4133   0.4133   0.4133   0.4133   0.4133   0.4133   0.4133   0.4133
     0.4133   0.4133   0.4133   0.4133   0.4134   0.4134   0.4134   0.4134
     0.4134   0.4134   0.4134   0.4134   0.4134   0.4134   0.4134   0.4134
     0.4447   0.4447   0.4447   0.4447   0.4447   0.4447   0.4447   0.4447
     0.4447   0.4447   0.4447   0.4447   0.4447   0.4447   0.4448   0.4448
     0.5255   0.5255   0.5255   0.5255   0.5255   0.5255   0.5255   0.5255
     0.5255   0.5255   0.5255   0.5255   0.5255   0.5255   0.5255   0.5255
     0.5255   0.5255   0.5255   0.5255   0.5255   0.5255   0.5255   0.5255
     0.5622   0.5623   0.5623   0.5623   0.5623   0.5623   0.5623   0.5623
     2.3288   2.3290   2.3290   2.3290   2.3290   2.3290   2.3290   2.3290
     2.3290   2.3290   2.3290   2.3290   2.3290   2.3290   2.3290   2.3290
     2.3290   2.3290   2.3290   2.3290   2.3290   2.3290   2.3290   2.3291
     4.6536   4.6536   4.6536   4.6536   4.6536   4.6536   4.6536   4.6537
     4.6537   4.6537   4.6537   4.6537   4.6537   4.6537   4.6537   4.6537
     4.6537   4.6537   4.6537   4.6537   4.6537   4.6537   4.6537   4.6537
     6.5959   6.5976

     the Fermi energy is     0.8481 ev

!    total energy              =  -16376.54810160 Ry

     total all-electron energy =   -322937.401809 Ry
     estimated scf accuracy    <       0.00000061 Ry
     smearing contrib. (-TS)   =       0.77290672 Ry
     internal energy E=F+TS    =  -16377.32100832 Ry

     The total energy is F=E-TS. E is the sum of the following terms:
     one-electron contribution =   -6686.55574571 Ry
     hartree contribution      =    3410.02363714 Ry
     xc contribution           =    -983.24563815 Ry
     ewald contribution        =   -3950.92366449 Ry
     one-center paw contrib.   =   -8166.61959711 Ry

     convergence has been achieved in  28 iterations

     Forces acting on atoms (cartesian axes, Ry/au):

     atom    1 type  1   force =     0.00000000    0.00000000    0.00000000
     atom    2 type  1   force =    -0.00004801   -0.00004801   -0.00000000
     atom    3 type  1   force =    -0.00004801    0.00000000   -0.00004801
     atom    4 type  1   force =     0.00000000   -0.00004801   -0.00004801
     atom    5 type  1   force =     0.00000000    0.00000000    0.00000000
     atom    6 type  1   force =    -0.00002604   -0.00002604    0.00000000
     atom    7 type  1   force =    -0.00004801    0.00000000    0.00004801
     atom    8 type  1   force =    -0.00000000   -0.00004801    0.00004801
     atom    9 type  1   force =     0.00000000    0.00000000    0.00000000
     atom   10 type  1   force =    -0.00004801    0.00004801    0.00000000
     atom   11 type  1   force =    -0.00002604    0.00000000   -0.00002604
     atom   12 type  1   force =     0.00000000    0.00004801   -0.00004801
     atom   13 type  1   force =     0.00000000    0.00000000    0.00000000
     atom   14 type  1   force =    -0.00002604    0.00002604    0.00000000
     atom   15 type  1   force =    -0.00002604   -0.00000000    0.00002604
     atom   16 type  1   force =     0.00000000    0.00004801    0.00004801
     atom   17 type  1   force =     0.00000000    0.00000000    0.00000000
     atom   18 type  1   force =     0.00004801   -0.00004801    0.00000000
     atom   19 type  1   force =     0.00004801   -0.00000000   -0.00004801
     atom   20 type  1   force =     0.00000000   -0.00002604   -0.00002604
     atom   21 type  1   force =     0.00000000    0.00000000    0.00000000
     atom   22 type  1   force =     0.00002604   -0.00002604    0.00000000
     atom   23 type  1   force =     0.00004801    0.00000000    0.00004801
     atom   24 type  1   force =     0.00000000   -0.00002604    0.00002604
     atom   25 type  1   force =     0.00000000    0.00000000    0.00000000
     atom   26 type  1   force =     0.00004801    0.00004801    0.00000000
     atom   27 type  1   force =     0.00002604    0.00000000   -0.00002604
     atom   28 type  1   force =     0.00000000    0.00002604   -0.00002604
     atom   29 type  1   force =     0.00000000    0.00000000    0.00000000
     atom   30 type  1   force =     0.00002604    0.00002604   -0.00000000
     atom   31 type  1   force =     0.00002604    0.00000000    0.00002604
     atom   32 type  1   force =     0.00000000    0.00002604    0.00002604

     Total force =     0.000268     Total SCF correction =     0.002446
     SCF correction compared to forces is large: reduce conv_thr to get better values

     Computing stress (Cartesian axis) and pressure

          total   stress  (Ry/bohr**3)                   (kbar)     P=      -35.34
  -0.00024021   0.00000000   0.00000000          -35.34        0.00        0.00
   0.00000000  -0.00024021   0.00000000            0.00      -35.34        0.00
   0.00000000   0.00000000  -0.00024021            0.00        0.00      -35.34

     Writing output data file /scratch/trqHgbEJVIWjssSc.save/

     General routines

     Parallel routines

   This run was terminated on:   0:50:15  27Nov2021

   JOB DONE.