     Program PWSCF v.6.7MaX starts on 27Nov2021 at  0:50:20

     R & G space division:  proc/nbgrp/npool/nimage =      72
     Reading input from fcc_16.in
Warning: card &CELL ignored
Warning: card CELL_DYNAMICS = 'BFGS', ignored
Warning: card CELL_FACTOR = 2.0, ignored
Warning: card PRESS = 0.0, ignored
Warning: card / ignored

     Current dimensions of program PWSCF are:
     Max number of different atomic species (ntypx) = 10
     Max number of k-points (npk) =  40000
     Max angular momentum in pseudopotentials (lmaxx) =  3
     file Pd.pbe-spn-kjpaw_psl.1.0.0.UPF: wavefunction(s)  4S 5S 4D renormalized

     Subspace diagonalization in iterative solution of the eigenvalue problem:
     one sub-group per band group will be used

     Found symmetry operation: I + (  0.2500  0.2500  0.0000)
     This is a supercell, fractional translations are disabled
     Message from routine setup:
     using ibrav=0 with symmetry is DISCOURAGED, use correct ibrav instead

     bravais-lattice index     =            0
     lattice parameter (alat)  =      14.4000  a.u.
     unit-cell volume          =   15644.7452 (a.u.)^3
     number of atoms/cell      =           32
     number of atomic types    =            1
     number of electrons       =       576.00
     number of Kohn-Sham states=          346
     kinetic-energy cutoff     =      71.0000  Ry
     charge density cutoff     =     430.0000  Ry
     scf convergence threshold =      1.0E-06
     mixing beta               =       0.1000
     number of iterations used =           10  TF        mixing
     Exchange-correlation= SLA  PW   PBX  PBC
                           (   1   4   3   4   0   0   0)

     celldm(1)=  14.400000  celldm(2)=   0.000000  celldm(3)=   0.000000
     celldm(4)=   0.000000  celldm(5)=   0.000000  celldm(6)=   0.000000

     crystal axes: (cart. coord. in units of alat)
               a(1) = (   1.736842   0.000000   0.000000 )
               a(2) = (   0.000000   1.736842   0.000000 )
               a(3) = (   0.000000   0.000000   1.736842 )

     reciprocal axes: (cart. coord. in units 2 pi/alat)
               b(1) = (  0.575758  0.000000  0.000000 )
               b(2) = (  0.000000  0.575758  0.000000 )
               b(3) = (  0.000000  0.000000  0.575758 )

     PseudoPot. # 1 for Pd read from file:
     /rds/homes/b/bxp912/pp/Pd.pbe-spn-kjpaw_psl.1.0.0.UPF
     MD5 check sum: 790f2ebce206edfd9790dcb9844eca51
     Pseudo is Projector augmented-wave + core cor, Zval = 18.0
     Generated using &quot;atomic&quot; code by A. Dal Corso  v.6.3
     Shape of augmentation charge: PSQ
     Using radial grid of 1235 points,  6 beta functions with:
                l(1) =   0
                l(2) =   0
                l(3) =   1
                l(4) =   1
                l(5) =   2
                l(6) =   2
     Q(r) pseudized with 0 coefficients

     atomic species   valence    mass     pseudopotential
        Pd            18.00   106.42000     Pd( 1.00)

     48 Sym. Ops., with inversion, found

   Cartesian axes

     site n.     atom                  positions (alat units)
         1           Pd  tau(   1) = (   0.0000000   0.0000000   0.0000000  )
         2           Pd  tau(   2) = (   0.4342105   0.4342105   0.0000000  )
         3           Pd  tau(   3) = (   0.4342105   0.0000000   0.4342105  )
         4           Pd  tau(   4) = (   0.0000000   0.4342105   0.4342105  )
         5           Pd  tau(   5) = (   0.0000000   0.0000000   0.8684211  )
         6           Pd  tau(   6) = (   0.4342105   0.4342105   0.8684211  )
         7           Pd  tau(   7) = (   0.4342105   0.0000000   1.3026316  )
         8           Pd  tau(   8) = (   0.0000000   0.4342105   1.3026316  )
         9           Pd  tau(   9) = (   0.0000000   0.8684211   0.0000000  )
        10           Pd  tau(  10) = (   0.4342105   1.3026316   0.0000000  )
        11           Pd  tau(  11) = (   0.4342105   0.8684211   0.4342105  )
        12           Pd  tau(  12) = (   0.0000000   1.3026316   0.4342105  )
        13           Pd  tau(  13) = (   0.0000000   0.8684211   0.8684211  )
        14           Pd  tau(  14) = (   0.4342105   1.3026316   0.8684211  )
        15           Pd  tau(  15) = (   0.4342105   0.8684211   1.3026316  )
        16           Pd  tau(  16) = (   0.0000000   1.3026316   1.3026316  )
        17           Pd  tau(  17) = (   0.8684211   0.0000000   0.0000000  )
        18           Pd  tau(  18) = (   1.3026316   0.4342105   0.0000000  )
        19           Pd  tau(  19) = (   1.3026316   0.0000000   0.4342105  )
        20           Pd  tau(  20) = (   0.8684211   0.4342105   0.4342105  )
        21           Pd  tau(  21) = (   0.8684211   0.0000000   0.8684211  )
        22           Pd  tau(  22) = (   1.3026316   0.4342105   0.8684211  )
        23           Pd  tau(  23) = (   1.3026316   0.0000000   1.3026316  )
        24           Pd  tau(  24) = (   0.8684211   0.4342105   1.3026316  )
        25           Pd  tau(  25) = (   0.8684211   0.8684211   0.0000000  )
        26           Pd  tau(  26) = (   1.3026316   1.3026316   0.0000000  )
        27           Pd  tau(  27) = (   1.3026316   0.8684211   0.4342105  )
        28           Pd  tau(  28) = (   0.8684211   1.3026316   0.4342105  )
        29           Pd  tau(  29) = (   0.8684211   0.8684211   0.8684211  )
        30           Pd  tau(  30) = (   1.3026316   1.3026316   0.8684211  )
        31           Pd  tau(  31) = (   1.3026316   0.8684211   1.3026316  )
        32           Pd  tau(  32) = (   0.8684211   1.3026316   1.3026316  )

     number of k points=    35  Marzari-Vanderbilt smearing, width (Ry)=  0.0400
                       cart. coord. in units 2pi/alat
        k(    1) = (   0.0319865   0.0319865   0.0319865), wk =   0.0219479
        k(    2) = (   0.0319865   0.0319865   0.0959596), wk =   0.0658436
        k(    3) = (   0.0319865   0.0319865   0.1599327), wk =   0.0658436
        k(    4) = (   0.0319865   0.0319865   0.2239057), wk =   0.0658436
        k(    5) = (   0.0319865   0.0319865  -0.2878788), wk =   0.0329218
        k(    6) = (   0.0319865   0.0959596   0.0959596), wk =   0.0658436
        k(    7) = (   0.0319865   0.0959596   0.1599327), wk =   0.1316872
        k(    8) = (   0.0319865   0.0959596   0.2239057), wk =   0.1316872
        k(    9) = (   0.0319865   0.0959596  -0.2878788), wk =   0.0658436
        k(   10) = (   0.0319865   0.1599327   0.1599327), wk =   0.0658436
        k(   11) = (   0.0319865   0.1599327   0.2239057), wk =   0.1316872
        k(   12) = (   0.0319865   0.1599327  -0.2878788), wk =   0.0658436
        k(   13) = (   0.0319865   0.2239057   0.2239057), wk =   0.0658436
        k(   14) = (   0.0319865   0.2239057  -0.2878788), wk =   0.0658436
        k(   15) = (   0.0319865  -0.2878788  -0.2878788), wk =   0.0164609
        k(   16) = (   0.0959596   0.0959596   0.0959596), wk =   0.0219479
        k(   17) = (   0.0959596   0.0959596   0.1599327), wk =   0.0658436
        k(   18) = (   0.0959596   0.0959596   0.2239057), wk =   0.0658436
        k(   19) = (   0.0959596   0.0959596  -0.2878788), wk =   0.0329218
        k(   20) = (   0.0959596   0.1599327   0.1599327), wk =   0.0658436
        k(   21) = (   0.0959596   0.1599327   0.2239057), wk =   0.1316872
        k(   22) = (   0.0959596   0.1599327  -0.2878788), wk =   0.0658436
        k(   23) = (   0.0959596   0.2239057   0.2239057), wk =   0.0658436
        k(   24) = (   0.0959596   0.2239057  -0.2878788), wk =   0.0658436
        k(   25) = (   0.0959596  -0.2878788  -0.2878788), wk =   0.0164609
        k(   26) = (   0.1599327   0.1599327   0.1599327), wk =   0.0219479
        k(   27) = (   0.1599327   0.1599327   0.2239057), wk =   0.0658436
        k(   28) = (   0.1599327   0.1599327  -0.2878788), wk =   0.0329218
        k(   29) = (   0.1599327   0.2239057   0.2239057), wk =   0.0658436
        k(   30) = (   0.1599327   0.2239057  -0.2878788), wk =   0.0658436
        k(   31) = (   0.1599327  -0.2878788  -0.2878788), wk =   0.0164609
        k(   32) = (   0.2239057   0.2239057   0.2239057), wk =   0.0219479
        k(   33) = (   0.2239057   0.2239057  -0.2878788), wk =   0.0329218
        k(   34) = (   0.2239057  -0.2878788  -0.2878788), wk =   0.0164609
        k(   35) = (  -0.2878788  -0.2878788  -0.2878788), wk =   0.0027435

     Initial potential from superposition of free atoms

     starting charge  575.98776, renormalised to  576.00000
     Starting wfcs are  320 randomized atomic wfcs +   26 random wfcs
     Checking if some PAW data can be deallocated...

     Self-consistent Calculation

     iteration #  1     ecut=    71.00 Ry     beta= 0.10
     Davidson diagonalization with overlap
     ethr =  1.00E-02,  avg # of iterations =  5.6

     total energy              =  -16381.36356270 Ry
     estimated scf accuracy    <      24.43208723 Ry

[...]

     iteration #  5     ecut=    71.00 Ry     beta= 0.10
     Davidson diagonalization with overlap
     c_bands:  1 eigenvalues not converged
     ethr =  3.11E-04,  avg # of iterations =  4.1

[...]

     iteration # 33     ecut=    71.00 Ry     beta= 0.10
     Davidson diagonalization with overlap
     c_bands:  2 eigenvalues not converged
     ethr =  1.75E-06,  avg # of iterations =  1.5

[...]

     total energy              =  -16376.23605719 Ry
     estimated scf accuracy    <       0.00001068 Ry

     iteration # 43     ecut=    71.00 Ry     beta= 0.10
     Davidson diagonalization with overlap
     ethr =  2.21E-10,  avg # of iterations =  2.0

     End of self-consistent calculation

          k = 0.0320 0.0320 0.0320 (158073 PWs)   bands (ev):

   -81.6981 -81.6978 -81.6978 -81.6978 -81.6977 -81.6977 -81.6977 -81.6977
   -81.6977 -81.6977 -81.6977 -81.6977 -81.6977 -81.6977 -81.6977 -81.6977
   -81.6977 -81.6977 -81.6977 -81.6977 -81.6977 -81.6977 -81.6977 -81.6977
   -81.6977 -81.6977 -81.6977 -81.6977 -81.6977 -81.6977 -81.6977 -81.6975
   -47.5190 -47.5190 -47.5190 -47.5189 -47.5189 -47.5189 -47.5189 -47.5189
   -47.5189 -47.5189 -47.5188 -47.5188 -47.5188 -47.5188 -47.5188 -47.5188
   -47.5188 -47.5188 -47.5188 -47.5188 -47.5188 -47.5188 -47.5188 -47.5188
   -47.5188 -47.5188 -47.5188 -47.5188 -47.5188 -47.5188 -47.5188 -47.5188
   -47.5188 -47.5188 -47.5187 -47.5187 -47.5187 -47.5187 -47.5187 -47.5187
   -47.5187 -47.5187 -47.5187 -47.5187 -47.5187 -47.5187 -47.5187 -47.5187
   -47.5187 -47.5187 -47.5187 -47.5187 -47.5187 -47.5187 -47.5187 -47.5187
   -47.5187 -47.5187 -47.5187 -47.5187 -47.5187 -47.5187 -47.5187 -47.5186
   -47.5186 -47.5186 -47.5186 -47.5186 -47.5186 -47.5186 -47.5186 -47.5186
   -47.5186 -47.5186 -47.5186 -47.5186 -47.5186 -47.5186 -47.5186 -47.5186
   -47.5186 -47.5186 -47.5186 -47.5186 -47.5186 -47.5186 -47.5186 -47.5186
   -47.5186 -47.5186 -47.5186 -47.5185 -47.5185 -47.5185 -47.5185 -47.5185
    -0.5977  -0.3020  -0.3007  -0.3007  -0.3007  -0.2915  -0.2915  -0.2915
    -0.2867  -0.2867  -0.2867  -0.2329  -0.2329  -0.2329  -0.2216  -0.2216
    -0.2216  -0.2057  -0.2057  -0.2057  -0.2042  -0.2042  -0.2042  -0.2042
    -0.2042  -0.2042  -0.2018  -0.2018  -0.2018  -0.1962  -0.1962  -0.1962
    -0.1947  -0.1947  -0.1947  -0.1947  -0.1947  -0.1947  -0.1919  -0.1919
    -0.1919  -0.1693  -0.1693  -0.1693  -0.1689  -0.1689  -0.1689  -0.1689
    -0.1689  -0.1689  -0.1662  -0.1662  -0.1662  -0.1662  -0.1662  -0.1662
    -0.1629  -0.1619  -0.1619  -0.1616  -0.1616  -0.1616  -0.1607  -0.1607
    -0.1598  -0.1598  -0.1598  -0.1578  -0.1578  -0.1578  -0.1423  -0.1423
    -0.1423  -0.1423  -0.1423  -0.1423  -0.1034  -0.1034  -0.1034  -0.1034
    -0.1034  -0.1034  -0.0984  -0.0984  -0.0984  -0.0922  -0.0922  -0.0922
    -0.0898  -0.0898  -0.0898  -0.0852  -0.0852  -0.0852  -0.0839  -0.0839
    -0.0839  -0.0823  -0.0823  -0.0823  -0.0785  -0.0785  -0.0785  -0.0785
    -0.0785  -0.0785  -0.0709  -0.0709  -0.0690  -0.0690  -0.0690  -0.0686
    -0.0686  -0.0686  -0.0680  -0.0680  -0.0680  -0.0592  -0.0592  -0.0592
    -0.0592  -0.0592  -0.0591  -0.0571  -0.0571  -0.0571  -0.0571  -0.0571
    -0.0571  -0.0532  -0.0532  -0.0532  -0.0375  -0.0375  -0.0375  -0.0309
    -0.0309  -0.0309   0.0002   0.0002   0.0002   0.0037   0.0037   0.0037
     0.0049   0.0049   0.0060   0.0060   0.0060   0.0237   0.0237   0.0238
     0.0246   0.0246   0.0246   0.0246   0.0246   0.0246   0.0248   0.0248
     0.0248   0.2297   0.2297   0.2297   0.4151   0.4151   0.4151   0.9872
     0.9872   0.9872   1.1590   1.1590   1.1591   1.1591   1.1591   1.1591
     1.3243   1.3243   1.3243   1.5715   1.6297   1.6297   1.6297   2.3589
     2.3589   2.3589   2.4360   2.4360   2.4360   2.4360   2.4360   2.4360
     2.9442   2.9442   2.9442   3.0033   3.5292   3.5292   3.5292   4.4248
     4.4248   4.4248   4.4249   4.4249   4.4249   4.5813   4.5813   4.5814
     4.6389   4.6389   4.6389   4.6390   4.6390   4.6392   4.7368   4.7368
     4.7368   4.7369

[...]

          k = 0.2239-0.2879-0.2879 (158052 PWs)   bands (ev):

[...]

          k =-0.2879-0.2879-0.2879 (158408 PWs)   bands (ev):

   -81.6981 -81.6978 -81.6978 -81.6978 -81.6977 -81.6977 -81.6977 -81.6977
   -81.6977 -81.6977 -81.6977 -81.6977 -81.6977 -81.6977 -81.6977 -81.6977
   -81.6977 -81.6977 -81.6977 -81.6977 -81.6977 -81.6977 -81.6977 -81.6977
   -81.6977 -81.6977 -81.6977 -81.6977 -81.6977 -81.6977 -81.6977 -81.6975
   -47.5190 -47.5190 -47.5190 -47.5189 -47.5189 -47.5189 -47.5189 -47.5189
   -47.5189 -47.5189 -47.5189 -47.5189 -47.5189 -47.5189 -47.5189 -47.5189
   -47.5189 -47.5189 -47.5189 -47.5189 -47.5189 -47.5188 -47.5188 -47.5188
   -47.5188 -47.5188 -47.5188 -47.5188 -47.5187 -47.5187 -47.5187 -47.5187
   -47.5187 -47.5187 -47.5187 -47.5187 -47.5187 -47.5187 -47.5187 -47.5187
   -47.5187 -47.5187 -47.5187 -47.5187 -47.5187 -47.5187 -47.5187 -47.5187
   -47.5187 -47.5187 -47.5187 -47.5187 -47.5187 -47.5187 -47.5187 -47.5187
   -47.5187 -47.5187 -47.5187 -47.5187 -47.5187 -47.5187 -47.5187 -47.5187
   -47.5187 -47.5187 -47.5187 -47.5187 -47.5187 -47.5187 -47.5187 -47.5187
   -47.5187 -47.5187 -47.5187 -47.5187 -47.5187 -47.5186 -47.5186 -47.5186
   -47.5186 -47.5186 -47.5186 -47.5186 -47.5186 -47.5186 -47.5186 -47.5186
   -47.5186 -47.5186 -47.5186 -47.5186 -47.5186 -47.5185 -47.5185 -47.5185
    -0.2719  -0.2719  -0.2719  -0.2719  -0.2719  -0.2719  -0.2719  -0.2719
    -0.2489  -0.2489  -0.2489  -0.2489  -0.2489  -0.2489  -0.2489  -0.2489
    -0.2489  -0.2489  -0.2489  -0.2489  -0.2489  -0.2489  -0.2489  -0.2489
    -0.2489  -0.2489  -0.2489  -0.2489  -0.2489  -0.2489  -0.2489  -0.2489
    -0.1773  -0.1773  -0.1773  -0.1773  -0.1773  -0.1773  -0.1773  -0.1773
    -0.1773  -0.1773  -0.1773  -0.1773  -0.1773  -0.1773  -0.1773  -0.1773
    -0.1773  -0.1773  -0.1773  -0.1773  -0.1773  -0.1773  -0.1773  -0.1773
    -0.1419  -0.1419  -0.1419  -0.1419  -0.1419  -0.1419  -0.1419  -0.1419
    -0.1419  -0.1419  -0.1419  -0.1419  -0.1419  -0.1419  -0.1419  -0.1419
    -0.0793  -0.0793  -0.0793  -0.0793  -0.0793  -0.0793  -0.0793  -0.0793
    -0.0793  -0.0793  -0.0793  -0.0793  -0.0793  -0.0793  -0.0793  -0.0793
    -0.0793  -0.0793  -0.0793  -0.0793  -0.0793  -0.0793  -0.0793  -0.0793
    -0.0785  -0.0785  -0.0785  -0.0785  -0.0785  -0.0785  -0.0785  -0.0785
    -0.0785  -0.0785  -0.0785  -0.0785  -0.0785  -0.0785  -0.0785  -0.0785
    -0.0785  -0.0785  -0.0785  -0.0785  -0.0785  -0.0785  -0.0785  -0.0785
    -0.0539  -0.0539  -0.0539  -0.0538  -0.0538  -0.0538  -0.0538  -0.0538
    -0.0538  -0.0538  -0.0538  -0.0538  -0.0538  -0.0538  -0.0538  -0.0538
     0.0109   0.0109   0.0109   0.0109   0.0109   0.0109   0.0109   0.0109
     0.0109   0.0109   0.0109   0.0109   0.0109   0.0109   0.0109   0.0109
     0.0109   0.0109   0.0109   0.0109   0.0109   0.0110   0.0110   0.0110
     0.1303   0.1303   0.1303   0.1303   0.1304   0.1304   0.1304   0.1304
     1.6991   1.6992   1.6992   1.6992   1.6992   1.6992   1.6992   1.6992
     1.6992   1.6992   1.6992   1.6992   1.6992   1.6992   1.6992   1.6992
     1.6992   1.6992   1.6992   1.6992   1.6992   1.6992   1.6992   1.6992
     3.9948   3.9948   3.9948   3.9948   3.9948   3.9948   3.9949   3.9949
     3.9949   3.9949   3.9949   3.9949   3.9949   3.9949   3.9949   3.9949
     3.9949   3.9949   3.9949   3.9949   3.9949   3.9949   3.9949   3.9949
     5.7311   5.7324

     the Fermi energy is     0.3614 ev

!    total energy              =  -16376.23605941 Ry

     total all-electron energy =   -322937.089767 Ry
     estimated scf accuracy    <       0.00000097 Ry
     smearing contrib. (-TS)   =       0.74789257 Ry
     internal energy E=F+TS    =  -16376.98395198 Ry

     The total energy is F=E-TS. E is the sum of the following terms:
     one-electron contribution =   -6965.25920693 Ry
     hartree contribution      =    3540.04870766 Ry
     xc contribution           =    -983.91582721 Ry
     ewald contribution        =   -3801.26746509 Ry
     one-center paw contrib.   =   -8166.59016041 Ry

     convergence has been achieved in  43 iterations

     Forces acting on atoms (cartesian axes, Ry/au):

     atom    1 type  1   force =     0.00000000    0.00000000    0.00000000
     atom    2 type  1   force =     0.00002464    0.00002464   -0.00000000
     atom    3 type  1   force =     0.00002464   -0.00000000    0.00002464
     atom    4 type  1   force =    -0.00000000    0.00002464    0.00002464
     atom    5 type  1   force =     0.00000000    0.00000000    0.00000000
     atom    6 type  1   force =     0.00001708    0.00001708    0.00000000
     atom    7 type  1   force =     0.00002464    0.00000000   -0.00002464
     atom    8 type  1   force =    -0.00000000    0.00002464   -0.00002464
     atom    9 type  1   force =     0.00000000    0.00000000    0.00000000
     atom   10 type  1   force =     0.00002464   -0.00002464    0.00000000
     atom   11 type  1   force =     0.00001708    0.00000000    0.00001708
     atom   12 type  1   force =    -0.00000000   -0.00002464    0.00002464
     atom   13 type  1   force =     0.00000000    0.00000000    0.00000000
     atom   14 type  1   force =     0.00001708   -0.00001708   -0.00000000
     atom   15 type  1   force =     0.00001708   -0.00000000   -0.00001708
     atom   16 type  1   force =    -0.00000000   -0.00002464   -0.00002464
     atom   17 type  1   force =     0.00000000    0.00000000    0.00000000
     atom   18 type  1   force =    -0.00002464    0.00002464    0.00000000
     atom   19 type  1   force =    -0.00002464    0.00000000    0.00002464
     atom   20 type  1   force =     0.00000000    0.00001708    0.00001708
     atom   21 type  1   force =     0.00000000    0.00000000    0.00000000
     atom   22 type  1   force =    -0.00001708    0.00001708   -0.00000000
     atom   23 type  1   force =    -0.00002464   -0.00000000   -0.00002464
     atom   24 type  1   force =    -0.00000000    0.00001708   -0.00001708
     atom   25 type  1   force =     0.00000000    0.00000000    0.00000000
     atom   26 type  1   force =    -0.00002464   -0.00002464   -0.00000000
     atom   27 type  1   force =    -0.00001708    0.00000000    0.00001708
     atom   28 type  1   force =     0.00000000   -0.00001708    0.00001708
     atom   29 type  1   force =     0.00000000    0.00000000    0.00000000
     atom   30 type  1   force =    -0.00001708   -0.00001708    0.00000000
     atom   31 type  1   force =    -0.00001708   -0.00000000   -0.00001708
     atom   32 type  1   force =    -0.00000000   -0.00001708   -0.00001708

     Total force =     0.000147     Total SCF correction =     0.001333
     SCF correction compared to forces is large: reduce conv_thr to get better values

     Computing stress (Cartesian axis) and pressure

          total   stress  (Ry/bohr**3)                   (kbar)     P=      -25.63
  -0.00017420   0.00000000   0.00000000          -25.63        0.00        0.00
   0.00000000  -0.00017420   0.00000000            0.00      -25.63        0.00
   0.00000000   0.00000000  -0.00017420            0.00        0.00      -25.63

     Writing output data file /scratch/OLuwfqRtnDrhDGwj.save/

     General routines

     Parallel routines

   This run was terminated on:   2:12: 3  27Nov2021

   JOB DONE.