     Program PWSCF v.6.7MaX starts on 26Nov2021 at 19:44:21

     R & G space division:  proc/nbgrp/npool/nimage =      72
     Reading input from fcc_6.in
Warning: card &CELL ignored
Warning: card CELL_DYNAMICS = 'BFGS', ignored
Warning: card CELL_FACTOR = 2.0, ignored
Warning: card PRESS = 0.0, ignored
Warning: card / ignored

     Current dimensions of program PWSCF are:
     Max number of different atomic species (ntypx) = 10
     Max number of k-points (npk) =  40000
     Max angular momentum in pseudopotentials (lmaxx) =  3
     file Pd.pbe-spn-kjpaw_psl.1.0.0.UPF: wavefunction(s)  4S 5S 4D renormalized

     Subspace diagonalization in iterative solution of the eigenvalue problem:
     one sub-group per band group will be used

     Found symmetry operation: I + (  0.2500  0.2500  0.0000)
     This is a supercell, fractional translations are disabled
     Message from routine setup:
     using ibrav=0 with symmetry is DISCOURAGED, use correct ibrav instead

     bravais-lattice index     =            0
     lattice parameter (alat)  =      14.4000  a.u.
     unit-cell volume          =    3750.4921 (a.u.)^3
     number of atoms/cell      =           32
     number of atomic types    =            1
     number of electrons       =       576.00
     number of Kohn-Sham states=          346
     kinetic-energy cutoff     =      71.0000  Ry
     charge density cutoff     =     430.0000  Ry
     scf convergence threshold =      1.0E-06
     mixing beta               =       0.1000
     number of iterations used =           10  TF        mixing
     Exchange-correlation= SLA  PW   PBX  PBC
                           (   1   4   3   4   0   0   0)

     celldm(1)=  14.400000  celldm(2)=   0.000000  celldm(3)=   0.000000
     celldm(4)=   0.000000  celldm(5)=   0.000000  celldm(6)=   0.000000

     crystal axes: (cart. coord. in units of alat)
               a(1) = (   1.078947   0.000000   0.000000 )
               a(2) = (   0.000000   1.078947   0.000000 )
               a(3) = (   0.000000   0.000000   1.078947 )

     reciprocal axes: (cart. coord. in units 2 pi/alat)
               b(1) = (  0.926829  0.000000  0.000000 )
               b(2) = (  0.000000  0.926829  0.000000 )
               b(3) = (  0.000000  0.000000  0.926829 )

     PseudoPot. # 1 for Pd read from file:
     /rds/homes/b/bxp912/pp/Pd.pbe-spn-kjpaw_psl.1.0.0.UPF
     MD5 check sum: 790f2ebce206edfd9790dcb9844eca51
     Pseudo is Projector augmented-wave + core cor, Zval = 18.0
     Generated using &quot;atomic&quot; code by A. Dal Corso  v.6.3
     Shape of augmentation charge: PSQ
     Using radial grid of 1235 points,  6 beta functions with:
                l(1) =   0
                l(2) =   0
                l(3) =   1
                l(4) =   1
                l(5) =   2
                l(6) =   2
     Q(r) pseudized with 0 coefficients

     atomic species   valence    mass     pseudopotential
        Pd            18.00   106.42000     Pd( 1.00)

     48 Sym. Ops., with inversion, found

   Cartesian axes

     site n.     atom                  positions (alat units)
         1           Pd  tau(   1) = (   0.0000000   0.0000000   0.0000000  )
         2           Pd  tau(   2) = (   0.2697368   0.2697368   0.0000000  )
         3           Pd  tau(   3) = (   0.2697368   0.0000000   0.2697368  )
         4           Pd  tau(   4) = (   0.0000000   0.2697368   0.2697368  )
         5           Pd  tau(   5) = (   0.0000000   0.0000000   0.5394737  )
         6           Pd  tau(   6) = (   0.2697368   0.2697368   0.5394737  )
         7           Pd  tau(   7) = (   0.2697368   0.0000000   0.8092105  )
         8           Pd  tau(   8) = (   0.0000000   0.2697368   0.8092105  )
         9           Pd  tau(   9) = (   0.0000000   0.5394737   0.0000000  )
        10           Pd  tau(  10) = (   0.2697368   0.8092105   0.0000000  )
        11           Pd  tau(  11) = (   0.2697368   0.5394737   0.2697368  )
        12           Pd  tau(  12) = (   0.0000000   0.8092105   0.2697368  )
        13           Pd  tau(  13) = (   0.0000000   0.5394737   0.5394737  )
        14           Pd  tau(  14) = (   0.2697368   0.8092105   0.5394737  )
        15           Pd  tau(  15) = (   0.2697368   0.5394737   0.8092105  )
        16           Pd  tau(  16) = (   0.0000000   0.8092105   0.8092105  )
        17           Pd  tau(  17) = (   0.5394737   0.0000000   0.0000000  )
        18           Pd  tau(  18) = (   0.8092105   0.2697368   0.0000000  )
        19           Pd  tau(  19) = (   0.8092105   0.0000000   0.2697368  )
        20           Pd  tau(  20) = (   0.5394737   0.2697368   0.2697368  )
        21           Pd  tau(  21) = (   0.5394737   0.0000000   0.5394737  )
        22           Pd  tau(  22) = (   0.8092105   0.2697368   0.5394737  )
        23           Pd  tau(  23) = (   0.8092105   0.0000000   0.8092105  )
        24           Pd  tau(  24) = (   0.5394737   0.2697368   0.8092105  )
        25           Pd  tau(  25) = (   0.5394737   0.5394737   0.0000000  )
        26           Pd  tau(  26) = (   0.8092105   0.8092105   0.0000000  )
        27           Pd  tau(  27) = (   0.8092105   0.5394737   0.2697368  )
        28           Pd  tau(  28) = (   0.5394737   0.8092105   0.2697368  )
        29           Pd  tau(  29) = (   0.5394737   0.5394737   0.5394737  )
        30           Pd  tau(  30) = (   0.8092105   0.8092105   0.5394737  )
        31           Pd  tau(  31) = (   0.8092105   0.5394737   0.8092105  )
        32           Pd  tau(  32) = (   0.5394737   0.8092105   0.8092105  )

     number of k points=    35  Marzari-Vanderbilt smearing, width (Ry)=  0.0400
                       cart. coord. in units 2pi/alat
        k(    1) = (   0.0514905   0.0514905   0.0514905), wk =   0.0219479
        k(    2) = (   0.0514905   0.0514905   0.1544715), wk =   0.0658436
        k(    3) = (   0.0514905   0.0514905   0.2574526), wk =   0.0658436
        k(    4) = (   0.0514905   0.0514905   0.3604336), wk =   0.0658436
        k(    5) = (   0.0514905   0.0514905  -0.4634146), wk =   0.0329218
        k(    6) = (   0.0514905   0.1544715   0.1544715), wk =   0.0658436
        k(    7) = (   0.0514905   0.1544715   0.2574526), wk =   0.1316872
        k(    8) = (   0.0514905   0.1544715   0.3604336), wk =   0.1316872
        k(    9) = (   0.0514905   0.1544715  -0.4634146), wk =   0.0658436
        k(   10) = (   0.0514905   0.2574526   0.2574526), wk =   0.0658436
        k(   11) = (   0.0514905   0.2574526   0.3604336), wk =   0.1316872
        k(   12) = (   0.0514905   0.2574526  -0.4634146), wk =   0.0658436
        k(   13) = (   0.0514905   0.3604336   0.3604336), wk =   0.0658436
        k(   14) = (   0.0514905   0.3604336  -0.4634146), wk =   0.0658436
        k(   15) = (   0.0514905  -0.4634146  -0.4634146), wk =   0.0164609
        k(   16) = (   0.1544715   0.1544715   0.1544715), wk =   0.0219479
        k(   17) = (   0.1544715   0.1544715   0.2574526), wk =   0.0658436
        k(   18) = (   0.1544715   0.1544715   0.3604336), wk =   0.0658436
        k(   19) = (   0.1544715   0.1544715  -0.4634146), wk =   0.0329218
        k(   20) = (   0.1544715   0.2574526   0.2574526), wk =   0.0658436
        k(   21) = (   0.1544715   0.2574526   0.3604336), wk =   0.1316872
        k(   22) = (   0.1544715   0.2574526  -0.4634146), wk =   0.0658436
        k(   23) = (   0.1544715   0.3604336   0.3604336), wk =   0.0658436
        k(   24) = (   0.1544715   0.3604336  -0.4634146), wk =   0.0658436
        k(   25) = (   0.1544715  -0.4634146  -0.4634146), wk =   0.0164609
        k(   26) = (   0.2574526   0.2574526   0.2574526), wk =   0.0219479
        k(   27) = (   0.2574526   0.2574526   0.3604336), wk =   0.0658436
        k(   28) = (   0.2574526   0.2574526  -0.4634146), wk =   0.0329218
        k(   29) = (   0.2574526   0.3604336   0.3604336), wk =   0.0658436
        k(   30) = (   0.2574526   0.3604336  -0.4634146), wk =   0.0658436
        k(   31) = (   0.2574526  -0.4634146  -0.4634146), wk =   0.0164609
        k(   32) = (   0.3604336   0.3604336   0.3604336), wk =   0.0219479
        k(   33) = (   0.3604336   0.3604336  -0.4634146), wk =   0.0329218
        k(   34) = (   0.3604336  -0.4634146  -0.4634146), wk =   0.0164609
        k(   35) = (  -0.4634146  -0.4634146  -0.4634146), wk =   0.0027435

     Check: negative core charge=   -0.000002

     Initial potential from superposition of free atoms

     starting charge  575.98776, renormalised to  576.00000
     Starting wfcs are  320 randomized atomic wfcs +   26 random wfcs
     Checking if some PAW data can be deallocated...

     Self-consistent Calculation

     iteration #  1     ecut=    71.00 Ry     beta= 0.10
     Davidson diagonalization with overlap
     ethr =  1.00E-02,  avg # of iterations =  3.0

     Threshold (ethr) on eigenvalues was too large:
     Diagonalizing with lowered threshold

     Davidson diagonalization with overlap
     ethr =  2.04E-04,  avg # of iterations =  2.4

     total energy              =  -16384.87700288 Ry
     estimated scf accuracy    <       1.12910212 Ry

[...]

     total energy              =  -16384.68259482 Ry
     estimated scf accuracy    <       0.00000630 Ry

     iteration # 13     ecut=    71.00 Ry     beta= 0.10
     Davidson diagonalization with overlap
     ethr =  1.09E-09,  avg # of iterations =  2.0

     End of self-consistent calculation

          k = 0.0515 0.0515 0.0515 ( 37896 PWs)   bands (ev):

   -67.8273 -67.8122 -67.8122 -67.8122 -67.8093 -67.8093 -67.8093 -67.8039
   -67.8039 -67.8039 -67.8026 -67.8023 -67.8023 -67.8023 -67.8023 -67.8023
   -67.8023 -67.8023 -67.8023 -67.8023 -67.8010 -67.8010 -67.8010 -67.7941
   -67.7941 -67.7941 -67.7941 -67.7941 -67.7941 -67.7941 -67.7941 -67.7941
   -33.6387 -33.6387 -33.6387 -33.6378 -33.6271 -33.6271 -33.6271 -33.5804
   -33.5804 -33.5804 -33.5778 -33.5778 -33.5778 -33.5778 -33.5778 -33.5778
   -33.5730 -33.5730 -33.5730 -33.5707 -33.5707 -33.5707 -33.5707 -33.5707
   -33.5707 -33.5598 -33.5598 -33.5598 -33.5597 -33.5597 -33.5597 -33.5342
   -33.5342 -33.5342 -33.5207 -33.5207 -33.5207 -33.5160 -33.5160 -33.5160
   -33.5115 -33.5115 -33.5115 -33.5114 -33.5114 -33.5114 -33.5025 -33.5025
   -33.5025 -33.5022 -33.5022 -33.5021 -33.5021 -33.5021 -33.5021 -33.5020
   -33.5020 -33.5020 -33.5011 -33.5010 -33.5010 -33.4630 -33.4630 -33.4630
   -33.4629 -33.4629 -33.4629 -33.4556 -33.4556 -33.4556 -33.4555 -33.4555
   -33.4555 -33.4536 -33.4536 -33.4536 -33.4508 -33.4508 -33.4508 -33.4505
   -33.4505 -33.4505 -33.4505 -33.4505 -33.4505 -33.4501 -33.4501 -33.4501
   -33.4495 -33.4495 -33.4462 -33.4462 -33.4462 -33.4189 -33.4175 -33.4175
     9.9388  11.7276  11.7324  11.7324  11.7324  11.7399  11.7399  11.7399
    11.8016  11.8016  11.8016  11.9508  11.9508  11.9508  12.0079  12.0079
    12.0079  12.5740  12.5740  12.5740  12.5740  12.5740  12.5740  12.6794
    12.6795  12.6795  12.7480  12.7480  12.7480  12.8276  12.8276  12.8276
    12.8276  12.8276  12.8276  12.8300  12.8300  12.8300  12.8383  12.8383
    12.8383  13.1416  13.1416  13.1416  13.1416  13.1416  13.1416  13.2277
    13.2277  13.2277  13.2466  13.2466  13.2466  13.2466  13.2466  13.2466
    13.2958  13.2958  13.2958  13.4314  13.4314  13.4314  13.4314  13.4314
    13.4314  13.5375  13.5375  13.5375  13.5418  13.5418  13.5418  13.5418
    13.5418  13.5418  13.6276  13.6276  13.6276  13.6542  13.6542  13.6542
    13.6703  13.6703  13.6790  13.6790  13.6790  13.6847  13.7002  13.7002
    14.3572  14.3572  14.3572  14.4033  14.4033  14.4033  14.4628  14.4628
    14.4628  14.4628  14.4628  14.4628  14.4671  14.4671  14.4671  14.5161
    14.5161  14.5161  14.5779  14.5779  14.5779  14.6795  14.6795  14.6795
    14.7732  14.7732  14.7732  14.8188  14.8188  14.8188  14.8901  14.8901
    14.8901  14.8902  14.8902  14.8902  14.9067  14.9067  14.9067  14.9201
    14.9201  14.9365  14.9365  14.9365  14.9365  14.9365  14.9365  15.0229
    15.0229  15.0229  15.3231  15.3231  15.3231  15.4039  15.4039  15.4039
    15.7348  15.7348  15.7348  15.8041  15.8041  15.8041  15.8258  15.8258
    15.8415  15.8415  15.8415  16.0270  16.0270  16.0270  16.0645  16.0645
    16.0645  16.0645  16.0645  16.0645  16.0669  16.0669  16.0669  17.0901
    17.3351  17.3351  17.3351  17.4093  17.4093  17.4093  17.8682  17.8682
    17.8682  17.8682  17.8682  17.8682  18.3486  18.3486  18.3486  19.2544
    19.2544  19.2544  22.0270  22.0270  22.0270  22.1854  23.4647  23.4647
    23.4647  23.4647  23.4647  23.4647  24.0932  24.0932  24.0932  24.0932
    24.0932  24.0932  25.1286  25.1286  25.1286  25.1790  25.1790  25.1790
    25.1790  25.1790  25.1790  26.3220  26.3220  26.3221  26.4456  26.4456
    26.4456  26.4456

[...]

          k = 0.3604-0.4634-0.4634 ( 37916 PWs)   bands (ev):

[...]

          k =-0.4634-0.4634-0.4634 ( 37752 PWs)   bands (ev):

   -67.8150 -67.8150 -67.8150 -67.8150 -67.8150 -67.8150 -67.8150 -67.8149
   -67.7982 -67.7982 -67.7982 -67.7982 -67.7982 -67.7982 -67.7982 -67.7982
   -67.7982 -67.7982 -67.7982 -67.7982 -67.7982 -67.7982 -67.7982 -67.7982
   -67.7982 -67.7982 -67.7982 -67.7982 -67.7982 -67.7982 -67.7982 -67.7981
   -33.6024 -33.6024 -33.6024 -33.6024 -33.6024 -33.6024 -33.6024 -33.6024
   -33.6024 -33.6024 -33.6024 -33.6024 -33.6024 -33.6024 -33.6024 -33.6024
   -33.6024 -33.6024 -33.6024 -33.6024 -33.6024 -33.6024 -33.6024 -33.6024
   -33.5288 -33.5288 -33.5288 -33.5288 -33.5288 -33.5288 -33.5288 -33.5288
   -33.5076 -33.5076 -33.5076 -33.5076 -33.5076 -33.5076 -33.5076 -33.5076
   -33.5076 -33.5076 -33.5076 -33.5076 -33.5076 -33.5076 -33.5076 -33.5076
   -33.5076 -33.5076 -33.5076 -33.5076 -33.5076 -33.5075 -33.5075 -33.5075
   -33.4758 -33.4758 -33.4758 -33.4757 -33.4757 -33.4757 -33.4757 -33.4757
   -33.4757 -33.4757 -33.4757 -33.4757 -33.4757 -33.4757 -33.4757 -33.4757
   -33.4757 -33.4757 -33.4757 -33.4757 -33.4757 -33.4757 -33.4757 -33.4757
   -33.4332 -33.4332 -33.4332 -33.4332 -33.4332 -33.4332 -33.4332 -33.4332
   -33.4332 -33.4332 -33.4332 -33.4332 -33.4332 -33.4332 -33.4332 -33.4332
    11.4461  11.4461  11.4462  11.4462  11.4462  11.4462  11.4462  11.4462
    12.3075  12.3075  12.3075  12.3075  12.3075  12.3075  12.3075  12.3075
    12.3075  12.3075  12.3075  12.3075  12.3075  12.3075  12.3075  12.3075
    12.3075  12.3075  12.3075  12.3075  12.3075  12.3075  12.3075  12.3075
    12.9472  12.9472  12.9472  12.9472  12.9472  12.9472  12.9472  12.9472
    12.9472  12.9472  12.9472  12.9472  12.9472  12.9472  12.9472  12.9472
    12.9472  12.9472  12.9472  12.9472  12.9472  12.9472  12.9472  12.9473
    13.6878  13.6878  13.6878  13.6878  13.6878  13.6878  13.6878  13.6878
    13.9236  13.9236  13.9236  13.9236  13.9236  13.9236  13.9236  13.9236
    13.9236  13.9236  13.9236  13.9236  13.9236  13.9236  13.9236  13.9236
    14.0876  14.0876  14.0876  14.0876  14.0876  14.0876  14.0876  14.0876
    14.0876  14.0876  14.0876  14.0876  14.0876  14.0876  14.0876  14.0876
    14.0876  14.0876  14.0876  14.0876  14.0876  14.0876  14.0876  14.0876
    14.6544  14.6544  14.6544  14.6544  14.6544  14.6544  14.6544  14.6544
    14.6544  14.6544  14.6544  14.6544  14.6544  14.6544  14.6544  14.6544
    14.6544  14.6544  14.6544  14.6544  14.6544  14.6544  14.6544  14.6544
    15.0504  15.0504  15.0504  15.0504  15.0504  15.0504  15.0504  15.0504
    15.0504  15.0504  15.0504  15.0504  15.0504  15.0504  15.0504  15.0504
    15.9075  15.9075  15.9075  15.9075  15.9075  15.9075  15.9075  15.9075
    15.9075  15.9075  15.9075  15.9075  15.9075  15.9075  15.9075  15.9075
    15.9075  15.9075  15.9075  15.9075  15.9075  15.9075  15.9075  15.9075
    19.1853  19.1853  19.1853  19.1853  19.1853  19.1853  19.1853  19.1853
    19.1853  19.1853  19.1853  19.1853  19.1853  19.1853  19.1853  19.1853
    19.1853  19.1853  19.1853  19.1853  19.1853  19.1853  19.1853  19.1853
    24.1131  24.1131  24.1131  24.1131  24.1131  24.1131  24.1131  24.1131
    24.1131  24.1131  24.1131  24.1131  24.1131  24.1131  24.1131  24.1131
    24.1131  24.1131  24.1131  24.1131  24.1131  24.1131  24.1131  24.1131
    29.0381  29.0381

     the Fermi energy is    15.9592 ev

!    total energy              =  -16384.68260476 Ry

     total all-electron energy =   -322945.536312 Ry
     estimated scf accuracy    <       0.00000019 Ry
     smearing contrib. (-TS)   =       0.09090191 Ry
     internal energy E=F+TS    =  -16384.77350667 Ry

     The total energy is F=E-TS. E is the sum of the following terms:
     one-electron contribution =   -2938.12470837 Ry
     hartree contribution      =    1823.56506051 Ry
     xc contribution           =    -983.81621170 Ry
     ewald contribution        =   -6119.11348038 Ry
     one-center paw contrib.   =   -8167.28416673 Ry

     convergence has been achieved in  13 iterations

     Forces acting on atoms (cartesian axes, Ry/au):

     atom    1 type  1   force =     0.00000000    0.00000000    0.00000000
     atom    2 type  1   force =     0.00000125    0.00000125    0.00000000
     atom    3 type  1   force =     0.00000125   -0.00000000    0.00000125
     atom    4 type  1   force =     0.00000000    0.00000125    0.00000125
     atom    5 type  1   force =     0.00000000    0.00000000    0.00000000
     atom    6 type  1   force =     0.00002350    0.00002350    0.00000000
     atom    7 type  1   force =     0.00000125    0.00000000   -0.00000125
     atom    8 type  1   force =     0.00000000    0.00000125   -0.00000125
     atom    9 type  1   force =     0.00000000    0.00000000    0.00000000
     atom   10 type  1   force =     0.00000125   -0.00000125   -0.00000000
     atom   11 type  1   force =     0.00002350    0.00000000    0.00002350
     atom   12 type  1   force =     0.00000000   -0.00000125    0.00000125
     atom   13 type  1   force =     0.00000000    0.00000000    0.00000000
     atom   14 type  1   force =     0.00002350   -0.00002350   -0.00000000
     atom   15 type  1   force =     0.00002350    0.00000000   -0.00002350
     atom   16 type  1   force =     0.00000000   -0.00000125   -0.00000125
     atom   17 type  1   force =     0.00000000    0.00000000    0.00000000
     atom   18 type  1   force =    -0.00000125    0.00000125    0.00000000
     atom   19 type  1   force =    -0.00000125   -0.00000000    0.00000125
     atom   20 type  1   force =     0.00000000    0.00002350    0.00002350
     atom   21 type  1   force =     0.00000000    0.00000000    0.00000000
     atom   22 type  1   force =    -0.00002350    0.00002350   -0.00000000
     atom   23 type  1   force =    -0.00000125   -0.00000000   -0.00000125
     atom   24 type  1   force =     0.00000000    0.00002350   -0.00002350
     atom   25 type  1   force =     0.00000000    0.00000000    0.00000000
     atom   26 type  1   force =    -0.00000125   -0.00000125    0.00000000
     atom   27 type  1   force =    -0.00002350    0.00000000    0.00002350
     atom   28 type  1   force =    -0.00000000   -0.00002350    0.00002350
     atom   29 type  1   force =     0.00000000    0.00000000    0.00000000
     atom   30 type  1   force =    -0.00002350   -0.00002350    0.00000000
     atom   31 type  1   force =    -0.00002350   -0.00000000   -0.00002350
     atom   32 type  1   force =    -0.00000000   -0.00002350   -0.00002350

     Total force =     0.000115     Total SCF correction =     0.000445
     SCF correction compared to forces is large: reduce conv_thr to get better values

     Computing stress (Cartesian axis) and pressure

          total   stress  (Ry/bohr**3)                   (kbar)     P=     -169.43
  -0.00115175   0.00000000   0.00000000         -169.43        0.00        0.00
   0.00000000  -0.00115175   0.00000000            0.00     -169.43        0.00
   0.00000000   0.00000000  -0.00115175            0.00        0.00     -169.43

     Writing output data file /scratch/cEQChaLuwvbTXvoS.save/

     General routines

     Parallel routines

   This run was terminated on:  19:57: 0  26Nov2021

   JOB DONE.