     Program PWSCF v.6.7MaX starts on 26Nov2021 at 20:29:19

     R & G space division:  proc/nbgrp/npool/nimage =      72
     Reading input from fcc_9.in
Warning: card &CELL ignored
Warning: card CELL_DYNAMICS = 'BFGS', ignored
Warning: card CELL_FACTOR = 2.0, ignored
Warning: card PRESS = 0.0, ignored
Warning: card / ignored

     Current dimensions of program PWSCF are:
     Max number of different atomic species (ntypx) = 10
     Max number of k-points (npk) =  40000
     Max angular momentum in pseudopotentials (lmaxx) =  3
     file Pd.pbe-spn-kjpaw_psl.1.0.0.UPF: wavefunction(s)  4S 5S 4D renormalized

     Subspace diagonalization in iterative solution of the eigenvalue problem:
     one sub-group per band group will be used

     Found symmetry operation: I + (  0.2500  0.2500  0.0000)
     This is a supercell, fractional translations are disabled
     Message from routine setup:
     using ibrav=0 with symmetry is DISCOURAGED, use correct ibrav instead

     bravais-lattice index     =            0
     lattice parameter (alat)  =      14.4000  a.u.
     unit-cell volume          =    6208.1457 (a.u.)^3
     number of atoms/cell      =           32
     number of atomic types    =            1
     number of electrons       =       576.00
     number of Kohn-Sham states=          346
     kinetic-energy cutoff     =      71.0000  Ry
     charge density cutoff     =     430.0000  Ry
     scf convergence threshold =      1.0E-06
     mixing beta               =       0.1000
     number of iterations used =           10  TF        mixing
     Exchange-correlation= SLA  PW   PBX  PBC
                           (   1   4   3   4   0   0   0)

     celldm(1)=  14.400000  celldm(2)=   0.000000  celldm(3)=   0.000000
     celldm(4)=   0.000000  celldm(5)=   0.000000  celldm(6)=   0.000000

     crystal axes: (cart. coord. in units of alat)
               a(1) = (   1.276316   0.000000   0.000000 )
               a(2) = (   0.000000   1.276316   0.000000 )
               a(3) = (   0.000000   0.000000   1.276316 )

     reciprocal axes: (cart. coord. in units 2 pi/alat)
               b(1) = (  0.783505  0.000000  0.000000 )
               b(2) = (  0.000000  0.783505  0.000000 )
               b(3) = (  0.000000  0.000000  0.783505 )

     PseudoPot. # 1 for Pd read from file:
     /rds/homes/b/bxp912/pp/Pd.pbe-spn-kjpaw_psl.1.0.0.UPF
     MD5 check sum: 790f2ebce206edfd9790dcb9844eca51
     Pseudo is Projector augmented-wave + core cor, Zval = 18.0
     Generated using &quot;atomic&quot; code by A. Dal Corso  v.6.3
     Shape of augmentation charge: PSQ
     Using radial grid of 1235 points,  6 beta functions with:
                l(1) =   0
                l(2) =   0
                l(3) =   1
                l(4) =   1
                l(5) =   2
                l(6) =   2
     Q(r) pseudized with 0 coefficients

     atomic species   valence    mass     pseudopotential
        Pd            18.00   106.42000     Pd( 1.00)

     48 Sym. Ops., with inversion, found

   Cartesian axes

     site n.     atom                  positions (alat units)
         1           Pd  tau(   1) = (   0.0000000   0.0000000   0.0000000  )
         2           Pd  tau(   2) = (   0.3190789   0.3190789   0.0000000  )
         3           Pd  tau(   3) = (   0.3190789   0.0000000   0.3190789  )
         4           Pd  tau(   4) = (   0.0000000   0.3190789   0.3190789  )
         5           Pd  tau(   5) = (   0.0000000   0.0000000   0.6381579  )
         6           Pd  tau(   6) = (   0.3190789   0.3190789   0.6381579  )
         7           Pd  tau(   7) = (   0.3190789   0.0000000   0.9572368  )
         8           Pd  tau(   8) = (   0.0000000   0.3190789   0.9572368  )
         9           Pd  tau(   9) = (   0.0000000   0.6381579   0.0000000  )
        10           Pd  tau(  10) = (   0.3190789   0.9572368   0.0000000  )
        11           Pd  tau(  11) = (   0.3190789   0.6381579   0.3190789  )
        12           Pd  tau(  12) = (   0.0000000   0.9572368   0.3190789  )
        13           Pd  tau(  13) = (   0.0000000   0.6381579   0.6381579  )
        14           Pd  tau(  14) = (   0.3190789   0.9572368   0.6381579  )
        15           Pd  tau(  15) = (   0.3190789   0.6381579   0.9572368  )
        16           Pd  tau(  16) = (   0.0000000   0.9572368   0.9572368  )
        17           Pd  tau(  17) = (   0.6381579   0.0000000   0.0000000  )
        18           Pd  tau(  18) = (   0.9572368   0.3190789   0.0000000  )
        19           Pd  tau(  19) = (   0.9572368   0.0000000   0.3190789  )
        20           Pd  tau(  20) = (   0.6381579   0.3190789   0.3190789  )
        21           Pd  tau(  21) = (   0.6381579   0.0000000   0.6381579  )
        22           Pd  tau(  22) = (   0.9572368   0.3190789   0.6381579  )
        23           Pd  tau(  23) = (   0.9572368   0.0000000   0.9572368  )
        24           Pd  tau(  24) = (   0.6381579   0.3190789   0.9572368  )
        25           Pd  tau(  25) = (   0.6381579   0.6381579   0.0000000  )
        26           Pd  tau(  26) = (   0.9572368   0.9572368   0.0000000  )
        27           Pd  tau(  27) = (   0.9572368   0.6381579   0.3190789  )
        28           Pd  tau(  28) = (   0.6381579   0.9572368   0.3190789  )
        29           Pd  tau(  29) = (   0.6381579   0.6381579   0.6381579  )
        30           Pd  tau(  30) = (   0.9572368   0.9572368   0.6381579  )
        31           Pd  tau(  31) = (   0.9572368   0.6381579   0.9572368  )
        32           Pd  tau(  32) = (   0.6381579   0.9572368   0.9572368  )

     number of k points=    35  Marzari-Vanderbilt smearing, width (Ry)=  0.0400
                       cart. coord. in units 2pi/alat
        k(    1) = (   0.0435281   0.0435281   0.0435281), wk =   0.0219479
        k(    2) = (   0.0435281   0.0435281   0.1305842), wk =   0.0658436
        k(    3) = (   0.0435281   0.0435281   0.2176403), wk =   0.0658436
        k(    4) = (   0.0435281   0.0435281   0.3046964), wk =   0.0658436
        k(    5) = (   0.0435281   0.0435281  -0.3917526), wk =   0.0329218
        k(    6) = (   0.0435281   0.1305842   0.1305842), wk =   0.0658436
        k(    7) = (   0.0435281   0.1305842   0.2176403), wk =   0.1316872
        k(    8) = (   0.0435281   0.1305842   0.3046964), wk =   0.1316872
        k(    9) = (   0.0435281   0.1305842  -0.3917526), wk =   0.0658436
        k(   10) = (   0.0435281   0.2176403   0.2176403), wk =   0.0658436
        k(   11) = (   0.0435281   0.2176403   0.3046964), wk =   0.1316872
        k(   12) = (   0.0435281   0.2176403  -0.3917526), wk =   0.0658436
        k(   13) = (   0.0435281   0.3046964   0.3046964), wk =   0.0658436
        k(   14) = (   0.0435281   0.3046964  -0.3917526), wk =   0.0658436
        k(   15) = (   0.0435281  -0.3917526  -0.3917526), wk =   0.0164609
        k(   16) = (   0.1305842   0.1305842   0.1305842), wk =   0.0219479
        k(   17) = (   0.1305842   0.1305842   0.2176403), wk =   0.0658436
        k(   18) = (   0.1305842   0.1305842   0.3046964), wk =   0.0658436
        k(   19) = (   0.1305842   0.1305842  -0.3917526), wk =   0.0329218
        k(   20) = (   0.1305842   0.2176403   0.2176403), wk =   0.0658436
        k(   21) = (   0.1305842   0.2176403   0.3046964), wk =   0.1316872
        k(   22) = (   0.1305842   0.2176403  -0.3917526), wk =   0.0658436
        k(   23) = (   0.1305842   0.3046964   0.3046964), wk =   0.0658436
        k(   24) = (   0.1305842   0.3046964  -0.3917526), wk =   0.0658436
        k(   25) = (   0.1305842  -0.3917526  -0.3917526), wk =   0.0164609
        k(   26) = (   0.2176403   0.2176403   0.2176403), wk =   0.0219479
        k(   27) = (   0.2176403   0.2176403   0.3046964), wk =   0.0658436
        k(   28) = (   0.2176403   0.2176403  -0.3917526), wk =   0.0329218
        k(   29) = (   0.2176403   0.3046964   0.3046964), wk =   0.0658436
        k(   30) = (   0.2176403   0.3046964  -0.3917526), wk =   0.0658436
        k(   31) = (   0.2176403  -0.3917526  -0.3917526), wk =   0.0164609
        k(   32) = (   0.3046964   0.3046964   0.3046964), wk =   0.0219479
        k(   33) = (   0.3046964   0.3046964  -0.3917526), wk =   0.0329218
        k(   34) = (   0.3046964  -0.3917526  -0.3917526), wk =   0.0164609
        k(   35) = (  -0.3917526  -0.3917526  -0.3917526), wk =   0.0027435

     Check: negative core charge=   -0.000001

     Initial potential from superposition of free atoms

     starting charge  575.98776, renormalised to  576.00000
     Starting wfcs are  320 randomized atomic wfcs +   26 random wfcs
     Checking if some PAW data can be deallocated...

     Self-consistent Calculation

     iteration #  1     ecut=    71.00 Ry     beta= 0.10
     Davidson diagonalization with overlap
     ethr =  1.00E-02,  avg # of iterations =  3.3

     total energy              =  -16382.34105093 Ry
     estimated scf accuracy    <       9.13309304 Ry

[...]

     total energy              =  -16381.14890716 Ry
     estimated scf accuracy    <       0.00000782 Ry

     iteration # 15     ecut=    71.00 Ry     beta= 0.10
     Davidson diagonalization with overlap
     ethr =  2.79E-10,  avg # of iterations =  2.0

     End of self-consistent calculation

          k = 0.0435 0.0435 0.0435 ( 62720 PWs)   bands (ev):

   -75.5171 -75.5161 -75.5160 -75.5160 -75.5158 -75.5158 -75.5158 -75.5155
   -75.5155 -75.5155 -75.5154 -75.5153 -75.5153 -75.5153 -75.5153 -75.5153
   -75.5153 -75.5153 -75.5153 -75.5153 -75.5152 -75.5152 -75.5152 -75.5148
   -75.5148 -75.5148 -75.5148 -75.5148 -75.5148 -75.5147 -75.5147 -75.5147
   -41.2685 -41.2685 -41.2684 -41.2683 -41.2671 -41.2671 -41.2671 -41.2612
   -41.2612 -41.2612 -41.2608 -41.2608 -41.2608 -41.2608 -41.2608 -41.2608
   -41.2603 -41.2603 -41.2603 -41.2601 -41.2601 -41.2601 -41.2601 -41.2601
   -41.2601 -41.2588 -41.2588 -41.2588 -41.2588 -41.2588 -41.2588 -41.2554
   -41.2554 -41.2554 -41.2538 -41.2538 -41.2538 -41.2530 -41.2530 -41.2530
   -41.2527 -41.2527 -41.2527 -41.2527 -41.2527 -41.2527 -41.2519 -41.2519
   -41.2519 -41.2518 -41.2518 -41.2518 -41.2516 -41.2516 -41.2516 -41.2516
   -41.2516 -41.2516 -41.2515 -41.2515 -41.2515 -41.2467 -41.2467 -41.2467
   -41.2467 -41.2467 -41.2467 -41.2458 -41.2458 -41.2458 -41.2458 -41.2458
   -41.2458 -41.2455 -41.2455 -41.2455 -41.2452 -41.2452 -41.2452 -41.2451
   -41.2451 -41.2451 -41.2451 -41.2451 -41.2451 -41.2450 -41.2449 -41.2449
   -41.2449 -41.2449 -41.2445 -41.2445 -41.2445 -41.2406 -41.2404 -41.2404
     4.0059   5.3153   5.3153   5.3153   5.3279   5.3350   5.3350   5.3350
     5.4051   5.4051   5.4051   5.4717   5.4717   5.4717   5.4810   5.4810
     5.4810   5.8081   5.8081   5.8081   5.8167   5.8167   5.8167   5.8167
     5.8167   5.8167   5.8515   5.8515   5.8515   5.8733   5.8733   5.8733
     5.8832   5.8832   5.8832   5.8851   5.8851   5.8851   5.8852   5.8852
     5.8852   6.0394   6.0394   6.0394   6.0394   6.0394   6.0394   6.0701
     6.0701   6.0701   6.0787   6.0787   6.0787   6.0787   6.0787   6.0787
     6.1051   6.1051   6.1051   6.1736   6.1736   6.1736   6.1736   6.1736
     6.1736   6.2233   6.2233   6.2233   6.2259   6.2295   6.2295   6.2322
     6.2322   6.2334   6.2334   6.2334   6.2728   6.2728   6.2728   6.2728
     6.2728   6.2728   6.2839   6.2839   6.2839   6.3025   6.3025   6.3025
     6.5542   6.5542   6.5542   6.5654   6.5654   6.5654   6.5834   6.5834
     6.5834   6.5853   6.5853   6.5853   6.5853   6.5853   6.5853   6.6222
     6.6222   6.6222   6.6592   6.6592   6.6592   6.7065   6.7065   6.7065
     6.7074   6.7074   6.7074   6.7203   6.7203   6.7203   6.7471   6.7471
     6.7672   6.7672   6.7672   6.7672   6.7672   6.7672   6.7704   6.7704
     6.7704   6.7704   6.7704   6.7704   6.8060   6.8060   6.8060   6.8645
     6.8645   6.8645   6.9204   6.9204   6.9204   6.9546   6.9546   6.9546
     7.1160   7.1160   7.1160   7.1210   7.1211   7.1211   7.1328   7.1328
     7.1391   7.1391   7.1391   7.2220   7.2220   7.2220   7.2316   7.2316
     7.2316   7.2316   7.2316   7.2316   7.2326   7.2326   7.2326   8.2694
     8.2694   8.2694   8.6071   8.6071   8.6071   8.6071   8.6071   8.6071
     8.9605   8.9605   8.9605   9.1966   9.4137   9.4137   9.4137  10.6471
    10.6471  10.6471  10.8777  10.8777  10.8777  11.0838  12.7803  12.7803
    12.7803  12.7803  12.7803  12.7803  12.9468  12.9468  12.9468  13.2553
    13.2553  13.2553  13.2553  13.2553  13.2553  13.7040  13.7040  13.7040
    13.7040  13.7040  13.7040  14.7069  14.7069  14.7069  15.0733  15.1113
    15.1113  15.1114

[...]

          k = 0.3047-0.3918-0.3918 ( 62708 PWs)   bands (ev):

[...]

          k =-0.3918-0.3918-0.3918 ( 62704 PWs)   bands (ev):

   -75.5163 -75.5163 -75.5163 -75.5163 -75.5162 -75.5162 -75.5162 -75.5162
   -75.5151 -75.5151 -75.5151 -75.5151 -75.5151 -75.5151 -75.5151 -75.5151
   -75.5151 -75.5150 -75.5150 -75.5150 -75.5150 -75.5150 -75.5150 -75.5150
   -75.5150 -75.5150 -75.5150 -75.5150 -75.5150 -75.5150 -75.5150 -75.5150
   -41.2641 -41.2641 -41.2641 -41.2641 -41.2641 -41.2641 -41.2640 -41.2640
   -41.2640 -41.2640 -41.2640 -41.2640 -41.2640 -41.2640 -41.2640 -41.2640
   -41.2640 -41.2640 -41.2640 -41.2640 -41.2640 -41.2640 -41.2640 -41.2640
   -41.2545 -41.2545 -41.2545 -41.2545 -41.2545 -41.2545 -41.2545 -41.2544
   -41.2523 -41.2523 -41.2523 -41.2523 -41.2523 -41.2523 -41.2523 -41.2523
   -41.2523 -41.2523 -41.2523 -41.2523 -41.2522 -41.2522 -41.2522 -41.2522
   -41.2522 -41.2522 -41.2522 -41.2522 -41.2522 -41.2522 -41.2522 -41.2522
   -41.2485 -41.2485 -41.2485 -41.2485 -41.2485 -41.2485 -41.2484 -41.2484
   -41.2484 -41.2484 -41.2484 -41.2484 -41.2484 -41.2484 -41.2484 -41.2484
   -41.2484 -41.2484 -41.2484 -41.2484 -41.2484 -41.2484 -41.2484 -41.2484
   -41.2428 -41.2428 -41.2428 -41.2428 -41.2428 -41.2428 -41.2428 -41.2428
   -41.2427 -41.2427 -41.2427 -41.2427 -41.2427 -41.2427 -41.2427 -41.2427
     5.0663   5.0663   5.0663   5.0663   5.0663   5.0663   5.0663   5.0663
     5.6446   5.6446   5.6446   5.6446   5.6446   5.6446   5.6446   5.6446
     5.6446   5.6446   5.6446   5.6446   5.6446   5.6446   5.6446   5.6446
     5.6446   5.6446   5.6446   5.6446   5.6446   5.6446   5.6446   5.6446
     5.9773   5.9773   5.9773   5.9773   5.9773   5.9773   5.9773   5.9773
     5.9773   5.9773   5.9773   5.9773   5.9773   5.9773   5.9773   5.9773
     5.9773   5.9773   5.9773   5.9773   5.9773   5.9773   5.9773   5.9773
     6.3282   6.3282   6.3282   6.3282   6.3282   6.3282   6.3282   6.3282
     6.3345   6.3345   6.3345   6.3345   6.3345   6.3345   6.3345   6.3345
     6.3345   6.3345   6.3345   6.3345   6.3345   6.3345   6.3345   6.3345
     6.4778   6.4779   6.4779   6.4779   6.4779   6.4779   6.4779   6.4779
     6.4779   6.4779   6.4779   6.4779   6.4779   6.4779   6.4779   6.4779
     6.4779   6.4779   6.4779   6.4779   6.4779   6.4779   6.4779   6.4779
     6.6589   6.6590   6.6590   6.6590   6.6590   6.6590   6.6590   6.6590
     6.6590   6.6590   6.6590   6.6590   6.6590   6.6590   6.6590   6.6590
     6.6590   6.6590   6.6590   6.6590   6.6590   6.6590   6.6590   6.6590
     6.8147   6.8147   6.8147   6.8147   6.8147   6.8147   6.8147   6.8147
     6.8147   6.8147   6.8147   6.8147   6.8147   6.8147   6.8147   6.8147
     7.1658   7.1658   7.1658   7.1658   7.1658   7.1658   7.1658   7.1658
     7.1658   7.1658   7.1658   7.1658   7.1658   7.1658   7.1658   7.1658
     7.1658   7.1658   7.1658   7.1658   7.1658   7.1658   7.1658   7.1658
     9.7395   9.7395   9.7395   9.7395   9.7395   9.7395   9.7395   9.7395
     9.7395   9.7395   9.7395   9.7395   9.7395   9.7395   9.7395   9.7395
     9.7395   9.7395   9.7395   9.7395   9.7395   9.7395   9.7395   9.7395
    13.1427  13.1427  13.1427  13.1427  13.1427  13.1427  13.1427  13.1427
    13.1427  13.1427  13.1427  13.1427  13.1427  13.1427  13.1427  13.1427
    13.1427  13.1427  13.1427  13.1427  13.1427  13.1427  13.1427  13.1428
    16.7963  16.7969

     the Fermi energy is     7.2983 ev

!    total energy              =  -16381.14892029 Ry

     total all-electron energy =   -322942.002627 Ry
     estimated scf accuracy    <       0.00000008 Ry
     smearing contrib. (-TS)   =       0.53256016 Ry
     internal energy E=F+TS    =  -16381.68148044 Ry

     The total energy is F=E-TS. E is the sum of the following terms:
     one-electron contribution =   -4503.38870134 Ry
     hartree contribution      =    2441.62389939 Ry
     xc contribution           =    -980.13397983 Ry
     ewald contribution        =   -5172.85881848 Ry
     one-center paw contrib.   =   -8166.92388017 Ry

     convergence has been achieved in  15 iterations

     Forces acting on atoms (cartesian axes, Ry/au):

     atom    1 type  1   force =     0.00000000    0.00000000    0.00000000
     atom    2 type  1   force =     0.00008189    0.00008189   -0.00000000
     atom    3 type  1   force =     0.00008189    0.00000000    0.00008189
     atom    4 type  1   force =     0.00000000    0.00008189    0.00008189
     atom    5 type  1   force =     0.00000000    0.00000000    0.00000000
     atom    6 type  1   force =     0.00008098    0.00008098    0.00000000
     atom    7 type  1   force =     0.00008189    0.00000000   -0.00008189
     atom    8 type  1   force =    -0.00000000    0.00008189   -0.00008189
     atom    9 type  1   force =     0.00000000    0.00000000    0.00000000
     atom   10 type  1   force =     0.00008189   -0.00008189   -0.00000000
     atom   11 type  1   force =     0.00008098    0.00000000    0.00008098
     atom   12 type  1   force =    -0.00000000   -0.00008189    0.00008189
     atom   13 type  1   force =     0.00000000    0.00000000    0.00000000
     atom   14 type  1   force =     0.00008098   -0.00008098   -0.00000000
     atom   15 type  1   force =     0.00008098    0.00000000   -0.00008098
     atom   16 type  1   force =    -0.00000000   -0.00008189   -0.00008189
     atom   17 type  1   force =     0.00000000    0.00000000    0.00000000
     atom   18 type  1   force =    -0.00008189    0.00008189   -0.00000000
     atom   19 type  1   force =    -0.00008189   -0.00000000    0.00008189
     atom   20 type  1   force =    -0.00000000    0.00008098    0.00008098
     atom   21 type  1   force =     0.00000000    0.00000000    0.00000000
     atom   22 type  1   force =    -0.00008098    0.00008098    0.00000000
     atom   23 type  1   force =    -0.00008189    0.00000000   -0.00008189
     atom   24 type  1   force =    -0.00000000    0.00008098   -0.00008098
     atom   25 type  1   force =     0.00000000    0.00000000    0.00000000
     atom   26 type  1   force =    -0.00008189   -0.00008189   -0.00000000
     atom   27 type  1   force =    -0.00008098   -0.00000000    0.00008098
     atom   28 type  1   force =     0.00000000   -0.00008098    0.00008098
     atom   29 type  1   force =     0.00000000    0.00000000    0.00000000
     atom   30 type  1   force =    -0.00008098   -0.00008098   -0.00000000
     atom   31 type  1   force =    -0.00008098    0.00000000   -0.00008098
     atom   32 type  1   force =     0.00000000   -0.00008098   -0.00008098

     Total force =     0.000564     Total SCF correction =     0.000087
     SCF correction compared to forces is large: reduce conv_thr to get better values

     Computing stress (Cartesian axis) and pressure

          total   stress  (Ry/bohr**3)                   (kbar)     P=     -194.80
  -0.00132420   0.00000000   0.00000000         -194.80        0.00        0.00
   0.00000000  -0.00132420   0.00000000            0.00     -194.80        0.00
   0.00000000   0.00000000  -0.00132420            0.00        0.00     -194.80

     Writing output data file /scratch/yiSzmxpQDeDqaJlo.save/

     General routines

     Parallel routines

   This run was terminated on:  20:49:30  26Nov2021

   JOB DONE.