     Program PWSCF v.6.7MaX starts on 26Nov2021 at 20:49:35

     R & G space division:  proc/nbgrp/npool/nimage =      72
     Reading input from fcc_10.in
Warning: card &CELL ignored
Warning: card CELL_DYNAMICS = 'BFGS', ignored
Warning: card CELL_FACTOR = 2.0, ignored
Warning: card PRESS = 0.0, ignored
Warning: card / ignored

     Current dimensions of program PWSCF are:
     Max number of different atomic species (ntypx) = 10
     Max number of k-points (npk) =  40000
     Max angular momentum in pseudopotentials (lmaxx) =  3
     file Pd.pbe-spn-kjpaw_psl.1.0.0.UPF: wavefunction(s)  4S 5S 4D renormalized

     Subspace diagonalization in iterative solution of the eigenvalue problem:
     one sub-group per band group will be used

     Found symmetry operation: I + (  0.2500  0.2500  0.0000)
     This is a supercell, fractional translations are disabled
     Message from routine setup:
     using ibrav=0 with symmetry is DISCOURAGED, use correct ibrav instead

     bravais-lattice index     =            0
     lattice parameter (alat)  =      14.4000  a.u.
     unit-cell volume          =    7218.5042 (a.u.)^3
     number of atoms/cell      =           32
     number of atomic types    =            1
     number of electrons       =       576.00
     number of Kohn-Sham states=          346
     kinetic-energy cutoff     =      71.0000  Ry
     charge density cutoff     =     430.0000  Ry
     scf convergence threshold =      1.0E-06
     mixing beta               =       0.1000
     number of iterations used =           10  TF        mixing
     Exchange-correlation= SLA  PW   PBX  PBC
                           (   1   4   3   4   0   0   0)

     celldm(1)=  14.400000  celldm(2)=   0.000000  celldm(3)=   0.000000
     celldm(4)=   0.000000  celldm(5)=   0.000000  celldm(6)=   0.000000

     crystal axes: (cart. coord. in units of alat)
               a(1) = (   1.342105   0.000000   0.000000 )
               a(2) = (   0.000000   1.342105   0.000000 )
               a(3) = (   0.000000   0.000000   1.342105 )

     reciprocal axes: (cart. coord. in units 2 pi/alat)
               b(1) = (  0.745098  0.000000  0.000000 )
               b(2) = (  0.000000  0.745098  0.000000 )
               b(3) = (  0.000000  0.000000  0.745098 )

     PseudoPot. # 1 for Pd read from file:
     /rds/homes/b/bxp912/pp/Pd.pbe-spn-kjpaw_psl.1.0.0.UPF
     MD5 check sum: 790f2ebce206edfd9790dcb9844eca51
     Pseudo is Projector augmented-wave + core cor, Zval = 18.0
     Generated using &quot;atomic&quot; code by A. Dal Corso  v.6.3
     Shape of augmentation charge: PSQ
     Using radial grid of 1235 points,  6 beta functions with:
                l(1) =   0
                l(2) =   0
                l(3) =   1
                l(4) =   1
                l(5) =   2
                l(6) =   2
     Q(r) pseudized with 0 coefficients

     atomic species   valence    mass     pseudopotential
        Pd            18.00   106.42000     Pd( 1.00)

     48 Sym. Ops., with inversion, found

   Cartesian axes

     site n.     atom                  positions (alat units)
         1           Pd  tau(   1) = (   0.0000000   0.0000000   0.0000000  )
         2           Pd  tau(   2) = (   0.3355263   0.3355263   0.0000000  )
         3           Pd  tau(   3) = (   0.3355263   0.0000000   0.3355263  )
         4           Pd  tau(   4) = (   0.0000000   0.3355263   0.3355263  )
         5           Pd  tau(   5) = (   0.0000000   0.0000000   0.6710526  )
         6           Pd  tau(   6) = (   0.3355263   0.3355263   0.6710526  )
         7           Pd  tau(   7) = (   0.3355263   0.0000000   1.0065789  )
         8           Pd  tau(   8) = (   0.0000000   0.3355263   1.0065789  )
         9           Pd  tau(   9) = (   0.0000000   0.6710526   0.0000000  )
        10           Pd  tau(  10) = (   0.3355263   1.0065789   0.0000000  )
        11           Pd  tau(  11) = (   0.3355263   0.6710526   0.3355263  )
        12           Pd  tau(  12) = (   0.0000000   1.0065789   0.3355263  )
        13           Pd  tau(  13) = (   0.0000000   0.6710526   0.6710526  )
        14           Pd  tau(  14) = (   0.3355263   1.0065789   0.6710526  )
        15           Pd  tau(  15) = (   0.3355263   0.6710526   1.0065789  )
        16           Pd  tau(  16) = (   0.0000000   1.0065789   1.0065789  )
        17           Pd  tau(  17) = (   0.6710526   0.0000000   0.0000000  )
        18           Pd  tau(  18) = (   1.0065789   0.3355263   0.0000000  )
        19           Pd  tau(  19) = (   1.0065789   0.0000000   0.3355263  )
        20           Pd  tau(  20) = (   0.6710526   0.3355263   0.3355263  )
        21           Pd  tau(  21) = (   0.6710526   0.0000000   0.6710526  )
        22           Pd  tau(  22) = (   1.0065789   0.3355263   0.6710526  )
        23           Pd  tau(  23) = (   1.0065789   0.0000000   1.0065789  )
        24           Pd  tau(  24) = (   0.6710526   0.3355263   1.0065789  )
        25           Pd  tau(  25) = (   0.6710526   0.6710526   0.0000000  )
        26           Pd  tau(  26) = (   1.0065789   1.0065789   0.0000000  )
        27           Pd  tau(  27) = (   1.0065789   0.6710526   0.3355263  )
        28           Pd  tau(  28) = (   0.6710526   1.0065789   0.3355263  )
        29           Pd  tau(  29) = (   0.6710526   0.6710526   0.6710526  )
        30           Pd  tau(  30) = (   1.0065789   1.0065789   0.6710526  )
        31           Pd  tau(  31) = (   1.0065789   0.6710526   1.0065789  )
        32           Pd  tau(  32) = (   0.6710526   1.0065789   1.0065789  )

     number of k points=    35  Marzari-Vanderbilt smearing, width (Ry)=  0.0400
                       cart. coord. in units 2pi/alat
        k(    1) = (   0.0413943   0.0413943   0.0413943), wk =   0.0219479
        k(    2) = (   0.0413943   0.0413943   0.1241830), wk =   0.0658436
        k(    3) = (   0.0413943   0.0413943   0.2069717), wk =   0.0658436
        k(    4) = (   0.0413943   0.0413943   0.2897603), wk =   0.0658436
        k(    5) = (   0.0413943   0.0413943  -0.3725490), wk =   0.0329218
        k(    6) = (   0.0413943   0.1241830   0.1241830), wk =   0.0658436
        k(    7) = (   0.0413943   0.1241830   0.2069717), wk =   0.1316872
        k(    8) = (   0.0413943   0.1241830   0.2897603), wk =   0.1316872
        k(    9) = (   0.0413943   0.1241830  -0.3725490), wk =   0.0658436
        k(   10) = (   0.0413943   0.2069717   0.2069717), wk =   0.0658436
        k(   11) = (   0.0413943   0.2069717   0.2897603), wk =   0.1316872
        k(   12) = (   0.0413943   0.2069717  -0.3725490), wk =   0.0658436
        k(   13) = (   0.0413943   0.2897603   0.2897603), wk =   0.0658436
        k(   14) = (   0.0413943   0.2897603  -0.3725490), wk =   0.0658436
        k(   15) = (   0.0413943  -0.3725490  -0.3725490), wk =   0.0164609
        k(   16) = (   0.1241830   0.1241830   0.1241830), wk =   0.0219479
        k(   17) = (   0.1241830   0.1241830   0.2069717), wk =   0.0658436
        k(   18) = (   0.1241830   0.1241830   0.2897603), wk =   0.0658436
        k(   19) = (   0.1241830   0.1241830  -0.3725490), wk =   0.0329218
        k(   20) = (   0.1241830   0.2069717   0.2069717), wk =   0.0658436
        k(   21) = (   0.1241830   0.2069717   0.2897603), wk =   0.1316872
        k(   22) = (   0.1241830   0.2069717  -0.3725490), wk =   0.0658436
        k(   23) = (   0.1241830   0.2897603   0.2897603), wk =   0.0658436
        k(   24) = (   0.1241830   0.2897603  -0.3725490), wk =   0.0658436
        k(   25) = (   0.1241830  -0.3725490  -0.3725490), wk =   0.0164609
        k(   26) = (   0.2069717   0.2069717   0.2069717), wk =   0.0219479
        k(   27) = (   0.2069717   0.2069717   0.2897603), wk =   0.0658436
        k(   28) = (   0.2069717   0.2069717  -0.3725490), wk =   0.0329218
        k(   29) = (   0.2069717   0.2897603   0.2897603), wk =   0.0658436
        k(   30) = (   0.2069717   0.2897603  -0.3725490), wk =   0.0658436
        k(   31) = (   0.2069717  -0.3725490  -0.3725490), wk =   0.0164609
        k(   32) = (   0.2897603   0.2897603   0.2897603), wk =   0.0219479
        k(   33) = (   0.2897603   0.2897603  -0.3725490), wk =   0.0329218
        k(   34) = (   0.2897603  -0.3725490  -0.3725490), wk =   0.0164609
        k(   35) = (  -0.3725490  -0.3725490  -0.3725490), wk =   0.0027435

     Check: negative core charge=   -0.000001

     Initial potential from superposition of free atoms

     starting charge  575.98776, renormalised to  576.00000
     Starting wfcs are  320 randomized atomic wfcs +   26 random wfcs
     Checking if some PAW data can be deallocated...

     Self-consistent Calculation

     iteration #  1     ecut=    71.00 Ry     beta= 0.10
     Davidson diagonalization with overlap
     ethr =  1.00E-02,  avg # of iterations =  3.6

     total energy              =  -16381.68463111 Ry
     estimated scf accuracy    <      13.53731030 Ry

[...]

     iteration #  7     ecut=    71.00 Ry     beta= 0.10
     Davidson diagonalization with overlap
     c_bands:  1 eigenvalues not converged
     ethr =  3.68E-06,  avg # of iterations =  3.7

[...]

     total energy              =  -16379.99207612 Ry
     estimated scf accuracy    <       0.00000345 Ry

     iteration # 18     ecut=    71.00 Ry     beta= 0.10
     Davidson diagonalization with overlap
     ethr =  4.57E-10,  avg # of iterations =  2.0

     End of self-consistent calculation

          k = 0.0414 0.0414 0.0414 ( 72846 PWs)   bands (ev):

   -77.0737 -77.0733 -77.0733 -77.0733 -77.0732 -77.0732 -77.0732 -77.0730
   -77.0730 -77.0730 -77.0730 -77.0730 -77.0730 -77.0730 -77.0730 -77.0730
   -77.0730 -77.0730 -77.0730 -77.0730 -77.0729 -77.0729 -77.0729 -77.0727
   -77.0727 -77.0727 -77.0727 -77.0727 -77.0727 -77.0727 -77.0727 -77.0727
   -42.8334 -42.8334 -42.8334 -42.8333 -42.8326 -42.8326 -42.8326 -42.8297
   -42.8297 -42.8297 -42.8295 -42.8295 -42.8295 -42.8295 -42.8295 -42.8295
   -42.8292 -42.8292 -42.8292 -42.8291 -42.8291 -42.8291 -42.8291 -42.8291
   -42.8291 -42.8284 -42.8284 -42.8284 -42.8284 -42.8284 -42.8284 -42.8268
   -42.8267 -42.8267 -42.8259 -42.8259 -42.8259 -42.8255 -42.8255 -42.8255
   -42.8253 -42.8253 -42.8253 -42.8253 -42.8253 -42.8253 -42.8249 -42.8249
   -42.8249 -42.8248 -42.8248 -42.8248 -42.8247 -42.8247 -42.8247 -42.8247
   -42.8247 -42.8247 -42.8247 -42.8247 -42.8247 -42.8222 -42.8222 -42.8222
   -42.8222 -42.8222 -42.8222 -42.8218 -42.8218 -42.8218 -42.8217 -42.8217
   -42.8217 -42.8217 -42.8217 -42.8217 -42.8216 -42.8216 -42.8216 -42.8216
   -42.8216 -42.8216 -42.8216 -42.8216 -42.8215 -42.8215 -42.8215 -42.8215
   -42.8214 -42.8214 -42.8212 -42.8212 -42.8212 -42.8190 -42.8189 -42.8189
     2.8340   3.9762   3.9819   3.9819   3.9819   3.9965   3.9965   3.9965
     4.0460   4.0460   4.0460   4.0969   4.0969   4.0969   4.1226   4.1226
     4.1226   4.3496   4.3496   4.3496   4.3722   4.3722   4.3722   4.3722
     4.3722   4.3722   4.3995   4.3995   4.3995   4.4051   4.4051   4.4051
     4.4180   4.4180   4.4180   4.4250   4.4250   4.4250   4.4250   4.4250
     4.4251   4.5401   4.5401   4.5401   4.5401   4.5401   4.5401   4.5606
     4.5606   4.5606   4.5673   4.5673   4.5673   4.5673   4.5673   4.5673
     4.5893   4.5894   4.5894   4.6454   4.6454   4.6454   4.6454   4.6454
     4.6454   4.6660   4.6660   4.6660   4.6668   4.6706   4.6706   4.6715
     4.6715   4.6736   4.6736   4.6736   4.7394   4.7394   4.7394   4.7394
     4.7394   4.7394   4.7513   4.7514   4.7514   4.7621   4.7621   4.7621
     4.9218   4.9218   4.9218   4.9416   4.9416   4.9416   4.9446   4.9446
     4.9446   4.9482   4.9482   4.9482   4.9482   4.9482   4.9482   4.9750
     4.9750   4.9750   5.0152   5.0152   5.0152   5.0398   5.0398   5.0399
     5.0483   5.0483   5.0483   5.0641   5.0641   5.0689   5.0689   5.0689
     5.0865   5.0865   5.0865   5.0865   5.0865   5.0865   5.0870   5.0870
     5.0870   5.0870   5.0870   5.0870   5.1140   5.1140   5.1140   5.1979
     5.1979   5.1979   5.2242   5.2242   5.2242   5.2329   5.2329   5.2329
     5.3516   5.3516   5.3516   5.3516   5.3517   5.3517   5.3623   5.3623
     5.3670   5.3670   5.3670   5.4323   5.4323   5.4323   5.4388   5.4388
     5.4388   5.4388   5.4388   5.4388   5.4395   5.4395   5.4395   6.4418
     6.4418   6.4418   6.7540   6.7540   6.7540   6.7540   6.7540   6.7540
     7.0774   7.0774   7.0774   7.5444   7.8014   7.8014   7.8015   8.6258
     8.6258   8.6258   8.8774   8.8780   8.8780   8.8780  10.3760  10.3760
    10.3760  10.3761  10.3761  10.3761  10.4323  10.4323  10.4323  11.0625
    11.0625  11.0625  11.0625  11.0625  11.0625  11.4717  11.4717  11.4717
    11.4717  11.4717  11.4717  12.2789  12.2789  12.2789  12.6043  12.6043
    12.6044  12.6044

[...]

          k = 0.2898-0.3725-0.3725 ( 73040 PWs)   bands (ev):

[...]

          k =-0.3725-0.3725-0.3725 ( 72888 PWs)   bands (ev):

   -77.0734 -77.0734 -77.0734 -77.0734 -77.0734 -77.0734 -77.0734 -77.0734
   -77.0729 -77.0729 -77.0729 -77.0729 -77.0729 -77.0729 -77.0729 -77.0729
   -77.0729 -77.0729 -77.0729 -77.0729 -77.0729 -77.0729 -77.0729 -77.0729
   -77.0729 -77.0728 -77.0728 -77.0728 -77.0728 -77.0728 -77.0728 -77.0728
   -42.8311 -42.8311 -42.8311 -42.8311 -42.8311 -42.8311 -42.8311 -42.8311
   -42.8311 -42.8311 -42.8311 -42.8311 -42.8311 -42.8311 -42.8311 -42.8311
   -42.8311 -42.8311 -42.8311 -42.8311 -42.8311 -42.8311 -42.8311 -42.8311
   -42.8262 -42.8262 -42.8262 -42.8262 -42.8261 -42.8261 -42.8261 -42.8261
   -42.8252 -42.8252 -42.8252 -42.8252 -42.8252 -42.8251 -42.8251 -42.8251
   -42.8251 -42.8251 -42.8251 -42.8251 -42.8251 -42.8251 -42.8251 -42.8251
   -42.8251 -42.8251 -42.8251 -42.8251 -42.8251 -42.8251 -42.8251 -42.8251
   -42.8233 -42.8233 -42.8233 -42.8233 -42.8233 -42.8233 -42.8233 -42.8233
   -42.8233 -42.8233 -42.8233 -42.8233 -42.8233 -42.8233 -42.8233 -42.8233
   -42.8233 -42.8233 -42.8233 -42.8232 -42.8232 -42.8232 -42.8232 -42.8232
   -42.8201 -42.8201 -42.8201 -42.8201 -42.8201 -42.8201 -42.8201 -42.8201
   -42.8201 -42.8201 -42.8201 -42.8201 -42.8201 -42.8201 -42.8201 -42.8201
     3.7737   3.7737   3.7737   3.7737   3.7737   3.7737   3.7737   3.7737
     4.2288   4.2288   4.2288   4.2288   4.2288   4.2288   4.2288   4.2288
     4.2288   4.2288   4.2288   4.2288   4.2288   4.2288   4.2288   4.2288
     4.2288   4.2288   4.2288   4.2288   4.2288   4.2288   4.2288   4.2288
     4.4957   4.4957   4.4957   4.4957   4.4957   4.4957   4.4957   4.4957
     4.4957   4.4957   4.4957   4.4957   4.4957   4.4957   4.4957   4.4957
     4.4957   4.4957   4.4957   4.4957   4.4957   4.4957   4.4957   4.4957
     4.7510   4.7510   4.7510   4.7510   4.7510   4.7510   4.7510   4.7510
     4.7510   4.7510   4.7510   4.7510   4.7510   4.7510   4.7510   4.7510
     4.7931   4.7931   4.7931   4.7931   4.7931   4.7931   4.7931   4.7931
     4.8853   4.8853   4.8853   4.8853   4.8853   4.8853   4.8853   4.8853
     4.8853   4.8853   4.8853   4.8853   4.8853   4.8853   4.8853   4.8853
     4.8853   4.8853   4.8853   4.8853   4.8853   4.8853   4.8853   4.8853
     5.0025   5.0025   5.0025   5.0025   5.0025   5.0025   5.0025   5.0025
     5.0025   5.0025   5.0025   5.0025   5.0025   5.0025   5.0025   5.0025
     5.0025   5.0025   5.0025   5.0025   5.0025   5.0025   5.0025   5.0025
     5.1191   5.1191   5.1191   5.1191   5.1191   5.1191   5.1191   5.1191
     5.1191   5.1191   5.1191   5.1191   5.1191   5.1191   5.1191   5.1191
     5.3875   5.3875   5.3875   5.3875   5.3875   5.3875   5.3875   5.3875
     5.3875   5.3875   5.3875   5.3875   5.3875   5.3875   5.3875   5.3875
     5.3875   5.3875   5.3875   5.3875   5.3875   5.3875   5.3875   5.3875
     7.8148   7.8148   7.8148   7.8148   7.8148   7.8148   7.8148   7.8148
     7.8148   7.8148   7.8148   7.8148   7.8148   7.8148   7.8148   7.8148
     7.8148   7.8148   7.8148   7.8148   7.8148   7.8148   7.8148   7.8148
    10.8872  10.8872  10.8872  10.8872  10.8872  10.8872  10.8872  10.8872
    10.8872  10.8872  10.8872  10.8872  10.8872  10.8872  10.8872  10.8872
    10.8872  10.8872  10.8872  10.8872  10.8872  10.8872  10.8872  10.8872
    14.1839  14.1846

     the Fermi energy is     5.5439 ev

!    total energy              =  -16379.99208507 Ry

     total all-electron energy =   -322940.845792 Ry
     estimated scf accuracy    <       0.00000024 Ry
     smearing contrib. (-TS)   =       0.70386905 Ry
     internal energy E=F+TS    =  -16380.69595412 Ry

     The total energy is F=E-TS. E is the sum of the following terms:
     one-electron contribution =   -4941.82770481 Ry
     hartree contribution      =    2627.49146362 Ry
     xc contribution           =    -980.22365332 Ry
     ewald contribution        =   -4919.28730775 Ry
     one-center paw contrib.   =   -8166.84875186 Ry

     convergence has been achieved in  18 iterations

     Forces acting on atoms (cartesian axes, Ry/au):

     atom    1 type  1   force =     0.00000000    0.00000000    0.00000000
     atom    2 type  1   force =    -0.00000006   -0.00000006    0.00000000
     atom    3 type  1   force =    -0.00000006   -0.00000000   -0.00000006
     atom    4 type  1   force =     0.00000000   -0.00000006   -0.00000006
     atom    5 type  1   force =     0.00000000    0.00000000    0.00000000
     atom    6 type  1   force =    -0.00000651   -0.00000651    0.00000000
     atom    7 type  1   force =    -0.00000006    0.00000000    0.00000006
     atom    8 type  1   force =     0.00000000   -0.00000006    0.00000006
     atom    9 type  1   force =     0.00000000    0.00000000    0.00000000
     atom   10 type  1   force =    -0.00000006    0.00000006    0.00000000
     atom   11 type  1   force =    -0.00000651    0.00000000   -0.00000651
     atom   12 type  1   force =     0.00000000    0.00000006   -0.00000006
     atom   13 type  1   force =     0.00000000    0.00000000    0.00000000
     atom   14 type  1   force =    -0.00000651    0.00000651   -0.00000000
     atom   15 type  1   force =    -0.00000651   -0.00000000    0.00000651
     atom   16 type  1   force =     0.00000000    0.00000006    0.00000006
     atom   17 type  1   force =     0.00000000    0.00000000    0.00000000
     atom   18 type  1   force =     0.00000006   -0.00000006    0.00000000
     atom   19 type  1   force =     0.00000006    0.00000000   -0.00000006
     atom   20 type  1   force =     0.00000000   -0.00000651   -0.00000651
     atom   21 type  1   force =     0.00000000    0.00000000    0.00000000
     atom   22 type  1   force =     0.00000651   -0.00000651    0.00000000
     atom   23 type  1   force =     0.00000006   -0.00000000    0.00000006
     atom   24 type  1   force =    -0.00000000   -0.00000651    0.00000651
     atom   25 type  1   force =     0.00000000    0.00000000    0.00000000
     atom   26 type  1   force =     0.00000006    0.00000006    0.00000000
     atom   27 type  1   force =     0.00000651   -0.00000000   -0.00000651
     atom   28 type  1   force =     0.00000000    0.00000651   -0.00000651
     atom   29 type  1   force =     0.00000000    0.00000000    0.00000000
     atom   30 type  1   force =     0.00000651    0.00000651   -0.00000000
     atom   31 type  1   force =     0.00000651   -0.00000000    0.00000651
     atom   32 type  1   force =    -0.00000000    0.00000651    0.00000651

     Total force =     0.000032     Total SCF correction =     0.000090
     SCF correction compared to forces is large: reduce conv_thr to get better values

     Computing stress (Cartesian axis) and pressure

          total   stress  (Ry/bohr**3)                   (kbar)     P=     -156.61
  -0.00106463   0.00000000   0.00000000         -156.61        0.00        0.00
   0.00000000  -0.00106463   0.00000000            0.00     -156.61        0.00
   0.00000000   0.00000000  -0.00106463            0.00        0.00     -156.61

     Writing output data file /scratch/zhwzgnzADTrepulT.save/

     General routines

     Parallel routines

   This run was terminated on:  21:13:35  26Nov2021

   JOB DONE.