     Program PWSCF v.6.7MaX starts on 26Nov2021 at 20:13:11

     R & G space division:  proc/nbgrp/npool/nimage =      72
     Reading input from fcc_8.in
Warning: card &CELL ignored
Warning: card CELL_DYNAMICS = 'BFGS', ignored
Warning: card CELL_FACTOR = 2.0, ignored
Warning: card PRESS = 0.0, ignored
Warning: card / ignored

     Current dimensions of program PWSCF are:
     Max number of different atomic species (ntypx) = 10
     Max number of k-points (npk) =  40000
     Max angular momentum in pseudopotentials (lmaxx) =  3
     file Pd.pbe-spn-kjpaw_psl.1.0.0.UPF: wavefunction(s)  4S 5S 4D renormalized

     Subspace diagonalization in iterative solution of the eigenvalue problem:
     one sub-group per band group will be used

     Found symmetry operation: I + (  0.2500  0.2500  0.0000)
     This is a supercell, fractional translations are disabled
     Message from routine setup:
     using ibrav=0 with symmetry is DISCOURAGED, use correct ibrav instead

     bravais-lattice index     =            0
     lattice parameter (alat)  =      14.4000  a.u.
     unit-cell volume          =    5296.7586 (a.u.)^3
     number of atoms/cell      =           32
     number of atomic types    =            1
     number of electrons       =       576.00
     number of Kohn-Sham states=          346
     kinetic-energy cutoff     =      71.0000  Ry
     charge density cutoff     =     430.0000  Ry
     scf convergence threshold =      1.0E-06
     mixing beta               =       0.1000
     number of iterations used =           10  TF        mixing
     Exchange-correlation= SLA  PW   PBX  PBC
                           (   1   4   3   4   0   0   0)

     celldm(1)=  14.400000  celldm(2)=   0.000000  celldm(3)=   0.000000
     celldm(4)=   0.000000  celldm(5)=   0.000000  celldm(6)=   0.000000

     crystal axes: (cart. coord. in units of alat)
               a(1) = (   1.210526   0.000000   0.000000 )
               a(2) = (   0.000000   1.210526   0.000000 )
               a(3) = (   0.000000   0.000000   1.210526 )

     reciprocal axes: (cart. coord. in units 2 pi/alat)
               b(1) = (  0.826087  0.000000  0.000000 )
               b(2) = (  0.000000  0.826087  0.000000 )
               b(3) = (  0.000000  0.000000  0.826087 )

     PseudoPot. # 1 for Pd read from file:
     /rds/homes/b/bxp912/pp/Pd.pbe-spn-kjpaw_psl.1.0.0.UPF
     MD5 check sum: 790f2ebce206edfd9790dcb9844eca51
     Pseudo is Projector augmented-wave + core cor, Zval = 18.0
     Generated using &quot;atomic&quot; code by A. Dal Corso  v.6.3
     Shape of augmentation charge: PSQ
     Using radial grid of 1235 points,  6 beta functions with:
                l(1) =   0
                l(2) =   0
                l(3) =   1
                l(4) =   1
                l(5) =   2
                l(6) =   2
     Q(r) pseudized with 0 coefficients

     atomic species   valence    mass     pseudopotential
        Pd            18.00   106.42000     Pd( 1.00)

     48 Sym. Ops., with inversion, found

   Cartesian axes

     site n.     atom                  positions (alat units)
         1           Pd  tau(   1) = (   0.0000000   0.0000000   0.0000000  )
         2           Pd  tau(   2) = (   0.3026316   0.3026316   0.0000000  )
         3           Pd  tau(   3) = (   0.3026316   0.0000000   0.3026316  )
         4           Pd  tau(   4) = (   0.0000000   0.3026316   0.3026316  )
         5           Pd  tau(   5) = (   0.0000000   0.0000000   0.6052632  )
         6           Pd  tau(   6) = (   0.3026316   0.3026316   0.6052632  )
         7           Pd  tau(   7) = (   0.3026316   0.0000000   0.9078947  )
         8           Pd  tau(   8) = (   0.0000000   0.3026316   0.9078947  )
         9           Pd  tau(   9) = (   0.0000000   0.6052632   0.0000000  )
        10           Pd  tau(  10) = (   0.3026316   0.9078947   0.0000000  )
        11           Pd  tau(  11) = (   0.3026316   0.6052632   0.3026316  )
        12           Pd  tau(  12) = (   0.0000000   0.9078947   0.3026316  )
        13           Pd  tau(  13) = (   0.0000000   0.6052632   0.6052632  )
        14           Pd  tau(  14) = (   0.3026316   0.9078947   0.6052632  )
        15           Pd  tau(  15) = (   0.3026316   0.6052632   0.9078947  )
        16           Pd  tau(  16) = (   0.0000000   0.9078947   0.9078947  )
        17           Pd  tau(  17) = (   0.6052632   0.0000000   0.0000000  )
        18           Pd  tau(  18) = (   0.9078947   0.3026316   0.0000000  )
        19           Pd  tau(  19) = (   0.9078947   0.0000000   0.3026316  )
        20           Pd  tau(  20) = (   0.6052632   0.3026316   0.3026316  )
        21           Pd  tau(  21) = (   0.6052632   0.0000000   0.6052632  )
        22           Pd  tau(  22) = (   0.9078947   0.3026316   0.6052632  )
        23           Pd  tau(  23) = (   0.9078947   0.0000000   0.9078947  )
        24           Pd  tau(  24) = (   0.6052632   0.3026316   0.9078947  )
        25           Pd  tau(  25) = (   0.6052632   0.6052632   0.0000000  )
        26           Pd  tau(  26) = (   0.9078947   0.9078947   0.0000000  )
        27           Pd  tau(  27) = (   0.9078947   0.6052632   0.3026316  )
        28           Pd  tau(  28) = (   0.6052632   0.9078947   0.3026316  )
        29           Pd  tau(  29) = (   0.6052632   0.6052632   0.6052632  )
        30           Pd  tau(  30) = (   0.9078947   0.9078947   0.6052632  )
        31           Pd  tau(  31) = (   0.9078947   0.6052632   0.9078947  )
        32           Pd  tau(  32) = (   0.6052632   0.9078947   0.9078947  )

     number of k points=    35  Marzari-Vanderbilt smearing, width (Ry)=  0.0400
                       cart. coord. in units 2pi/alat
        k(    1) = (   0.0458937   0.0458937   0.0458937), wk =   0.0219479
        k(    2) = (   0.0458937   0.0458937   0.1376812), wk =   0.0658436
        k(    3) = (   0.0458937   0.0458937   0.2294686), wk =   0.0658436
        k(    4) = (   0.0458937   0.0458937   0.3212560), wk =   0.0658436
        k(    5) = (   0.0458937   0.0458937  -0.4130435), wk =   0.0329218
        k(    6) = (   0.0458937   0.1376812   0.1376812), wk =   0.0658436
        k(    7) = (   0.0458937   0.1376812   0.2294686), wk =   0.1316872
        k(    8) = (   0.0458937   0.1376812   0.3212560), wk =   0.1316872
        k(    9) = (   0.0458937   0.1376812  -0.4130435), wk =   0.0658436
        k(   10) = (   0.0458937   0.2294686   0.2294686), wk =   0.0658436
        k(   11) = (   0.0458937   0.2294686   0.3212560), wk =   0.1316872
        k(   12) = (   0.0458937   0.2294686  -0.4130435), wk =   0.0658436
        k(   13) = (   0.0458937   0.3212560   0.3212560), wk =   0.0658436
        k(   14) = (   0.0458937   0.3212560  -0.4130435), wk =   0.0658436
        k(   15) = (   0.0458937  -0.4130435  -0.4130435), wk =   0.0164609
        k(   16) = (   0.1376812   0.1376812   0.1376812), wk =   0.0219479
        k(   17) = (   0.1376812   0.1376812   0.2294686), wk =   0.0658436
        k(   18) = (   0.1376812   0.1376812   0.3212560), wk =   0.0658436
        k(   19) = (   0.1376812   0.1376812  -0.4130435), wk =   0.0329218
        k(   20) = (   0.1376812   0.2294686   0.2294686), wk =   0.0658436
        k(   21) = (   0.1376812   0.2294686   0.3212560), wk =   0.1316872
        k(   22) = (   0.1376812   0.2294686  -0.4130435), wk =   0.0658436
        k(   23) = (   0.1376812   0.3212560   0.3212560), wk =   0.0658436
        k(   24) = (   0.1376812   0.3212560  -0.4130435), wk =   0.0658436
        k(   25) = (   0.1376812  -0.4130435  -0.4130435), wk =   0.0164609
        k(   26) = (   0.2294686   0.2294686   0.2294686), wk =   0.0219479
        k(   27) = (   0.2294686   0.2294686   0.3212560), wk =   0.0658436
        k(   28) = (   0.2294686   0.2294686  -0.4130435), wk =   0.0329218
        k(   29) = (   0.2294686   0.3212560   0.3212560), wk =   0.0658436
        k(   30) = (   0.2294686   0.3212560  -0.4130435), wk =   0.0658436
        k(   31) = (   0.2294686  -0.4130435  -0.4130435), wk =   0.0164609
        k(   32) = (   0.3212560   0.3212560   0.3212560), wk =   0.0219479
        k(   33) = (   0.3212560   0.3212560  -0.4130435), wk =   0.0329218
        k(   34) = (   0.3212560  -0.4130435  -0.4130435), wk =   0.0164609
        k(   35) = (  -0.4130435  -0.4130435  -0.4130435), wk =   0.0027435

     Check: negative core charge=   -0.000001

     Initial potential from superposition of free atoms

     starting charge  575.98776, renormalised to  576.00000
     Starting wfcs are  320 randomized atomic wfcs +   26 random wfcs
     Checking if some PAW data can be deallocated...

     Self-consistent Calculation

     iteration #  1     ecut=    71.00 Ry     beta= 0.10
     Davidson diagonalization with overlap
     ethr =  1.00E-02,  avg # of iterations =  3.1

     Threshold (ethr) on eigenvalues was too large:
     Diagonalizing with lowered threshold

     Davidson diagonalization with overlap
     ethr =  9.58E-04,  avg # of iterations =  1.0

     total energy              =  -16383.19747480 Ry
     estimated scf accuracy    <       5.40942374 Ry

[...]

     iteration #  6     ecut=    71.00 Ry     beta= 0.10
     Davidson diagonalization with overlap
     c_bands:  1 eigenvalues not converged
     ethr =  9.58E-07,  avg # of iterations =  4.3

[...]

     total energy              =  -16382.41348906 Ry
     estimated scf accuracy    <       0.00000142 Ry

     iteration # 14     ecut=    71.00 Ry     beta= 0.10
     Davidson diagonalization with overlap
     ethr =  2.47E-10,  avg # of iterations =  2.3

     End of self-consistent calculation

          k = 0.0459 0.0459 0.0459 ( 53577 PWs)   bands (ev):

   -73.5501 -73.5475 -73.5475 -73.5475 -73.5470 -73.5470 -73.5470 -73.5461
   -73.5461 -73.5461 -73.5459 -73.5458 -73.5458 -73.5458 -73.5458 -73.5458
   -73.5458 -73.5458 -73.5458 -73.5458 -73.5456 -73.5456 -73.5456 -73.5444
   -73.5444 -73.5444 -73.5444 -73.5444 -73.5444 -73.5444 -73.5444 -73.5444
   -39.3006 -39.3006 -39.3006 -39.3003 -39.2979 -39.2979 -39.2979 -39.2860
   -39.2860 -39.2860 -39.2853 -39.2853 -39.2853 -39.2853 -39.2853 -39.2853
   -39.2840 -39.2840 -39.2840 -39.2838 -39.2838 -39.2838 -39.2838 -39.2837
   -39.2837 -39.2811 -39.2811 -39.2811 -39.2811 -39.2811 -39.2811 -39.2743
   -39.2743 -39.2743 -39.2713 -39.2713 -39.2713 -39.2695 -39.2695 -39.2695
   -39.2691 -39.2691 -39.2691 -39.2690 -39.2690 -39.2690 -39.2671 -39.2671
   -39.2671 -39.2668 -39.2668 -39.2668 -39.2668 -39.2668 -39.2668 -39.2668
   -39.2668 -39.2668 -39.2667 -39.2667 -39.2666 -39.2570 -39.2570 -39.2570
   -39.2569 -39.2569 -39.2569 -39.2551 -39.2551 -39.2551 -39.2549 -39.2549
   -39.2549 -39.2548 -39.2548 -39.2548 -39.2541 -39.2541 -39.2541 -39.2539
   -39.2539 -39.2539 -39.2539 -39.2539 -39.2539 -39.2539 -39.2539 -39.2539
   -39.2537 -39.2537 -39.2528 -39.2528 -39.2528 -39.2452 -39.2450 -39.2450
     5.5002   6.9727   6.9727   6.9727   7.0010   7.0097   7.0097   7.0097
     7.0774   7.0774   7.0774   7.1549   7.1549   7.1549   7.1872   7.1872
     7.1872   7.5977   7.5977   7.5977   7.5978   7.5978   7.5978   7.6126
     7.6126   7.6126   7.6428   7.6428   7.6429   7.6929   7.6929   7.6929
     7.6929   7.6929   7.6929   7.6976   7.6976   7.6976   7.6982   7.6982
     7.6982   7.8966   7.8966   7.8966   7.8966   7.8966   7.8966   7.9411
     7.9411   7.9411   7.9523   7.9523   7.9523   7.9523   7.9523   7.9523
     7.9844   7.9844   7.9844   8.0686   8.0686   8.0686   8.0686   8.0686
     8.0686   8.1609   8.1609   8.1609   8.1673   8.1692   8.1692   8.1728
     8.1728   8.1728   8.1729   8.1729   8.1729   8.1743   8.1743   8.1743
     8.1756   8.1756   8.1805   8.1805   8.1805   8.2149   8.2149   8.2149
     8.5888   8.5888   8.5888   8.5922   8.5922   8.5922   8.6296   8.6296
     8.6296   8.6297   8.6297   8.6297   8.6297   8.6297   8.6297   8.6814
     8.6814   8.6814   8.7027   8.7027   8.7027   8.7650   8.7650   8.7650
     8.7917   8.7917   8.7917   8.8130   8.8130   8.8130   8.8566   8.8566
     8.8700   8.8700   8.8700   8.8700   8.8700   8.8700   8.8787   8.8787
     8.8787   8.8787   8.8788   8.8788   8.9260   8.9260   8.9260   8.9269
     8.9269   8.9269   9.0834   9.0834   9.0834   9.1284   9.1284   9.1284
     9.3335   9.3335   9.3335   9.3483   9.3483   9.3483   9.3613   9.3613
     9.3696   9.3696   9.3696   9.4762   9.4762   9.4762   9.4909   9.4909
     9.4909   9.4909   9.4909   9.4909   9.4922   9.4922   9.4922  10.5904
    10.5904  10.5904  10.9581  10.9581  10.9581  10.9581  10.9581  10.9581
    11.2316  11.3454  11.3454  11.3454  11.4327  11.4327  11.4327  12.8551
    12.8551  12.8551  13.7244  13.7244  13.7244  13.9039  15.6225  15.6225
    15.6225  15.6225  15.6225  15.6225  16.0701  16.0701  16.0701  16.0701
    16.0701  16.0701  16.0931  16.0931  16.0931  16.5739  16.5739  16.5739
    16.5739  16.5739  16.5739  17.7198  17.7198  17.7198  18.0390  18.0391
    18.0391  18.0391

[...]

          k = 0.3213-0.4130-0.4130 ( 53432 PWs)   bands (ev):

[...]

          k =-0.4130-0.4130-0.4130 ( 53264 PWs)   bands (ev):

   -73.5480 -73.5480 -73.5480 -73.5480 -73.5480 -73.5480 -73.5480 -73.5480
   -73.5452 -73.5451 -73.5451 -73.5451 -73.5451 -73.5451 -73.5451 -73.5451
   -73.5451 -73.5451 -73.5451 -73.5451 -73.5451 -73.5451 -73.5451 -73.5451
   -73.5451 -73.5451 -73.5451 -73.5451 -73.5451 -73.5451 -73.5451 -73.5451
   -39.2916 -39.2915 -39.2915 -39.2915 -39.2915 -39.2915 -39.2915 -39.2915
   -39.2915 -39.2915 -39.2915 -39.2915 -39.2915 -39.2915 -39.2915 -39.2915
   -39.2915 -39.2915 -39.2915 -39.2915 -39.2915 -39.2915 -39.2915 -39.2915
   -39.2726 -39.2726 -39.2726 -39.2726 -39.2726 -39.2726 -39.2726 -39.2726
   -39.2681 -39.2681 -39.2681 -39.2681 -39.2681 -39.2681 -39.2681 -39.2681
   -39.2681 -39.2681 -39.2681 -39.2681 -39.2680 -39.2680 -39.2680 -39.2680
   -39.2680 -39.2680 -39.2680 -39.2680 -39.2680 -39.2680 -39.2680 -39.2680
   -39.2604 -39.2604 -39.2604 -39.2604 -39.2604 -39.2604 -39.2604 -39.2604
   -39.2603 -39.2603 -39.2603 -39.2603 -39.2603 -39.2603 -39.2603 -39.2603
   -39.2603 -39.2603 -39.2603 -39.2603 -39.2603 -39.2603 -39.2603 -39.2603
   -39.2492 -39.2492 -39.2492 -39.2492 -39.2492 -39.2492 -39.2492 -39.2492
   -39.2492 -39.2492 -39.2492 -39.2492 -39.2492 -39.2492 -39.2492 -39.2492
     6.6941   6.6941   6.6941   6.6941   6.6941   6.6941   6.6941   6.6941
     7.3938   7.3938   7.3938   7.3938   7.3938   7.3938   7.3938   7.3938
     7.3938   7.3938   7.3938   7.3938   7.3938   7.3938   7.3938   7.3938
     7.3938   7.3938   7.3938   7.3938   7.3938   7.3938   7.3938   7.3938
     7.8077   7.8077   7.8077   7.8077   7.8078   7.8078   7.8078   7.8078
     7.8078   7.8078   7.8078   7.8078   7.8078   7.8078   7.8078   7.8078
     7.8078   7.8078   7.8078   7.8078   7.8078   7.8078   7.8078   7.8078
     8.2410   8.2410   8.2410   8.2410   8.2410   8.2410   8.2410   8.2410
     8.3080   8.3080   8.3080   8.3080   8.3080   8.3081   8.3081   8.3081
     8.3081   8.3081   8.3081   8.3081   8.3081   8.3081   8.3081   8.3081
     8.4572   8.4572   8.4572   8.4572   8.4572   8.4572   8.4572   8.4572
     8.4572   8.4572   8.4572   8.4572   8.4572   8.4572   8.4572   8.4572
     8.4572   8.4572   8.4572   8.4572   8.4572   8.4572   8.4572   8.4572
     8.7298   8.7298   8.7298   8.7298   8.7298   8.7298   8.7298   8.7298
     8.7298   8.7298   8.7298   8.7298   8.7298   8.7298   8.7298   8.7298
     8.7298   8.7298   8.7298   8.7298   8.7298   8.7298   8.7298   8.7299
     8.9401   8.9401   8.9401   8.9401   8.9401   8.9401   8.9401   8.9401
     8.9401   8.9401   8.9401   8.9401   8.9401   8.9401   8.9401   8.9401
     9.4051   9.4051   9.4051   9.4051   9.4051   9.4051   9.4051   9.4051
     9.4051   9.4051   9.4052   9.4052   9.4052   9.4052   9.4052   9.4052
     9.4052   9.4052   9.4052   9.4052   9.4052   9.4052   9.4052   9.4052
    12.1546  12.1546  12.1546  12.1546  12.1546  12.1546  12.1546  12.1546
    12.1546  12.1546  12.1546  12.1546  12.1546  12.1546  12.1546  12.1546
    12.1546  12.1546  12.1546  12.1546  12.1546  12.1546  12.1546  12.1546
    15.9703  15.9703  15.9703  15.9703  15.9703  15.9703  15.9703  15.9703
    15.9703  15.9703  15.9703  15.9703  15.9703  15.9703  15.9703  15.9703
    15.9703  15.9703  15.9703  15.9703  15.9703  15.9703  15.9703  15.9703
    20.0187  20.0189

     the Fermi energy is     9.5158 ev

!    total energy              =  -16382.41349997 Ry

     total all-electron energy =   -322943.267207 Ry
     estimated scf accuracy    <       0.00000017 Ry
     smearing contrib. (-TS)   =       0.34959223 Ry
     internal energy E=F+TS    =  -16382.76309220 Ry

     The total energy is F=E-TS. E is the sum of the following terms:
     one-electron contribution =   -4026.61899843 Ry
     hartree contribution      =    2245.37159074 Ry
     xc contribution           =    -980.50582991 Ry
     ewald contribution        =   -5453.99244990 Ry
     one-center paw contrib.   =   -8167.01740470 Ry

     convergence has been achieved in  14 iterations

     Forces acting on atoms (cartesian axes, Ry/au):

     atom    1 type  1   force =     0.00000000    0.00000000    0.00000000
     atom    2 type  1   force =     0.00000350    0.00000350   -0.00000000
     atom    3 type  1   force =     0.00000350    0.00000000    0.00000350
     atom    4 type  1   force =     0.00000000    0.00000350    0.00000350
     atom    5 type  1   force =     0.00000000    0.00000000    0.00000000
     atom    6 type  1   force =    -0.00001006   -0.00001006    0.00000000
     atom    7 type  1   force =     0.00000350    0.00000000   -0.00000350
     atom    8 type  1   force =     0.00000000    0.00000350   -0.00000350
     atom    9 type  1   force =     0.00000000    0.00000000    0.00000000
     atom   10 type  1   force =     0.00000350   -0.00000350    0.00000000
     atom   11 type  1   force =    -0.00001006    0.00000000   -0.00001006
     atom   12 type  1   force =    -0.00000000   -0.00000350    0.00000350
     atom   13 type  1   force =     0.00000000    0.00000000    0.00000000
     atom   14 type  1   force =    -0.00001006    0.00001006    0.00000000
     atom   15 type  1   force =    -0.00001006    0.00000000    0.00001006
     atom   16 type  1   force =     0.00000000   -0.00000350   -0.00000350
     atom   17 type  1   force =     0.00000000    0.00000000    0.00000000
     atom   18 type  1   force =    -0.00000350    0.00000350    0.00000000
     atom   19 type  1   force =    -0.00000350   -0.00000000    0.00000350
     atom   20 type  1   force =     0.00000000   -0.00001006   -0.00001006
     atom   21 type  1   force =     0.00000000    0.00000000    0.00000000
     atom   22 type  1   force =     0.00001006   -0.00001006    0.00000000
     atom   23 type  1   force =    -0.00000350    0.00000000   -0.00000350
     atom   24 type  1   force =    -0.00000000   -0.00001006    0.00001006
     atom   25 type  1   force =     0.00000000    0.00000000    0.00000000
     atom   26 type  1   force =    -0.00000350   -0.00000350   -0.00000000
     atom   27 type  1   force =     0.00001006    0.00000000   -0.00001006
     atom   28 type  1   force =     0.00000000    0.00001006   -0.00001006
     atom   29 type  1   force =     0.00000000    0.00000000    0.00000000
     atom   30 type  1   force =     0.00001006    0.00001006    0.00000000
     atom   31 type  1   force =     0.00001006   -0.00000000    0.00001006
     atom   32 type  1   force =    -0.00000000    0.00001006    0.00001006

     Total force =     0.000052     Total SCF correction =     0.000216
     SCF correction compared to forces is large: reduce conv_thr to get better values

     Computing stress (Cartesian axis) and pressure

          total   stress  (Ry/bohr**3)                   (kbar)     P=     -228.45
  -0.00155297   0.00000000   0.00000000         -228.45        0.00        0.00
   0.00000000  -0.00155297   0.00000000            0.00     -228.45        0.00
   0.00000000   0.00000000  -0.00155297            0.00        0.00     -228.45

     Writing output data file /scratch/bZZNXYNbZzSdwLWS.save/

     General routines

     Parallel routines

   This run was terminated on:  20:29:14  26Nov2021

   JOB DONE.