     Program PWSCF v.6.7MaX starts on 26Nov2021 at 18:59: 1

     R & G space division:  proc/nbgrp/npool/nimage =      72
     Reading input from fcc_1.in
Warning: card &CELL ignored
Warning: card CELL_DYNAMICS = 'BFGS', ignored
Warning: card CELL_FACTOR = 2.0, ignored
Warning: card PRESS = 0.0, ignored
Warning: card / ignored

     Current dimensions of program PWSCF are:
     Max number of different atomic species (ntypx) = 10
     Max number of k-points (npk) =  40000
     Max angular momentum in pseudopotentials (lmaxx) =  3
     file Pd.pbe-spn-kjpaw_psl.1.0.0.UPF: wavefunction(s)  4S 5S 4D renormalized

     Subspace diagonalization in iterative solution of the eigenvalue problem:
     one sub-group per band group will be used

     Found symmetry operation: I + (  0.2500  0.2500  0.0000)
     This is a supercell, fractional translations are disabled
     Message from routine setup:
     using ibrav=0 with symmetry is DISCOURAGED, use correct ibrav instead

     bravais-lattice index     =            0
     lattice parameter (alat)  =      14.4000  a.u.
     unit-cell volume          =    1259.7120 (a.u.)^3
     number of atoms/cell      =           32
     number of atomic types    =            1
     number of electrons       =       576.00
     number of Kohn-Sham states=          346
     kinetic-energy cutoff     =      71.0000  Ry
     charge density cutoff     =     430.0000  Ry
     scf convergence threshold =      1.0E-06
     mixing beta               =       0.1000
     number of iterations used =           10  TF        mixing
     Exchange-correlation= SLA  PW   PBX  PBC
                           (   1   4   3   4   0   0   0)

     celldm(1)=  14.400000  celldm(2)=   0.000000  celldm(3)=   0.000000
     celldm(4)=   0.000000  celldm(5)=   0.000000  celldm(6)=   0.000000

     crystal axes: (cart. coord. in units of alat)
               a(1) = (   0.750000   0.000000   0.000000 )
               a(2) = (   0.000000   0.750000   0.000000 )
               a(3) = (   0.000000   0.000000   0.750000 )

     reciprocal axes: (cart. coord. in units 2 pi/alat)
               b(1) = (  1.333333  0.000000  0.000000 )
               b(2) = (  0.000000  1.333333  0.000000 )
               b(3) = (  0.000000  0.000000  1.333333 )

     PseudoPot. # 1 for Pd read from file:
     /rds/homes/b/bxp912/pp/Pd.pbe-spn-kjpaw_psl.1.0.0.UPF
     MD5 check sum: 790f2ebce206edfd9790dcb9844eca51
     Pseudo is Projector augmented-wave + core cor, Zval = 18.0
     Generated using &quot;atomic&quot; code by A. Dal Corso  v.6.3
     Shape of augmentation charge: PSQ
     Using radial grid of 1235 points,  6 beta functions with:
                l(1) =   0
                l(2) =   0
                l(3) =   1
                l(4) =   1
                l(5) =   2
                l(6) =   2
     Q(r) pseudized with 0 coefficients

     atomic species   valence    mass     pseudopotential
        Pd            18.00   106.42000     Pd( 1.00)

     48 Sym. Ops., with inversion, found

   Cartesian axes

     site n.     atom                  positions (alat units)
         1           Pd  tau(   1) = (   0.0000000   0.0000000   0.0000000  )
         2           Pd  tau(   2) = (   0.1875000   0.1875000   0.0000000  )
         3           Pd  tau(   3) = (   0.1875000   0.0000000   0.1875000  )
         4           Pd  tau(   4) = (   0.0000000   0.1875000   0.1875000  )
         5           Pd  tau(   5) = (   0.0000000   0.0000000   0.3750000  )
         6           Pd  tau(   6) = (   0.1875000   0.1875000   0.3750000  )
         7           Pd  tau(   7) = (   0.1875000   0.0000000   0.5625000  )
         8           Pd  tau(   8) = (   0.0000000   0.1875000   0.5625000  )
         9           Pd  tau(   9) = (   0.0000000   0.3750000   0.0000000  )
        10           Pd  tau(  10) = (   0.1875000   0.5625000   0.0000000  )
        11           Pd  tau(  11) = (   0.1875000   0.3750000   0.1875000  )
        12           Pd  tau(  12) = (   0.0000000   0.5625000   0.1875000  )
        13           Pd  tau(  13) = (   0.0000000   0.3750000   0.3750000  )
        14           Pd  tau(  14) = (   0.1875000   0.5625000   0.3750000  )
        15           Pd  tau(  15) = (   0.1875000   0.3750000   0.5625000  )
        16           Pd  tau(  16) = (   0.0000000   0.5625000   0.5625000  )
        17           Pd  tau(  17) = (   0.3750000   0.0000000   0.0000000  )
        18           Pd  tau(  18) = (   0.5625000   0.1875000   0.0000000  )
        19           Pd  tau(  19) = (   0.5625000   0.0000000   0.1875000  )
        20           Pd  tau(  20) = (   0.3750000   0.1875000   0.1875000  )
        21           Pd  tau(  21) = (   0.3750000   0.0000000   0.3750000  )
        22           Pd  tau(  22) = (   0.5625000   0.1875000   0.3750000  )
        23           Pd  tau(  23) = (   0.5625000   0.0000000   0.5625000  )
        24           Pd  tau(  24) = (   0.3750000   0.1875000   0.5625000  )
        25           Pd  tau(  25) = (   0.3750000   0.3750000   0.0000000  )
        26           Pd  tau(  26) = (   0.5625000   0.5625000   0.0000000  )
        27           Pd  tau(  27) = (   0.5625000   0.3750000   0.1875000  )
        28           Pd  tau(  28) = (   0.3750000   0.5625000   0.1875000  )
        29           Pd  tau(  29) = (   0.3750000   0.3750000   0.3750000  )
        30           Pd  tau(  30) = (   0.5625000   0.5625000   0.3750000  )
        31           Pd  tau(  31) = (   0.5625000   0.3750000   0.5625000  )
        32           Pd  tau(  32) = (   0.3750000   0.5625000   0.5625000  )

     number of k points=    35  Marzari-Vanderbilt smearing, width (Ry)=  0.0400
                       cart. coord. in units 2pi/alat
        k(    1) = (   0.0740741   0.0740741   0.0740741), wk =   0.0219479
        k(    2) = (   0.0740741   0.0740741   0.2222222), wk =   0.0658436
        k(    3) = (   0.0740741   0.0740741   0.3703704), wk =   0.0658436
        k(    4) = (   0.0740741   0.0740741   0.5185185), wk =   0.0658436
        k(    5) = (   0.0740741   0.0740741  -0.6666667), wk =   0.0329218
        k(    6) = (   0.0740741   0.2222222   0.2222222), wk =   0.0658436
        k(    7) = (   0.0740741   0.2222222   0.3703704), wk =   0.1316872
        k(    8) = (   0.0740741   0.2222222   0.5185185), wk =   0.1316872
        k(    9) = (   0.0740741   0.2222222  -0.6666667), wk =   0.0658436
        k(   10) = (   0.0740741   0.3703704   0.3703704), wk =   0.0658436
        k(   11) = (   0.0740741   0.3703704   0.5185185), wk =   0.1316872
        k(   12) = (   0.0740741   0.3703704  -0.6666667), wk =   0.0658436
        k(   13) = (   0.0740741   0.5185185   0.5185185), wk =   0.0658436
        k(   14) = (   0.0740741   0.5185185  -0.6666667), wk =   0.0658436
        k(   15) = (   0.0740741  -0.6666667  -0.6666667), wk =   0.0164609
        k(   16) = (   0.2222222   0.2222222   0.2222222), wk =   0.0219479
        k(   17) = (   0.2222222   0.2222222   0.3703704), wk =   0.0658436
        k(   18) = (   0.2222222   0.2222222   0.5185185), wk =   0.0658436
        k(   19) = (   0.2222222   0.2222222  -0.6666667), wk =   0.0329218
        k(   20) = (   0.2222222   0.3703704   0.3703704), wk =   0.0658436
        k(   21) = (   0.2222222   0.3703704   0.5185185), wk =   0.1316872
        k(   22) = (   0.2222222   0.3703704  -0.6666667), wk =   0.0658436
        k(   23) = (   0.2222222   0.5185185   0.5185185), wk =   0.0658436
        k(   24) = (   0.2222222   0.5185185  -0.6666667), wk =   0.0658436
        k(   25) = (   0.2222222  -0.6666667  -0.6666667), wk =   0.0164609
        k(   26) = (   0.3703704   0.3703704   0.3703704), wk =   0.0219479
        k(   27) = (   0.3703704   0.3703704   0.5185185), wk =   0.0658436
        k(   28) = (   0.3703704   0.3703704  -0.6666667), wk =   0.0329218
        k(   29) = (   0.3703704   0.5185185   0.5185185), wk =   0.0658436
        k(   30) = (   0.3703704   0.5185185  -0.6666667), wk =   0.0658436
        k(   31) = (   0.3703704  -0.6666667  -0.6666667), wk =   0.0164609
        k(   32) = (   0.5185185   0.5185185   0.5185185), wk =   0.0219479
        k(   33) = (   0.5185185   0.5185185  -0.6666667), wk =   0.0329218
        k(   34) = (   0.5185185  -0.6666667  -0.6666667), wk =   0.0164609
        k(   35) = (  -0.6666667  -0.6666667  -0.6666667), wk =   0.0027435

     Check: negative core charge=   -0.000001

     Initial potential from superposition of free atoms

     starting charge  575.98776, renormalised to  576.00000
     Starting wfcs are  320 randomized atomic wfcs +   26 random wfcs
     Checking if some PAW data can be deallocated...

     Self-consistent Calculation

     iteration #  1     ecut=    71.00 Ry     beta= 0.10
     Davidson diagonalization with overlap
     ethr =  1.00E-02,  avg # of iterations =  8.6

     Threshold (ethr) on eigenvalues was too large:
     Diagonalizing with lowered threshold

     Davidson diagonalization with overlap
     c_bands:  1 eigenvalues not converged
     ethr =  1.27E-04,  avg # of iterations =  7.1

     total energy              =  -16332.89554116 Ry
     estimated scf accuracy    <       0.62758431 Ry

[...]

     iteration #  4     ecut=    71.00 Ry     beta= 0.10
     Davidson diagonalization with overlap
     c_bands:  2 eigenvalues not converged
     c_bands:  2 eigenvalues not converged
     c_bands:  1 eigenvalues not converged
     ethr =  2.43E-06,  avg # of iterations =  9.5

[...]

     total energy              =  -16332.62464446 Ry
     estimated scf accuracy    <       0.00000163 Ry

     iteration # 13     ecut=    71.00 Ry     beta= 0.10
     Davidson diagonalization with overlap
     ethr =  2.84E-10,  avg # of iterations =  2.0

     End of self-consistent calculation

          k = 0.0741 0.0741 0.0741 ( 12764 PWs)   bands (ev):

   -30.9995 -29.7697 -29.7697 -29.7697 -29.5175 -29.5174 -29.5174 -29.0067
   -29.0067 -29.0067 -28.8583 -28.8581 -28.8581 -28.8581 -28.8581 -28.8581
   -28.8410 -28.8168 -28.8167 -28.8167 -28.7316 -28.7315 -28.7315 -28.0942
   -28.0941 -28.0941 -28.0738 -28.0737 -28.0737 -28.0737 -28.0737 -28.0737
     0.4049   0.4049   0.4050   0.4357   0.9963   0.9963   0.9963   2.3089
     2.3090   2.3090   2.4113   2.4113   2.4114   2.4114   2.4114   2.4114
     2.5739   2.5739   2.5739   2.7181   2.7181   2.7181   2.7181   2.7181
     2.7181   3.0886   3.0886   3.0886   3.0886   3.0886   3.0887   3.9468
     3.9468   3.9468   4.3035   4.3035   4.3035   4.5372   4.5372   4.5373
     4.6185   4.6185   4.6185   4.6186   4.6186   4.6186   4.9241   4.9241
     4.9241   5.0090   5.0090   5.0090   5.0091   5.0091   5.0091   5.2560
     5.2560   5.2560   5.2964   5.2964   5.2964   6.4306   6.4307   6.4307
     6.4374   6.4374   6.4374   6.6695   6.6696   6.6696   6.6696   6.6696
     6.6696   6.8804   6.8804   6.8804   6.9790   6.9791   6.9791   6.9791
     6.9791   6.9791   6.9877   6.9878   6.9878   7.0164   7.0164   7.0164
     7.0378   7.0378   7.1230   7.1230   7.1230   7.9051   7.9625   7.9625
    40.2664  40.2664  40.2664  40.8702  40.8702  40.8702  43.0202  43.0624
    43.0624  43.0625  43.7932  43.7932  43.7932  44.2491  44.2491  44.2491
    44.2491  44.2491  44.2491  44.4630  44.4630  44.4630  45.5028  45.5028
    45.5028  45.8245  45.8245  45.8245  46.3929  46.3929  46.3929  46.3929
    46.3929  46.3929  46.4986  46.5486  46.5486  46.5486  46.8363  46.8363
    46.8364  47.8656  47.8656  47.8656  47.8876  47.8876  47.8876  47.8877
    47.8877  47.8877  48.0793  48.0793  48.0794  48.0794  48.0794  48.0794
    48.5592  48.5593  48.5593  48.6096  48.6097  48.6097  48.6647  48.6647
    48.7083  48.7083  48.7083  49.0807  49.1637  49.1637  49.4076  49.4076
    49.4076  49.4076  49.4076  49.4076  51.1203  51.1203  51.1203  51.1203
    51.1203  51.1203  51.5011  51.5011  51.5011  51.7140  51.7140  51.7140
    52.1525  52.1525  52.1525  52.5241  52.5241  52.5241  52.8544  52.8544
    52.8545  52.8545  52.8545  52.8545  53.6081  53.6081  53.6081  53.7980
    53.7980  53.7980  54.4853  54.4853  54.4853  54.5984  54.5984  54.5984
    54.5985  54.5985  54.5985  54.6577  54.6578  54.6578  54.8253  54.8253
    54.8253  55.1586  55.1586  55.1586  55.1586  55.1586  55.1586  55.6079
    55.6079  55.6079  55.7854  55.7854  56.3118  56.3118  56.3118  57.8224
    57.8225  57.8225  57.9428  57.9428  57.9429  58.4117  58.4117  58.4117
    60.2117  60.2117  60.2117  60.9654  60.9654  60.9669  60.9669  60.9670
    61.0852  61.0852  61.0853  61.9119  62.3042  62.3043  62.3043  62.5541
    62.5541  62.5541  62.5542  62.5542  62.5542  62.5600  62.5600  62.5601
    62.8758  62.8758  62.8758  67.6076  67.6076  67.6076  68.6154  68.6154
    68.6154  68.8232  68.8232  68.8232  68.8232  68.8232  68.8232  69.8360
    69.8360  69.8360  72.7344  73.2904  73.5277  73.5277  73.5277  78.9441
    78.9441  78.9441  78.9441  78.9441  78.9441  79.4639  79.4639  79.4639
    79.4639  79.4639  79.4639  79.7523  79.7523  79.7523  79.9844  79.9844
    79.9844  80.1856  80.1856  80.1856  80.6938  80.6938  80.6938  80.6938
    80.6938  80.6938

[...]

          k = 0.5185-0.6667-0.6667 ( 12728 PWs)   bands (ev):

[...]

          k =-0.6667-0.6667-0.6667 ( 12712 PWs)   bands (ev):

   -29.9914 -29.9914 -29.9913 -29.9913 -29.9913 -29.9913 -29.9913 -29.9913
   -28.4716 -28.4716 -28.4714 -28.4714 -28.4714 -28.4713 -28.4713 -28.4713
   -28.4713 -28.4713 -28.4713 -28.4713 -28.4713 -28.4713 -28.4713 -28.4713
   -28.4713 -28.4713 -28.4713 -28.4713 -28.4713 -28.4713 -28.4713 -28.4713
     1.6527   1.6527   1.6527   1.6527   1.6527   1.6527   1.6528   1.6528
     1.6528   1.6528   1.6528   1.6528   1.6528   1.6528   1.6528   1.6528
     1.6528   1.6528   1.6528   1.6528   1.6528   1.6528   1.6528   1.6528
     3.9813   3.9813   3.9813   3.9813   3.9813   3.9813   3.9813   3.9813
     4.8136   4.8136   4.8136   4.8137   4.8137   4.8137   4.8137   4.8138
     4.8138   4.8138   4.8138   4.8138   4.8138   4.8138   4.8138   4.8138
     4.8138   4.8138   4.8138   4.8138   4.8138   4.8138   4.8138   4.8138
     6.1160   6.1160   6.1160   6.1160   6.1160   6.1160   6.1160   6.1160
     6.1160   6.1160   6.1160   6.1161   6.1161   6.1161   6.1161   6.1161
     6.1161   6.1161   6.1161   6.1161   6.1161   6.1161   6.1161   6.1161
     7.4849   7.4849   7.4849   7.4849   7.4849   7.4849   7.4850   7.4850
     7.4850   7.4850   7.4850   7.4850   7.4850   7.4850   7.4850   7.4850
    43.1744  43.1744  43.1744  43.1744  43.1744  43.1744  43.1744  43.1744
    43.1744  43.1744  43.1744  43.1744  43.1744  43.1744  43.1744  43.1744
    43.1744  43.1744  43.1744  43.1744  43.1744  43.1744  43.1744  43.1744
    45.2464  45.2464  45.2464  45.2464  45.2464  45.2464  45.2464  45.2464
    46.4380  46.4380  46.4380  46.4380  46.4380  46.4380  46.4380  46.4380
    46.4380  46.4380  46.4380  46.4380  46.4380  46.4380  46.4380  46.4380
    46.4380  46.4380  46.4380  46.4380  46.4380  46.4380  46.4380  46.4380
    50.0998  50.0998  50.0998  50.0999  50.0999  50.0999  50.0999  50.0999
    50.0999  50.0999  50.0999  50.0999  50.0999  50.0999  50.0999  50.0999
    53.1246  53.1246  53.1246  53.1246  53.1246  53.1246  53.1247  53.1247
    53.1247  53.1247  53.1247  53.1247  53.1247  53.1247  53.1247  53.1247
    53.1247  53.1247  53.1247  53.1247  53.1247  53.1247  53.1247  53.1247
    53.7431  53.7431  53.7432  53.7432  53.7432  53.7432  53.7432  53.7432
    53.7827  53.7827  53.7827  53.7827  53.7827  53.7827  53.7827  53.7827
    53.7827  53.7827  53.7827  53.7827  53.7827  53.7827  53.7827  53.7827
    53.7827  53.7827  53.7827  53.7827  53.7827  53.7827  53.7827  53.7827
    55.9506  55.9506  55.9506  55.9506  55.9506  55.9506  55.9506  55.9506
    55.9506  55.9506  55.9506  55.9506  55.9506  55.9507  55.9507  55.9507
    61.5296  61.5296  61.5296  61.5296  61.5296  61.5296  61.5296  61.5296
    61.5296  61.5296  61.5296  61.5296  61.5296  61.5296  61.5296  61.5296
    61.5297  61.5297  61.5297  61.5297  61.5297  61.5297  61.5297  61.5297
    70.8273  70.8273  70.8273  70.8273  70.8273  70.8273  70.8273  70.8273
    70.8273  70.8273  70.8273  70.8273  70.8273  70.8273  70.8273  70.8273
    70.8273  70.8273  70.8273  70.8273  70.8273  70.8273  70.8273  70.8273
    74.8970  74.8970  74.8970  74.8970  74.8970  74.8970  74.8970  74.8970
    78.9323  78.9323  78.9323  78.9323  78.9323  78.9323  78.9323  78.9323
    78.9323  78.9323  78.9323  78.9323  78.9323  78.9323  78.9323  78.9323
    78.9323  78.9323

     the Fermi energy is    61.1738 ev

!    total energy              =  -16332.62464723 Ry

     total all-electron energy =   -322893.478354 Ry
     estimated scf accuracy    <       0.00000005 Ry
     smearing contrib. (-TS)   =       0.02164211 Ry
     internal energy E=F+TS    =  -16332.64628934 Ry

     The total energy is F=E-TS. E is the sum of the following terms:
     one-electron contribution =     979.46996484 Ry
     hartree contribution      =     706.38085337 Ry
     xc contribution           =   -1045.89835614 Ry
     ewald contribution        =   -8802.93518230 Ry
     one-center paw contrib.   =   -8169.66356911 Ry

     convergence has been achieved in  13 iterations

     Forces acting on atoms (cartesian axes, Ry/au):

     atom    1 type  1   force =     0.00000000    0.00000000    0.00000000
     atom    2 type  1   force =    -0.00001270   -0.00001270   -0.00000000
     atom    3 type  1   force =    -0.00001270    0.00000000   -0.00001270
     atom    4 type  1   force =     0.00000000   -0.00001270   -0.00001270
     atom    5 type  1   force =     0.00000000    0.00000000    0.00000000
     atom    6 type  1   force =     0.00000607    0.00000607   -0.00000000
     atom    7 type  1   force =    -0.00001270   -0.00000000    0.00001270
     atom    8 type  1   force =    -0.00000000   -0.00001270    0.00001270
     atom    9 type  1   force =     0.00000000    0.00000000    0.00000000
     atom   10 type  1   force =    -0.00001270    0.00001270   -0.00000000
     atom   11 type  1   force =     0.00000607    0.00000000    0.00000607
     atom   12 type  1   force =     0.00000000    0.00001270   -0.00001270
     atom   13 type  1   force =     0.00000000    0.00000000    0.00000000
     atom   14 type  1   force =     0.00000607   -0.00000607   -0.00000000
     atom   15 type  1   force =     0.00000607    0.00000000   -0.00000607
     atom   16 type  1   force =     0.00000000    0.00001270    0.00001270
     atom   17 type  1   force =     0.00000000    0.00000000    0.00000000
     atom   18 type  1   force =     0.00001270   -0.00001270   -0.00000000
     atom   19 type  1   force =     0.00001270    0.00000000   -0.00001270
     atom   20 type  1   force =    -0.00000000    0.00000607    0.00000607
     atom   21 type  1   force =     0.00000000    0.00000000    0.00000000
     atom   22 type  1   force =    -0.00000607    0.00000607    0.00000000
     atom   23 type  1   force =     0.00001270    0.00000000    0.00001270
     atom   24 type  1   force =    -0.00000000    0.00000607   -0.00000607
     atom   25 type  1   force =     0.00000000    0.00000000    0.00000000
     atom   26 type  1   force =     0.00001270    0.00001270    0.00000000
     atom   27 type  1   force =    -0.00000607    0.00000000    0.00000607
     atom   28 type  1   force =    -0.00000000   -0.00000607    0.00000607
     atom   29 type  1   force =     0.00000000    0.00000000    0.00000000
     atom   30 type  1   force =    -0.00000607   -0.00000607    0.00000000
     atom   31 type  1   force =    -0.00000607    0.00000000   -0.00000607
     atom   32 type  1   force =     0.00000000   -0.00000607   -0.00000607

     Total force =     0.000069     Total SCF correction =     0.000522
     SCF correction compared to forces is large: reduce conv_thr to get better values

     Computing stress (Cartesian axis) and pressure

          total   stress  (Ry/bohr**3)                   (kbar)     P=    18955.41
   0.12885624   0.00000000   0.00000000        18955.41        0.00        0.00
   0.00000000   0.12885624   0.00000000            0.00    18955.41        0.00
   0.00000000   0.00000000   0.12885624            0.00        0.00    18955.41

     Writing output data file /scratch/HcKEuQeDUOpJOfTF.save/

     General routines

     Parallel routines

   This run was terminated on:  19: 6:42  26Nov2021

   JOB DONE.