     Program PWSCF v.6.7MaX starts on 26Nov2021 at 19:23:55

     R & G space division:  proc/nbgrp/npool/nimage =      72
     Reading input from fcc_4.in
Warning: card &CELL ignored
Warning: card CELL_DYNAMICS = 'BFGS', ignored
Warning: card CELL_FACTOR = 2.0, ignored
Warning: card PRESS = 0.0, ignored
Warning: card / ignored

     Current dimensions of program PWSCF are:
     Max number of different atomic species (ntypx) = 10
     Max number of k-points (npk) =  40000
     Max angular momentum in pseudopotentials (lmaxx) =  3
     file Pd.pbe-spn-kjpaw_psl.1.0.0.UPF: wavefunction(s)  4S 5S 4D renormalized

     Subspace diagonalization in iterative solution of the eigenvalue problem:
     one sub-group per band group will be used

     Found symmetry operation: I + (  0.2500  0.2500  0.0000)
     This is a supercell, fractional translations are disabled
     Message from routine setup:
     using ibrav=0 with symmetry is DISCOURAGED, use correct ibrav instead

     bravais-lattice index     =            0
     lattice parameter (alat)  =      14.4000  a.u.
     unit-cell volume          =    2538.8918 (a.u.)^3
     number of atoms/cell      =           32
     number of atomic types    =            1
     number of electrons       =       576.00
     number of Kohn-Sham states=          346
     kinetic-energy cutoff     =      71.0000  Ry
     charge density cutoff     =     430.0000  Ry
     scf convergence threshold =      1.0E-06
     mixing beta               =       0.1000
     number of iterations used =           10  TF        mixing
     Exchange-correlation= SLA  PW   PBX  PBC
                           (   1   4   3   4   0   0   0)

     celldm(1)=  14.400000  celldm(2)=   0.000000  celldm(3)=   0.000000
     celldm(4)=   0.000000  celldm(5)=   0.000000  celldm(6)=   0.000000

     crystal axes: (cart. coord. in units of alat)
               a(1) = (   0.947368   0.000000   0.000000 )
               a(2) = (   0.000000   0.947368   0.000000 )
               a(3) = (   0.000000   0.000000   0.947368 )

     reciprocal axes: (cart. coord. in units 2 pi/alat)
               b(1) = (  1.055556  0.000000  0.000000 )
               b(2) = (  0.000000  1.055556  0.000000 )
               b(3) = (  0.000000  0.000000  1.055556 )

     PseudoPot. # 1 for Pd read from file:
     /rds/homes/b/bxp912/pp/Pd.pbe-spn-kjpaw_psl.1.0.0.UPF
     MD5 check sum: 790f2ebce206edfd9790dcb9844eca51
     Pseudo is Projector augmented-wave + core cor, Zval = 18.0
     Generated using &quot;atomic&quot; code by A. Dal Corso  v.6.3
     Shape of augmentation charge: PSQ
     Using radial grid of 1235 points,  6 beta functions with:
                l(1) =   0
                l(2) =   0
                l(3) =   1
                l(4) =   1
                l(5) =   2
                l(6) =   2
     Q(r) pseudized with 0 coefficients

     atomic species   valence    mass     pseudopotential
        Pd            18.00   106.42000     Pd( 1.00)

     48 Sym. Ops., with inversion, found

   Cartesian axes

     site n.     atom                  positions (alat units)
         1           Pd  tau(   1) = (   0.0000000   0.0000000   0.0000000  )
         2           Pd  tau(   2) = (   0.2368421   0.2368421   0.0000000  )
         3           Pd  tau(   3) = (   0.2368421   0.0000000   0.2368421  )
         4           Pd  tau(   4) = (   0.0000000   0.2368421   0.2368421  )
         5           Pd  tau(   5) = (   0.0000000   0.0000000   0.4736842  )
         6           Pd  tau(   6) = (   0.2368421   0.2368421   0.4736842  )
         7           Pd  tau(   7) = (   0.2368421   0.0000000   0.7105263  )
         8           Pd  tau(   8) = (   0.0000000   0.2368421   0.7105263  )
         9           Pd  tau(   9) = (   0.0000000   0.4736842   0.0000000  )
        10           Pd  tau(  10) = (   0.2368421   0.7105263   0.0000000  )
        11           Pd  tau(  11) = (   0.2368421   0.4736842   0.2368421  )
        12           Pd  tau(  12) = (   0.0000000   0.7105263   0.2368421  )
        13           Pd  tau(  13) = (   0.0000000   0.4736842   0.4736842  )
        14           Pd  tau(  14) = (   0.2368421   0.7105263   0.4736842  )
        15           Pd  tau(  15) = (   0.2368421   0.4736842   0.7105263  )
        16           Pd  tau(  16) = (   0.0000000   0.7105263   0.7105263  )
        17           Pd  tau(  17) = (   0.4736842   0.0000000   0.0000000  )
        18           Pd  tau(  18) = (   0.7105263   0.2368421   0.0000000  )
        19           Pd  tau(  19) = (   0.7105263   0.0000000   0.2368421  )
        20           Pd  tau(  20) = (   0.4736842   0.2368421   0.2368421  )
        21           Pd  tau(  21) = (   0.4736842   0.0000000   0.4736842  )
        22           Pd  tau(  22) = (   0.7105263   0.2368421   0.4736842  )
        23           Pd  tau(  23) = (   0.7105263   0.0000000   0.7105263  )
        24           Pd  tau(  24) = (   0.4736842   0.2368421   0.7105263  )
        25           Pd  tau(  25) = (   0.4736842   0.4736842   0.0000000  )
        26           Pd  tau(  26) = (   0.7105263   0.7105263   0.0000000  )
        27           Pd  tau(  27) = (   0.7105263   0.4736842   0.2368421  )
        28           Pd  tau(  28) = (   0.4736842   0.7105263   0.2368421  )
        29           Pd  tau(  29) = (   0.4736842   0.4736842   0.4736842  )
        30           Pd  tau(  30) = (   0.7105263   0.7105263   0.4736842  )
        31           Pd  tau(  31) = (   0.7105263   0.4736842   0.7105263  )
        32           Pd  tau(  32) = (   0.4736842   0.7105263   0.7105263  )

     number of k points=    35  Marzari-Vanderbilt smearing, width (Ry)=  0.0400
                       cart. coord. in units 2pi/alat
        k(    1) = (   0.0586420   0.0586420   0.0586420), wk =   0.0219479
        k(    2) = (   0.0586420   0.0586420   0.1759259), wk =   0.0658436
        k(    3) = (   0.0586420   0.0586420   0.2932099), wk =   0.0658436
        k(    4) = (   0.0586420   0.0586420   0.4104938), wk =   0.0658436
        k(    5) = (   0.0586420   0.0586420  -0.5277778), wk =   0.0329218
        k(    6) = (   0.0586420   0.1759259   0.1759259), wk =   0.0658436
        k(    7) = (   0.0586420   0.1759259   0.2932099), wk =   0.1316872
        k(    8) = (   0.0586420   0.1759259   0.4104938), wk =   0.1316872
        k(    9) = (   0.0586420   0.1759259  -0.5277778), wk =   0.0658436
        k(   10) = (   0.0586420   0.2932099   0.2932099), wk =   0.0658436
        k(   11) = (   0.0586420   0.2932099   0.4104938), wk =   0.1316872
        k(   12) = (   0.0586420   0.2932099  -0.5277778), wk =   0.0658436
        k(   13) = (   0.0586420   0.4104938   0.4104938), wk =   0.0658436
        k(   14) = (   0.0586420   0.4104938  -0.5277778), wk =   0.0658436
        k(   15) = (   0.0586420  -0.5277778  -0.5277778), wk =   0.0164609
        k(   16) = (   0.1759259   0.1759259   0.1759259), wk =   0.0219479
        k(   17) = (   0.1759259   0.1759259   0.2932099), wk =   0.0658436
        k(   18) = (   0.1759259   0.1759259   0.4104938), wk =   0.0658436
        k(   19) = (   0.1759259   0.1759259  -0.5277778), wk =   0.0329218
        k(   20) = (   0.1759259   0.2932099   0.2932099), wk =   0.0658436
        k(   21) = (   0.1759259   0.2932099   0.4104938), wk =   0.1316872
        k(   22) = (   0.1759259   0.2932099  -0.5277778), wk =   0.0658436
        k(   23) = (   0.1759259   0.4104938   0.4104938), wk =   0.0658436
        k(   24) = (   0.1759259   0.4104938  -0.5277778), wk =   0.0658436
        k(   25) = (   0.1759259  -0.5277778  -0.5277778), wk =   0.0164609
        k(   26) = (   0.2932099   0.2932099   0.2932099), wk =   0.0219479
        k(   27) = (   0.2932099   0.2932099   0.4104938), wk =   0.0658436
        k(   28) = (   0.2932099   0.2932099  -0.5277778), wk =   0.0329218
        k(   29) = (   0.2932099   0.4104938   0.4104938), wk =   0.0658436
        k(   30) = (   0.2932099   0.4104938  -0.5277778), wk =   0.0658436
        k(   31) = (   0.2932099  -0.5277778  -0.5277778), wk =   0.0164609
        k(   32) = (   0.4104938   0.4104938   0.4104938), wk =   0.0219479
        k(   33) = (   0.4104938   0.4104938  -0.5277778), wk =   0.0329218
        k(   34) = (   0.4104938  -0.5277778  -0.5277778), wk =   0.0164609
        k(   35) = (  -0.5277778  -0.5277778  -0.5277778), wk =   0.0027435

     Check: negative core charge=   -0.000002

     Initial potential from superposition of free atoms

     starting charge  575.98776, renormalised to  576.00000
     Starting wfcs are  320 randomized atomic wfcs +   26 random wfcs
     Checking if some PAW data can be deallocated...

     Self-consistent Calculation

     iteration #  1     ecut=    71.00 Ry     beta= 0.10
     Davidson diagonalization with overlap
     ethr =  1.00E-02,  avg # of iterations =  3.3

     Threshold (ethr) on eigenvalues was too large:
     Diagonalizing with lowered threshold

     Davidson diagonalization with overlap
     ethr =  1.83E-05,  avg # of iterations =  5.9

     total energy              =  -16383.18023289 Ry
     estimated scf accuracy    <       0.09185306 Ry

[...]

     total energy              =  -16383.16116012 Ry
     estimated scf accuracy    <       0.00000335 Ry

     iteration # 13     ecut=    71.00 Ry     beta= 0.10
     Davidson diagonalization with overlap
     ethr =  4.95E-10,  avg # of iterations =  2.0

     End of self-consistent calculation

          k = 0.0586 0.0586 0.0586 ( 25626 PWs)   bands (ev):

   -58.2544 -58.1646 -58.1646 -58.1646 -58.1473 -58.1473 -58.1473 -58.1151
   -58.1151 -58.1151 -58.1067 -58.1056 -58.1056 -58.1056 -58.1056 -58.1056
   -58.1056 -58.1052 -58.1052 -58.1052 -58.0977 -58.0977 -58.0977 -58.0568
   -58.0568 -58.0568 -58.0565 -58.0565 -58.0565 -58.0565 -58.0565 -58.0565
   -24.4069 -24.4069 -24.4069 -24.4032 -24.3512 -24.3512 -24.3512 -24.1669
   -24.1669 -24.1669 -24.1564 -24.1564 -24.1564 -24.1564 -24.1564 -24.1564
   -24.1378 -24.1378 -24.1378 -24.1186 -24.1186 -24.1186 -24.1186 -24.1186
   -24.1186 -24.0727 -24.0727 -24.0727 -24.0727 -24.0727 -24.0727 -23.9806
   -23.9806 -23.9806 -23.9150 -23.9150 -23.9150 -23.9066 -23.9066 -23.9066
   -23.8772 -23.8772 -23.8772 -23.8772 -23.8772 -23.8772 -23.8406 -23.8406
   -23.8406 -23.8351 -23.8351 -23.8351 -23.8351 -23.8351 -23.8351 -23.8310
   -23.8310 -23.8310 -23.8269 -23.8269 -23.8269 -23.6775 -23.6775 -23.6775
   -23.6770 -23.6770 -23.6770 -23.6480 -23.6480 -23.6480 -23.6479 -23.6479
   -23.6479 -23.6353 -23.6353 -23.6353 -23.6239 -23.6239 -23.6239 -23.6230
   -23.6230 -23.6230 -23.6230 -23.6230 -23.6230 -23.6211 -23.6211 -23.6211
   -23.6185 -23.6185 -23.6060 -23.6060 -23.6060 -23.5017 -23.4956 -23.4956
    17.7744  19.1125  19.1125  19.1125  19.4281  19.4446  19.4446  19.4446
    19.5055  19.5055  19.5055  20.0917  20.0917  20.0917  20.2021  20.2021
    20.2021  20.5354  20.5354  20.5354  20.5354  20.5354  20.5354  20.7727
    20.7727  20.7727  21.0440  21.0440  21.0440  21.2663  21.2663  21.2663
    21.2693  21.2693  21.2693  21.3247  21.3247  21.3247  21.3247  21.3247
    21.3247  21.6850  21.6850  21.6850  21.6850  21.6850  21.6850  21.8375
    21.8375  21.8375  21.8565  21.8565  21.8565  21.8565  21.8565  21.8565
    21.9313  21.9313  21.9313  22.2047  22.2047  22.2047  22.2047  22.2047
    22.2047  22.3282  22.3282  22.3282  22.3282  22.3282  22.3282  22.3512
    22.3512  22.3512  22.4664  22.4664  22.4664  22.5684  22.5684  22.5684
    22.6017  22.6017  22.6170  22.6170  22.6170  22.6717  22.7013  22.7013
    23.8773  23.8773  23.8773  23.9241  23.9241  23.9241  24.0331  24.0331
    24.0331  24.0331  24.0331  24.0331  24.0403  24.0403  24.0403  24.1658
    24.1658  24.1658  24.3068  24.3068  24.3068  24.4835  24.4835  24.4835
    24.6704  24.6704  24.6704  24.7455  24.7455  24.7455  24.8170  24.8170
    24.8170  24.8170  24.8170  24.8170  24.8880  24.8880  24.8880  24.9695
    24.9695  24.9695  24.9695  24.9695  24.9695  25.0029  25.0029  25.1353
    25.1353  25.1353  25.7591  25.7591  25.7591  25.9139  25.9139  25.9139
    26.3662  26.3662  26.3662  26.6974  26.6974  26.6974  26.7332  26.7332
    26.7655  26.7655  26.7655  27.1056  27.1056  27.1056  27.1718  27.2084
    27.2085  27.2085  27.2085  27.2085  27.2085  27.2129  27.2129  27.2129
    27.7053  27.7053  27.7053  29.1174  29.1174  29.1174  29.7535  29.7535
    29.7535  29.7535  29.7535  29.7535  30.2873  30.2873  30.2873  30.3961
    30.3961  30.3961  36.2103  36.2103  36.2103  36.3660  36.6621  36.6621
    36.6621  36.6621  36.6621  36.6621  37.4511  37.4511  37.4511  37.4511
    37.4511  37.4511  39.4385  39.4385  39.4385  39.4385  39.4385  39.4385
    40.2279  40.2279  40.2279  40.4835  40.4835  40.4835  40.4835  40.4835
    40.4835  40.5571

[...]

          k = 0.4105-0.5278-0.5278 ( 25632 PWs)   bands (ev):

[...]

          k =-0.5278-0.5278-0.5278 ( 25576 PWs)   bands (ev):

   -58.1809 -58.1809 -58.1809 -58.1809 -58.1809 -58.1809 -58.1809 -58.1809
   -58.0811 -58.0811 -58.0811 -58.0811 -58.0811 -58.0811 -58.0811 -58.0811
   -58.0811 -58.0811 -58.0811 -58.0811 -58.0811 -58.0811 -58.0811 -58.0811
   -58.0811 -58.0811 -58.0811 -58.0811 -58.0811 -58.0811 -58.0811 -58.0811
   -24.2536 -24.2536 -24.2536 -24.2536 -24.2536 -24.2536 -24.2536 -24.2536
   -24.2536 -24.2536 -24.2536 -24.2536 -24.2536 -24.2536 -24.2536 -24.2536
   -24.2536 -24.2536 -24.2536 -24.2536 -24.2536 -24.2536 -24.2536 -24.2536
   -23.9601 -23.9601 -23.9601 -23.9601 -23.9601 -23.9601 -23.9601 -23.9601
   -23.8604 -23.8604 -23.8604 -23.8604 -23.8604 -23.8604 -23.8604 -23.8604
   -23.8604 -23.8604 -23.8604 -23.8604 -23.8604 -23.8604 -23.8604 -23.8604
   -23.8604 -23.8604 -23.8604 -23.8604 -23.8604 -23.8604 -23.8604 -23.8604
   -23.7249 -23.7249 -23.7249 -23.7248 -23.7248 -23.7248 -23.7248 -23.7248
   -23.7248 -23.7248 -23.7248 -23.7248 -23.7248 -23.7248 -23.7248 -23.7248
   -23.7248 -23.7248 -23.7248 -23.7248 -23.7248 -23.7248 -23.7248 -23.7248
   -23.5572 -23.5572 -23.5572 -23.5572 -23.5572 -23.5572 -23.5572 -23.5572
   -23.5572 -23.5572 -23.5572 -23.5572 -23.5572 -23.5572 -23.5572 -23.5572
    19.5976  19.5976  19.5976  19.5976  19.5976  19.5977  19.5977  19.5977
    20.2114  20.2114  20.2114  20.2114  20.2114  20.2114  20.2114  20.2114
    20.2114  20.2114  20.2114  20.2114  20.2114  20.2114  20.2114  20.2114
    20.2114  20.2114  20.2114  20.2114  20.2114  20.2114  20.2114  20.2114
    21.2511  21.2511  21.2511  21.2511  21.2511  21.2511  21.2511  21.2511
    21.2511  21.2511  21.2511  21.2511  21.2511  21.2511  21.2511  21.2511
    21.2511  21.2511  21.2511  21.2511  21.2511  21.2511  21.2511  21.2511
    22.7035  22.7035  22.7035  22.7035  22.7035  22.7035  22.7035  22.7035
    23.0883  23.0883  23.0883  23.0883  23.0883  23.0883  23.0883  23.0883
    23.0883  23.0883  23.0883  23.0883  23.0883  23.0883  23.0883  23.0883
    23.3995  23.3995  23.3995  23.3995  23.3995  23.3995  23.3995  23.3995
    23.3995  23.3995  23.3995  23.3995  23.3995  23.3995  23.3995  23.3995
    23.3995  23.3995  23.3995  23.3995  23.3995  23.3995  23.3995  23.3995
    24.4161  24.4161  24.4161  24.4161  24.4161  24.4161  24.4161  24.4161
    24.4161  24.4161  24.4161  24.4161  24.4161  24.4161  24.4161  24.4161
    24.4161  24.4161  24.4161  24.4161  24.4161  24.4161  24.4161  24.4161
    25.1980  25.1980  25.1980  25.1980  25.1980  25.1980  25.1980  25.1980
    25.1980  25.1980  25.1980  25.1980  25.1980  25.1980  25.1980  25.1980
    26.8979  26.8979  26.8979  26.8979  26.8979  26.8979  26.8979  26.8979
    26.8979  26.8979  26.8979  26.8979  26.8979  26.8979  26.8979  26.8979
    26.8979  26.8979  26.8979  26.8979  26.8979  26.8979  26.8979  26.8979
    31.2272  31.2272  31.2272  31.2272  31.2272  31.2272  31.2272  31.2272
    31.2272  31.2272  31.2272  31.2272  31.2272  31.2272  31.2272  31.2272
    31.2272  31.2272  31.2272  31.2272  31.2272  31.2272  31.2272  31.2272
    37.6975  37.6975  37.6975  37.6975  37.6975  37.6975  37.6975  37.6975
    37.6975  37.6975  37.6975  37.6975  37.6975  37.6975  37.6975  37.6975
    37.6975  37.6975  37.6975  37.6975  37.6975  37.6975  37.6975  37.6975
    43.1004  43.1005

     the Fermi energy is    26.8432 ev

!    total energy              =  -16383.16116617 Ry

     total all-electron energy =   -322944.014873 Ry
     estimated scf accuracy    <       0.00000001 Ry
     smearing contrib. (-TS)   =      -0.01290518 Ry
     internal energy E=F+TS    =  -16383.14826099 Ry

     The total energy is F=E-TS. E is the sum of the following terms:
     one-electron contribution =   -1625.52908063 Ry
     hartree contribution      =    1373.58806730 Ry
     xc contribution           =    -994.44774303 Ry
     ewald contribution        =   -6968.99035265 Ry
     one-center paw contrib.   =   -8167.76915198 Ry

     convergence has been achieved in  13 iterations

     Forces acting on atoms (cartesian axes, Ry/au):

     atom    1 type  1   force =     0.00000000    0.00000000    0.00000000
     atom    2 type  1   force =    -0.00000117   -0.00000117   -0.00000000
     atom    3 type  1   force =    -0.00000117   -0.00000000   -0.00000117
     atom    4 type  1   force =     0.00000000   -0.00000117   -0.00000117
     atom    5 type  1   force =     0.00000000    0.00000000    0.00000000
     atom    6 type  1   force =     0.00000745    0.00000745    0.00000000
     atom    7 type  1   force =    -0.00000117    0.00000000    0.00000117
     atom    8 type  1   force =     0.00000000   -0.00000117    0.00000117
     atom    9 type  1   force =     0.00000000    0.00000000    0.00000000
     atom   10 type  1   force =    -0.00000117    0.00000117    0.00000000
     atom   11 type  1   force =     0.00000745   -0.00000000    0.00000745
     atom   12 type  1   force =     0.00000000    0.00000117   -0.00000117
     atom   13 type  1   force =     0.00000000    0.00000000    0.00000000
     atom   14 type  1   force =     0.00000745   -0.00000745    0.00000000
     atom   15 type  1   force =     0.00000745   -0.00000000   -0.00000745
     atom   16 type  1   force =     0.00000000    0.00000117    0.00000117
     atom   17 type  1   force =     0.00000000    0.00000000    0.00000000
     atom   18 type  1   force =     0.00000117   -0.00000117   -0.00000000
     atom   19 type  1   force =     0.00000117   -0.00000000   -0.00000117
     atom   20 type  1   force =     0.00000000    0.00000745    0.00000745
     atom   21 type  1   force =     0.00000000    0.00000000    0.00000000
     atom   22 type  1   force =    -0.00000745    0.00000745   -0.00000000
     atom   23 type  1   force =     0.00000117    0.00000000    0.00000117
     atom   24 type  1   force =    -0.00000000    0.00000745   -0.00000745
     atom   25 type  1   force =     0.00000000    0.00000000    0.00000000
     atom   26 type  1   force =     0.00000117    0.00000117   -0.00000000
     atom   27 type  1   force =    -0.00000745    0.00000000    0.00000745
     atom   28 type  1   force =    -0.00000000   -0.00000745    0.00000745
     atom   29 type  1   force =     0.00000000    0.00000000    0.00000000
     atom   30 type  1   force =    -0.00000745   -0.00000745   -0.00000000
     atom   31 type  1   force =    -0.00000745    0.00000000   -0.00000745
     atom   32 type  1   force =    -0.00000000   -0.00000745   -0.00000745

     Total force =     0.000037     Total SCF correction =     0.000131
     SCF correction compared to forces is large: reduce conv_thr to get better values

     Computing stress (Cartesian axis) and pressure

          total   stress  (Ry/bohr**3)                   (kbar)     P=      896.26
   0.00609263   0.00000000   0.00000000          896.26        0.00        0.00
   0.00000000   0.00609263   0.00000000            0.00      896.26        0.00
   0.00000000   0.00000000   0.00609263            0.00        0.00      896.26

     Writing output data file /scratch/elAyGeciOyHVjotX.save/

     General routines

     Parallel routines

   This run was terminated on:  19:34:19  26Nov2021

   JOB DONE.