     Program PWSCF v.6.7MaX starts on 26Nov2021 at 21:13:41

     R & G space division:  proc/nbgrp/npool/nimage =      72
     Reading input from fcc_11.in
Warning: card &CELL ignored
Warning: card CELL_DYNAMICS = 'BFGS', ignored
Warning: card CELL_FACTOR = 2.0, ignored
Warning: card PRESS = 0.0, ignored
Warning: card / ignored

     Current dimensions of program PWSCF are:
     Max number of different atomic species (ntypx) = 10
     Max number of k-points (npk) =  40000
     Max angular momentum in pseudopotentials (lmaxx) =  3
     file Pd.pbe-spn-kjpaw_psl.1.0.0.UPF: wavefunction(s)  4S 5S 4D renormalized

     Subspace diagonalization in iterative solution of the eigenvalue problem:
     one sub-group per band group will be used

     Found symmetry operation: I + (  0.2500  0.2500  0.0000)
     This is a supercell, fractional translations are disabled
     Message from routine setup:
     using ibrav=0 with symmetry is DISCOURAGED, use correct ibrav instead

     bravais-lattice index     =            0
     lattice parameter (alat)  =      14.4000  a.u.
     unit-cell volume          =    8332.9357 (a.u.)^3
     number of atoms/cell      =           32
     number of atomic types    =            1
     number of electrons       =       576.00
     number of Kohn-Sham states=          346
     kinetic-energy cutoff     =      71.0000  Ry
     charge density cutoff     =     430.0000  Ry
     scf convergence threshold =      1.0E-06
     mixing beta               =       0.1000
     number of iterations used =           10  TF        mixing
     Exchange-correlation= SLA  PW   PBX  PBC
                           (   1   4   3   4   0   0   0)

     celldm(1)=  14.400000  celldm(2)=   0.000000  celldm(3)=   0.000000
     celldm(4)=   0.000000  celldm(5)=   0.000000  celldm(6)=   0.000000

     crystal axes: (cart. coord. in units of alat)
               a(1) = (   1.407895   0.000000   0.000000 )
               a(2) = (   0.000000   1.407895   0.000000 )
               a(3) = (   0.000000   0.000000   1.407895 )

     reciprocal axes: (cart. coord. in units 2 pi/alat)
               b(1) = (  0.710280  0.000000  0.000000 )
               b(2) = (  0.000000  0.710280  0.000000 )
               b(3) = (  0.000000  0.000000  0.710280 )

     PseudoPot. # 1 for Pd read from file:
     /rds/homes/b/bxp912/pp/Pd.pbe-spn-kjpaw_psl.1.0.0.UPF
     MD5 check sum: 790f2ebce206edfd9790dcb9844eca51
     Pseudo is Projector augmented-wave + core cor, Zval = 18.0
     Generated using &quot;atomic&quot; code by A. Dal Corso  v.6.3
     Shape of augmentation charge: PSQ
     Using radial grid of 1235 points,  6 beta functions with:
                l(1) =   0
                l(2) =   0
                l(3) =   1
                l(4) =   1
                l(5) =   2
                l(6) =   2
     Q(r) pseudized with 0 coefficients

     atomic species   valence    mass     pseudopotential
        Pd            18.00   106.42000     Pd( 1.00)

     48 Sym. Ops., with inversion, found

   Cartesian axes

     site n.     atom                  positions (alat units)
         1           Pd  tau(   1) = (   0.0000000   0.0000000   0.0000000  )
         2           Pd  tau(   2) = (   0.3519737   0.3519737   0.0000000  )
         3           Pd  tau(   3) = (   0.3519737   0.0000000   0.3519737  )
         4           Pd  tau(   4) = (   0.0000000   0.3519737   0.3519737  )
         5           Pd  tau(   5) = (   0.0000000   0.0000000   0.7039474  )
         6           Pd  tau(   6) = (   0.3519737   0.3519737   0.7039474  )
         7           Pd  tau(   7) = (   0.3519737   0.0000000   1.0559211  )
         8           Pd  tau(   8) = (   0.0000000   0.3519737   1.0559211  )
         9           Pd  tau(   9) = (   0.0000000   0.7039474   0.0000000  )
        10           Pd  tau(  10) = (   0.3519737   1.0559211   0.0000000  )
        11           Pd  tau(  11) = (   0.3519737   0.7039474   0.3519737  )
        12           Pd  tau(  12) = (   0.0000000   1.0559211   0.3519737  )
        13           Pd  tau(  13) = (   0.0000000   0.7039474   0.7039474  )
        14           Pd  tau(  14) = (   0.3519737   1.0559211   0.7039474  )
        15           Pd  tau(  15) = (   0.3519737   0.7039474   1.0559211  )
        16           Pd  tau(  16) = (   0.0000000   1.0559211   1.0559211  )
        17           Pd  tau(  17) = (   0.7039474   0.0000000   0.0000000  )
        18           Pd  tau(  18) = (   1.0559211   0.3519737   0.0000000  )
        19           Pd  tau(  19) = (   1.0559211   0.0000000   0.3519737  )
        20           Pd  tau(  20) = (   0.7039474   0.3519737   0.3519737  )
        21           Pd  tau(  21) = (   0.7039474   0.0000000   0.7039474  )
        22           Pd  tau(  22) = (   1.0559211   0.3519737   0.7039474  )
        23           Pd  tau(  23) = (   1.0559211   0.0000000   1.0559211  )
        24           Pd  tau(  24) = (   0.7039474   0.3519737   1.0559211  )
        25           Pd  tau(  25) = (   0.7039474   0.7039474   0.0000000  )
        26           Pd  tau(  26) = (   1.0559211   1.0559211   0.0000000  )
        27           Pd  tau(  27) = (   1.0559211   0.7039474   0.3519737  )
        28           Pd  tau(  28) = (   0.7039474   1.0559211   0.3519737  )
        29           Pd  tau(  29) = (   0.7039474   0.7039474   0.7039474  )
        30           Pd  tau(  30) = (   1.0559211   1.0559211   0.7039474  )
        31           Pd  tau(  31) = (   1.0559211   0.7039474   1.0559211  )
        32           Pd  tau(  32) = (   0.7039474   1.0559211   1.0559211  )

     number of k points=    35  Marzari-Vanderbilt smearing, width (Ry)=  0.0400
                       cart. coord. in units 2pi/alat
        k(    1) = (   0.0394600   0.0394600   0.0394600), wk =   0.0219479
        k(    2) = (   0.0394600   0.0394600   0.1183801), wk =   0.0658436
        k(    3) = (   0.0394600   0.0394600   0.1973001), wk =   0.0658436
        k(    4) = (   0.0394600   0.0394600   0.2762201), wk =   0.0658436
        k(    5) = (   0.0394600   0.0394600  -0.3551402), wk =   0.0329218
        k(    6) = (   0.0394600   0.1183801   0.1183801), wk =   0.0658436
        k(    7) = (   0.0394600   0.1183801   0.1973001), wk =   0.1316872
        k(    8) = (   0.0394600   0.1183801   0.2762201), wk =   0.1316872
        k(    9) = (   0.0394600   0.1183801  -0.3551402), wk =   0.0658436
        k(   10) = (   0.0394600   0.1973001   0.1973001), wk =   0.0658436
        k(   11) = (   0.0394600   0.1973001   0.2762201), wk =   0.1316872
        k(   12) = (   0.0394600   0.1973001  -0.3551402), wk =   0.0658436
        k(   13) = (   0.0394600   0.2762201   0.2762201), wk =   0.0658436
        k(   14) = (   0.0394600   0.2762201  -0.3551402), wk =   0.0658436
        k(   15) = (   0.0394600  -0.3551402  -0.3551402), wk =   0.0164609
        k(   16) = (   0.1183801   0.1183801   0.1183801), wk =   0.0219479
        k(   17) = (   0.1183801   0.1183801   0.1973001), wk =   0.0658436
        k(   18) = (   0.1183801   0.1183801   0.2762201), wk =   0.0658436
        k(   19) = (   0.1183801   0.1183801  -0.3551402), wk =   0.0329218
        k(   20) = (   0.1183801   0.1973001   0.1973001), wk =   0.0658436
        k(   21) = (   0.1183801   0.1973001   0.2762201), wk =   0.1316872
        k(   22) = (   0.1183801   0.1973001  -0.3551402), wk =   0.0658436
        k(   23) = (   0.1183801   0.2762201   0.2762201), wk =   0.0658436
        k(   24) = (   0.1183801   0.2762201  -0.3551402), wk =   0.0658436
        k(   25) = (   0.1183801  -0.3551402  -0.3551402), wk =   0.0164609
        k(   26) = (   0.1973001   0.1973001   0.1973001), wk =   0.0219479
        k(   27) = (   0.1973001   0.1973001   0.2762201), wk =   0.0658436
        k(   28) = (   0.1973001   0.1973001  -0.3551402), wk =   0.0329218
        k(   29) = (   0.1973001   0.2762201   0.2762201), wk =   0.0658436
        k(   30) = (   0.1973001   0.2762201  -0.3551402), wk =   0.0658436
        k(   31) = (   0.1973001  -0.3551402  -0.3551402), wk =   0.0164609
        k(   32) = (   0.2762201   0.2762201   0.2762201), wk =   0.0219479
        k(   33) = (   0.2762201   0.2762201  -0.3551402), wk =   0.0329218
        k(   34) = (   0.2762201  -0.3551402  -0.3551402), wk =   0.0164609
        k(   35) = (  -0.3551402  -0.3551402  -0.3551402), wk =   0.0027435

     Initial potential from superposition of free atoms

     starting charge  575.98776, renormalised to  576.00000
     Starting wfcs are  320 randomized atomic wfcs +   26 random wfcs
     Checking if some PAW data can be deallocated...

     Self-consistent Calculation

     iteration #  1     ecut=    71.00 Ry     beta= 0.10
     Davidson diagonalization with overlap
     ethr =  1.00E-02,  avg # of iterations =  4.1

     total energy              =  -16381.26884256 Ry
     estimated scf accuracy    <      18.01241023 Ry

[...]

     total energy              =  -16378.98913077 Ry
     estimated scf accuracy    <       0.00000107 Ry

     iteration # 26     ecut=    71.00 Ry     beta= 0.10
     Davidson diagonalization with overlap
     ethr =  1.86E-10,  avg # of iterations =  2.5

     End of self-consistent calculation

          k = 0.0395 0.0395 0.0395 ( 84226 PWs)   bands (ev):

   -78.3141 -78.3139 -78.3139 -78.3139 -78.3138 -78.3138 -78.3138 -78.3138
   -78.3137 -78.3137 -78.3137 -78.3137 -78.3137 -78.3137 -78.3137 -78.3137
   -78.3137 -78.3136 -78.3136 -78.3136 -78.3136 -78.3136 -78.3136 -78.3136
   -78.3136 -78.3135 -78.3135 -78.3135 -78.3135 -78.3135 -78.3135 -78.3134
   -44.0842 -44.0842 -44.0842 -44.0842 -44.0839 -44.0839 -44.0839 -44.0825
   -44.0825 -44.0825 -44.0824 -44.0824 -44.0824 -44.0824 -44.0824 -44.0824
   -44.0822 -44.0822 -44.0822 -44.0822 -44.0822 -44.0822 -44.0822 -44.0821
   -44.0821 -44.0819 -44.0819 -44.0819 -44.0819 -44.0819 -44.0819 -44.0809
   -44.0809 -44.0809 -44.0807 -44.0807 -44.0807 -44.0804 -44.0804 -44.0804
   -44.0804 -44.0804 -44.0804 -44.0803 -44.0803 -44.0803 -44.0802 -44.0802
   -44.0802 -44.0801 -44.0801 -44.0801 -44.0801 -44.0801 -44.0801 -44.0800
   -44.0800 -44.0800 -44.0800 -44.0800 -44.0800 -44.0789 -44.0789 -44.0789
   -44.0789 -44.0789 -44.0789 -44.0786 -44.0786 -44.0786 -44.0786 -44.0786
   -44.0785 -44.0785 -44.0785 -44.0785 -44.0785 -44.0784 -44.0784 -44.0784
   -44.0784 -44.0784 -44.0784 -44.0784 -44.0784 -44.0784 -44.0784 -44.0784
   -44.0784 -44.0784 -44.0783 -44.0783 -44.0783 -44.0775 -44.0775 -44.0774
     1.9073   2.8762   2.8807   2.8807   2.8807   2.9342   2.9342   2.9342
     2.9354   2.9354   2.9354   2.9677   2.9677   2.9677   3.0274   3.0274
     3.0274   3.1636   3.1636   3.1636   3.1941   3.1941   3.1941   3.1941
     3.1941   3.1941   3.2020   3.2020   3.2020   3.2259   3.2259   3.2259
     3.2259   3.2259   3.2259   3.2358   3.2358   3.2358   3.2358   3.2358
     3.2358   3.3218   3.3218   3.3218   3.3218   3.3218   3.3218   3.3348
     3.3348   3.3348   3.3403   3.3403   3.3403   3.3403   3.3403   3.3403
     3.3590   3.3590   3.3590   3.4047   3.4047   3.4047   3.4047   3.4047
     3.4047   3.4062   3.4065   3.4065   3.4065   3.4097   3.4097   3.4099
     3.4099   3.4124   3.4124   3.4124   3.4926   3.4926   3.4926   3.4926
     3.4926   3.4926   3.5042   3.5042   3.5042   3.5122   3.5122   3.5122
     3.6058   3.6058   3.6058   3.6239   3.6239   3.6239   3.6289   3.6289
     3.6289   3.6291   3.6291   3.6291   3.6291   3.6291   3.6291   3.6480
     3.6480   3.6480   3.6853   3.6853   3.6853   3.6984   3.6984   3.6984
     3.7032   3.7032   3.7032   3.7117   3.7117   3.7334   3.7334   3.7334
     3.7334   3.7334   3.7334   3.7343   3.7343   3.7343   3.7343   3.7343
     3.7343   3.7541   3.7541   3.7541   3.7587   3.7587   3.7587   3.8160
     3.8160   3.8160   3.8364   3.8364   3.8365   3.9352   3.9352   3.9352
     3.9353   3.9353   3.9353   3.9378   3.9378   3.9378   3.9448   3.9448
     3.9484   3.9484   3.9484   4.0004   4.0004   4.0004   4.0048   4.0048
     4.0048   4.0048   4.0048   4.0048   4.0053   4.0053   4.0053   4.9917
     4.9917   4.9917   5.2803   5.2803   5.2803   5.2803   5.2803   5.2803
     5.5753   5.5753   5.5753   6.1585   6.4708   6.4708   6.4708   6.8576
     6.8576   6.8576   7.1673   7.4344   7.4344   7.4344   8.3704   8.3704
     8.3704   8.3704   8.3704   8.3704   8.4154   8.4154   8.4154   9.3271
     9.3271   9.3271   9.3271   9.3271   9.3271   9.6936   9.6936   9.6936
     9.6936   9.6936   9.6936  10.3034  10.3034  10.3034  10.5928  10.5928
    10.5929  10.5931

[...]

          k = 0.2762-0.3551-0.3551 ( 84284 PWs)   bands (ev):

[...]

          k =-0.3551-0.3551-0.3551 ( 84368 PWs)   bands (ev):

   -78.3140 -78.3140 -78.3140 -78.3140 -78.3138 -78.3138 -78.3138 -78.3138
   -78.3138 -78.3137 -78.3137 -78.3137 -78.3137 -78.3137 -78.3137 -78.3137
   -78.3137 -78.3136 -78.3136 -78.3136 -78.3136 -78.3136 -78.3136 -78.3136
   -78.3136 -78.3136 -78.3136 -78.3136 -78.3135 -78.3135 -78.3135 -78.3134
   -44.0833 -44.0833 -44.0833 -44.0832 -44.0832 -44.0832 -44.0832 -44.0832
   -44.0832 -44.0832 -44.0832 -44.0832 -44.0832 -44.0832 -44.0832 -44.0832
   -44.0832 -44.0832 -44.0832 -44.0832 -44.0832 -44.0831 -44.0831 -44.0831
   -44.0807 -44.0807 -44.0807 -44.0807 -44.0806 -44.0806 -44.0806 -44.0806
   -44.0804 -44.0804 -44.0804 -44.0804 -44.0803 -44.0803 -44.0803 -44.0803
   -44.0803 -44.0803 -44.0803 -44.0803 -44.0803 -44.0803 -44.0803 -44.0803
   -44.0803 -44.0803 -44.0803 -44.0803 -44.0803 -44.0803 -44.0803 -44.0803
   -44.0794 -44.0794 -44.0794 -44.0793 -44.0793 -44.0793 -44.0793 -44.0793
   -44.0793 -44.0793 -44.0793 -44.0793 -44.0793 -44.0793 -44.0793 -44.0793
   -44.0793 -44.0793 -44.0792 -44.0792 -44.0792 -44.0792 -44.0792 -44.0792
   -44.0780 -44.0780 -44.0780 -44.0780 -44.0780 -44.0780 -44.0780 -44.0780
   -44.0779 -44.0779 -44.0779 -44.0779 -44.0779 -44.0779 -44.0779 -44.0779
     2.7357   2.7357   2.7357   2.7357   2.7357   2.7357   2.7357   2.7357
     3.0755   3.0755   3.0755   3.0755   3.0755   3.0755   3.0755   3.0755
     3.0755   3.0755   3.0755   3.0755   3.0755   3.0755   3.0755   3.0755
     3.0755   3.0755   3.0755   3.0755   3.0755   3.0755   3.0755   3.0755
     3.2893   3.2893   3.2893   3.2893   3.2893   3.2893   3.2893   3.2893
     3.2893   3.2893   3.2893   3.2893   3.2893   3.2893   3.2893   3.2894
     3.2894   3.2894   3.2894   3.2894   3.2894   3.2894   3.2894   3.2894
     3.4720   3.4720   3.4720   3.4720   3.4720   3.4720   3.4720   3.4720
     3.4720   3.4720   3.4720   3.4720   3.4720   3.4720   3.4720   3.4720
     3.5544   3.5544   3.5544   3.5544   3.5544   3.5544   3.5544   3.5544
     3.5949   3.5949   3.5949   3.5949   3.5949   3.5949   3.5949   3.5949
     3.5949   3.5949   3.5949   3.5949   3.5949   3.5950   3.5950   3.5950
     3.5950   3.5950   3.5950   3.5950   3.5950   3.5950   3.5950   3.5950
     3.6686   3.6686   3.6686   3.6686   3.6686   3.6686   3.6686   3.6686
     3.6686   3.6686   3.6686   3.6686   3.6686   3.6686   3.6686   3.6686
     3.6686   3.6686   3.6686   3.6686   3.6686   3.6686   3.6686   3.6686
     3.7567   3.7567   3.7567   3.7567   3.7567   3.7567   3.7567   3.7567
     3.7567   3.7567   3.7567   3.7567   3.7567   3.7567   3.7567   3.7567
     3.9643   3.9643   3.9643   3.9643   3.9643   3.9643   3.9643   3.9643
     3.9643   3.9643   3.9643   3.9643   3.9643   3.9643   3.9643   3.9643
     3.9643   3.9643   3.9643   3.9643   3.9643   3.9643   3.9643   3.9643
     6.2610   6.2610   6.2610   6.2610   6.2610   6.2610   6.2610   6.2610
     6.2610   6.2610   6.2610   6.2610   6.2611   6.2611   6.2611   6.2611
     6.2611   6.2611   6.2611   6.2611   6.2611   6.2611   6.2611   6.2611
     9.0749   9.0749   9.0749   9.0749   9.0749   9.0749   9.0749   9.0749
     9.0749   9.0749   9.0749   9.0749   9.0749   9.0749   9.0749   9.0749
     9.0749   9.0749   9.0749   9.0749   9.0749   9.0749   9.0749   9.0749
    12.0502  12.0533

     the Fermi energy is     4.1494 ev

!    total energy              =  -16378.98913519 Ry

     total all-electron energy =   -322939.842842 Ry
     estimated scf accuracy    <       0.00000071 Ry
     smearing contrib. (-TS)   =       0.82349757 Ry
     internal energy E=F+TS    =  -16379.81263275 Ry

     The total energy is F=E-TS. E is the sum of the following terms:
     one-electron contribution =   -5345.95532239 Ry
     hartree contribution      =    2802.93187823 Ry
     xc contribution           =    -980.58873494 Ry
     ewald contribution        =   -4689.41406908 Ry
     one-center paw contrib.   =   -8166.78638456 Ry

     convergence has been achieved in  26 iterations

     Forces acting on atoms (cartesian axes, Ry/au):

     atom    1 type  1   force =     0.00000000    0.00000000    0.00000000
     atom    2 type  1   force =    -0.00010726   -0.00010726    0.00000000
     atom    3 type  1   force =    -0.00010726    0.00000000   -0.00010726
     atom    4 type  1   force =    -0.00000000   -0.00010726   -0.00010726
     atom    5 type  1   force =     0.00000000    0.00000000    0.00000000
     atom    6 type  1   force =    -0.00012795   -0.00012795   -0.00000000
     atom    7 type  1   force =    -0.00010726    0.00000000    0.00010726
     atom    8 type  1   force =     0.00000000   -0.00010726    0.00010726
     atom    9 type  1   force =     0.00000000    0.00000000    0.00000000
     atom   10 type  1   force =    -0.00010726    0.00010726   -0.00000000
     atom   11 type  1   force =    -0.00012795    0.00000000   -0.00012795
     atom   12 type  1   force =     0.00000000    0.00010726   -0.00010726
     atom   13 type  1   force =     0.00000000    0.00000000    0.00000000
     atom   14 type  1   force =    -0.00012795    0.00012795    0.00000000
     atom   15 type  1   force =    -0.00012795   -0.00000000    0.00012795
     atom   16 type  1   force =    -0.00000000    0.00010726    0.00010726
     atom   17 type  1   force =     0.00000000    0.00000000    0.00000000
     atom   18 type  1   force =     0.00010726   -0.00010726   -0.00000000
     atom   19 type  1   force =     0.00010726    0.00000000   -0.00010726
     atom   20 type  1   force =    -0.00000000   -0.00012795   -0.00012795
     atom   21 type  1   force =     0.00000000    0.00000000    0.00000000
     atom   22 type  1   force =     0.00012795   -0.00012795    0.00000000
     atom   23 type  1   force =     0.00010726    0.00000000    0.00010726
     atom   24 type  1   force =     0.00000000   -0.00012795    0.00012795
     atom   25 type  1   force =     0.00000000    0.00000000    0.00000000
     atom   26 type  1   force =     0.00010726    0.00010726    0.00000000
     atom   27 type  1   force =     0.00012795    0.00000000   -0.00012795
     atom   28 type  1   force =    -0.00000000    0.00012795   -0.00012795
     atom   29 type  1   force =     0.00000000    0.00000000    0.00000000
     atom   30 type  1   force =     0.00012795    0.00012795   -0.00000000
     atom   31 type  1   force =     0.00012795    0.00000000    0.00012795
     atom   32 type  1   force =     0.00000000    0.00012795    0.00012795

     Total force =     0.000818     Total SCF correction =     0.000584
     SCF correction compared to forces is large: reduce conv_thr to get better values

     Computing stress (Cartesian axis) and pressure

          total   stress  (Ry/bohr**3)                   (kbar)     P=     -121.85
  -0.00082835   0.00000000   0.00000000         -121.85        0.00        0.00
   0.00000000  -0.00082835   0.00000000            0.00     -121.85        0.00
   0.00000000   0.00000000  -0.00082835            0.00        0.00     -121.85

     Writing output data file /scratch/LiNDRsUkRIFNWwVz.save/

     General routines

     Parallel routines

   This run was terminated on:  21:49:56  26Nov2021

   JOB DONE.