     Program PWSCF v.6.7MaX starts on 26Nov2021 at 19: 6:47

     R & G space division:  proc/nbgrp/npool/nimage =      72
     Reading input from fcc_2.in
Warning: card &CELL ignored
Warning: card CELL_DYNAMICS = 'BFGS', ignored
Warning: card CELL_FACTOR = 2.0, ignored
Warning: card PRESS = 0.0, ignored
Warning: card / ignored

     Current dimensions of program PWSCF are:
     Max number of different atomic species (ntypx) = 10
     Max number of k-points (npk) =  40000
     Max angular momentum in pseudopotentials (lmaxx) =  3
     file Pd.pbe-spn-kjpaw_psl.1.0.0.UPF: wavefunction(s)  4S 5S 4D renormalized

     Subspace diagonalization in iterative solution of the eigenvalue problem:
     one sub-group per band group will be used

     Found symmetry operation: I + (  0.2500  0.2500  0.0000)
     This is a supercell, fractional translations are disabled
     Message from routine setup:
     using ibrav=0 with symmetry is DISCOURAGED, use correct ibrav instead

     bravais-lattice index     =            0
     lattice parameter (alat)  =      14.4000  a.u.
     unit-cell volume          =    1621.1447 (a.u.)^3
     number of atoms/cell      =           32
     number of atomic types    =            1
     number of electrons       =       576.00
     number of Kohn-Sham states=          346
     kinetic-energy cutoff     =      71.0000  Ry
     charge density cutoff     =     430.0000  Ry
     scf convergence threshold =      1.0E-06
     mixing beta               =       0.1000
     number of iterations used =           10  TF        mixing
     Exchange-correlation= SLA  PW   PBX  PBC
                           (   1   4   3   4   0   0   0)

     celldm(1)=  14.400000  celldm(2)=   0.000000  celldm(3)=   0.000000
     celldm(4)=   0.000000  celldm(5)=   0.000000  celldm(6)=   0.000000

     crystal axes: (cart. coord. in units of alat)
               a(1) = (   0.815789   0.000000   0.000000 )
               a(2) = (   0.000000   0.815789   0.000000 )
               a(3) = (   0.000000   0.000000   0.815789 )

     reciprocal axes: (cart. coord. in units 2 pi/alat)
               b(1) = (  1.225806  0.000000  0.000000 )
               b(2) = (  0.000000  1.225806  0.000000 )
               b(3) = (  0.000000  0.000000  1.225806 )

     PseudoPot. # 1 for Pd read from file:
     /rds/homes/b/bxp912/pp/Pd.pbe-spn-kjpaw_psl.1.0.0.UPF
     MD5 check sum: 790f2ebce206edfd9790dcb9844eca51
     Pseudo is Projector augmented-wave + core cor, Zval = 18.0
     Generated using &quot;atomic&quot; code by A. Dal Corso  v.6.3
     Shape of augmentation charge: PSQ
     Using radial grid of 1235 points,  6 beta functions with:
                l(1) =   0
                l(2) =   0
                l(3) =   1
                l(4) =   1
                l(5) =   2
                l(6) =   2
     Q(r) pseudized with 0 coefficients

     atomic species   valence    mass     pseudopotential
        Pd            18.00   106.42000     Pd( 1.00)

     48 Sym. Ops., with inversion, found

   Cartesian axes

     site n.     atom                  positions (alat units)
         1           Pd  tau(   1) = (   0.0000000   0.0000000   0.0000000  )
         2           Pd  tau(   2) = (   0.2039474   0.2039474   0.0000000  )
         3           Pd  tau(   3) = (   0.2039474   0.0000000   0.2039474  )
         4           Pd  tau(   4) = (   0.0000000   0.2039474   0.2039474  )
         5           Pd  tau(   5) = (   0.0000000   0.0000000   0.4078947  )
         6           Pd  tau(   6) = (   0.2039474   0.2039474   0.4078947  )
         7           Pd  tau(   7) = (   0.2039474   0.0000000   0.6118421  )
         8           Pd  tau(   8) = (   0.0000000   0.2039474   0.6118421  )
         9           Pd  tau(   9) = (   0.0000000   0.4078947   0.0000000  )
        10           Pd  tau(  10) = (   0.2039474   0.6118421   0.0000000  )
        11           Pd  tau(  11) = (   0.2039474   0.4078947   0.2039474  )
        12           Pd  tau(  12) = (   0.0000000   0.6118421   0.2039474  )
        13           Pd  tau(  13) = (   0.0000000   0.4078947   0.4078947  )
        14           Pd  tau(  14) = (   0.2039474   0.6118421   0.4078947  )
        15           Pd  tau(  15) = (   0.2039474   0.4078947   0.6118421  )
        16           Pd  tau(  16) = (   0.0000000   0.6118421   0.6118421  )
        17           Pd  tau(  17) = (   0.4078947   0.0000000   0.0000000  )
        18           Pd  tau(  18) = (   0.6118421   0.2039474   0.0000000  )
        19           Pd  tau(  19) = (   0.6118421   0.0000000   0.2039474  )
        20           Pd  tau(  20) = (   0.4078947   0.2039474   0.2039474  )
        21           Pd  tau(  21) = (   0.4078947   0.0000000   0.4078947  )
        22           Pd  tau(  22) = (   0.6118421   0.2039474   0.4078947  )
        23           Pd  tau(  23) = (   0.6118421   0.0000000   0.6118421  )
        24           Pd  tau(  24) = (   0.4078947   0.2039474   0.6118421  )
        25           Pd  tau(  25) = (   0.4078947   0.4078947   0.0000000  )
        26           Pd  tau(  26) = (   0.6118421   0.6118421   0.0000000  )
        27           Pd  tau(  27) = (   0.6118421   0.4078947   0.2039474  )
        28           Pd  tau(  28) = (   0.4078947   0.6118421   0.2039474  )
        29           Pd  tau(  29) = (   0.4078947   0.4078947   0.4078947  )
        30           Pd  tau(  30) = (   0.6118421   0.6118421   0.4078947  )
        31           Pd  tau(  31) = (   0.6118421   0.4078947   0.6118421  )
        32           Pd  tau(  32) = (   0.4078947   0.6118421   0.6118421  )

     number of k points=    35  Marzari-Vanderbilt smearing, width (Ry)=  0.0400
                       cart. coord. in units 2pi/alat
        k(    1) = (   0.0681004   0.0681004   0.0681004), wk =   0.0219479
        k(    2) = (   0.0681004   0.0681004   0.2043011), wk =   0.0658436
        k(    3) = (   0.0681004   0.0681004   0.3405018), wk =   0.0658436
        k(    4) = (   0.0681004   0.0681004   0.4767025), wk =   0.0658436
        k(    5) = (   0.0681004   0.0681004  -0.6129032), wk =   0.0329218
        k(    6) = (   0.0681004   0.2043011   0.2043011), wk =   0.0658436
        k(    7) = (   0.0681004   0.2043011   0.3405018), wk =   0.1316872
        k(    8) = (   0.0681004   0.2043011   0.4767025), wk =   0.1316872
        k(    9) = (   0.0681004   0.2043011  -0.6129032), wk =   0.0658436
        k(   10) = (   0.0681004   0.3405018   0.3405018), wk =   0.0658436
        k(   11) = (   0.0681004   0.3405018   0.4767025), wk =   0.1316872
        k(   12) = (   0.0681004   0.3405018  -0.6129032), wk =   0.0658436
        k(   13) = (   0.0681004   0.4767025   0.4767025), wk =   0.0658436
        k(   14) = (   0.0681004   0.4767025  -0.6129032), wk =   0.0658436
        k(   15) = (   0.0681004  -0.6129032  -0.6129032), wk =   0.0164609
        k(   16) = (   0.2043011   0.2043011   0.2043011), wk =   0.0219479
        k(   17) = (   0.2043011   0.2043011   0.3405018), wk =   0.0658436
        k(   18) = (   0.2043011   0.2043011   0.4767025), wk =   0.0658436
        k(   19) = (   0.2043011   0.2043011  -0.6129032), wk =   0.0329218
        k(   20) = (   0.2043011   0.3405018   0.3405018), wk =   0.0658436
        k(   21) = (   0.2043011   0.3405018   0.4767025), wk =   0.1316872
        k(   22) = (   0.2043011   0.3405018  -0.6129032), wk =   0.0658436
        k(   23) = (   0.2043011   0.4767025   0.4767025), wk =   0.0658436
        k(   24) = (   0.2043011   0.4767025  -0.6129032), wk =   0.0658436
        k(   25) = (   0.2043011  -0.6129032  -0.6129032), wk =   0.0164609
        k(   26) = (   0.3405018   0.3405018   0.3405018), wk =   0.0219479
        k(   27) = (   0.3405018   0.3405018   0.4767025), wk =   0.0658436
        k(   28) = (   0.3405018   0.3405018  -0.6129032), wk =   0.0329218
        k(   29) = (   0.3405018   0.4767025   0.4767025), wk =   0.0658436
        k(   30) = (   0.3405018   0.4767025  -0.6129032), wk =   0.0658436
        k(   31) = (   0.3405018  -0.6129032  -0.6129032), wk =   0.0164609
        k(   32) = (   0.4767025   0.4767025   0.4767025), wk =   0.0219479
        k(   33) = (   0.4767025   0.4767025  -0.6129032), wk =   0.0329218
        k(   34) = (   0.4767025  -0.6129032  -0.6129032), wk =   0.0164609
        k(   35) = (  -0.6129032  -0.6129032  -0.6129032), wk =   0.0027435

     Check: negative core charge=   -0.000002

     Initial potential from superposition of free atoms

     starting charge  575.98776, renormalised to  576.00000
     Starting wfcs are  320 randomized atomic wfcs +   26 random wfcs
     Checking if some PAW data can be deallocated...

     Self-consistent Calculation

     iteration #  1     ecut=    71.00 Ry     beta= 0.10
     Davidson diagonalization with overlap
     ethr =  1.00E-02,  avg # of iterations =  5.8

     Threshold (ethr) on eigenvalues was too large:
     Diagonalizing with lowered threshold

     Davidson diagonalization with overlap
     c_bands:  1 eigenvalues not converged
     c_bands:  1 eigenvalues not converged
     c_bands:  2 eigenvalues not converged
     c_bands:  1 eigenvalues not converged
     c_bands:  1 eigenvalues not converged
     c_bands:  2 eigenvalues not converged
     ethr =  2.95E-05,  avg # of iterations = 12.6

     total energy              =  -16363.17285844 Ry
     estimated scf accuracy    <       0.13563759 Ry

     iteration #  2     ecut=    71.00 Ry     beta= 0.10
     Davidson diagonalization with overlap
     c_bands:  2 eigenvalues not converged
     ethr =  2.35E-05,  avg # of iterations =  2.0

[...]

     iteration #  4     ecut=    71.00 Ry     beta= 0.10
     Davidson diagonalization with overlap
     c_bands:  2 eigenvalues not converged
     ethr =  1.30E-06,  avg # of iterations =  7.1

[...]

     total energy              =  -16363.11783490 Ry
     estimated scf accuracy    <       0.00000115 Ry

     iteration # 10     ecut=    71.00 Ry     beta= 0.10
     Davidson diagonalization with overlap
     ethr =  1.99E-10,  avg # of iterations =  3.1

     End of self-consistent calculation

          k = 0.0681 0.0681 0.0681 ( 16387 PWs)   bands (ev):

   -42.2385 -41.7084 -41.7084 -41.7084 -41.6038 -41.6038 -41.6038 -41.4019
   -41.4019 -41.4019 -41.3441 -41.3431 -41.3431 -41.3431 -41.3431 -41.3431
   -41.3431 -41.3346 -41.3346 -41.3346 -41.2935 -41.2935 -41.2935 -41.0416
   -41.0416 -41.0416 -41.0367 -41.0366 -41.0366 -41.0366 -41.0366 -41.0366
    -9.6275  -9.6275  -9.6275  -9.6126  -9.3513  -9.3513  -9.3513  -8.6537
    -8.6537  -8.6537  -8.6095  -8.6095  -8.6095  -8.6095  -8.6095  -8.6095
    -8.5334  -8.5334  -8.5334  -8.4302  -8.4302  -8.4302  -8.4302  -8.4302
    -8.4302  -8.2402  -8.2402  -8.2402  -8.2402  -8.2402  -8.2402  -7.8732
    -7.8732  -7.8732  -7.6097  -7.6097  -7.6097  -7.5731  -7.5731  -7.5731
    -7.4523  -7.4523  -7.4523  -7.4523  -7.4523  -7.4523  -7.3004  -7.3004
    -7.3004  -7.2620  -7.2620  -7.2620  -7.2620  -7.2620  -7.2620  -7.1931
    -7.1931  -7.1931  -7.1747  -7.1747  -7.1747  -6.5903  -6.5903  -6.5903
    -6.5874  -6.5874  -6.5874  -6.4713  -6.4713  -6.4713  -6.4712  -6.4712
    -6.4712  -6.3890  -6.3890  -6.3890  -6.3399  -6.3399  -6.3399  -6.3399
    -6.3399  -6.3399  -6.3399  -6.3399  -6.3399  -6.3269  -6.3269  -6.3269
    -6.3165  -6.3165  -6.2703  -6.2703  -6.2703  -5.8729  -5.8451  -5.8451
    31.2501  31.2502  31.2502  31.8405  31.8405  31.8405  32.6779  32.7041
    32.7041  32.7041  33.0258  33.9335  33.9335  33.9335  33.9335  33.9335
    33.9335  34.0546  34.0546  34.0546  34.5501  34.5501  34.5501  34.6246
    34.6246  34.6246  35.0933  35.0933  35.0933  35.4135  35.4135  35.4135
    35.7755  35.7755  35.7755  35.7755  35.7755  35.7755  35.9619  35.9619
    35.9619  36.4106  36.4106  36.4106  36.4106  36.4106  36.4106  36.5117
    36.5117  36.5117  36.5513  36.5513  36.5513  36.5513  36.5513  36.5513
    36.8356  36.8356  36.8356  37.4459  37.4459  37.4459  37.4459  37.4459
    37.4459  37.4798  37.4798  37.4798  37.5511  37.5511  37.5808  37.5808
    37.5808  37.7862  37.8454  37.8454  38.1782  38.1782  38.1782  38.1782
    38.1782  38.1782  38.3029  38.3029  38.3029  38.3624  38.3624  38.3624
    40.0450  40.0450  40.0450  40.2843  40.2843  40.2843  40.3258  40.3258
    40.3258  40.3258  40.3258  40.3258  40.6149  40.6149  40.6149  41.0102
    41.0103  41.0103  41.3498  41.3498  41.3498  41.7042  41.7042  41.7042
    41.7211  41.7211  41.7211  41.7263  41.7263  41.7263  41.7663  41.7663
    41.7663  41.7663  41.7663  41.7663  42.1610  42.1610  42.1610  42.1610
    42.1610  42.1610  42.4466  42.4466  42.4882  42.4882  42.4882  42.6443
    42.6443  42.6443  43.9504  43.9504  43.9504  44.2690  44.2690  44.2690
    45.1878  45.1878  45.1878  45.9488  45.9488  45.9488  45.9835  45.9835
    46.0583  46.0583  46.0583  46.1881  46.7982  46.7982  46.7982  47.0178
    47.0178  47.0178  47.0178  47.0178  47.0178  47.0252  47.0252  47.0252
    47.1901  47.1901  47.1901  50.4137  50.4137  50.4137  51.1015  51.1015
    51.1015  51.3996  51.3996  51.3996  51.3996  51.3996  51.3996  52.3129
    52.3129  52.3129  60.3239  60.3239  60.3239  60.3239  60.3239  60.3239
    60.4056  60.6791  60.6791  60.6791  60.8156  61.1017  61.1017  61.1017
    61.1017  61.1017  61.1017  61.9653  61.9653  61.9653  62.3606  63.0999
    63.0999  63.0999  63.2925  63.2925  63.2925  63.7233  63.7233  63.7233
    63.7234  63.7234

[...]

          k = 0.4767-0.6129-0.6129 ( 16384 PWs)   bands (ev):

[...]

          k =-0.6129-0.6129-0.6129 ( 16368 PWs)   bands (ev):

   -41.8043 -41.8043 -41.8043 -41.8043 -41.8043 -41.8043 -41.8043 -41.8043
   -41.1908 -41.1908 -41.1908 -41.1908 -41.1908 -41.1908 -41.1908 -41.1908
   -41.1908 -41.1908 -41.1908 -41.1908 -41.1908 -41.1908 -41.1908 -41.1908
   -41.1908 -41.1908 -41.1908 -41.1908 -41.1907 -41.1907 -41.1907 -41.1907
    -8.9905  -8.9905  -8.9905  -8.9905  -8.9905  -8.9905  -8.9905  -8.9905
    -8.9905  -8.9905  -8.9905  -8.9905  -8.9905  -8.9905  -8.9905  -8.9905
    -8.9905  -8.9905  -8.9905  -8.9904  -8.9904  -8.9904  -8.9904  -8.9904
    -7.8185  -7.8185  -7.8185  -7.8185  -7.8185  -7.8185  -7.8185  -7.8185
    -7.3691  -7.3690  -7.3690  -7.3690  -7.3690  -7.3690  -7.3690  -7.3690
    -7.3690  -7.3690  -7.3690  -7.3690  -7.3690  -7.3690  -7.3690  -7.3690
    -7.3690  -7.3690  -7.3690  -7.3690  -7.3690  -7.3690  -7.3690  -7.3689
    -6.7618  -6.7618  -6.7618  -6.7618  -6.7618  -6.7618  -6.7618  -6.7618
    -6.7618  -6.7618  -6.7618  -6.7618  -6.7618  -6.7617  -6.7617  -6.7617
    -6.7617  -6.7617  -6.7617  -6.7617  -6.7617  -6.7617  -6.7617  -6.7617
    -6.0852  -6.0852  -6.0852  -6.0852  -6.0852  -6.0852  -6.0852  -6.0852
    -6.0851  -6.0851  -6.0851  -6.0851  -6.0851  -6.0851  -6.0851  -6.0851
    33.3880  33.3880  33.3880  33.3880  33.3880  33.3880  33.3880  33.3880
    33.3880  33.3880  33.3880  33.3880  33.3880  33.3880  33.3880  33.3880
    33.3880  33.3880  33.3880  33.3881  33.3881  33.3881  33.3881  33.3881
    34.1663  34.1663  34.1663  34.1663  34.1663  34.1663  34.1663  34.1663
    35.4251  35.4251  35.4251  35.4251  35.4251  35.4251  35.4251  35.4251
    35.4251  35.4251  35.4251  35.4251  35.4251  35.4251  35.4251  35.4251
    35.4251  35.4251  35.4251  35.4251  35.4251  35.4251  35.4251  35.4251
    38.5369  38.5369  38.5369  38.5369  38.5369  38.5369  38.5369  38.5369
    38.5369  38.5369  38.5369  38.5369  38.5369  38.5369  38.5369  38.5369
    39.2611  39.2611  39.2611  39.2611  39.2611  39.2611  39.2611  39.2611
    39.9134  39.9134  39.9134  39.9134  39.9134  39.9134  39.9134  39.9134
    39.9134  39.9134  39.9134  39.9134  39.9134  39.9134  39.9134  39.9134
    39.9134  39.9134  39.9134  39.9134  39.9135  39.9135  39.9135  39.9135
    41.1045  41.1045  41.1045  41.1045  41.1045  41.1045  41.1045  41.1045
    41.1045  41.1045  41.1045  41.1045  41.1045  41.1045  41.1045  41.1045
    41.1045  41.1045  41.1045  41.1045  41.1045  41.1045  41.1045  41.1045
    42.6752  42.6752  42.6752  42.6752  42.6752  42.6752  42.6752  42.6752
    42.6752  42.6752  42.6752  42.6752  42.6752  42.6752  42.6752  42.6752
    46.3486  46.3486  46.3486  46.3487  46.3487  46.3487  46.3487  46.3487
    46.3487  46.3487  46.3487  46.3487  46.3487  46.3487  46.3487  46.3487
    46.3487  46.3487  46.3487  46.3487  46.3487  46.3487  46.3487  46.3487
    53.1662  53.1662  53.1662  53.1662  53.1663  53.1663  53.1663  53.1663
    53.1663  53.1663  53.1663  53.1663  53.1663  53.1663  53.1663  53.1663
    53.1663  53.1663  53.1663  53.1663  53.1663  53.1663  53.1663  53.1663
    61.2254  61.2254  61.2254  61.2254  61.2254  61.2254  61.2254  61.2254
    61.2254  61.2254  61.2254  61.2254  61.2254  61.2254  61.2254  61.2254
    61.2254  61.2254  61.2254  61.2254  61.2254  61.2254  61.2254  61.2254
    62.2135  62.2135

     the Fermi energy is    46.0994 ev

!    total energy              =  -16363.11784041 Ry

     total all-electron energy =   -322923.971548 Ry
     estimated scf accuracy    <       0.00000036 Ry
     smearing contrib. (-TS)   =      -0.00198384 Ry
     internal energy E=F+TS    =  -16363.11585657 Ry

     The total energy is F=E-TS. E is the sum of the following terms:
     one-electron contribution =      -1.45000339 Ry
     hartree contribution      =     921.56414366 Ry
     xc contribution           =   -1021.43683183 Ry
     ewald contribution        =   -8093.02105470 Ry
     one-center paw contrib.   =   -8168.77211031 Ry

     convergence has been achieved in  10 iterations

     Forces acting on atoms (cartesian axes, Ry/au):

     atom    1 type  1   force =     0.00000000    0.00000000    0.00000000
     atom    2 type  1   force =     0.00000058    0.00000058    0.00000000
     atom    3 type  1   force =     0.00000058   -0.00000000    0.00000058
     atom    4 type  1   force =    -0.00000000    0.00000058    0.00000058
     atom    5 type  1   force =     0.00000000    0.00000000    0.00000000
     atom    6 type  1   force =    -0.00000773   -0.00000773   -0.00000000
     atom    7 type  1   force =     0.00000058    0.00000000   -0.00000058
     atom    8 type  1   force =     0.00000000    0.00000058   -0.00000058
     atom    9 type  1   force =     0.00000000    0.00000000    0.00000000
     atom   10 type  1   force =     0.00000058   -0.00000058    0.00000000
     atom   11 type  1   force =    -0.00000773    0.00000000   -0.00000773
     atom   12 type  1   force =     0.00000000   -0.00000058    0.00000058
     atom   13 type  1   force =     0.00000000    0.00000000    0.00000000
     atom   14 type  1   force =    -0.00000773    0.00000773    0.00000000
     atom   15 type  1   force =    -0.00000773   -0.00000000    0.00000773
     atom   16 type  1   force =    -0.00000000   -0.00000058   -0.00000058
     atom   17 type  1   force =     0.00000000    0.00000000    0.00000000
     atom   18 type  1   force =    -0.00000058    0.00000058    0.00000000
     atom   19 type  1   force =    -0.00000058    0.00000000    0.00000058
     atom   20 type  1   force =    -0.00000000   -0.00000773   -0.00000773
     atom   21 type  1   force =     0.00000000    0.00000000    0.00000000
     atom   22 type  1   force =     0.00000773   -0.00000773   -0.00000000
     atom   23 type  1   force =    -0.00000058   -0.00000000   -0.00000058
     atom   24 type  1   force =    -0.00000000   -0.00000773    0.00000773
     atom   25 type  1   force =     0.00000000    0.00000000    0.00000000
     atom   26 type  1   force =    -0.00000058   -0.00000058    0.00000000
     atom   27 type  1   force =     0.00000773    0.00000000   -0.00000773
     atom   28 type  1   force =     0.00000000    0.00000773   -0.00000773
     atom   29 type  1   force =     0.00000000    0.00000000    0.00000000
     atom   30 type  1   force =     0.00000773    0.00000773    0.00000000
     atom   31 type  1   force =     0.00000773   -0.00000000    0.00000773
     atom   32 type  1   force =     0.00000000    0.00000773    0.00000773

     Total force =     0.000038     Total SCF correction =     0.000061
     SCF correction compared to forces is large: reduce conv_thr to get better values

     Computing stress (Cartesian axis) and pressure

          total   stress  (Ry/bohr**3)                   (kbar)     P=     7686.88
   0.05225435   0.00000000   0.00000000         7686.88        0.00        0.00
   0.00000000   0.05225435   0.00000000            0.00     7686.88        0.00
   0.00000000   0.00000000   0.05225435            0.00        0.00     7686.88

     Writing output data file /scratch/eAijRlAOqAxxzcIS.save/

     General routines

     Parallel routines

   This run was terminated on:  19:15:10  26Nov2021

   JOB DONE.