     Program PWSCF v.6.7MaX starts on 27Nov2021 at 10:43:55

     R & G space division:  proc/nbgrp/npool/nimage =      72
     Reading input from fcc_20.in
Warning: card &CELL ignored
Warning: card CELL_DYNAMICS = 'BFGS', ignored
Warning: card CELL_FACTOR = 2.0, ignored
Warning: card PRESS = 0.0, ignored
Warning: card / ignored

     Current dimensions of program PWSCF are:
     Max number of different atomic species (ntypx) = 10
     Max number of k-points (npk) =  40000
     Max angular momentum in pseudopotentials (lmaxx) =  3
     file Pd.pbe-spn-kjpaw_psl.1.0.0.UPF: wavefunction(s)  4S 5S 4D renormalized

     Subspace diagonalization in iterative solution of the eigenvalue problem:
     one sub-group per band group will be used

     Found symmetry operation: I + (  0.2500  0.2500  0.0000)
     This is a supercell, fractional translations are disabled
     Message from routine setup:
     using ibrav=0 with symmetry is DISCOURAGED, use correct ibrav instead

     bravais-lattice index     =            0
     lattice parameter (alat)  =      14.4000  a.u.
     unit-cell volume          =   23887.8720 (a.u.)^3
     number of atoms/cell      =           32
     number of atomic types    =            1
     number of electrons       =       576.00
     number of Kohn-Sham states=          346
     kinetic-energy cutoff     =      71.0000  Ry
     charge density cutoff     =     430.0000  Ry
     scf convergence threshold =      1.0E-06
     mixing beta               =       0.1000
     number of iterations used =           10  TF        mixing
     Exchange-correlation= SLA  PW   PBX  PBC
                           (   1   4   3   4   0   0   0)

     celldm(1)=  14.400000  celldm(2)=   0.000000  celldm(3)=   0.000000
     celldm(4)=   0.000000  celldm(5)=   0.000000  celldm(6)=   0.000000

     crystal axes: (cart. coord. in units of alat)
               a(1) = (   2.000000   0.000000   0.000000 )
               a(2) = (   0.000000   2.000000   0.000000 )
               a(3) = (   0.000000   0.000000   2.000000 )

     reciprocal axes: (cart. coord. in units 2 pi/alat)
               b(1) = (  0.500000  0.000000  0.000000 )
               b(2) = (  0.000000  0.500000  0.000000 )
               b(3) = (  0.000000  0.000000  0.500000 )

     PseudoPot. # 1 for Pd read from file:
     /rds/homes/b/bxp912/pp/Pd.pbe-spn-kjpaw_psl.1.0.0.UPF
     MD5 check sum: 790f2ebce206edfd9790dcb9844eca51
     Pseudo is Projector augmented-wave + core cor, Zval = 18.0
     Generated using &quot;atomic&quot; code by A. Dal Corso  v.6.3
     Shape of augmentation charge: PSQ
     Using radial grid of 1235 points,  6 beta functions with:
                l(1) =   0
                l(2) =   0
                l(3) =   1
                l(4) =   1
                l(5) =   2
                l(6) =   2
     Q(r) pseudized with 0 coefficients

     atomic species   valence    mass     pseudopotential
        Pd            18.00   106.42000     Pd( 1.00)

     48 Sym. Ops., with inversion, found

   Cartesian axes

     site n.     atom                  positions (alat units)
         1           Pd  tau(   1) = (   0.0000000   0.0000000   0.0000000  )
         2           Pd  tau(   2) = (   0.5000000   0.5000000   0.0000000  )
         3           Pd  tau(   3) = (   0.5000000   0.0000000   0.5000000  )
         4           Pd  tau(   4) = (   0.0000000   0.5000000   0.5000000  )
         5           Pd  tau(   5) = (   0.0000000   0.0000000   1.0000000  )
         6           Pd  tau(   6) = (   0.5000000   0.5000000   1.0000000  )
         7           Pd  tau(   7) = (   0.5000000   0.0000000   1.5000000  )
         8           Pd  tau(   8) = (   0.0000000   0.5000000   1.5000000  )
         9           Pd  tau(   9) = (   0.0000000   1.0000000   0.0000000  )
        10           Pd  tau(  10) = (   0.5000000   1.5000000   0.0000000  )
        11           Pd  tau(  11) = (   0.5000000   1.0000000   0.5000000  )
        12           Pd  tau(  12) = (   0.0000000   1.5000000   0.5000000  )
        13           Pd  tau(  13) = (   0.0000000   1.0000000   1.0000000  )
        14           Pd  tau(  14) = (   0.5000000   1.5000000   1.0000000  )
        15           Pd  tau(  15) = (   0.5000000   1.0000000   1.5000000  )
        16           Pd  tau(  16) = (   0.0000000   1.5000000   1.5000000  )
        17           Pd  tau(  17) = (   1.0000000   0.0000000   0.0000000  )
        18           Pd  tau(  18) = (   1.5000000   0.5000000   0.0000000  )
        19           Pd  tau(  19) = (   1.5000000   0.0000000   0.5000000  )
        20           Pd  tau(  20) = (   1.0000000   0.5000000   0.5000000  )
        21           Pd  tau(  21) = (   1.0000000   0.0000000   1.0000000  )
        22           Pd  tau(  22) = (   1.5000000   0.5000000   1.0000000  )
        23           Pd  tau(  23) = (   1.5000000   0.0000000   1.5000000  )
        24           Pd  tau(  24) = (   1.0000000   0.5000000   1.5000000  )
        25           Pd  tau(  25) = (   1.0000000   1.0000000   0.0000000  )
        26           Pd  tau(  26) = (   1.5000000   1.5000000   0.0000000  )
        27           Pd  tau(  27) = (   1.5000000   1.0000000   0.5000000  )
        28           Pd  tau(  28) = (   1.0000000   1.5000000   0.5000000  )
        29           Pd  tau(  29) = (   1.0000000   1.0000000   1.0000000  )
        30           Pd  tau(  30) = (   1.5000000   1.5000000   1.0000000  )
        31           Pd  tau(  31) = (   1.5000000   1.0000000   1.5000000  )
        32           Pd  tau(  32) = (   1.0000000   1.5000000   1.5000000  )

     number of k points=    35  Marzari-Vanderbilt smearing, width (Ry)=  0.0400
                       cart. coord. in units 2pi/alat
        k(    1) = (   0.0277778   0.0277778   0.0277778), wk =   0.0219479
        k(    2) = (   0.0277778   0.0277778   0.0833333), wk =   0.0658436
        k(    3) = (   0.0277778   0.0277778   0.1388889), wk =   0.0658436
        k(    4) = (   0.0277778   0.0277778   0.1944444), wk =   0.0658436
        k(    5) = (   0.0277778   0.0277778  -0.2500000), wk =   0.0329218
        k(    6) = (   0.0277778   0.0833333   0.0833333), wk =   0.0658436
        k(    7) = (   0.0277778   0.0833333   0.1388889), wk =   0.1316872
        k(    8) = (   0.0277778   0.0833333   0.1944444), wk =   0.1316872
        k(    9) = (   0.0277778   0.0833333  -0.2500000), wk =   0.0658436
        k(   10) = (   0.0277778   0.1388889   0.1388889), wk =   0.0658436
        k(   11) = (   0.0277778   0.1388889   0.1944444), wk =   0.1316872
        k(   12) = (   0.0277778   0.1388889  -0.2500000), wk =   0.0658436
        k(   13) = (   0.0277778   0.1944444   0.1944444), wk =   0.0658436
        k(   14) = (   0.0277778   0.1944444  -0.2500000), wk =   0.0658436
        k(   15) = (   0.0277778  -0.2500000  -0.2500000), wk =   0.0164609
        k(   16) = (   0.0833333   0.0833333   0.0833333), wk =   0.0219479
        k(   17) = (   0.0833333   0.0833333   0.1388889), wk =   0.0658436
        k(   18) = (   0.0833333   0.0833333   0.1944444), wk =   0.0658436
        k(   19) = (   0.0833333   0.0833333  -0.2500000), wk =   0.0329218
        k(   20) = (   0.0833333   0.1388889   0.1388889), wk =   0.0658436
        k(   21) = (   0.0833333   0.1388889   0.1944444), wk =   0.1316872
        k(   22) = (   0.0833333   0.1388889  -0.2500000), wk =   0.0658436
        k(   23) = (   0.0833333   0.1944444   0.1944444), wk =   0.0658436
        k(   24) = (   0.0833333   0.1944444  -0.2500000), wk =   0.0658436
        k(   25) = (   0.0833333  -0.2500000  -0.2500000), wk =   0.0164609
        k(   26) = (   0.1388889   0.1388889   0.1388889), wk =   0.0219479
        k(   27) = (   0.1388889   0.1388889   0.1944444), wk =   0.0658436
        k(   28) = (   0.1388889   0.1388889  -0.2500000), wk =   0.0329218
        k(   29) = (   0.1388889   0.1944444   0.1944444), wk =   0.0658436
        k(   30) = (   0.1388889   0.1944444  -0.2500000), wk =   0.0658436
        k(   31) = (   0.1388889  -0.2500000  -0.2500000), wk =   0.0164609
        k(   32) = (   0.1944444   0.1944444   0.1944444), wk =   0.0219479
        k(   33) = (   0.1944444   0.1944444  -0.2500000), wk =   0.0329218
        k(   34) = (   0.1944444  -0.2500000  -0.2500000), wk =   0.0164609
        k(   35) = (  -0.2500000  -0.2500000  -0.2500000), wk =   0.0027435

     Initial potential from superposition of free atoms

     starting charge  575.98776, renormalised to  576.00000
     Starting wfcs are  320 randomized atomic wfcs +   26 random wfcs
     Checking if some PAW data can be deallocated...

     Self-consistent Calculation

     iteration #  1     ecut=    71.00 Ry     beta= 0.10
     Davidson diagonalization with overlap
     ethr =  1.00E-02,  avg # of iterations =  6.1

     total energy              =  -16381.47214971 Ry
     estimated scf accuracy    <      25.10376380 Ry

[...]

     iteration # 27     ecut=    71.00 Ry     beta= 0.10
     Davidson diagonalization with overlap
     c_bands:  1 eigenvalues not converged
     c_bands:  1 eigenvalues not converged
     ethr =  1.30E-05,  avg # of iterations =  4.9

[...]

     iteration # 39     ecut=    71.00 Ry     beta= 0.10
     Davidson diagonalization with overlap
     c_bands:  1 eigenvalues not converged
     ethr =  1.24E-07,  avg # of iterations =  2.6

[...]

     total energy              =  -16375.57248587 Ry
     estimated scf accuracy    <       0.00000167 Ry

     iteration # 49     ecut=    71.00 Ry     beta= 0.10
     Davidson diagonalization with overlap
     ethr =  2.89E-10,  avg # of iterations =  2.0

     End of self-consistent calculation

          k = 0.0278 0.0278 0.0278 (241425 PWs)   bands (ev):

   -82.8885 -82.8885 -82.8885 -82.8885 -82.8885 -82.8885 -82.8885 -82.8885
   -82.8885 -82.8885 -82.8885 -82.8885 -82.8885 -82.8885 -82.8885 -82.8885
   -82.8885 -82.8885 -82.8884 -82.8884 -82.8884 -82.8884 -82.8884 -82.8884
   -82.8884 -82.8884 -82.8884 -82.8884 -82.8884 -82.8884 -82.8883 -82.8881
   -48.7305 -48.7305 -48.7304 -48.7304 -48.7304 -48.7304 -48.7304 -48.7304
   -48.7304 -48.7304 -48.7304 -48.7304 -48.7304 -48.7304 -48.7304 -48.7304
   -48.7304 -48.7303 -48.7303 -48.7303 -48.7303 -48.7303 -48.7303 -48.7303
   -48.7303 -48.7303 -48.7303 -48.7303 -48.7303 -48.7303 -48.7303 -48.7303
   -48.7303 -48.7303 -48.7303 -48.7303 -48.7303 -48.7303 -48.7303 -48.7303
   -48.7303 -48.7303 -48.7303 -48.7303 -48.7303 -48.7303 -48.7303 -48.7303
   -48.7303 -48.7303 -48.7303 -48.7303 -48.7303 -48.7303 -48.7303 -48.7303
   -48.7303 -48.7303 -48.7303 -48.7303 -48.7303 -48.7303 -48.7303 -48.7303
   -48.7303 -48.7303 -48.7303 -48.7303 -48.7303 -48.7303 -48.7303 -48.7303
   -48.7303 -48.7303 -48.7303 -48.7303 -48.7303 -48.7303 -48.7303 -48.7303
   -48.7303 -48.7303 -48.7303 -48.7303 -48.7303 -48.7303 -48.7303 -48.7303
   -48.7303 -48.7303 -48.7302 -48.7302 -48.7302 -48.7300 -48.7300 -48.7300
    -1.5096  -1.5096  -1.5096  -1.5023  -1.5019  -1.5019  -1.5019  -1.5013
    -1.5013  -1.5013  -1.4862  -1.4862  -1.4862  -1.4817  -1.4817  -1.4817
    -1.4701  -1.4701  -1.4701  -1.4685  -1.4685  -1.4685  -1.4685  -1.4685
    -1.4685  -1.4669  -1.4669  -1.4669  -1.4669  -1.4669  -1.4669  -1.4650
    -1.4650  -1.4650  -1.4631  -1.4631  -1.4631  -1.4587  -1.4583  -1.4583
    -1.4575  -1.4575  -1.4575  -1.4572  -1.4572  -1.4568  -1.4568  -1.4568
    -1.4563  -1.4563  -1.4563  -1.4560  -1.4560  -1.4560  -1.4552  -1.4552
    -1.4552  -1.4552  -1.4552  -1.4552  -1.4545  -1.4545  -1.4545  -1.4545
    -1.4545  -1.4545  -1.4504  -1.4504  -1.4504  -1.4441  -1.4441  -1.4441
    -1.4441  -1.4441  -1.4441  -1.4328  -1.4303  -1.4303  -1.4303  -1.4302
    -1.4302  -1.4302  -1.4302  -1.4302  -1.4302  -1.4275  -1.4275  -1.4275
    -1.4241  -1.4241  -1.4241  -1.4240  -1.4240  -1.4240  -1.4203  -1.4203
    -1.4184  -1.4184  -1.4184  -1.4177  -1.4177  -1.4177  -1.4172  -1.4172
    -1.4172  -1.4171  -1.4171  -1.4171  -1.4157  -1.4157  -1.4157  -1.4157
    -1.4157  -1.4157  -1.4136  -1.4136  -1.4136  -1.4130  -1.4130  -1.4130
    -1.4130  -1.4130  -1.4129  -1.4122  -1.4122  -1.4122  -1.4122  -1.4122
    -1.4122  -1.4117  -1.4117  -1.4116  -1.4056  -1.4056  -1.4056  -1.4028
    -1.4028  -1.4028  -1.3893  -1.3893  -1.3893  -1.3873  -1.3873  -1.3873
    -1.3869  -1.3869  -1.3865  -1.3865  -1.3865  -1.3785  -1.3785  -1.3785
    -1.3783  -1.3783  -1.3783  -1.3782  -1.3782  -1.3782  -1.3782  -1.3782
    -1.3782  -0.9150  -0.9149  -0.9149  -0.7913  -0.7912  -0.7912  -0.4591
    -0.4590  -0.4590  -0.3600  -0.3599  -0.3599  -0.3599  -0.3599  -0.3599
    -0.2688  -0.2688  -0.2688  -0.2101  -0.1887  -0.1886  -0.1886   0.2228
     0.2229   0.2229   0.2536   0.2537   0.2537   0.2537   0.2537   0.2537
     1.6463   1.6464   1.6464   1.6690   2.0342   2.0342   2.0342   2.5584
     2.5584   2.5584   2.6439   2.6439   2.6439   2.6440   2.6440   2.6440
     2.6452   2.6452   2.6452   2.6452   2.6452   2.6452   2.7459   2.7459
     2.7461   2.7929

[...]

          k = 0.1944-0.2500-0.2500 (241400 PWs)   bands (ev):

[...]

          k =-0.2500-0.2500-0.2500 (241472 PWs)   bands (ev):

   -82.8885 -82.8885 -82.8885 -82.8885 -82.8885 -82.8885 -82.8885 -82.8885
   -82.8885 -82.8885 -82.8885 -82.8885 -82.8885 -82.8885 -82.8885 -82.8885
   -82.8885 -82.8885 -82.8884 -82.8884 -82.8884 -82.8884 -82.8884 -82.8884
   -82.8884 -82.8884 -82.8884 -82.8884 -82.8884 -82.8884 -82.8883 -82.8881
   -48.7304 -48.7304 -48.7304 -48.7304 -48.7304 -48.7304 -48.7304 -48.7304
   -48.7304 -48.7304 -48.7304 -48.7304 -48.7304 -48.7304 -48.7304 -48.7304
   -48.7304 -48.7303 -48.7303 -48.7303 -48.7303 -48.7303 -48.7303 -48.7303
   -48.7303 -48.7303 -48.7303 -48.7303 -48.7303 -48.7303 -48.7303 -48.7303
   -48.7303 -48.7303 -48.7303 -48.7303 -48.7303 -48.7303 -48.7303 -48.7303
   -48.7303 -48.7303 -48.7303 -48.7303 -48.7303 -48.7303 -48.7303 -48.7303
   -48.7303 -48.7303 -48.7303 -48.7303 -48.7303 -48.7303 -48.7303 -48.7303
   -48.7303 -48.7303 -48.7303 -48.7303 -48.7303 -48.7303 -48.7303 -48.7303
   -48.7303 -48.7303 -48.7303 -48.7303 -48.7303 -48.7303 -48.7303 -48.7303
   -48.7303 -48.7303 -48.7303 -48.7303 -48.7303 -48.7303 -48.7303 -48.7303
   -48.7303 -48.7303 -48.7303 -48.7303 -48.7303 -48.7303 -48.7303 -48.7303
   -48.7303 -48.7303 -48.7302 -48.7302 -48.7302 -48.7300 -48.7300 -48.7300
    -1.4888  -1.4888  -1.4888  -1.4887  -1.4887  -1.4887  -1.4887  -1.4887
    -1.4887  -1.4887  -1.4887  -1.4887  -1.4887  -1.4887  -1.4887  -1.4887
    -1.4887  -1.4887  -1.4887  -1.4887  -1.4887  -1.4887  -1.4887  -1.4887
    -1.4803  -1.4803  -1.4803  -1.4803  -1.4803  -1.4803  -1.4803  -1.4803
    -1.4585  -1.4585  -1.4584  -1.4584  -1.4584  -1.4584  -1.4584  -1.4584
    -1.4584  -1.4584  -1.4584  -1.4584  -1.4584  -1.4584  -1.4584  -1.4584
    -1.4584  -1.4584  -1.4584  -1.4584  -1.4584  -1.4584  -1.4584  -1.4584
    -1.4495  -1.4495  -1.4495  -1.4495  -1.4495  -1.4495  -1.4495  -1.4495
    -1.4495  -1.4495  -1.4495  -1.4495  -1.4495  -1.4495  -1.4495  -1.4495
    -1.4219  -1.4219  -1.4219  -1.4219  -1.4219  -1.4219  -1.4219  -1.4219
    -1.4219  -1.4219  -1.4219  -1.4219  -1.4219  -1.4219  -1.4219  -1.4219
    -1.4219  -1.4219  -1.4219  -1.4219  -1.4219  -1.4219  -1.4218  -1.4218
    -1.4168  -1.4168  -1.4168  -1.4168  -1.4168  -1.4168  -1.4168  -1.4168
    -1.4168  -1.4168  -1.4168  -1.4168  -1.4168  -1.4168  -1.4168  -1.4168
    -1.4168  -1.4168  -1.4168  -1.4168  -1.4168  -1.4168  -1.4168  -1.4168
    -1.4122  -1.4122  -1.4122  -1.4122  -1.4122  -1.4122  -1.4122  -1.4122
    -1.4121  -1.4121  -1.4121  -1.4121  -1.4121  -1.4121  -1.4121  -1.4121
    -1.3844  -1.3844  -1.3844  -1.3844  -1.3844  -1.3843  -1.3843  -1.3843
    -1.3843  -1.3843  -1.3843  -1.3843  -1.3843  -1.3843  -1.3843  -1.3843
    -1.3843  -1.3843  -1.3843  -1.3843  -1.3843  -1.3843  -1.3843  -1.3843
    -0.9946  -0.9946  -0.9945  -0.9945  -0.9945  -0.9945  -0.9945  -0.9945
    -0.0746  -0.0743  -0.0743  -0.0743  -0.0743  -0.0743  -0.0743  -0.0743
    -0.0742  -0.0742  -0.0742  -0.0742  -0.0742  -0.0742  -0.0742  -0.0742
    -0.0741  -0.0741  -0.0741  -0.0741  -0.0741  -0.0741  -0.0741  -0.0741
     2.2514   2.2514   2.2514   2.2516   2.2516   2.2516   2.2516   2.2516
     2.2516   2.2516   2.2516   2.2517   2.2517   2.2517   2.2517   2.2517
     2.2517   2.2517   2.2517   2.2517   2.2517   2.2518   2.2518   2.2518
     3.3460   3.3462

     the Fermi energy is    -0.9595 ev

!    total energy              =  -16375.57248649 Ry

     total all-electron energy =   -322936.426194 Ry
     estimated scf accuracy    <       0.00000093 Ry
     smearing contrib. (-TS)   =       0.72171863 Ry
     internal energy E=F+TS    =  -16376.29420512 Ry

     The total energy is F=E-TS. E is the sum of the following terms:
     one-electron contribution =   -7909.36092485 Ry
     hartree contribution      =    3986.62119633 Ry
     xc contribution           =    -985.94551149 Ry
     ewald contribution        =   -3301.10069336 Ry
     one-center paw contrib.   =   -8166.50827174 Ry

     convergence has been achieved in  49 iterations

     Forces acting on atoms (cartesian axes, Ry/au):

     atom    1 type  1   force =     0.00000000    0.00000000    0.00000000
     atom    2 type  1   force =     0.00003859    0.00003859    0.00000000
     atom    3 type  1   force =     0.00003859    0.00000000    0.00003859
     atom    4 type  1   force =    -0.00000000    0.00003859    0.00003859
     atom    5 type  1   force =     0.00000000    0.00000000    0.00000000
     atom    6 type  1   force =     0.00005133    0.00005133    0.00000000
     atom    7 type  1   force =     0.00003859   -0.00000000   -0.00003859
     atom    8 type  1   force =     0.00000000    0.00003859   -0.00003859
     atom    9 type  1   force =     0.00000000    0.00000000    0.00000000
     atom   10 type  1   force =     0.00003859   -0.00003859   -0.00000000
     atom   11 type  1   force =     0.00005133    0.00000000    0.00005133
     atom   12 type  1   force =    -0.00000000   -0.00003859    0.00003859
     atom   13 type  1   force =     0.00000000    0.00000000    0.00000000
     atom   14 type  1   force =     0.00005133   -0.00005133    0.00000000
     atom   15 type  1   force =     0.00005133    0.00000000   -0.00005133
     atom   16 type  1   force =    -0.00000000   -0.00003859   -0.00003859
     atom   17 type  1   force =     0.00000000    0.00000000    0.00000000
     atom   18 type  1   force =    -0.00003859    0.00003859    0.00000000
     atom   19 type  1   force =    -0.00003859    0.00000000    0.00003859
     atom   20 type  1   force =     0.00000000    0.00005133    0.00005133
     atom   21 type  1   force =     0.00000000    0.00000000    0.00000000
     atom   22 type  1   force =    -0.00005133    0.00005133    0.00000000
     atom   23 type  1   force =    -0.00003859    0.00000000   -0.00003859
     atom   24 type  1   force =     0.00000000    0.00005133   -0.00005133
     atom   25 type  1   force =     0.00000000    0.00000000    0.00000000
     atom   26 type  1   force =    -0.00003859   -0.00003859    0.00000000
     atom   27 type  1   force =    -0.00005133    0.00000000    0.00005133
     atom   28 type  1   force =     0.00000000   -0.00005133    0.00005133
     atom   29 type  1   force =     0.00000000    0.00000000    0.00000000
     atom   30 type  1   force =    -0.00005133   -0.00005133    0.00000000
     atom   31 type  1   force =    -0.00005133    0.00000000   -0.00005133
     atom   32 type  1   force =     0.00000000   -0.00005133   -0.00005133

     Total force =     0.000315     Total SCF correction =     0.002448
     SCF correction compared to forces is large: reduce conv_thr to get better values

     Computing stress (Cartesian axis) and pressure

          total   stress  (Ry/bohr**3)                   (kbar)     P=       -7.75
  -0.00005266   0.00000000   0.00000000           -7.75        0.00        0.00
   0.00000000  -0.00005266   0.00000000            0.00       -7.75        0.00
   0.00000000   0.00000000  -0.00005266            0.00        0.00       -7.75

     Writing output data file /scratch/znUSogLlLnlMKXbY.save/

     General routines

     Parallel routines

   This run was terminated on:  13:58:55  27Nov2021

   JOB DONE.