     Program PWSCF v.6.7MaX starts on 26Nov2021 at 19:57: 6

     R & G space division:  proc/nbgrp/npool/nimage =      72
     Reading input from fcc_7.in
Warning: card &CELL ignored
Warning: card CELL_DYNAMICS = 'BFGS', ignored
Warning: card CELL_FACTOR = 2.0, ignored
Warning: card PRESS = 0.0, ignored
Warning: card / ignored

     Current dimensions of program PWSCF are:
     Max number of different atomic species (ntypx) = 10
     Max number of k-points (npk) =  40000
     Max angular momentum in pseudopotentials (lmaxx) =  3
     file Pd.pbe-spn-kjpaw_psl.1.0.0.UPF: wavefunction(s)  4S 5S 4D renormalized

     Subspace diagonalization in iterative solution of the eigenvalue problem:
     one sub-group per band group will be used

     Found symmetry operation: I + (  0.2500  0.2500  0.0000)
     This is a supercell, fractional translations are disabled
     Message from routine setup:
     using ibrav=0 with symmetry is DISCOURAGED, use correct ibrav instead

     bravais-lattice index     =            0
     lattice parameter (alat)  =      14.4000  a.u.
     unit-cell volume          =    4479.2413 (a.u.)^3
     number of atoms/cell      =           32
     number of atomic types    =            1
     number of electrons       =       576.00
     number of Kohn-Sham states=          346
     kinetic-energy cutoff     =      71.0000  Ry
     charge density cutoff     =     430.0000  Ry
     scf convergence threshold =      1.0E-06
     mixing beta               =       0.1000
     number of iterations used =           10  TF        mixing
     Exchange-correlation= SLA  PW   PBX  PBC
                           (   1   4   3   4   0   0   0)

     celldm(1)=  14.400000  celldm(2)=   0.000000  celldm(3)=   0.000000
     celldm(4)=   0.000000  celldm(5)=   0.000000  celldm(6)=   0.000000

     crystal axes: (cart. coord. in units of alat)
               a(1) = (   1.144737   0.000000   0.000000 )
               a(2) = (   0.000000   1.144737   0.000000 )
               a(3) = (   0.000000   0.000000   1.144737 )

     reciprocal axes: (cart. coord. in units 2 pi/alat)
               b(1) = (  0.873563  0.000000  0.000000 )
               b(2) = (  0.000000  0.873563  0.000000 )
               b(3) = (  0.000000  0.000000  0.873563 )

     PseudoPot. # 1 for Pd read from file:
     /rds/homes/b/bxp912/pp/Pd.pbe-spn-kjpaw_psl.1.0.0.UPF
     MD5 check sum: 790f2ebce206edfd9790dcb9844eca51
     Pseudo is Projector augmented-wave + core cor, Zval = 18.0
     Generated using &quot;atomic&quot; code by A. Dal Corso  v.6.3
     Shape of augmentation charge: PSQ
     Using radial grid of 1235 points,  6 beta functions with:
                l(1) =   0
                l(2) =   0
                l(3) =   1
                l(4) =   1
                l(5) =   2
                l(6) =   2
     Q(r) pseudized with 0 coefficients

     atomic species   valence    mass     pseudopotential
        Pd            18.00   106.42000     Pd( 1.00)

     48 Sym. Ops., with inversion, found

   Cartesian axes

     site n.     atom                  positions (alat units)
         1           Pd  tau(   1) = (   0.0000000   0.0000000   0.0000000  )
         2           Pd  tau(   2) = (   0.2861842   0.2861842   0.0000000  )
         3           Pd  tau(   3) = (   0.2861842   0.0000000   0.2861842  )
         4           Pd  tau(   4) = (   0.0000000   0.2861842   0.2861842  )
         5           Pd  tau(   5) = (   0.0000000   0.0000000   0.5723684  )
         6           Pd  tau(   6) = (   0.2861842   0.2861842   0.5723684  )
         7           Pd  tau(   7) = (   0.2861842   0.0000000   0.8585526  )
         8           Pd  tau(   8) = (   0.0000000   0.2861842   0.8585526  )
         9           Pd  tau(   9) = (   0.0000000   0.5723684   0.0000000  )
        10           Pd  tau(  10) = (   0.2861842   0.8585526   0.0000000  )
        11           Pd  tau(  11) = (   0.2861842   0.5723684   0.2861842  )
        12           Pd  tau(  12) = (   0.0000000   0.8585526   0.2861842  )
        13           Pd  tau(  13) = (   0.0000000   0.5723684   0.5723684  )
        14           Pd  tau(  14) = (   0.2861842   0.8585526   0.5723684  )
        15           Pd  tau(  15) = (   0.2861842   0.5723684   0.8585526  )
        16           Pd  tau(  16) = (   0.0000000   0.8585526   0.8585526  )
        17           Pd  tau(  17) = (   0.5723684   0.0000000   0.0000000  )
        18           Pd  tau(  18) = (   0.8585526   0.2861842   0.0000000  )
        19           Pd  tau(  19) = (   0.8585526   0.0000000   0.2861842  )
        20           Pd  tau(  20) = (   0.5723684   0.2861842   0.2861842  )
        21           Pd  tau(  21) = (   0.5723684   0.0000000   0.5723684  )
        22           Pd  tau(  22) = (   0.8585526   0.2861842   0.5723684  )
        23           Pd  tau(  23) = (   0.8585526   0.0000000   0.8585526  )
        24           Pd  tau(  24) = (   0.5723684   0.2861842   0.8585526  )
        25           Pd  tau(  25) = (   0.5723684   0.5723684   0.0000000  )
        26           Pd  tau(  26) = (   0.8585526   0.8585526   0.0000000  )
        27           Pd  tau(  27) = (   0.8585526   0.5723684   0.2861842  )
        28           Pd  tau(  28) = (   0.5723684   0.8585526   0.2861842  )
        29           Pd  tau(  29) = (   0.5723684   0.5723684   0.5723684  )
        30           Pd  tau(  30) = (   0.8585526   0.8585526   0.5723684  )
        31           Pd  tau(  31) = (   0.8585526   0.5723684   0.8585526  )
        32           Pd  tau(  32) = (   0.5723684   0.8585526   0.8585526  )

     number of k points=    35  Marzari-Vanderbilt smearing, width (Ry)=  0.0400
                       cart. coord. in units 2pi/alat
        k(    1) = (   0.0485313   0.0485313   0.0485313), wk =   0.0219479
        k(    2) = (   0.0485313   0.0485313   0.1455939), wk =   0.0658436
        k(    3) = (   0.0485313   0.0485313   0.2426564), wk =   0.0658436
        k(    4) = (   0.0485313   0.0485313   0.3397190), wk =   0.0658436
        k(    5) = (   0.0485313   0.0485313  -0.4367816), wk =   0.0329218
        k(    6) = (   0.0485313   0.1455939   0.1455939), wk =   0.0658436
        k(    7) = (   0.0485313   0.1455939   0.2426564), wk =   0.1316872
        k(    8) = (   0.0485313   0.1455939   0.3397190), wk =   0.1316872
        k(    9) = (   0.0485313   0.1455939  -0.4367816), wk =   0.0658436
        k(   10) = (   0.0485313   0.2426564   0.2426564), wk =   0.0658436
        k(   11) = (   0.0485313   0.2426564   0.3397190), wk =   0.1316872
        k(   12) = (   0.0485313   0.2426564  -0.4367816), wk =   0.0658436
        k(   13) = (   0.0485313   0.3397190   0.3397190), wk =   0.0658436
        k(   14) = (   0.0485313   0.3397190  -0.4367816), wk =   0.0658436
        k(   15) = (   0.0485313  -0.4367816  -0.4367816), wk =   0.0164609
        k(   16) = (   0.1455939   0.1455939   0.1455939), wk =   0.0219479
        k(   17) = (   0.1455939   0.1455939   0.2426564), wk =   0.0658436
        k(   18) = (   0.1455939   0.1455939   0.3397190), wk =   0.0658436
        k(   19) = (   0.1455939   0.1455939  -0.4367816), wk =   0.0329218
        k(   20) = (   0.1455939   0.2426564   0.2426564), wk =   0.0658436
        k(   21) = (   0.1455939   0.2426564   0.3397190), wk =   0.1316872
        k(   22) = (   0.1455939   0.2426564  -0.4367816), wk =   0.0658436
        k(   23) = (   0.1455939   0.3397190   0.3397190), wk =   0.0658436
        k(   24) = (   0.1455939   0.3397190  -0.4367816), wk =   0.0658436
        k(   25) = (   0.1455939  -0.4367816  -0.4367816), wk =   0.0164609
        k(   26) = (   0.2426564   0.2426564   0.2426564), wk =   0.0219479
        k(   27) = (   0.2426564   0.2426564   0.3397190), wk =   0.0658436
        k(   28) = (   0.2426564   0.2426564  -0.4367816), wk =   0.0329218
        k(   29) = (   0.2426564   0.3397190   0.3397190), wk =   0.0658436
        k(   30) = (   0.2426564   0.3397190  -0.4367816), wk =   0.0658436
        k(   31) = (   0.2426564  -0.4367816  -0.4367816), wk =   0.0164609
        k(   32) = (   0.3397190   0.3397190   0.3397190), wk =   0.0219479
        k(   33) = (   0.3397190   0.3397190  -0.4367816), wk =   0.0329218
        k(   34) = (   0.3397190  -0.4367816  -0.4367816), wk =   0.0164609
        k(   35) = (  -0.4367816  -0.4367816  -0.4367816), wk =   0.0027435

     Check: negative core charge=   -0.000001

     Initial potential from superposition of free atoms

     starting charge  575.98776, renormalised to  576.00000
     Starting wfcs are  320 randomized atomic wfcs +   26 random wfcs
     Checking if some PAW data can be deallocated...

     Self-consistent Calculation

     iteration #  1     ecut=    71.00 Ry     beta= 0.10
     Davidson diagonalization with overlap
     ethr =  1.00E-02,  avg # of iterations =  3.1

     Threshold (ethr) on eigenvalues was too large:
     Diagonalizing with lowered threshold

     Davidson diagonalization with overlap
     ethr =  4.95E-04,  avg # of iterations =  1.2

     total energy              =  -16384.11128782 Ry
     estimated scf accuracy    <       2.77108147 Ry

[...]

     total energy              =  -16383.67582494 Ry
     estimated scf accuracy    <       0.00001350 Ry

     iteration # 15     ecut=    71.00 Ry     beta= 0.10
     Davidson diagonalization with overlap
     ethr =  2.30E-09,  avg # of iterations =  2.0

     End of self-consistent calculation

          k = 0.0485 0.0485 0.0485 ( 45271 PWs)   bands (ev):

   -71.0450 -71.0387 -71.0387 -71.0387 -71.0375 -71.0375 -71.0375 -71.0353
   -71.0353 -71.0353 -71.0347 -71.0346 -71.0346 -71.0346 -71.0346 -71.0346
   -71.0346 -71.0346 -71.0346 -71.0346 -71.0341 -71.0340 -71.0340 -71.0312
   -71.0312 -71.0312 -71.0312 -71.0312 -71.0312 -71.0312 -71.0312 -71.0312
   -36.8099 -36.8099 -36.8099 -36.8095 -36.8046 -36.8046 -36.8046 -36.7808
   -36.7808 -36.7808 -36.7795 -36.7795 -36.7795 -36.7795 -36.7795 -36.7795
   -36.7770 -36.7770 -36.7770 -36.7764 -36.7764 -36.7764 -36.7764 -36.7764
   -36.7764 -36.7709 -36.7709 -36.7709 -36.7709 -36.7709 -36.7709 -36.7575
   -36.7575 -36.7575 -36.7511 -36.7511 -36.7511 -36.7482 -36.7482 -36.7482
   -36.7464 -36.7464 -36.7464 -36.7464 -36.7464 -36.7464 -36.7423 -36.7423
   -36.7423 -36.7422 -36.7422 -36.7422 -36.7422 -36.7422 -36.7422 -36.7419
   -36.7419 -36.7419 -36.7418 -36.7418 -36.7417 -36.7223 -36.7223 -36.7223
   -36.7223 -36.7223 -36.7223 -36.7185 -36.7185 -36.7185 -36.7185 -36.7185
   -36.7185 -36.7180 -36.7180 -36.7180 -36.7166 -36.7166 -36.7166 -36.7164
   -36.7164 -36.7164 -36.7164 -36.7164 -36.7164 -36.7161 -36.7161 -36.7161
   -36.7157 -36.7157 -36.7143 -36.7143 -36.7143 -36.6998 -36.6990 -36.6990
     7.4258   9.0817   9.0817   9.0817   9.0910   9.1015   9.1015   9.1015
     9.1484   9.1484   9.1484   9.2825   9.2825   9.2825   9.3043   9.3043
     9.3043   9.8081   9.8081   9.8081   9.8081   9.8081   9.8081   9.8599
     9.8599   9.8599   9.8896   9.8896   9.8896   9.9563   9.9563   9.9563
     9.9563   9.9563   9.9563   9.9669   9.9669   9.9669   9.9731   9.9731
     9.9731  10.2162  10.2162  10.2162  10.2162  10.2162  10.2162  10.2789
    10.2789  10.2789  10.2936  10.2936  10.2936  10.2936  10.2936  10.2936
    10.3333  10.3333  10.3333  10.4383  10.4383  10.4383  10.4383  10.4383
    10.4383  10.5470  10.5470  10.5470  10.5470  10.5470  10.5470  10.5487
    10.5487  10.5487  10.5884  10.5885  10.5885  10.6000  10.6000  10.6030
    10.6065  10.6065  10.6066  10.6076  10.6076  10.6076  10.6144  10.6144
    11.1313  11.1313  11.1313  11.1544  11.1544  11.1544  11.2010  11.2010
    11.2010  11.2010  11.2010  11.2010  11.2031  11.2031  11.2031  11.2651
    11.2651  11.2651  11.2770  11.2770  11.2770  11.3656  11.3656  11.3656
    11.4229  11.4229  11.4229  11.4546  11.4546  11.4546  11.5204  11.5204
    11.5204  11.5204  11.5204  11.5204  11.5216  11.5216  11.5420  11.5420
    11.5420  11.5420  11.5420  11.5420  11.5496  11.5496  11.5496  11.6055
    11.6055  11.6055  11.8221  11.8221  11.8221  11.8819  11.8819  11.8819
    12.1437  12.1437  12.1437  12.1763  12.1763  12.1763  12.1924  12.1924
    12.2037  12.2037  12.2037  12.3430  12.3430  12.3430  12.3662  12.3662
    12.3662  12.3662  12.3662  12.3662  12.3679  12.3680  12.3680  13.5633
    13.5633  13.5633  13.7962  13.9697  13.9697  13.9697  13.9697  13.9697
    13.9697  14.0038  14.0038  14.0038  14.3979  14.3979  14.3979  15.6528
    15.6528  15.6528  17.3520  17.3520  17.3520  17.5171  19.0789  19.0789
    19.0789  19.0789  19.0789  19.0789  19.6152  19.6152  19.6152  19.6152
    19.6152  19.6152  20.0636  20.0636  20.0636  20.3275  20.3275  20.3275
    20.3275  20.3275  20.3275  21.5047  21.5047  21.5047  21.7329  21.7329
    21.7329  21.7329

[...]

          k = 0.3397-0.4368-0.4368 ( 45256 PWs)   bands (ev):

[...]

          k =-0.4368-0.4368-0.4368 ( 45104 PWs)   bands (ev):

   -71.0398 -71.0398 -71.0398 -71.0398 -71.0398 -71.0398 -71.0398 -71.0398
   -71.0330 -71.0329 -71.0329 -71.0329 -71.0329 -71.0329 -71.0329 -71.0329
   -71.0329 -71.0329 -71.0329 -71.0329 -71.0329 -71.0329 -71.0329 -71.0329
   -71.0329 -71.0329 -71.0329 -71.0329 -71.0329 -71.0329 -71.0329 -71.0329
   -36.7919 -36.7919 -36.7919 -36.7919 -36.7919 -36.7919 -36.7919 -36.7919
   -36.7919 -36.7919 -36.7919 -36.7919 -36.7919 -36.7919 -36.7919 -36.7919
   -36.7919 -36.7919 -36.7919 -36.7918 -36.7918 -36.7918 -36.7918 -36.7918
   -36.7543 -36.7543 -36.7543 -36.7543 -36.7543 -36.7543 -36.7543 -36.7543
   -36.7448 -36.7448 -36.7448 -36.7448 -36.7448 -36.7448 -36.7448 -36.7448
   -36.7448 -36.7448 -36.7448 -36.7448 -36.7448 -36.7448 -36.7448 -36.7448
   -36.7448 -36.7448 -36.7448 -36.7448 -36.7448 -36.7448 -36.7448 -36.7448
   -36.7290 -36.7290 -36.7290 -36.7290 -36.7290 -36.7290 -36.7290 -36.7290
   -36.7290 -36.7290 -36.7290 -36.7290 -36.7290 -36.7290 -36.7290 -36.7290
   -36.7290 -36.7290 -36.7290 -36.7290 -36.7290 -36.7289 -36.7289 -36.7289
   -36.7074 -36.7074 -36.7074 -36.7074 -36.7074 -36.7074 -36.7074 -36.7074
   -36.7074 -36.7074 -36.7074 -36.7074 -36.7074 -36.7074 -36.7074 -36.7074
     8.7685   8.7685   8.7685   8.7685   8.7685   8.7685   8.7685   8.7685
     9.5718   9.5718   9.5718   9.5718   9.5718   9.5718   9.5718   9.5718
     9.5718   9.5718   9.5718   9.5718   9.5718   9.5718   9.5718   9.5718
     9.5718   9.5718   9.5718   9.5718   9.5718   9.5718   9.5718   9.5718
    10.0858  10.0858  10.0858  10.0858  10.0858  10.0858  10.0858  10.0858
    10.0858  10.0858  10.0858  10.0858  10.0858  10.0858  10.0858  10.0858
    10.0858  10.0858  10.0858  10.0858  10.0858  10.0858  10.0858  10.0858
    10.6427  10.6427  10.6427  10.6427  10.6427  10.6427  10.6427  10.6427
    10.7860  10.7860  10.7860  10.7860  10.7860  10.7860  10.7860  10.7860
    10.7860  10.7860  10.7860  10.7860  10.7860  10.7860  10.7860  10.7860
    10.9399  10.9399  10.9399  10.9399  10.9399  10.9399  10.9399  10.9399
    10.9399  10.9399  10.9399  10.9399  10.9399  10.9399  10.9399  10.9399
    10.9399  10.9399  10.9399  10.9399  10.9399  10.9399  10.9399  10.9399
    11.3387  11.3387  11.3387  11.3387  11.3387  11.3387  11.3387  11.3387
    11.3387  11.3387  11.3387  11.3387  11.3387  11.3387  11.3387  11.3387
    11.3387  11.3387  11.3387  11.3387  11.3387  11.3387  11.3387  11.3387
    11.6256  11.6256  11.6256  11.6256  11.6256  11.6256  11.6256  11.6256
    11.6256  11.6256  11.6256  11.6256  11.6256  11.6256  11.6256  11.6256
    12.2516  12.2516  12.2516  12.2516  12.2516  12.2516  12.2516  12.2516
    12.2516  12.2516  12.2516  12.2516  12.2516  12.2516  12.2516  12.2516
    12.2516  12.2516  12.2516  12.2516  12.2516  12.2516  12.2516  12.2516
    15.2259  15.2259  15.2259  15.2259  15.2259  15.2259  15.2259  15.2259
    15.2259  15.2259  15.2259  15.2259  15.2259  15.2259  15.2259  15.2259
    15.2259  15.2259  15.2259  15.2259  15.2259  15.2259  15.2259  15.2259
    19.5461  19.5461  19.5461  19.5461  19.5461  19.5461  19.5461  19.5461
    19.5461  19.5461  19.5461  19.5461  19.5461  19.5461  19.5461  19.5461
    19.5461  19.5461  19.5461  19.5461  19.5461  19.5461  19.5461  19.5461
    24.0244  24.0245

     the Fermi energy is    12.3363 ev

!    total energy              =  -16383.67583340 Ry

     total all-electron energy =   -322944.529541 Ry
     estimated scf accuracy    <       0.00000025 Ry
     smearing contrib. (-TS)   =       0.19847369 Ry
     internal energy E=F+TS    =  -16383.87430709 Ry

     The total energy is F=E-TS. E is the sum of the following terms:
     one-electron contribution =   -3506.75191826 Ry
     hartree contribution      =    2039.05257819 Ry
     xc contribution           =    -981.60056884 Ry
     ewald contribution        =   -5767.44029183 Ry
     one-center paw contrib.   =   -8167.13410635 Ry

     convergence has been achieved in  15 iterations

     Forces acting on atoms (cartesian axes, Ry/au):

     atom    1 type  1   force =     0.00000000    0.00000000    0.00000000
     atom    2 type  1   force =     0.00000092    0.00000092   -0.00000000
     atom    3 type  1   force =     0.00000092    0.00000000    0.00000092
     atom    4 type  1   force =     0.00000000    0.00000092    0.00000092
     atom    5 type  1   force =     0.00000000    0.00000000    0.00000000
     atom    6 type  1   force =    -0.00000741   -0.00000741   -0.00000000
     atom    7 type  1   force =     0.00000092    0.00000000   -0.00000092
     atom    8 type  1   force =    -0.00000000    0.00000092   -0.00000092
     atom    9 type  1   force =     0.00000000    0.00000000    0.00000000
     atom   10 type  1   force =     0.00000092   -0.00000092   -0.00000000
     atom   11 type  1   force =    -0.00000741    0.00000000   -0.00000741
     atom   12 type  1   force =     0.00000000   -0.00000092    0.00000092
     atom   13 type  1   force =     0.00000000    0.00000000    0.00000000
     atom   14 type  1   force =    -0.00000741    0.00000741    0.00000000
     atom   15 type  1   force =    -0.00000741    0.00000000    0.00000741
     atom   16 type  1   force =     0.00000000   -0.00000092   -0.00000092
     atom   17 type  1   force =     0.00000000    0.00000000    0.00000000
     atom   18 type  1   force =    -0.00000092    0.00000092   -0.00000000
     atom   19 type  1   force =    -0.00000092    0.00000000    0.00000092
     atom   20 type  1   force =    -0.00000000   -0.00000741   -0.00000741
     atom   21 type  1   force =     0.00000000    0.00000000    0.00000000
     atom   22 type  1   force =     0.00000741   -0.00000741    0.00000000
     atom   23 type  1   force =    -0.00000092    0.00000000   -0.00000092
     atom   24 type  1   force =     0.00000000   -0.00000741    0.00000741
     atom   25 type  1   force =     0.00000000    0.00000000    0.00000000
     atom   26 type  1   force =    -0.00000092   -0.00000092    0.00000000
     atom   27 type  1   force =     0.00000741    0.00000000   -0.00000741
     atom   28 type  1   force =     0.00000000    0.00000741   -0.00000741
     atom   29 type  1   force =     0.00000000    0.00000000    0.00000000
     atom   30 type  1   force =     0.00000741    0.00000741   -0.00000000
     atom   31 type  1   force =     0.00000741   -0.00000000    0.00000741
     atom   32 type  1   force =    -0.00000000    0.00000741    0.00000741

     Total force =     0.000037     Total SCF correction =     0.000104
     SCF correction compared to forces is large: reduce conv_thr to get better values

     Computing stress (Cartesian axis) and pressure

          total   stress  (Ry/bohr**3)                   (kbar)     P=     -237.37
  -0.00161358   0.00000000   0.00000000         -237.37        0.00        0.00
   0.00000000  -0.00161358   0.00000000            0.00     -237.37        0.00
   0.00000000   0.00000000  -0.00161358            0.00        0.00     -237.37

     Writing output data file /scratch/vrmBkqIZGHocUxjN.save/

     General routines

     Parallel routines

   This run was terminated on:  20:13: 5  26Nov2021

   JOB DONE.