     Program PWSCF v.6.7MaX starts on 27Nov2021 at  3:58:19

     R & G space division:  proc/nbgrp/npool/nimage =      72
     Reading input from fcc_18.in
Warning: card &CELL ignored
Warning: card CELL_DYNAMICS = 'BFGS', ignored
Warning: card CELL_FACTOR = 2.0, ignored
Warning: card PRESS = 0.0, ignored
Warning: card / ignored

     Current dimensions of program PWSCF are:
     Max number of different atomic species (ntypx) = 10
     Max number of k-points (npk) =  40000
     Max angular momentum in pseudopotentials (lmaxx) =  3
     file Pd.pbe-spn-kjpaw_psl.1.0.0.UPF: wavefunction(s)  4S 5S 4D renormalized

     Subspace diagonalization in iterative solution of the eigenvalue problem:
     one sub-group per band group will be used

     Found symmetry operation: I + (  0.2500  0.2500  0.0000)
     This is a supercell, fractional translations are disabled
     Message from routine setup:
     using ibrav=0 with symmetry is DISCOURAGED, use correct ibrav instead

     bravais-lattice index     =            0
     lattice parameter (alat)  =      14.4000  a.u.
     unit-cell volume          =   19476.5367 (a.u.)^3
     number of atoms/cell      =           32
     number of atomic types    =            1
     number of electrons       =       576.00
     number of Kohn-Sham states=          346
     kinetic-energy cutoff     =      71.0000  Ry
     charge density cutoff     =     430.0000  Ry
     scf convergence threshold =      1.0E-06
     mixing beta               =       0.1000
     number of iterations used =           10  TF        mixing
     Exchange-correlation= SLA  PW   PBX  PBC
                           (   1   4   3   4   0   0   0)

     celldm(1)=  14.400000  celldm(2)=   0.000000  celldm(3)=   0.000000
     celldm(4)=   0.000000  celldm(5)=   0.000000  celldm(6)=   0.000000

     crystal axes: (cart. coord. in units of alat)
               a(1) = (   1.868421   0.000000   0.000000 )
               a(2) = (   0.000000   1.868421   0.000000 )
               a(3) = (   0.000000   0.000000   1.868421 )

     reciprocal axes: (cart. coord. in units 2 pi/alat)
               b(1) = (  0.535211  0.000000  0.000000 )
               b(2) = (  0.000000  0.535211  0.000000 )
               b(3) = (  0.000000  0.000000  0.535211 )

     PseudoPot. # 1 for Pd read from file:
     /rds/homes/b/bxp912/pp/Pd.pbe-spn-kjpaw_psl.1.0.0.UPF
     MD5 check sum: 790f2ebce206edfd9790dcb9844eca51
     Pseudo is Projector augmented-wave + core cor, Zval = 18.0
     Generated using &quot;atomic&quot; code by A. Dal Corso  v.6.3
     Shape of augmentation charge: PSQ
     Using radial grid of 1235 points,  6 beta functions with:
                l(1) =   0
                l(2) =   0
                l(3) =   1
                l(4) =   1
                l(5) =   2
                l(6) =   2
     Q(r) pseudized with 0 coefficients

     atomic species   valence    mass     pseudopotential
        Pd            18.00   106.42000     Pd( 1.00)

     48 Sym. Ops., with inversion, found

   Cartesian axes

     site n.     atom                  positions (alat units)
         1           Pd  tau(   1) = (   0.0000000   0.0000000   0.0000000  )
         2           Pd  tau(   2) = (   0.4671053   0.4671053   0.0000000  )
         3           Pd  tau(   3) = (   0.4671053   0.0000000   0.4671053  )
         4           Pd  tau(   4) = (   0.0000000   0.4671053   0.4671053  )
         5           Pd  tau(   5) = (   0.0000000   0.0000000   0.9342105  )
         6           Pd  tau(   6) = (   0.4671053   0.4671053   0.9342105  )
         7           Pd  tau(   7) = (   0.4671053   0.0000000   1.4013158  )
         8           Pd  tau(   8) = (   0.0000000   0.4671053   1.4013158  )
         9           Pd  tau(   9) = (   0.0000000   0.9342105   0.0000000  )
        10           Pd  tau(  10) = (   0.4671053   1.4013158   0.0000000  )
        11           Pd  tau(  11) = (   0.4671053   0.9342105   0.4671053  )
        12           Pd  tau(  12) = (   0.0000000   1.4013158   0.4671053  )
        13           Pd  tau(  13) = (   0.0000000   0.9342105   0.9342105  )
        14           Pd  tau(  14) = (   0.4671053   1.4013158   0.9342105  )
        15           Pd  tau(  15) = (   0.4671053   0.9342105   1.4013158  )
        16           Pd  tau(  16) = (   0.0000000   1.4013158   1.4013158  )
        17           Pd  tau(  17) = (   0.9342105   0.0000000   0.0000000  )
        18           Pd  tau(  18) = (   1.4013158   0.4671053   0.0000000  )
        19           Pd  tau(  19) = (   1.4013158   0.0000000   0.4671053  )
        20           Pd  tau(  20) = (   0.9342105   0.4671053   0.4671053  )
        21           Pd  tau(  21) = (   0.9342105   0.0000000   0.9342105  )
        22           Pd  tau(  22) = (   1.4013158   0.4671053   0.9342105  )
        23           Pd  tau(  23) = (   1.4013158   0.0000000   1.4013158  )
        24           Pd  tau(  24) = (   0.9342105   0.4671053   1.4013158  )
        25           Pd  tau(  25) = (   0.9342105   0.9342105   0.0000000  )
        26           Pd  tau(  26) = (   1.4013158   1.4013158   0.0000000  )
        27           Pd  tau(  27) = (   1.4013158   0.9342105   0.4671053  )
        28           Pd  tau(  28) = (   0.9342105   1.4013158   0.4671053  )
        29           Pd  tau(  29) = (   0.9342105   0.9342105   0.9342105  )
        30           Pd  tau(  30) = (   1.4013158   1.4013158   0.9342105  )
        31           Pd  tau(  31) = (   1.4013158   0.9342105   1.4013158  )
        32           Pd  tau(  32) = (   0.9342105   1.4013158   1.4013158  )

     number of k points=    35  Marzari-Vanderbilt smearing, width (Ry)=  0.0400
                       cart. coord. in units 2pi/alat
        k(    1) = (   0.0297340   0.0297340   0.0297340), wk =   0.0219479
        k(    2) = (   0.0297340   0.0297340   0.0892019), wk =   0.0658436
        k(    3) = (   0.0297340   0.0297340   0.1486698), wk =   0.0658436
        k(    4) = (   0.0297340   0.0297340   0.2081377), wk =   0.0658436
        k(    5) = (   0.0297340   0.0297340  -0.2676056), wk =   0.0329218
        k(    6) = (   0.0297340   0.0892019   0.0892019), wk =   0.0658436
        k(    7) = (   0.0297340   0.0892019   0.1486698), wk =   0.1316872
        k(    8) = (   0.0297340   0.0892019   0.2081377), wk =   0.1316872
        k(    9) = (   0.0297340   0.0892019  -0.2676056), wk =   0.0658436
        k(   10) = (   0.0297340   0.1486698   0.1486698), wk =   0.0658436
        k(   11) = (   0.0297340   0.1486698   0.2081377), wk =   0.1316872
        k(   12) = (   0.0297340   0.1486698  -0.2676056), wk =   0.0658436
        k(   13) = (   0.0297340   0.2081377   0.2081377), wk =   0.0658436
        k(   14) = (   0.0297340   0.2081377  -0.2676056), wk =   0.0658436
        k(   15) = (   0.0297340  -0.2676056  -0.2676056), wk =   0.0164609
        k(   16) = (   0.0892019   0.0892019   0.0892019), wk =   0.0219479
        k(   17) = (   0.0892019   0.0892019   0.1486698), wk =   0.0658436
        k(   18) = (   0.0892019   0.0892019   0.2081377), wk =   0.0658436
        k(   19) = (   0.0892019   0.0892019  -0.2676056), wk =   0.0329218
        k(   20) = (   0.0892019   0.1486698   0.1486698), wk =   0.0658436
        k(   21) = (   0.0892019   0.1486698   0.2081377), wk =   0.1316872
        k(   22) = (   0.0892019   0.1486698  -0.2676056), wk =   0.0658436
        k(   23) = (   0.0892019   0.2081377   0.2081377), wk =   0.0658436
        k(   24) = (   0.0892019   0.2081377  -0.2676056), wk =   0.0658436
        k(   25) = (   0.0892019  -0.2676056  -0.2676056), wk =   0.0164609
        k(   26) = (   0.1486698   0.1486698   0.1486698), wk =   0.0219479
        k(   27) = (   0.1486698   0.1486698   0.2081377), wk =   0.0658436
        k(   28) = (   0.1486698   0.1486698  -0.2676056), wk =   0.0329218
        k(   29) = (   0.1486698   0.2081377   0.2081377), wk =   0.0658436
        k(   30) = (   0.1486698   0.2081377  -0.2676056), wk =   0.0658436
        k(   31) = (   0.1486698  -0.2676056  -0.2676056), wk =   0.0164609
        k(   32) = (   0.2081377   0.2081377   0.2081377), wk =   0.0219479
        k(   33) = (   0.2081377   0.2081377  -0.2676056), wk =   0.0329218
        k(   34) = (   0.2081377  -0.2676056  -0.2676056), wk =   0.0164609
        k(   35) = (  -0.2676056  -0.2676056  -0.2676056), wk =   0.0027435

     Initial potential from superposition of free atoms

     starting charge  575.98776, renormalised to  576.00000
     Starting wfcs are  320 randomized atomic wfcs +   26 random wfcs
     Checking if some PAW data can be deallocated...

     Self-consistent Calculation

     iteration #  1     ecut=    71.00 Ry     beta= 0.10
     Davidson diagonalization with overlap
     ethr =  1.00E-02,  avg # of iterations =  6.0

     total energy              =  -16381.44494937 Ry
     estimated scf accuracy    <      24.90336832 Ry

[...]

     iteration #  6     ecut=    71.00 Ry     beta= 0.10
     Davidson diagonalization with overlap
     c_bands:  3 eigenvalues not converged
     c_bands:  1 eigenvalues not converged
     ethr =  2.00E-04,  avg # of iterations =  4.5

[...]

     iteration # 72     ecut=    71.00 Ry     beta= 0.10
     Davidson diagonalization with overlap
     c_bands:  1 eigenvalues not converged
     c_bands:  1 eigenvalues not converged
     c_bands:  2 eigenvalues not converged
     c_bands:  1 eigenvalues not converged
     ethr =  2.44E-07,  avg # of iterations =  5.9

[...]

     total energy              =  -16375.81578784 Ry
     estimated scf accuracy    <       0.00000132 Ry

     iteration # 92     ecut=    71.00 Ry     beta= 0.10
     Davidson diagonalization with overlap
     ethr =  2.30E-10,  avg # of iterations =  2.0

     End of self-consistent calculation

          k = 0.0297 0.0297 0.0297 (196634 PWs)   bands (ev):

   -82.3777 -82.3774 -82.3774 -82.3774 -82.3774 -82.3774 -82.3774 -82.3774
   -82.3774 -82.3774 -82.3774 -82.3774 -82.3774 -82.3774 -82.3774 -82.3774
   -82.3774 -82.3774 -82.3774 -82.3774 -82.3774 -82.3774 -82.3774 -82.3774
   -82.3774 -82.3774 -82.3774 -82.3774 -82.3773 -82.3773 -82.3773 -82.3772
   -48.2112 -48.2112 -48.2112 -48.2111 -48.2111 -48.2111 -48.2111 -48.2111
   -48.2111 -48.2111 -48.2110 -48.2110 -48.2110 -48.2110 -48.2110 -48.2110
   -48.2110 -48.2110 -48.2110 -48.2110 -48.2110 -48.2110 -48.2110 -48.2110
   -48.2110 -48.2110 -48.2110 -48.2110 -48.2110 -48.2110 -48.2110 -48.2110
   -48.2110 -48.2110 -48.2110 -48.2110 -48.2110 -48.2110 -48.2110 -48.2110
   -48.2110 -48.2110 -48.2110 -48.2110 -48.2110 -48.2110 -48.2110 -48.2110
   -48.2110 -48.2110 -48.2110 -48.2110 -48.2110 -48.2110 -48.2110 -48.2110
   -48.2110 -48.2110 -48.2110 -48.2110 -48.2110 -48.2110 -48.2110 -48.2110
   -48.2110 -48.2110 -48.2110 -48.2110 -48.2110 -48.2109 -48.2109 -48.2109
   -48.2109 -48.2109 -48.2109 -48.2109 -48.2109 -48.2109 -48.2109 -48.2109
   -48.2109 -48.2109 -48.2109 -48.2109 -48.2109 -48.2109 -48.2109 -48.2109
   -48.2109 -48.2109 -48.2109 -48.2109 -48.2109 -48.2108 -48.2108 -48.2108
    -1.0815  -0.9841  -0.9841  -0.9841  -0.9826  -0.9818  -0.9818  -0.9818
    -0.9762  -0.9762  -0.9762  -0.9471  -0.9471  -0.9471  -0.9401  -0.9401
    -0.9401  -0.9247  -0.9247  -0.9247  -0.9241  -0.9241  -0.9241  -0.9241
    -0.9241  -0.9241  -0.9198  -0.9198  -0.9198  -0.9198  -0.9198  -0.9198
    -0.9189  -0.9189  -0.9189  -0.9173  -0.9173  -0.9173  -0.9088  -0.9088
    -0.9088  -0.9036  -0.9036  -0.9036  -0.9034  -0.9028  -0.9028  -0.9025
    -0.9025  -0.9025  -0.9025  -0.9025  -0.9025  -0.9021  -0.9021  -0.9021
    -0.9016  -0.9016  -0.9012  -0.9012  -0.9012  -0.9012  -0.9012  -0.9012
    -0.9010  -0.9010  -0.9010  -0.8953  -0.8953  -0.8953  -0.8854  -0.8854
    -0.8854  -0.8854  -0.8854  -0.8854  -0.8619  -0.8618  -0.8618  -0.8618
    -0.8618  -0.8618  -0.8608  -0.8608  -0.8608  -0.8567  -0.8567  -0.8567
    -0.8517  -0.8517  -0.8517  -0.8514  -0.8514  -0.8514  -0.8478  -0.8478
    -0.8478  -0.8443  -0.8443  -0.8426  -0.8426  -0.8426  -0.8426  -0.8425
    -0.8425  -0.8423  -0.8423  -0.8423  -0.8420  -0.8420  -0.8420  -0.8410
    -0.8410  -0.8410  -0.8410  -0.8410  -0.8410  -0.8354  -0.8354  -0.8354
    -0.8354  -0.8354  -0.8354  -0.8337  -0.8337  -0.8337  -0.8337  -0.8337
    -0.8337  -0.8320  -0.8320  -0.8320  -0.8223  -0.8223  -0.8223  -0.8179
    -0.8179  -0.8179  -0.7977  -0.7977  -0.7977  -0.7950  -0.7950  -0.7950
    -0.7944  -0.7944  -0.7937  -0.7937  -0.7937  -0.7818  -0.7818  -0.7818
    -0.7813  -0.7813  -0.7813  -0.7813  -0.7813  -0.7813  -0.7812  -0.7812
    -0.7812  -0.4322  -0.4322  -0.4321  -0.2777  -0.2777  -0.2777   0.1613
     0.1613   0.1613   0.2932   0.2932   0.2932   0.2932   0.2933   0.2933
     0.4173   0.4173   0.4173   0.5458   0.5798   0.5798   0.5798   1.1295
     1.1295   1.1295   1.1771   1.1771   1.1771   1.1771   1.1771   1.1771
     2.1967   2.1967   2.1967   2.2317   2.6684   2.6684   2.6684   3.4031
     3.4031   3.4031   3.4031   3.4031   3.4031   3.4058   3.4058   3.4060
     3.5221   3.5224   3.5224   3.5224   3.5225   3.5228   3.5798   3.5798
     3.5799   3.5800

[...]

          k = 0.2081-0.2676-0.2676 (196700 PWs)   bands (ev):

[...]

          k =-0.2676-0.2676-0.2676 (196392 PWs)   bands (ev):

   -82.3777 -82.3774 -82.3774 -82.3774 -82.3774 -82.3774 -82.3774 -82.3774
   -82.3774 -82.3774 -82.3774 -82.3774 -82.3774 -82.3774 -82.3774 -82.3774
   -82.3774 -82.3774 -82.3774 -82.3774 -82.3774 -82.3774 -82.3774 -82.3774
   -82.3774 -82.3774 -82.3774 -82.3774 -82.3773 -82.3773 -82.3773 -82.3772
   -48.2112 -48.2112 -48.2112 -48.2110 -48.2110 -48.2110 -48.2110 -48.2110
   -48.2110 -48.2110 -48.2110 -48.2110 -48.2110 -48.2110 -48.2110 -48.2110
   -48.2110 -48.2110 -48.2110 -48.2110 -48.2110 -48.2110 -48.2110 -48.2110
   -48.2110 -48.2110 -48.2110 -48.2110 -48.2110 -48.2110 -48.2110 -48.2110
   -48.2110 -48.2110 -48.2110 -48.2110 -48.2110 -48.2110 -48.2110 -48.2110
   -48.2110 -48.2110 -48.2110 -48.2110 -48.2110 -48.2110 -48.2110 -48.2110
   -48.2110 -48.2110 -48.2110 -48.2109 -48.2109 -48.2109 -48.2109 -48.2109
   -48.2109 -48.2109 -48.2109 -48.2109 -48.2109 -48.2109 -48.2109 -48.2109
   -48.2109 -48.2109 -48.2109 -48.2109 -48.2109 -48.2109 -48.2109 -48.2109
   -48.2109 -48.2109 -48.2109 -48.2109 -48.2109 -48.2109 -48.2109 -48.2109
   -48.2109 -48.2109 -48.2109 -48.2109 -48.2109 -48.2109 -48.2109 -48.2109
   -48.2109 -48.2109 -48.2109 -48.2109 -48.2109 -48.2108 -48.2108 -48.2108
    -0.9543  -0.9543  -0.9543  -0.9543  -0.9543  -0.9543  -0.9543  -0.9543
    -0.9543  -0.9543  -0.9543  -0.9543  -0.9543  -0.9543  -0.9543  -0.9543
    -0.9543  -0.9543  -0.9542  -0.9542  -0.9542  -0.9542  -0.9542  -0.9542
    -0.9515  -0.9515  -0.9515  -0.9515  -0.9515  -0.9515  -0.9515  -0.9515
    -0.9077  -0.9077  -0.9077  -0.9077  -0.9077  -0.9077  -0.9077  -0.9077
    -0.9077  -0.9077  -0.9077  -0.9077  -0.9077  -0.9077  -0.9077  -0.9077
    -0.9077  -0.9077  -0.9077  -0.9077  -0.9077  -0.9077  -0.9077  -0.9077
    -0.8896  -0.8896  -0.8896  -0.8896  -0.8896  -0.8896  -0.8896  -0.8896
    -0.8896  -0.8896  -0.8896  -0.8896  -0.8896  -0.8896  -0.8896  -0.8896
    -0.8480  -0.8480  -0.8479  -0.8479  -0.8479  -0.8479  -0.8479  -0.8479
    -0.8479  -0.8479  -0.8479  -0.8479  -0.8479  -0.8479  -0.8479  -0.8479
    -0.8479  -0.8479  -0.8479  -0.8479  -0.8479  -0.8479  -0.8479  -0.8479
    -0.8441  -0.8441  -0.8441  -0.8441  -0.8441  -0.8441  -0.8441  -0.8441
    -0.8441  -0.8441  -0.8441  -0.8441  -0.8441  -0.8441  -0.8441  -0.8441
    -0.8441  -0.8441  -0.8441  -0.8441  -0.8441  -0.8440  -0.8440  -0.8440
    -0.8326  -0.8326  -0.8326  -0.8326  -0.8326  -0.8326  -0.8326  -0.8326
    -0.8326  -0.8326  -0.8326  -0.8326  -0.8326  -0.8326  -0.8325  -0.8325
    -0.7904  -0.7904  -0.7904  -0.7904  -0.7904  -0.7904  -0.7904  -0.7904
    -0.7904  -0.7904  -0.7904  -0.7904  -0.7904  -0.7904  -0.7904  -0.7904
    -0.7904  -0.7904  -0.7904  -0.7904  -0.7904  -0.7904  -0.7904  -0.7904
    -0.5233  -0.5233  -0.5233  -0.5233  -0.5233  -0.5233  -0.5233  -0.5232
     0.6896   0.6897   0.6897   0.6897   0.6897   0.6897   0.6897   0.6898
     0.6898   0.6898   0.6898   0.6898   0.6898   0.6898   0.6898   0.6898
     0.6898   0.6898   0.6898   0.6898   0.6898   0.6898   0.6898   0.6899
     2.9820   2.9820   2.9820   2.9821   2.9821   2.9821   2.9821   2.9821
     2.9821   2.9821   2.9821   2.9821   2.9822   2.9822   2.9822   2.9822
     2.9822   2.9822   2.9822   2.9822   2.9823   2.9823   2.9826   2.9826
     4.3635   4.3635

     the Fermi energy is    -0.3961 ev

!    total energy              =  -16375.81578820 Ry

     total all-electron energy =   -322936.669495 Ry
     estimated scf accuracy    <       0.00000079 Ry
     smearing contrib. (-TS)   =       0.72433076 Ry
     internal energy E=F+TS    =  -16376.54011896 Ry

     The total energy is F=E-TS. E is the sum of the following terms:
     one-electron contribution =   -7468.42240160 Ry
     hartree contribution      =    3777.06616118 Ry
     xc contribution           =    -985.06904163 Ry
     ewald contribution        =   -3533.57257318 Ry
     one-center paw contrib.   =   -8166.54226374 Ry

     convergence has been achieved in  92 iterations

     Forces acting on atoms (cartesian axes, Ry/au):

     atom    1 type  1   force =     0.00000000    0.00000000    0.00000000
     atom    2 type  1   force =    -0.00003224   -0.00003224    0.00000000
     atom    3 type  1   force =    -0.00003224   -0.00000000   -0.00003224
     atom    4 type  1   force =     0.00000000   -0.00003224   -0.00003224
     atom    5 type  1   force =     0.00000000    0.00000000    0.00000000
     atom    6 type  1   force =    -0.00001550   -0.00001550   -0.00000000
     atom    7 type  1   force =    -0.00003224    0.00000000    0.00003224
     atom    8 type  1   force =    -0.00000000   -0.00003224    0.00003224
     atom    9 type  1   force =     0.00000000    0.00000000    0.00000000
     atom   10 type  1   force =    -0.00003224    0.00003224    0.00000000
     atom   11 type  1   force =    -0.00001550    0.00000000   -0.00001550
     atom   12 type  1   force =    -0.00000000    0.00003224   -0.00003224
     atom   13 type  1   force =     0.00000000    0.00000000    0.00000000
     atom   14 type  1   force =    -0.00001550    0.00001550    0.00000000
     atom   15 type  1   force =    -0.00001550   -0.00000000    0.00001550
     atom   16 type  1   force =     0.00000000    0.00003224    0.00003224
     atom   17 type  1   force =     0.00000000    0.00000000    0.00000000
     atom   18 type  1   force =     0.00003224   -0.00003224    0.00000000
     atom   19 type  1   force =     0.00003224    0.00000000   -0.00003224
     atom   20 type  1   force =    -0.00000000   -0.00001550   -0.00001550
     atom   21 type  1   force =     0.00000000    0.00000000    0.00000000
     atom   22 type  1   force =     0.00001550   -0.00001550   -0.00000000
     atom   23 type  1   force =     0.00003224   -0.00000000    0.00003224
     atom   24 type  1   force =     0.00000000   -0.00001550    0.00001550
     atom   25 type  1   force =     0.00000000    0.00000000    0.00000000
     atom   26 type  1   force =     0.00003224    0.00003224    0.00000000
     atom   27 type  1   force =     0.00001550    0.00000000   -0.00001550
     atom   28 type  1   force =     0.00000000    0.00001550   -0.00001550
     atom   29 type  1   force =     0.00000000    0.00000000    0.00000000
     atom   30 type  1   force =     0.00001550    0.00001550    0.00000000
     atom   31 type  1   force =     0.00001550   -0.00000000    0.00001550
     atom   32 type  1   force =     0.00000000    0.00001550    0.00001550

     Total force =     0.000175     Total SCF correction =     0.001395
     SCF correction compared to forces is large: reduce conv_thr to get better values

     Computing stress (Cartesian axis) and pressure

          total   stress  (Ry/bohr**3)                   (kbar)     P=      -13.82
  -0.00009392   0.00000000   0.00000000          -13.82        0.00        0.00
   0.00000000  -0.00009392   0.00000000            0.00      -13.82        0.00
   0.00000000   0.00000000  -0.00009392            0.00        0.00      -13.82

     Writing output data file /scratch/ZgVdbQwBQtBVjgCL.save/

     General routines

     Parallel routines

   This run was terminated on:   8: 5:59  27Nov2021

   JOB DONE.