     Program PWSCF v.6.7MaX starts on 27Nov2021 at  2:12: 8

     R & G space division:  proc/nbgrp/npool/nimage =      72
     Reading input from fcc_17.in
Warning: card &CELL ignored
Warning: card CELL_DYNAMICS = 'BFGS', ignored
Warning: card CELL_FACTOR = 2.0, ignored
Warning: card PRESS = 0.0, ignored
Warning: card / ignored

     Current dimensions of program PWSCF are:
     Max number of different atomic species (ntypx) = 10
     Max number of k-points (npk) =  40000
     Max angular momentum in pseudopotentials (lmaxx) =  3
     file Pd.pbe-spn-kjpaw_psl.1.0.0.UPF: wavefunction(s)  4S 5S 4D renormalized

     Subspace diagonalization in iterative solution of the eigenvalue problem:
     one sub-group per band group will be used

     Found symmetry operation: I + (  0.2500  0.2500  0.0000)
     This is a supercell, fractional translations are disabled
     Message from routine setup:
     using ibrav=0 with symmetry is DISCOURAGED, use correct ibrav instead

     bravais-lattice index     =            0
     lattice parameter (alat)  =      14.4000  a.u.
     unit-cell volume          =   17490.7487 (a.u.)^3
     number of atoms/cell      =           32
     number of atomic types    =            1
     number of electrons       =       576.00
     number of Kohn-Sham states=          346
     kinetic-energy cutoff     =      71.0000  Ry
     charge density cutoff     =     430.0000  Ry
     scf convergence threshold =      1.0E-06
     mixing beta               =       0.1000
     number of iterations used =           10  TF        mixing
     Exchange-correlation= SLA  PW   PBX  PBC
                           (   1   4   3   4   0   0   0)

     celldm(1)=  14.400000  celldm(2)=   0.000000  celldm(3)=   0.000000
     celldm(4)=   0.000000  celldm(5)=   0.000000  celldm(6)=   0.000000

     crystal axes: (cart. coord. in units of alat)
               a(1) = (   1.802632   0.000000   0.000000 )
               a(2) = (   0.000000   1.802632   0.000000 )
               a(3) = (   0.000000   0.000000   1.802632 )

     reciprocal axes: (cart. coord. in units 2 pi/alat)
               b(1) = (  0.554745  0.000000  0.000000 )
               b(2) = (  0.000000  0.554745  0.000000 )
               b(3) = (  0.000000  0.000000  0.554745 )

     PseudoPot. # 1 for Pd read from file:
     /rds/homes/b/bxp912/pp/Pd.pbe-spn-kjpaw_psl.1.0.0.UPF
     MD5 check sum: 790f2ebce206edfd9790dcb9844eca51
     Pseudo is Projector augmented-wave + core cor, Zval = 18.0
     Generated using &quot;atomic&quot; code by A. Dal Corso  v.6.3
     Shape of augmentation charge: PSQ
     Using radial grid of 1235 points,  6 beta functions with:
                l(1) =   0
                l(2) =   0
                l(3) =   1
                l(4) =   1
                l(5) =   2
                l(6) =   2
     Q(r) pseudized with 0 coefficients

     atomic species   valence    mass     pseudopotential
        Pd            18.00   106.42000     Pd( 1.00)

     48 Sym. Ops., with inversion, found

   Cartesian axes

     site n.     atom                  positions (alat units)
         1           Pd  tau(   1) = (   0.0000000   0.0000000   0.0000000  )
         2           Pd  tau(   2) = (   0.4506579   0.4506579   0.0000000  )
         3           Pd  tau(   3) = (   0.4506579   0.0000000   0.4506579  )
         4           Pd  tau(   4) = (   0.0000000   0.4506579   0.4506579  )
         5           Pd  tau(   5) = (   0.0000000   0.0000000   0.9013158  )
         6           Pd  tau(   6) = (   0.4506579   0.4506579   0.9013158  )
         7           Pd  tau(   7) = (   0.4506579   0.0000000   1.3519737  )
         8           Pd  tau(   8) = (   0.0000000   0.4506579   1.3519737  )
         9           Pd  tau(   9) = (   0.0000000   0.9013158   0.0000000  )
        10           Pd  tau(  10) = (   0.4506579   1.3519737   0.0000000  )
        11           Pd  tau(  11) = (   0.4506579   0.9013158   0.4506579  )
        12           Pd  tau(  12) = (   0.0000000   1.3519737   0.4506579  )
        13           Pd  tau(  13) = (   0.0000000   0.9013158   0.9013158  )
        14           Pd  tau(  14) = (   0.4506579   1.3519737   0.9013158  )
        15           Pd  tau(  15) = (   0.4506579   0.9013158   1.3519737  )
        16           Pd  tau(  16) = (   0.0000000   1.3519737   1.3519737  )
        17           Pd  tau(  17) = (   0.9013158   0.0000000   0.0000000  )
        18           Pd  tau(  18) = (   1.3519737   0.4506579   0.0000000  )
        19           Pd  tau(  19) = (   1.3519737   0.0000000   0.4506579  )
        20           Pd  tau(  20) = (   0.9013158   0.4506579   0.4506579  )
        21           Pd  tau(  21) = (   0.9013158   0.0000000   0.9013158  )
        22           Pd  tau(  22) = (   1.3519737   0.4506579   0.9013158  )
        23           Pd  tau(  23) = (   1.3519737   0.0000000   1.3519737  )
        24           Pd  tau(  24) = (   0.9013158   0.4506579   1.3519737  )
        25           Pd  tau(  25) = (   0.9013158   0.9013158   0.0000000  )
        26           Pd  tau(  26) = (   1.3519737   1.3519737   0.0000000  )
        27           Pd  tau(  27) = (   1.3519737   0.9013158   0.4506579  )
        28           Pd  tau(  28) = (   0.9013158   1.3519737   0.4506579  )
        29           Pd  tau(  29) = (   0.9013158   0.9013158   0.9013158  )
        30           Pd  tau(  30) = (   1.3519737   1.3519737   0.9013158  )
        31           Pd  tau(  31) = (   1.3519737   0.9013158   1.3519737  )
        32           Pd  tau(  32) = (   0.9013158   1.3519737   1.3519737  )

     number of k points=    35  Marzari-Vanderbilt smearing, width (Ry)=  0.0400
                       cart. coord. in units 2pi/alat
        k(    1) = (   0.0308191   0.0308191   0.0308191), wk =   0.0219479
        k(    2) = (   0.0308191   0.0308191   0.0924574), wk =   0.0658436
        k(    3) = (   0.0308191   0.0308191   0.1540957), wk =   0.0658436
        k(    4) = (   0.0308191   0.0308191   0.2157340), wk =   0.0658436
        k(    5) = (   0.0308191   0.0308191  -0.2773723), wk =   0.0329218
        k(    6) = (   0.0308191   0.0924574   0.0924574), wk =   0.0658436
        k(    7) = (   0.0308191   0.0924574   0.1540957), wk =   0.1316872
        k(    8) = (   0.0308191   0.0924574   0.2157340), wk =   0.1316872
        k(    9) = (   0.0308191   0.0924574  -0.2773723), wk =   0.0658436
        k(   10) = (   0.0308191   0.1540957   0.1540957), wk =   0.0658436
        k(   11) = (   0.0308191   0.1540957   0.2157340), wk =   0.1316872
        k(   12) = (   0.0308191   0.1540957  -0.2773723), wk =   0.0658436
        k(   13) = (   0.0308191   0.2157340   0.2157340), wk =   0.0658436
        k(   14) = (   0.0308191   0.2157340  -0.2773723), wk =   0.0658436
        k(   15) = (   0.0308191  -0.2773723  -0.2773723), wk =   0.0164609
        k(   16) = (   0.0924574   0.0924574   0.0924574), wk =   0.0219479
        k(   17) = (   0.0924574   0.0924574   0.1540957), wk =   0.0658436
        k(   18) = (   0.0924574   0.0924574   0.2157340), wk =   0.0658436
        k(   19) = (   0.0924574   0.0924574  -0.2773723), wk =   0.0329218
        k(   20) = (   0.0924574   0.1540957   0.1540957), wk =   0.0658436
        k(   21) = (   0.0924574   0.1540957   0.2157340), wk =   0.1316872
        k(   22) = (   0.0924574   0.1540957  -0.2773723), wk =   0.0658436
        k(   23) = (   0.0924574   0.2157340   0.2157340), wk =   0.0658436
        k(   24) = (   0.0924574   0.2157340  -0.2773723), wk =   0.0658436
        k(   25) = (   0.0924574  -0.2773723  -0.2773723), wk =   0.0164609
        k(   26) = (   0.1540957   0.1540957   0.1540957), wk =   0.0219479
        k(   27) = (   0.1540957   0.1540957   0.2157340), wk =   0.0658436
        k(   28) = (   0.1540957   0.1540957  -0.2773723), wk =   0.0329218
        k(   29) = (   0.1540957   0.2157340   0.2157340), wk =   0.0658436
        k(   30) = (   0.1540957   0.2157340  -0.2773723), wk =   0.0658436
        k(   31) = (   0.1540957  -0.2773723  -0.2773723), wk =   0.0164609
        k(   32) = (   0.2157340   0.2157340   0.2157340), wk =   0.0219479
        k(   33) = (   0.2157340   0.2157340  -0.2773723), wk =   0.0329218
        k(   34) = (   0.2157340  -0.2773723  -0.2773723), wk =   0.0164609
        k(   35) = (  -0.2773723  -0.2773723  -0.2773723), wk =   0.0027435

     Initial potential from superposition of free atoms

     starting charge  575.98776, renormalised to  576.00000
     Starting wfcs are  320 randomized atomic wfcs +   26 random wfcs
     Checking if some PAW data can be deallocated...

     Self-consistent Calculation

     iteration #  1     ecut=    71.00 Ry     beta= 0.10
     Davidson diagonalization with overlap
     ethr =  1.00E-02,  avg # of iterations =  5.8

     total energy              =  -16381.41159264 Ry
     estimated scf accuracy    <      24.71787966 Ry

[...]

     iteration #  6     ecut=    71.00 Ry     beta= 0.10
     Davidson diagonalization with overlap
     c_bands:  1 eigenvalues not converged
     ethr =  1.64E-04,  avg # of iterations =  4.0

[...]

     iteration # 30     ecut=    71.00 Ry     beta= 0.10
     Davidson diagonalization with overlap
     c_bands:  1 eigenvalues not converged
     ethr =  2.22E-06,  avg # of iterations =  3.3

[...]

     total energy              =  -16375.99750936 Ry
     estimated scf accuracy    <       0.00000125 Ry

     iteration # 51     ecut=    71.00 Ry     beta= 0.10
     Davidson diagonalization with overlap
     ethr =  2.16E-10,  avg # of iterations =  3.6

     End of self-consistent calculation

          k = 0.0308 0.0308 0.0308 (176768 PWs)   bands (ev):

   -82.0645 -82.0645 -82.0645 -82.0645 -82.0645 -82.0645 -82.0645 -82.0645
   -82.0645 -82.0645 -82.0645 -82.0645 -82.0645 -82.0645 -82.0645 -82.0645
   -82.0645 -82.0645 -82.0645 -82.0645 -82.0645 -82.0645 -82.0645 -82.0645
   -82.0644 -82.0644 -82.0644 -82.0644 -82.0643 -82.0643 -82.0643 -82.0642
   -47.8924 -47.8924 -47.8924 -47.8924 -47.8924 -47.8924 -47.8923 -47.8923
   -47.8923 -47.8923 -47.8923 -47.8923 -47.8923 -47.8923 -47.8923 -47.8923
   -47.8923 -47.8923 -47.8923 -47.8923 -47.8923 -47.8923 -47.8923 -47.8923
   -47.8923 -47.8923 -47.8923 -47.8923 -47.8923 -47.8923 -47.8923 -47.8923
   -47.8923 -47.8923 -47.8923 -47.8923 -47.8923 -47.8923 -47.8923 -47.8923
   -47.8923 -47.8923 -47.8923 -47.8923 -47.8923 -47.8923 -47.8923 -47.8923
   -47.8923 -47.8923 -47.8923 -47.8923 -47.8923 -47.8923 -47.8923 -47.8923
   -47.8923 -47.8923 -47.8922 -47.8922 -47.8922 -47.8922 -47.8922 -47.8922
   -47.8922 -47.8922 -47.8922 -47.8922 -47.8922 -47.8922 -47.8922 -47.8922
   -47.8922 -47.8922 -47.8922 -47.8922 -47.8922 -47.8922 -47.8922 -47.8922
   -47.8922 -47.8922 -47.8922 -47.8922 -47.8921 -47.8921 -47.8921 -47.8921
   -47.8921 -47.8921 -47.8921 -47.8921 -47.8921 -47.8920 -47.8920 -47.8920
    -0.8605  -0.6673  -0.6663  -0.6663  -0.6663  -0.6637  -0.6637  -0.6637
    -0.6570  -0.6570  -0.6570  -0.6172  -0.6172  -0.6172  -0.6083  -0.6083
    -0.6083  -0.5914  -0.5914  -0.5914  -0.5914  -0.5914  -0.5914  -0.5908
    -0.5908  -0.5908  -0.5881  -0.5881  -0.5881  -0.5849  -0.5849  -0.5849
    -0.5849  -0.5849  -0.5848  -0.5821  -0.5821  -0.5821  -0.5773  -0.5773
    -0.5773  -0.5646  -0.5646  -0.5646  -0.5638  -0.5638  -0.5638  -0.5638
    -0.5638  -0.5638  -0.5619  -0.5619  -0.5619  -0.5619  -0.5619  -0.5619
    -0.5619  -0.5612  -0.5612  -0.5606  -0.5606  -0.5606  -0.5599  -0.5599
    -0.5593  -0.5593  -0.5593  -0.5549  -0.5549  -0.5549  -0.5425  -0.5425
    -0.5425  -0.5424  -0.5424  -0.5424  -0.5120  -0.5120  -0.5120  -0.5120
    -0.5120  -0.5120  -0.5096  -0.5096  -0.5096  -0.5046  -0.5046  -0.5046
    -0.4987  -0.4987  -0.4987  -0.4979  -0.4979  -0.4979  -0.4979  -0.4979
    -0.4979  -0.4913  -0.4913  -0.4913  -0.4903  -0.4903  -0.4903  -0.4903
    -0.4903  -0.4903  -0.4884  -0.4884  -0.4863  -0.4863  -0.4863  -0.4854
    -0.4854  -0.4854  -0.4851  -0.4851  -0.4851  -0.4782  -0.4782  -0.4782
    -0.4782  -0.4782  -0.4782  -0.4763  -0.4763  -0.4763  -0.4763  -0.4763
    -0.4763  -0.4736  -0.4736  -0.4736  -0.4613  -0.4613  -0.4613  -0.4560
    -0.4560  -0.4560  -0.4309  -0.4309  -0.4309  -0.4279  -0.4279  -0.4278
    -0.4270  -0.4270  -0.4261  -0.4261  -0.4261  -0.4116  -0.4116  -0.4116
    -0.4110  -0.4110  -0.4110  -0.4110  -0.4110  -0.4109  -0.4108  -0.4108
    -0.4108  -0.1300  -0.1300  -0.1300   0.0404   0.0404   0.0404   0.5425
     0.5426   0.5426   0.6936   0.6936   0.6936   0.6937   0.6937   0.6937
     0.8373   0.8373   0.8373   1.0181   1.0619   1.0620   1.0620   1.6960
     1.6961   1.6961   1.7560   1.7561   1.7561   1.7561   1.7561   1.7561
     2.5399   2.5400   2.5400   2.5848   3.0636   3.0636   3.0636   3.8736
     3.8736   3.8736   3.8737   3.8737   3.8737   3.9436   3.9436   3.9437
     4.0678   4.0678   4.0678   4.0679   4.0717   4.0761   4.0786   4.0786
     4.0787   4.0788

[...]

          k = 0.2157-0.2774-0.2774 (176752 PWs)   bands (ev):

[...]

          k =-0.2774-0.2774-0.2774 (176512 PWs)   bands (ev):

   -82.0645 -82.0645 -82.0645 -82.0645 -82.0645 -82.0645 -82.0645 -82.0645
   -82.0645 -82.0645 -82.0645 -82.0645 -82.0645 -82.0645 -82.0645 -82.0645
   -82.0645 -82.0645 -82.0645 -82.0645 -82.0645 -82.0645 -82.0645 -82.0645
   -82.0644 -82.0644 -82.0644 -82.0644 -82.0643 -82.0643 -82.0643 -82.0642
   -47.8923 -47.8923 -47.8923 -47.8923 -47.8923 -47.8923 -47.8923 -47.8923
   -47.8923 -47.8923 -47.8923 -47.8923 -47.8923 -47.8923 -47.8923 -47.8923
   -47.8923 -47.8923 -47.8923 -47.8923 -47.8923 -47.8923 -47.8923 -47.8923
   -47.8923 -47.8923 -47.8923 -47.8923 -47.8923 -47.8923 -47.8923 -47.8923
   -47.8923 -47.8923 -47.8923 -47.8923 -47.8923 -47.8923 -47.8923 -47.8923
   -47.8922 -47.8922 -47.8922 -47.8922 -47.8922 -47.8922 -47.8922 -47.8922
   -47.8922 -47.8922 -47.8922 -47.8922 -47.8922 -47.8922 -47.8922 -47.8922
   -47.8922 -47.8922 -47.8922 -47.8922 -47.8922 -47.8922 -47.8922 -47.8922
   -47.8922 -47.8922 -47.8922 -47.8922 -47.8922 -47.8922 -47.8922 -47.8922
   -47.8922 -47.8922 -47.8922 -47.8922 -47.8922 -47.8922 -47.8922 -47.8922
   -47.8922 -47.8922 -47.8922 -47.8922 -47.8921 -47.8921 -47.8921 -47.8921
   -47.8921 -47.8921 -47.8921 -47.8921 -47.8921 -47.8920 -47.8920 -47.8920
    -0.6343  -0.6343  -0.6343  -0.6343  -0.6343  -0.6343  -0.6343  -0.6343
    -0.6281  -0.6281  -0.6281  -0.6281  -0.6281  -0.6281  -0.6281  -0.6281
    -0.6281  -0.6281  -0.6281  -0.6281  -0.6281  -0.6281  -0.6281  -0.6281
    -0.6281  -0.6281  -0.6281  -0.6281  -0.6281  -0.6281  -0.6281  -0.6281
    -0.5704  -0.5704  -0.5704  -0.5704  -0.5704  -0.5704  -0.5704  -0.5704
    -0.5704  -0.5704  -0.5704  -0.5704  -0.5704  -0.5704  -0.5704  -0.5704
    -0.5704  -0.5704  -0.5704  -0.5704  -0.5704  -0.5704  -0.5704  -0.5704
    -0.5450  -0.5450  -0.5450  -0.5450  -0.5450  -0.5450  -0.5450  -0.5450
    -0.5450  -0.5450  -0.5450  -0.5450  -0.5450  -0.5450  -0.5450  -0.5450
    -0.4937  -0.4937  -0.4937  -0.4937  -0.4937  -0.4937  -0.4937  -0.4937
    -0.4937  -0.4937  -0.4937  -0.4937  -0.4937  -0.4937  -0.4937  -0.4937
    -0.4936  -0.4936  -0.4936  -0.4936  -0.4936  -0.4936  -0.4936  -0.4936
    -0.4915  -0.4915  -0.4915  -0.4915  -0.4915  -0.4915  -0.4915  -0.4915
    -0.4915  -0.4915  -0.4915  -0.4915  -0.4915  -0.4915  -0.4915  -0.4915
    -0.4915  -0.4915  -0.4915  -0.4915  -0.4915  -0.4915  -0.4915  -0.4915
    -0.4742  -0.4742  -0.4742  -0.4742  -0.4742  -0.4742  -0.4742  -0.4742
    -0.4742  -0.4742  -0.4742  -0.4742  -0.4742  -0.4742  -0.4742  -0.4742
    -0.4221  -0.4221  -0.4221  -0.4221  -0.4221  -0.4221  -0.4221  -0.4221
    -0.4221  -0.4221  -0.4221  -0.4221  -0.4221  -0.4221  -0.4221  -0.4221
    -0.4221  -0.4221  -0.4221  -0.4221  -0.4220  -0.4220  -0.4220  -0.4220
    -0.2257  -0.2257  -0.2257  -0.2257  -0.2257  -0.2257  -0.2257  -0.2257
     1.1576   1.1579   1.1579   1.1579   1.1579   1.1579   1.1579   1.1579
     1.1579   1.1579   1.1579   1.1579   1.1580   1.1580   1.1580   1.1580
     1.1580   1.1580   1.1580   1.1580   1.1580   1.1580   1.1580   1.1580
     3.4448   3.4448   3.4448   3.4448   3.4448   3.4449   3.4449   3.4449
     3.4449   3.4449   3.4449   3.4449   3.4449   3.4449   3.4449   3.4449
     3.4449   3.4449   3.4449   3.4449   3.4449   3.4452   3.4452   3.4452
     4.9949   4.9955

     the Fermi energy is    -0.0478 ev

!    total energy              =  -16375.99750990 Ry

     total all-electron energy =   -322936.851217 Ry
     estimated scf accuracy    <       0.00000058 Ry
     smearing contrib. (-TS)   =       0.73234050 Ry
     internal energy E=F+TS    =  -16376.72985040 Ry

     The total energy is F=E-TS. E is the sum of the following terms:
     one-electron contribution =   -7225.34298125 Ry
     hartree contribution      =    3662.24014911 Ry
     xc contribution           =    -984.52735717 Ry
     ewald contribution        =   -3662.53507584 Ry
     one-center paw contrib.   =   -8166.56458526 Ry

     convergence has been achieved in  51 iterations

     Forces acting on atoms (cartesian axes, Ry/au):

     atom    1 type  1   force =     0.00000000    0.00000000    0.00000000
     atom    2 type  1   force =    -0.00005096   -0.00005096   -0.00000000
     atom    3 type  1   force =    -0.00005096    0.00000000   -0.00005096
     atom    4 type  1   force =     0.00000000   -0.00005096   -0.00005096
     atom    5 type  1   force =     0.00000000    0.00000000    0.00000000
     atom    6 type  1   force =    -0.00000926   -0.00000926    0.00000000
     atom    7 type  1   force =    -0.00005096   -0.00000000    0.00005096
     atom    8 type  1   force =     0.00000000   -0.00005096    0.00005096
     atom    9 type  1   force =     0.00000000    0.00000000    0.00000000
     atom   10 type  1   force =    -0.00005096    0.00005096    0.00000000
     atom   11 type  1   force =    -0.00000926    0.00000000   -0.00000926
     atom   12 type  1   force =     0.00000000    0.00005096   -0.00005096
     atom   13 type  1   force =     0.00000000    0.00000000    0.00000000
     atom   14 type  1   force =    -0.00000926    0.00000926    0.00000000
     atom   15 type  1   force =    -0.00000926    0.00000000    0.00000926
     atom   16 type  1   force =     0.00000000    0.00005096    0.00005096
     atom   17 type  1   force =     0.00000000    0.00000000    0.00000000
     atom   18 type  1   force =     0.00005096   -0.00005096    0.00000000
     atom   19 type  1   force =     0.00005096   -0.00000000   -0.00005096
     atom   20 type  1   force =    -0.00000000   -0.00000926   -0.00000926
     atom   21 type  1   force =     0.00000000    0.00000000    0.00000000
     atom   22 type  1   force =     0.00000926   -0.00000926    0.00000000
     atom   23 type  1   force =     0.00005096    0.00000000    0.00005096
     atom   24 type  1   force =     0.00000000   -0.00000926    0.00000926
     atom   25 type  1   force =     0.00000000    0.00000000    0.00000000
     atom   26 type  1   force =     0.00005096    0.00005096   -0.00000000
     atom   27 type  1   force =     0.00000926    0.00000000   -0.00000926
     atom   28 type  1   force =     0.00000000    0.00000926   -0.00000926
     atom   29 type  1   force =     0.00000000    0.00000000    0.00000000
     atom   30 type  1   force =     0.00000926    0.00000926    0.00000000
     atom   31 type  1   force =     0.00000926    0.00000000    0.00000926
     atom   32 type  1   force =    -0.00000000    0.00000926    0.00000926

     Total force =     0.000254     Total SCF correction =     0.001557
     SCF correction compared to forces is large: reduce conv_thr to get better values

     Computing stress (Cartesian axis) and pressure

          total   stress  (Ry/bohr**3)                   (kbar)     P=      -18.66
  -0.00012687   0.00000000   0.00000000          -18.66        0.00        0.00
   0.00000000  -0.00012687   0.00000000            0.00      -18.66        0.00
   0.00000000   0.00000000  -0.00012687            0.00        0.00      -18.66

     Writing output data file /scratch/BlzociQEikgTYNIx.save/

     General routines

     Parallel routines

   This run was terminated on:   3:58:14  27Nov2021

   JOB DONE.