     Program PWSCF v.6.7MaX starts on 26Nov2021 at 23: 6:18

     R & G space division:  proc/nbgrp/npool/nimage =      72
     Reading input from fcc_14.in
Warning: card &CELL ignored
Warning: card CELL_DYNAMICS = 'BFGS', ignored
Warning: card CELL_FACTOR = 2.0, ignored
Warning: card PRESS = 0.0, ignored
Warning: card / ignored

     Current dimensions of program PWSCF are:
     Max number of different atomic species (ntypx) = 10
     Max number of k-points (npk) =  40000
     Max angular momentum in pseudopotentials (lmaxx) =  3
     file Pd.pbe-spn-kjpaw_psl.1.0.0.UPF: wavefunction(s)  4S 5S 4D renormalized

     Subspace diagonalization in iterative solution of the eigenvalue problem:
     one sub-group per band group will be used

     Found symmetry operation: I + (  0.2500  0.2500  0.0000)
     This is a supercell, fractional translations are disabled
     Message from routine setup:
     using ibrav=0 with symmetry is DISCOURAGED, use correct ibrav instead

     bravais-lattice index     =            0
     lattice parameter (alat)  =      14.4000  a.u.
     unit-cell volume          =   12351.6845 (a.u.)^3
     number of atoms/cell      =           32
     number of atomic types    =            1
     number of electrons       =       576.00
     number of Kohn-Sham states=          346
     kinetic-energy cutoff     =      71.0000  Ry
     charge density cutoff     =     430.0000  Ry
     scf convergence threshold =      1.0E-06
     mixing beta               =       0.1000
     number of iterations used =           10  TF        mixing
     Exchange-correlation= SLA  PW   PBX  PBC
                           (   1   4   3   4   0   0   0)

     celldm(1)=  14.400000  celldm(2)=   0.000000  celldm(3)=   0.000000
     celldm(4)=   0.000000  celldm(5)=   0.000000  celldm(6)=   0.000000

     crystal axes: (cart. coord. in units of alat)
               a(1) = (   1.605263   0.000000   0.000000 )
               a(2) = (   0.000000   1.605263   0.000000 )
               a(3) = (   0.000000   0.000000   1.605263 )

     reciprocal axes: (cart. coord. in units 2 pi/alat)
               b(1) = (  0.622951  0.000000  0.000000 )
               b(2) = (  0.000000  0.622951  0.000000 )
               b(3) = (  0.000000  0.000000  0.622951 )

     PseudoPot. # 1 for Pd read from file:
     /rds/homes/b/bxp912/pp/Pd.pbe-spn-kjpaw_psl.1.0.0.UPF
     MD5 check sum: 790f2ebce206edfd9790dcb9844eca51
     Pseudo is Projector augmented-wave + core cor, Zval = 18.0
     Generated using &quot;atomic&quot; code by A. Dal Corso  v.6.3
     Shape of augmentation charge: PSQ
     Using radial grid of 1235 points,  6 beta functions with:
                l(1) =   0
                l(2) =   0
                l(3) =   1
                l(4) =   1
                l(5) =   2
                l(6) =   2
     Q(r) pseudized with 0 coefficients

     atomic species   valence    mass     pseudopotential
        Pd            18.00   106.42000     Pd( 1.00)

     48 Sym. Ops., with inversion, found

   Cartesian axes

     site n.     atom                  positions (alat units)
         1           Pd  tau(   1) = (   0.0000000   0.0000000   0.0000000  )
         2           Pd  tau(   2) = (   0.4013158   0.4013158   0.0000000  )
         3           Pd  tau(   3) = (   0.4013158   0.0000000   0.4013158  )
         4           Pd  tau(   4) = (   0.0000000   0.4013158   0.4013158  )
         5           Pd  tau(   5) = (   0.0000000   0.0000000   0.8026316  )
         6           Pd  tau(   6) = (   0.4013158   0.4013158   0.8026316  )
         7           Pd  tau(   7) = (   0.4013158   0.0000000   1.2039474  )
         8           Pd  tau(   8) = (   0.0000000   0.4013158   1.2039474  )
         9           Pd  tau(   9) = (   0.0000000   0.8026316   0.0000000  )
        10           Pd  tau(  10) = (   0.4013158   1.2039474   0.0000000  )
        11           Pd  tau(  11) = (   0.4013158   0.8026316   0.4013158  )
        12           Pd  tau(  12) = (   0.0000000   1.2039474   0.4013158  )
        13           Pd  tau(  13) = (   0.0000000   0.8026316   0.8026316  )
        14           Pd  tau(  14) = (   0.4013158   1.2039474   0.8026316  )
        15           Pd  tau(  15) = (   0.4013158   0.8026316   1.2039474  )
        16           Pd  tau(  16) = (   0.0000000   1.2039474   1.2039474  )
        17           Pd  tau(  17) = (   0.8026316   0.0000000   0.0000000  )
        18           Pd  tau(  18) = (   1.2039474   0.4013158   0.0000000  )
        19           Pd  tau(  19) = (   1.2039474   0.0000000   0.4013158  )
        20           Pd  tau(  20) = (   0.8026316   0.4013158   0.4013158  )
        21           Pd  tau(  21) = (   0.8026316   0.0000000   0.8026316  )
        22           Pd  tau(  22) = (   1.2039474   0.4013158   0.8026316  )
        23           Pd  tau(  23) = (   1.2039474   0.0000000   1.2039474  )
        24           Pd  tau(  24) = (   0.8026316   0.4013158   1.2039474  )
        25           Pd  tau(  25) = (   0.8026316   0.8026316   0.0000000  )
        26           Pd  tau(  26) = (   1.2039474   1.2039474   0.0000000  )
        27           Pd  tau(  27) = (   1.2039474   0.8026316   0.4013158  )
        28           Pd  tau(  28) = (   0.8026316   1.2039474   0.4013158  )
        29           Pd  tau(  29) = (   0.8026316   0.8026316   0.8026316  )
        30           Pd  tau(  30) = (   1.2039474   1.2039474   0.8026316  )
        31           Pd  tau(  31) = (   1.2039474   0.8026316   1.2039474  )
        32           Pd  tau(  32) = (   0.8026316   1.2039474   1.2039474  )

     number of k points=    35  Marzari-Vanderbilt smearing, width (Ry)=  0.0400
                       cart. coord. in units 2pi/alat
        k(    1) = (   0.0346084   0.0346084   0.0346084), wk =   0.0219479
        k(    2) = (   0.0346084   0.0346084   0.1038251), wk =   0.0658436
        k(    3) = (   0.0346084   0.0346084   0.1730419), wk =   0.0658436
        k(    4) = (   0.0346084   0.0346084   0.2422587), wk =   0.0658436
        k(    5) = (   0.0346084   0.0346084  -0.3114754), wk =   0.0329218
        k(    6) = (   0.0346084   0.1038251   0.1038251), wk =   0.0658436
        k(    7) = (   0.0346084   0.1038251   0.1730419), wk =   0.1316872
        k(    8) = (   0.0346084   0.1038251   0.2422587), wk =   0.1316872
        k(    9) = (   0.0346084   0.1038251  -0.3114754), wk =   0.0658436
        k(   10) = (   0.0346084   0.1730419   0.1730419), wk =   0.0658436
        k(   11) = (   0.0346084   0.1730419   0.2422587), wk =   0.1316872
        k(   12) = (   0.0346084   0.1730419  -0.3114754), wk =   0.0658436
        k(   13) = (   0.0346084   0.2422587   0.2422587), wk =   0.0658436
        k(   14) = (   0.0346084   0.2422587  -0.3114754), wk =   0.0658436
        k(   15) = (   0.0346084  -0.3114754  -0.3114754), wk =   0.0164609
        k(   16) = (   0.1038251   0.1038251   0.1038251), wk =   0.0219479
        k(   17) = (   0.1038251   0.1038251   0.1730419), wk =   0.0658436
        k(   18) = (   0.1038251   0.1038251   0.2422587), wk =   0.0658436
        k(   19) = (   0.1038251   0.1038251  -0.3114754), wk =   0.0329218
        k(   20) = (   0.1038251   0.1730419   0.1730419), wk =   0.0658436
        k(   21) = (   0.1038251   0.1730419   0.2422587), wk =   0.1316872
        k(   22) = (   0.1038251   0.1730419  -0.3114754), wk =   0.0658436
        k(   23) = (   0.1038251   0.2422587   0.2422587), wk =   0.0658436
        k(   24) = (   0.1038251   0.2422587  -0.3114754), wk =   0.0658436
        k(   25) = (   0.1038251  -0.3114754  -0.3114754), wk =   0.0164609
        k(   26) = (   0.1730419   0.1730419   0.1730419), wk =   0.0219479
        k(   27) = (   0.1730419   0.1730419   0.2422587), wk =   0.0658436
        k(   28) = (   0.1730419   0.1730419  -0.3114754), wk =   0.0329218
        k(   29) = (   0.1730419   0.2422587   0.2422587), wk =   0.0658436
        k(   30) = (   0.1730419   0.2422587  -0.3114754), wk =   0.0658436
        k(   31) = (   0.1730419  -0.3114754  -0.3114754), wk =   0.0164609
        k(   32) = (   0.2422587   0.2422587   0.2422587), wk =   0.0219479
        k(   33) = (   0.2422587   0.2422587  -0.3114754), wk =   0.0329218
        k(   34) = (   0.2422587  -0.3114754  -0.3114754), wk =   0.0164609
        k(   35) = (  -0.3114754  -0.3114754  -0.3114754), wk =   0.0027435

     Initial potential from superposition of free atoms

     starting charge  575.98776, renormalised to  576.00000
     Starting wfcs are  320 randomized atomic wfcs +   26 random wfcs
     Checking if some PAW data can be deallocated...

     Self-consistent Calculation

     iteration #  1     ecut=    71.00 Ry     beta= 0.10
     Davidson diagonalization with overlap
     ethr =  1.00E-02,  avg # of iterations =  4.7

     total energy              =  -16381.23346590 Ry
     estimated scf accuracy    <      23.32175459 Ry

[...]

     iteration # 15     ecut=    71.00 Ry     beta= 0.10
     Davidson diagonalization with overlap
     c_bands:  1 eigenvalues not converged
     ethr =  1.72E-05,  avg # of iterations =  2.7

[...]

     iteration # 17     ecut=    71.00 Ry     beta= 0.10
     Davidson diagonalization with overlap
     c_bands:  1 eigenvalues not converged
     ethr =  9.09E-07,  avg # of iterations =  2.9

[...]

     total energy              =  -16376.95551395 Ry
     estimated scf accuracy    <       0.00000461 Ry

     iteration # 28     ecut=    71.00 Ry     beta= 0.10
     Davidson diagonalization with overlap
     ethr =  8.00E-10,  avg # of iterations =  2.0

     End of self-consistent calculation

          k = 0.0346 0.0346 0.0346 (124646 PWs)   bands (ev):

   -80.7374 -80.7373 -80.7373 -80.7373 -80.7373 -80.7373 -80.7373 -80.7373
   -80.7373 -80.7373 -80.7373 -80.7373 -80.7373 -80.7373 -80.7373 -80.7373
   -80.7373 -80.7373 -80.7373 -80.7373 -80.7373 -80.7373 -80.7373 -80.7373
   -80.7373 -80.7373 -80.7372 -80.7372 -80.7372 -80.7372 -80.7372 -80.7368
   -46.5413 -46.5413 -46.5413 -46.5413 -46.5412 -46.5412 -46.5412 -46.5411
   -46.5411 -46.5411 -46.5411 -46.5411 -46.5410 -46.5410 -46.5410 -46.5410
   -46.5410 -46.5410 -46.5410 -46.5410 -46.5410 -46.5410 -46.5410 -46.5410
   -46.5409 -46.5409 -46.5409 -46.5409 -46.5409 -46.5409 -46.5409 -46.5409
   -46.5409 -46.5408 -46.5408 -46.5408 -46.5408 -46.5408 -46.5408 -46.5408
   -46.5408 -46.5408 -46.5408 -46.5408 -46.5408 -46.5408 -46.5407 -46.5407
   -46.5407 -46.5407 -46.5407 -46.5407 -46.5407 -46.5407 -46.5407 -46.5406
   -46.5406 -46.5406 -46.5406 -46.5406 -46.5406 -46.5406 -46.5405 -46.5405
   -46.5405 -46.5405 -46.5405 -46.5405 -46.5405 -46.5405 -46.5405 -46.5405
   -46.5405 -46.5404 -46.5404 -46.5404 -46.5404 -46.5404 -46.5404 -46.5403
   -46.5403 -46.5403 -46.5403 -46.5403 -46.5403 -46.5403 -46.5403 -46.5403
   -46.5403 -46.5402 -46.5402 -46.5402 -46.5402 -46.5400 -46.5400 -46.5400
     0.1046   0.6334   0.6356   0.6356   0.6356   0.6624   0.6624   0.6624
     0.6655   0.6655   0.6655   0.7546   0.7546   0.7546   0.7588   0.7588
     0.7588   0.7648   0.7648   0.7648   0.7777   0.7777   0.7777   0.7927
     0.7927   0.7927   0.7927   0.7927   0.7927   0.8016   0.8016   0.8016
     0.8111   0.8111   0.8111   0.8111   0.8111   0.8111   0.8129   0.8129
     0.8129   0.8510   0.8510   0.8510   0.8510   0.8510   0.8510   0.8529
     0.8529   0.8529   0.8567   0.8567   0.8567   0.8567   0.8567   0.8567
     0.8683   0.8683   0.8683   0.8728   0.8739   0.8739   0.8739   0.8744
     0.8744   0.8754   0.8754   0.8767   0.8767   0.8767   0.8925   0.8925
     0.8925   0.8925   0.8926   0.8926   0.9520   0.9520   0.9520   0.9520
     0.9520   0.9520   0.9635   0.9635   0.9636   0.9720   0.9720   0.9720
     0.9722   0.9722   0.9722   0.9815   0.9815   0.9816   0.9904   0.9904
     0.9904   0.9919   0.9919   0.9919   0.9919   0.9919   0.9919   0.9942
     0.9942   0.9942   1.0167   1.0167   1.0167   1.0185   1.0185   1.0189
     1.0189   1.0189   1.0189   1.0189   1.0190   1.0340   1.0340   1.0340
     1.0340   1.0340   1.0340   1.0360   1.0360   1.0360   1.0360   1.0360
     1.0360   1.0437   1.0437   1.0437   1.0702   1.0702   1.0702   1.0803
     1.0803   1.0803   1.1286   1.1286   1.1286   1.1328   1.1328   1.1328
     1.1351   1.1351   1.1368   1.1368   1.1368   1.1638   1.1638   1.1638
     1.1654   1.1654   1.1654   1.1654   1.1654   1.1654   1.1656   1.1656
     1.1656   1.2038   1.2038   1.2038   1.4057   1.4057   1.4057   2.1396
     2.1396   2.1396   2.3569   2.3569   2.3569   2.3569   2.3569   2.3569
     2.5708   2.5708   2.5708   2.9935   3.1087   3.1087   3.1087   4.0032
     4.0032   4.0032   4.0486   4.0486   4.0486   4.1189   4.1949   4.1949
     4.1949   4.1949   4.1949   4.1949   4.7634   4.7634   4.7634   5.8538
     5.8538   5.8538   5.8538   5.8538   5.8538   6.1166   6.1167   6.1167
     6.1167   6.1167   6.1167   6.2545   6.2545   6.2546   6.4568   6.4569
     6.4570   6.4574

[...]

          k = 0.2423-0.3115-0.3115 (124756 PWs)   bands (ev):

[...]

          k =-0.3115-0.3115-0.3115 (124800 PWs)   bands (ev):

   -80.7374 -80.7373 -80.7373 -80.7373 -80.7373 -80.7373 -80.7373 -80.7373
   -80.7373 -80.7373 -80.7373 -80.7373 -80.7373 -80.7373 -80.7373 -80.7373
   -80.7373 -80.7373 -80.7373 -80.7373 -80.7373 -80.7373 -80.7373 -80.7373
   -80.7373 -80.7373 -80.7373 -80.7373 -80.7373 -80.7373 -80.7373 -80.7368
   -46.5412 -46.5412 -46.5412 -46.5412 -46.5412 -46.5412 -46.5412 -46.5412
   -46.5412 -46.5411 -46.5411 -46.5411 -46.5411 -46.5411 -46.5411 -46.5411
   -46.5411 -46.5411 -46.5411 -46.5411 -46.5411 -46.5411 -46.5411 -46.5411
   -46.5409 -46.5409 -46.5409 -46.5409 -46.5409 -46.5409 -46.5409 -46.5408
   -46.5407 -46.5407 -46.5407 -46.5407 -46.5407 -46.5407 -46.5407 -46.5407
   -46.5407 -46.5407 -46.5407 -46.5407 -46.5407 -46.5407 -46.5407 -46.5407
   -46.5407 -46.5407 -46.5407 -46.5407 -46.5407 -46.5407 -46.5406 -46.5406
   -46.5406 -46.5406 -46.5406 -46.5406 -46.5406 -46.5406 -46.5406 -46.5406
   -46.5406 -46.5406 -46.5406 -46.5406 -46.5406 -46.5406 -46.5406 -46.5406
   -46.5406 -46.5406 -46.5406 -46.5406 -46.5406 -46.5405 -46.5405 -46.5405
   -46.5402 -46.5402 -46.5402 -46.5402 -46.5402 -46.5402 -46.5402 -46.5402
   -46.5402 -46.5402 -46.5402 -46.5402 -46.5402 -46.5401 -46.5401 -46.5401
     0.6303   0.6303   0.6303   0.6303   0.6303   0.6303   0.6303   0.6303
     0.7265   0.7265   0.7265   0.7265   0.7265   0.7265   0.7265   0.7265
     0.7265   0.7265   0.7265   0.7265   0.7265   0.7265   0.7265   0.7265
     0.7265   0.7265   0.7265   0.7265   0.7265   0.7265   0.7265   0.7265
     0.8370   0.8370   0.8370   0.8370   0.8370   0.8370   0.8370   0.8370
     0.8370   0.8370   0.8370   0.8370   0.8370   0.8370   0.8370   0.8370
     0.8370   0.8370   0.8370   0.8370   0.8370   0.8370   0.8370   0.8370
     0.9053   0.9053   0.9053   0.9053   0.9053   0.9053   0.9053   0.9053
     0.9053   0.9053   0.9053   0.9053   0.9053   0.9053   0.9053   0.9053
     0.9896   0.9896   0.9896   0.9896   0.9896   0.9896   0.9896   0.9896
     0.9896   0.9896   0.9896   0.9896   0.9896   0.9896   0.9896   0.9896
     0.9896   0.9896   0.9896   0.9896   0.9896   0.9896   0.9896   0.9896
     1.0032   1.0032   1.0032   1.0032   1.0032   1.0032   1.0032   1.0032
     1.0032   1.0032   1.0032   1.0032   1.0032   1.0032   1.0032   1.0032
     1.0032   1.0032   1.0032   1.0032   1.0032   1.0032   1.0032   1.0032
     1.0434   1.0434   1.0434   1.0434   1.0434   1.0434   1.0434   1.0434
     1.0434   1.0434   1.0434   1.0434   1.0434   1.0434   1.0434   1.0434
     1.0927   1.0927   1.0927   1.0927   1.0927   1.0927   1.0927   1.0928
     1.1446   1.1446   1.1446   1.1446   1.1446   1.1446   1.1446   1.1446
     1.1446   1.1446   1.1446   1.1446   1.1446   1.1446   1.1446   1.1446
     1.1446   1.1446   1.1446   1.1446   1.1446   1.1446   1.1446   1.1446
     3.0683   3.0684   3.0684   3.0685   3.0685   3.0685   3.0685   3.0685
     3.0685   3.0685   3.0685   3.0685   3.0685   3.0685   3.0685   3.0685
     3.0685   3.0685   3.0685   3.0685   3.0685   3.0685   3.0685   3.0685
     5.4511   5.4512   5.4512   5.4512   5.4512   5.4512   5.4512   5.4512
     5.4512   5.4512   5.4512   5.4512   5.4512   5.4512   5.4512   5.4512
     5.4512   5.4512   5.4512   5.4512   5.4512   5.4513   5.4513   5.4513
     7.6183   7.6217

     the Fermi energy is     1.4354 ev

!    total energy              =  -16376.95551750 Ry

     total all-electron energy =   -322937.809225 Ry
     estimated scf accuracy    <       0.00000037 Ry
     smearing contrib. (-TS)   =       0.80723172 Ry
     internal energy E=F+TS    =  -16377.76274922 Ry

     The total energy is F=E-TS. E is the sum of the following terms:
     one-electron contribution =   -6387.47776581 Ry
     hartree contribution      =    3271.75855968 Ry
     xc contribution           =    -982.54321543 Ry
     ewald contribution        =   -4112.84676551 Ry
     one-center paw contrib.   =   -8166.65356215 Ry

     convergence has been achieved in  28 iterations

     Forces acting on atoms (cartesian axes, Ry/au):

     atom    1 type  1   force =     0.00000000    0.00000000    0.00000000
     atom    2 type  1   force =    -0.00002550   -0.00002550    0.00000000
     atom    3 type  1   force =    -0.00002550    0.00000000   -0.00002550
     atom    4 type  1   force =     0.00000000   -0.00002550   -0.00002550
     atom    5 type  1   force =     0.00000000    0.00000000    0.00000000
     atom    6 type  1   force =    -0.00001909   -0.00001909    0.00000000
     atom    7 type  1   force =    -0.00002550    0.00000000    0.00002550
     atom    8 type  1   force =     0.00000000   -0.00002550    0.00002550
     atom    9 type  1   force =     0.00000000    0.00000000    0.00000000
     atom   10 type  1   force =    -0.00002550    0.00002550   -0.00000000
     atom   11 type  1   force =    -0.00001909   -0.00000000   -0.00001909
     atom   12 type  1   force =     0.00000000    0.00002550   -0.00002550
     atom   13 type  1   force =     0.00000000    0.00000000    0.00000000
     atom   14 type  1   force =    -0.00001909    0.00001909   -0.00000000
     atom   15 type  1   force =    -0.00001909    0.00000000    0.00001909
     atom   16 type  1   force =     0.00000000    0.00002550    0.00002550
     atom   17 type  1   force =     0.00000000    0.00000000    0.00000000
     atom   18 type  1   force =     0.00002550   -0.00002550   -0.00000000
     atom   19 type  1   force =     0.00002550    0.00000000   -0.00002550
     atom   20 type  1   force =     0.00000000   -0.00001909   -0.00001909
     atom   21 type  1   force =     0.00000000    0.00000000    0.00000000
     atom   22 type  1   force =     0.00001909   -0.00001909   -0.00000000
     atom   23 type  1   force =     0.00002550    0.00000000    0.00002550
     atom   24 type  1   force =    -0.00000000   -0.00001909    0.00001909
     atom   25 type  1   force =     0.00000000    0.00000000    0.00000000
     atom   26 type  1   force =     0.00002550    0.00002550    0.00000000
     atom   27 type  1   force =     0.00001909   -0.00000000   -0.00001909
     atom   28 type  1   force =     0.00000000    0.00001909   -0.00001909
     atom   29 type  1   force =     0.00000000    0.00000000    0.00000000
     atom   30 type  1   force =     0.00001909    0.00001909    0.00000000
     atom   31 type  1   force =     0.00001909    0.00000000    0.00001909
     atom   32 type  1   force =     0.00000000    0.00001909    0.00001909

     Total force =     0.000156     Total SCF correction =     0.001653
     SCF correction compared to forces is large: reduce conv_thr to get better values

     Computing stress (Cartesian axis) and pressure

          total   stress  (Ry/bohr**3)                   (kbar)     P=      -48.68
  -0.00033093   0.00000000   0.00000000          -48.68        0.00        0.00
   0.00000000  -0.00033093   0.00000000            0.00      -48.68        0.00
   0.00000000   0.00000000  -0.00033093            0.00        0.00      -48.68

     Writing output data file /scratch/frlUFEaFKfrlGMwT.save/

     General routines

     Parallel routines

   This run was terminated on:  23:54:23  26Nov2021

   JOB DONE.