     Program PWSCF v.6.7MaX starts on 26Nov2021 at 21:50: 2

     R & G space division:  proc/nbgrp/npool/nimage =      72
     Reading input from fcc_12.in
Warning: card &CELL ignored
Warning: card CELL_DYNAMICS = 'BFGS', ignored
Warning: card CELL_FACTOR = 2.0, ignored
Warning: card PRESS = 0.0, ignored
Warning: card / ignored

     Current dimensions of program PWSCF are:
     Max number of different atomic species (ntypx) = 10
     Max number of k-points (npk) =  40000
     Max angular momentum in pseudopotentials (lmaxx) =  3
     file Pd.pbe-spn-kjpaw_psl.1.0.0.UPF: wavefunction(s)  4S 5S 4D renormalized

     Subspace diagonalization in iterative solution of the eigenvalue problem:
     one sub-group per band group will be used

     Found symmetry operation: I + (  0.2500  0.2500  0.0000)
     This is a supercell, fractional translations are disabled
     Message from routine setup:
     using ibrav=0 with symmetry is DISCOURAGED, use correct ibrav instead

     bravais-lattice index     =            0
     lattice parameter (alat)  =      14.4000  a.u.
     unit-cell volume          =    9556.5419 (a.u.)^3
     number of atoms/cell      =           32
     number of atomic types    =            1
     number of electrons       =       576.00
     number of Kohn-Sham states=          346
     kinetic-energy cutoff     =      71.0000  Ry
     charge density cutoff     =     430.0000  Ry
     scf convergence threshold =      1.0E-06
     mixing beta               =       0.1000
     number of iterations used =           10  TF        mixing
     Exchange-correlation= SLA  PW   PBX  PBC
                           (   1   4   3   4   0   0   0)

     celldm(1)=  14.400000  celldm(2)=   0.000000  celldm(3)=   0.000000
     celldm(4)=   0.000000  celldm(5)=   0.000000  celldm(6)=   0.000000

     crystal axes: (cart. coord. in units of alat)
               a(1) = (   1.473684   0.000000   0.000000 )
               a(2) = (   0.000000   1.473684   0.000000 )
               a(3) = (   0.000000   0.000000   1.473684 )

     reciprocal axes: (cart. coord. in units 2 pi/alat)
               b(1) = (  0.678571  0.000000  0.000000 )
               b(2) = (  0.000000  0.678571  0.000000 )
               b(3) = (  0.000000  0.000000  0.678571 )

     PseudoPot. # 1 for Pd read from file:
     /rds/homes/b/bxp912/pp/Pd.pbe-spn-kjpaw_psl.1.0.0.UPF
     MD5 check sum: 790f2ebce206edfd9790dcb9844eca51
     Pseudo is Projector augmented-wave + core cor, Zval = 18.0
     Generated using &quot;atomic&quot; code by A. Dal Corso  v.6.3
     Shape of augmentation charge: PSQ
     Using radial grid of 1235 points,  6 beta functions with:
                l(1) =   0
                l(2) =   0
                l(3) =   1
                l(4) =   1
                l(5) =   2
                l(6) =   2
     Q(r) pseudized with 0 coefficients

     atomic species   valence    mass     pseudopotential
        Pd            18.00   106.42000     Pd( 1.00)

     48 Sym. Ops., with inversion, found

   Cartesian axes

     site n.     atom                  positions (alat units)
         1           Pd  tau(   1) = (   0.0000000   0.0000000   0.0000000  )
         2           Pd  tau(   2) = (   0.3684211   0.3684211   0.0000000  )
         3           Pd  tau(   3) = (   0.3684211   0.0000000   0.3684211  )
         4           Pd  tau(   4) = (   0.0000000   0.3684211   0.3684211  )
         5           Pd  tau(   5) = (   0.0000000   0.0000000   0.7368421  )
         6           Pd  tau(   6) = (   0.3684211   0.3684211   0.7368421  )
         7           Pd  tau(   7) = (   0.3684211   0.0000000   1.1052632  )
         8           Pd  tau(   8) = (   0.0000000   0.3684211   1.1052632  )
         9           Pd  tau(   9) = (   0.0000000   0.7368421   0.0000000  )
        10           Pd  tau(  10) = (   0.3684211   1.1052632   0.0000000  )
        11           Pd  tau(  11) = (   0.3684211   0.7368421   0.3684211  )
        12           Pd  tau(  12) = (   0.0000000   1.1052632   0.3684211  )
        13           Pd  tau(  13) = (   0.0000000   0.7368421   0.7368421  )
        14           Pd  tau(  14) = (   0.3684211   1.1052632   0.7368421  )
        15           Pd  tau(  15) = (   0.3684211   0.7368421   1.1052632  )
        16           Pd  tau(  16) = (   0.0000000   1.1052632   1.1052632  )
        17           Pd  tau(  17) = (   0.7368421   0.0000000   0.0000000  )
        18           Pd  tau(  18) = (   1.1052632   0.3684211   0.0000000  )
        19           Pd  tau(  19) = (   1.1052632   0.0000000   0.3684211  )
        20           Pd  tau(  20) = (   0.7368421   0.3684211   0.3684211  )
        21           Pd  tau(  21) = (   0.7368421   0.0000000   0.7368421  )
        22           Pd  tau(  22) = (   1.1052632   0.3684211   0.7368421  )
        23           Pd  tau(  23) = (   1.1052632   0.0000000   1.1052632  )
        24           Pd  tau(  24) = (   0.7368421   0.3684211   1.1052632  )
        25           Pd  tau(  25) = (   0.7368421   0.7368421   0.0000000  )
        26           Pd  tau(  26) = (   1.1052632   1.1052632   0.0000000  )
        27           Pd  tau(  27) = (   1.1052632   0.7368421   0.3684211  )
        28           Pd  tau(  28) = (   0.7368421   1.1052632   0.3684211  )
        29           Pd  tau(  29) = (   0.7368421   0.7368421   0.7368421  )
        30           Pd  tau(  30) = (   1.1052632   1.1052632   0.7368421  )
        31           Pd  tau(  31) = (   1.1052632   0.7368421   1.1052632  )
        32           Pd  tau(  32) = (   0.7368421   1.1052632   1.1052632  )

     number of k points=    35  Marzari-Vanderbilt smearing, width (Ry)=  0.0400
                       cart. coord. in units 2pi/alat
        k(    1) = (   0.0376984   0.0376984   0.0376984), wk =   0.0219479
        k(    2) = (   0.0376984   0.0376984   0.1130952), wk =   0.0658436
        k(    3) = (   0.0376984   0.0376984   0.1884921), wk =   0.0658436
        k(    4) = (   0.0376984   0.0376984   0.2638889), wk =   0.0658436
        k(    5) = (   0.0376984   0.0376984  -0.3392857), wk =   0.0329218
        k(    6) = (   0.0376984   0.1130952   0.1130952), wk =   0.0658436
        k(    7) = (   0.0376984   0.1130952   0.1884921), wk =   0.1316872
        k(    8) = (   0.0376984   0.1130952   0.2638889), wk =   0.1316872
        k(    9) = (   0.0376984   0.1130952  -0.3392857), wk =   0.0658436
        k(   10) = (   0.0376984   0.1884921   0.1884921), wk =   0.0658436
        k(   11) = (   0.0376984   0.1884921   0.2638889), wk =   0.1316872
        k(   12) = (   0.0376984   0.1884921  -0.3392857), wk =   0.0658436
        k(   13) = (   0.0376984   0.2638889   0.2638889), wk =   0.0658436
        k(   14) = (   0.0376984   0.2638889  -0.3392857), wk =   0.0658436
        k(   15) = (   0.0376984  -0.3392857  -0.3392857), wk =   0.0164609
        k(   16) = (   0.1130952   0.1130952   0.1130952), wk =   0.0219479
        k(   17) = (   0.1130952   0.1130952   0.1884921), wk =   0.0658436
        k(   18) = (   0.1130952   0.1130952   0.2638889), wk =   0.0658436
        k(   19) = (   0.1130952   0.1130952  -0.3392857), wk =   0.0329218
        k(   20) = (   0.1130952   0.1884921   0.1884921), wk =   0.0658436
        k(   21) = (   0.1130952   0.1884921   0.2638889), wk =   0.1316872
        k(   22) = (   0.1130952   0.1884921  -0.3392857), wk =   0.0658436
        k(   23) = (   0.1130952   0.2638889   0.2638889), wk =   0.0658436
        k(   24) = (   0.1130952   0.2638889  -0.3392857), wk =   0.0658436
        k(   25) = (   0.1130952  -0.3392857  -0.3392857), wk =   0.0164609
        k(   26) = (   0.1884921   0.1884921   0.1884921), wk =   0.0219479
        k(   27) = (   0.1884921   0.1884921   0.2638889), wk =   0.0658436
        k(   28) = (   0.1884921   0.1884921  -0.3392857), wk =   0.0329218
        k(   29) = (   0.1884921   0.2638889   0.2638889), wk =   0.0658436
        k(   30) = (   0.1884921   0.2638889  -0.3392857), wk =   0.0658436
        k(   31) = (   0.1884921  -0.3392857  -0.3392857), wk =   0.0164609
        k(   32) = (   0.2638889   0.2638889   0.2638889), wk =   0.0219479
        k(   33) = (   0.2638889   0.2638889  -0.3392857), wk =   0.0329218
        k(   34) = (   0.2638889  -0.3392857  -0.3392857), wk =   0.0164609
        k(   35) = (  -0.3392857  -0.3392857  -0.3392857), wk =   0.0027435

     Initial potential from superposition of free atoms

     starting charge  575.98776, renormalised to  576.00000
     Starting wfcs are  320 randomized atomic wfcs +   26 random wfcs
     Checking if some PAW data can be deallocated...

     Self-consistent Calculation

     iteration #  1     ecut=    71.00 Ry     beta= 0.10
     Davidson diagonalization with overlap
     ethr =  1.00E-02,  avg # of iterations =  4.4

     total energy              =  -16381.15097677 Ry
     estimated scf accuracy    <      20.75304804 Ry

[...]

     iteration # 14     ecut=    71.00 Ry     beta= 0.10
     Davidson diagonalization with overlap
     c_bands:  1 eigenvalues not converged
     c_bands:  1 eigenvalues not converged
     ethr =  8.74E-06,  avg # of iterations =  4.3

[...]

     iteration # 21     ecut=    71.00 Ry     beta= 0.10
     Davidson diagonalization with overlap
     c_bands:  1 eigenvalues not converged
     ethr =  6.38E-10,  avg # of iterations =  2.5

[...]

     total energy              =  -16378.15338689 Ry
     estimated scf accuracy    <       0.00000116 Ry

     iteration # 24     ecut=    71.00 Ry     beta= 0.10
     Davidson diagonalization with overlap
     ethr =  2.02E-10,  avg # of iterations =  2.0

     End of self-consistent calculation

          k = 0.0377 0.0377 0.0377 ( 96675 PWs)   bands (ev):

   -79.3040 -79.3040 -79.3039 -79.3039 -79.3039 -79.3039 -79.3039 -79.3039
   -79.3039 -79.3039 -79.3039 -79.3039 -79.3039 -79.3039 -79.3039 -79.3039
   -79.3039 -79.3039 -79.3039 -79.3039 -79.3039 -79.3039 -79.3039 -79.3039
   -79.3038 -79.3038 -79.3038 -79.3038 -79.3038 -79.3038 -79.3038 -79.3038
   -45.0863 -45.0863 -45.0863 -45.0863 -45.0861 -45.0861 -45.0861 -45.0853
   -45.0853 -45.0853 -45.0852 -45.0852 -45.0852 -45.0852 -45.0852 -45.0852
   -45.0851 -45.0851 -45.0851 -45.0851 -45.0851 -45.0851 -45.0851 -45.0851
   -45.0851 -45.0850 -45.0850 -45.0850 -45.0849 -45.0849 -45.0849 -45.0844
   -45.0844 -45.0844 -45.0843 -45.0843 -45.0843 -45.0842 -45.0841 -45.0841
   -45.0841 -45.0841 -45.0841 -45.0841 -45.0841 -45.0841 -45.0841 -45.0840
   -45.0840 -45.0839 -45.0839 -45.0839 -45.0839 -45.0839 -45.0839 -45.0839
   -45.0839 -45.0839 -45.0839 -45.0839 -45.0839 -45.0833 -45.0833 -45.0833
   -45.0832 -45.0832 -45.0832 -45.0832 -45.0831 -45.0831 -45.0831 -45.0831
   -45.0831 -45.0831 -45.0831 -45.0830 -45.0830 -45.0830 -45.0830 -45.0830
   -45.0830 -45.0830 -45.0830 -45.0830 -45.0830 -45.0830 -45.0829 -45.0829
   -45.0829 -45.0829 -45.0829 -45.0829 -45.0829 -45.0825 -45.0823 -45.0823
     1.1696   1.9778   1.9814   1.9814   1.9814   2.0259   2.0259   2.0259
     2.0449   2.0449   2.0449   2.0686   2.0686   2.0686   2.1289   2.1289
     2.1289   2.1976   2.1976   2.1977   2.2274   2.2274   2.2274   2.2314
     2.2314   2.2314   2.2314   2.2315   2.2315   2.2532   2.2532   2.2532
     2.2603   2.2603   2.2603   2.2639   2.2639   2.2639   2.2640   2.2640
     2.2640   2.3291   2.3291   2.3291   2.3292   2.3292   2.3292   2.3370
     2.3370   2.3370   2.3416   2.3416   2.3416   2.3416   2.3416   2.3417
     2.3577   2.3577   2.3577   2.3846   2.3853   2.3854   2.3854   2.3873
     2.3873   2.3879   2.3879   2.3899   2.3899   2.3899   2.3947   2.3947
     2.3947   2.3947   2.3947   2.3947   2.4746   2.4746   2.4746   2.4746
     2.4746   2.4746   2.4856   2.4856   2.4856   2.4935   2.4935   2.4935
     2.5417   2.5417   2.5417   2.5561   2.5561   2.5561   2.5629   2.5629
     2.5629   2.5629   2.5629   2.5629   2.5645   2.5645   2.5645   2.5754
     2.5755   2.5755   2.6078   2.6078   2.6078   2.6149   2.6149   2.6149
     2.6174   2.6174   2.6174   2.6214   2.6214   2.6411   2.6411   2.6411
     2.6411   2.6411   2.6411   2.6426   2.6426   2.6426   2.6426   2.6426
     2.6426   2.6571   2.6572   2.6572   2.7033   2.7033   2.7033   2.7109
     2.7109   2.7109   2.7193   2.7194   2.7194   2.7964   2.7964   2.7965
     2.8002   2.8003   2.8003   2.8050   2.8050   2.8078   2.8078   2.8078
     2.8492   2.8492   2.8493   2.8523   2.8524   2.8524   2.8524   2.8524
     2.8524   2.8528   2.8528   2.8528   2.9003   2.9003   2.9003   3.8332
     3.8332   3.8332   4.0982   4.0982   4.0982   4.0982   4.0982   4.0982
     4.3655   4.3655   4.3655   4.9542   5.2260   5.2260   5.2260   5.5974
     5.5974   5.5974   5.8682   6.2121   6.2121   6.2121   6.7110   6.7110
     6.7110   6.7110   6.7110   6.7110   6.8199   6.8199   6.8199   7.9292
     7.9292   7.9292   7.9292   7.9292   7.9292   8.2564   8.2564   8.2564
     8.2564   8.2564   8.2564   8.6853   8.6853   8.6853   8.9428   8.9428
     8.9429   8.9430

[...]

          k = 0.2639-0.3393-0.3393 ( 96448 PWs)   bands (ev):

[...]

          k =-0.3393-0.3393-0.3393 ( 96344 PWs)   bands (ev):

   -79.3040 -79.3040 -79.3040 -79.3040 -79.3040 -79.3040 -79.3040 -79.3040
   -79.3039 -79.3039 -79.3039 -79.3039 -79.3039 -79.3039 -79.3039 -79.3039
   -79.3039 -79.3039 -79.3039 -79.3039 -79.3039 -79.3039 -79.3039 -79.3039
   -79.3039 -79.3039 -79.3039 -79.3039 -79.3039 -79.3039 -79.3039 -79.3039
   -45.0857 -45.0857 -45.0857 -45.0857 -45.0857 -45.0857 -45.0857 -45.0857
   -45.0857 -45.0857 -45.0856 -45.0856 -45.0856 -45.0856 -45.0856 -45.0856
   -45.0856 -45.0856 -45.0856 -45.0856 -45.0856 -45.0856 -45.0856 -45.0856
   -45.0842 -45.0842 -45.0842 -45.0841 -45.0841 -45.0841 -45.0841 -45.0841
   -45.0841 -45.0841 -45.0841 -45.0841 -45.0841 -45.0841 -45.0841 -45.0841
   -45.0841 -45.0841 -45.0841 -45.0840 -45.0840 -45.0840 -45.0840 -45.0840
   -45.0840 -45.0840 -45.0840 -45.0840 -45.0840 -45.0839 -45.0839 -45.0839
   -45.0835 -45.0835 -45.0835 -45.0835 -45.0835 -45.0835 -45.0835 -45.0834
   -45.0834 -45.0834 -45.0834 -45.0834 -45.0834 -45.0834 -45.0834 -45.0834
   -45.0834 -45.0834 -45.0834 -45.0834 -45.0834 -45.0833 -45.0833 -45.0833
   -45.0826 -45.0826 -45.0826 -45.0826 -45.0826 -45.0826 -45.0826 -45.0826
   -45.0826 -45.0826 -45.0826 -45.0826 -45.0826 -45.0826 -45.0826 -45.0826
     1.8939   1.8939   1.8939   1.8939   1.8939   1.8939   1.8939   1.8939
     2.1337   2.1337   2.1337   2.1337   2.1337   2.1337   2.1337   2.1337
     2.1337   2.1337   2.1337   2.1337   2.1337   2.1337   2.1337   2.1337
     2.1337   2.1337   2.1337   2.1337   2.1337   2.1337   2.1337   2.1337
     2.3050   2.3050   2.3050   2.3050   2.3050   2.3050   2.3050   2.3050
     2.3050   2.3050   2.3050   2.3050   2.3050   2.3050   2.3050   2.3050
     2.3050   2.3050   2.3051   2.3051   2.3051   2.3051   2.3051   2.3051
     2.4363   2.4363   2.4363   2.4363   2.4363   2.4363   2.4363   2.4363
     2.4363   2.4363   2.4363   2.4363   2.4363   2.4363   2.4363   2.4363
     2.5462   2.5462   2.5462   2.5462   2.5462   2.5462   2.5462   2.5462
     2.5462   2.5462   2.5462   2.5462   2.5462   2.5462   2.5462   2.5462
     2.5462   2.5462   2.5462   2.5463   2.5463   2.5463   2.5463   2.5463
     2.5540   2.5540   2.5540   2.5540   2.5540   2.5540   2.5540   2.5540
     2.5910   2.5910   2.5910   2.5910   2.5910   2.5910   2.5910   2.5910
     2.5910   2.5910   2.5910   2.5910   2.5910   2.5910   2.5910   2.5910
     2.5910   2.5910   2.5910   2.5910   2.5910   2.5910   2.5910   2.5910
     2.6582   2.6582   2.6582   2.6582   2.6582   2.6582   2.6582   2.6583
     2.6583   2.6583   2.6583   2.6583   2.6583   2.6583   2.6583   2.6583
     2.8201   2.8202   2.8202   2.8202   2.8202   2.8202   2.8202   2.8202
     2.8202   2.8202   2.8202   2.8202   2.8202   2.8202   2.8202   2.8202
     2.8202   2.8202   2.8202   2.8202   2.8202   2.8202   2.8202   2.8202
     4.9920   4.9920   4.9920   4.9920   4.9920   4.9920   4.9920   4.9920
     4.9920   4.9920   4.9920   4.9920   4.9920   4.9920   4.9920   4.9920
     4.9920   4.9920   4.9920   4.9920   4.9920   4.9920   4.9920   4.9920
     7.6105   7.6105   7.6105   7.6105   7.6105   7.6105   7.6105   7.6105
     7.6105   7.6105   7.6105   7.6105   7.6105   7.6105   7.6105   7.6105
     7.6105   7.6105   7.6105   7.6105   7.6105   7.6105   7.6105   7.6105
    10.2952  10.2991

     the Fermi energy is     3.0394 ev

!    total energy              =  -16378.15339163 Ry

     total all-electron energy =   -322939.007099 Ry
     estimated scf accuracy    <       0.00000057 Ry
     smearing contrib. (-TS)   =       0.86250496 Ry
     internal energy E=F+TS    =  -16379.01589659 Ry

     The total energy is F=E-TS. E is the sum of the following terms:
     one-electron contribution =   -5719.60165084 Ry
     hartree contribution      =    2968.53699033 Ry
     xc contribution           =    -981.15022433 Ry
     ewald contribution        =   -4480.06522669 Ry
     one-center paw contrib.   =   -8166.73578506 Ry

     convergence has been achieved in  24 iterations

     Forces acting on atoms (cartesian axes, Ry/au):

     atom    1 type  1   force =     0.00000000    0.00000000    0.00000000
     atom    2 type  1   force =     0.00000509    0.00000509   -0.00000000
     atom    3 type  1   force =     0.00000509    0.00000000    0.00000509
     atom    4 type  1   force =     0.00000000    0.00000509    0.00000509
     atom    5 type  1   force =     0.00000000    0.00000000    0.00000000
     atom    6 type  1   force =    -0.00000166   -0.00000166    0.00000000
     atom    7 type  1   force =     0.00000509    0.00000000   -0.00000509
     atom    8 type  1   force =    -0.00000000    0.00000509   -0.00000509
     atom    9 type  1   force =     0.00000000    0.00000000    0.00000000
     atom   10 type  1   force =     0.00000509   -0.00000509    0.00000000
     atom   11 type  1   force =    -0.00000166    0.00000000   -0.00000166
     atom   12 type  1   force =     0.00000000   -0.00000509    0.00000509
     atom   13 type  1   force =     0.00000000    0.00000000    0.00000000
     atom   14 type  1   force =    -0.00000166    0.00000166    0.00000000
     atom   15 type  1   force =    -0.00000166    0.00000000    0.00000166
     atom   16 type  1   force =     0.00000000   -0.00000509   -0.00000509
     atom   17 type  1   force =     0.00000000    0.00000000    0.00000000
     atom   18 type  1   force =    -0.00000509    0.00000509   -0.00000000
     atom   19 type  1   force =    -0.00000509    0.00000000    0.00000509
     atom   20 type  1   force =    -0.00000000   -0.00000166   -0.00000166
     atom   21 type  1   force =     0.00000000    0.00000000    0.00000000
     atom   22 type  1   force =     0.00000166   -0.00000166    0.00000000
     atom   23 type  1   force =    -0.00000509   -0.00000000   -0.00000509
     atom   24 type  1   force =     0.00000000   -0.00000166    0.00000166
     atom   25 type  1   force =     0.00000000    0.00000000    0.00000000
     atom   26 type  1   force =    -0.00000509   -0.00000509   -0.00000000
     atom   27 type  1   force =     0.00000166    0.00000000   -0.00000166
     atom   28 type  1   force =     0.00000000    0.00000166   -0.00000166
     atom   29 type  1   force =     0.00000000    0.00000000    0.00000000
     atom   30 type  1   force =     0.00000166    0.00000166   -0.00000000
     atom   31 type  1   force =     0.00000166   -0.00000000    0.00000166
     atom   32 type  1   force =     0.00000000    0.00000166    0.00000166

     Total force =     0.000026     Total SCF correction =     0.000247
     SCF correction compared to forces is large: reduce conv_thr to get better values

     Computing stress (Cartesian axis) and pressure

          total   stress  (Ry/bohr**3)                   (kbar)     P=      -91.49
  -0.00062191   0.00000000   0.00000000          -91.49        0.00        0.00
   0.00000000  -0.00062191   0.00000000            0.00      -91.49        0.00
   0.00000000   0.00000000  -0.00062191            0.00        0.00      -91.49

     Writing output data file /scratch/OiHgkIxIFhAxDtXG.save/

     General routines

     Parallel routines

   This run was terminated on:  22:24:17  26Nov2021

   JOB DONE.