     Program PWSCF v.6.7MaX starts on 20Mar2022 at  3:53:25

     R & G space division:  proc/nbgrp/npool/nimage =      72
     Reading input from pd_0017.in
Warning: card &CELL ignored
Warning: card CELL_DYNAMICS = 'BFGS', ignored
Warning: card CELL_FACTOR = 2.0, ignored
Warning: card PRESS = 0.0, ignored
Warning: card / ignored

     Current dimensions of program PWSCF are:
     Max number of different atomic species (ntypx) = 10
     Max number of k-points (npk) =  40000
     Max angular momentum in pseudopotentials (lmaxx) =  3
     file Pd.pbe-spn-kjpaw_psl.1.0.0.UPF: wavefunction(s)  4S 5S 4D renormalized

     Subspace diagonalization in iterative solution of the eigenvalue problem:
     one sub-group per band group will be used

     bravais-lattice index     =            0
     lattice parameter (alat)  =      14.8443  a.u.
     unit-cell volume          =    3271.0009 (a.u.)^3
     number of atoms/cell      =           32
     number of atomic types    =            1
     number of electrons       =       576.00
     number of Kohn-Sham states=          346
     kinetic-energy cutoff     =      71.0000  Ry
     charge density cutoff     =     430.0000  Ry
     scf convergence threshold =      1.0E-08
     mixing beta               =       0.3000
     number of iterations used =           10  local-TF  mixing
     Exchange-correlation= SLA  PW   PBX  PBC
                           (   1   4   3   4   0   0   0)

     celldm(1)=  14.844317  celldm(2)=   0.000000  celldm(3)=   0.000000
     celldm(4)=   0.000000  celldm(5)=   0.000000  celldm(6)=   0.000000

     crystal axes: (cart. coord. in units of alat)
               a(1) = (   1.000000   0.000000   0.000000 )
               a(2) = (   0.000000   1.000000   0.000000 )
               a(3) = (   0.000000   0.000000   1.000000 )

     reciprocal axes: (cart. coord. in units 2 pi/alat)
               b(1) = (  1.000000  0.000000  0.000000 )
               b(2) = (  0.000000  1.000000  0.000000 )
               b(3) = (  0.000000  0.000000  1.000000 )

     PseudoPot. # 1 for Pd read from file:
     /rds/homes/b/bxp912/pp/Pd.pbe-spn-kjpaw_psl.1.0.0.UPF
     MD5 check sum: 790f2ebce206edfd9790dcb9844eca51
     Pseudo is Projector augmented-wave + core cor, Zval = 18.0
     Generated using &quot;atomic&quot; code by A. Dal Corso  v.6.3
     Shape of augmentation charge: PSQ
     Using radial grid of 1235 points,  6 beta functions with:
                l(1) =   0
                l(2) =   0
                l(3) =   1
                l(4) =   1
                l(5) =   2
                l(6) =   2
     Q(r) pseudized with 0 coefficients

     atomic species   valence    mass     pseudopotential
        Pd            18.00   106.42000     Pd( 1.00)

     No symmetry found

   Cartesian axes

     site n.     atom                  positions (alat units)
         1           Pd  tau(   1) = (   0.0000500   0.9996520   0.9997680  )
         2           Pd  tau(   2) = (   0.2499130   0.2504270   0.0000790  )
         3           Pd  tau(   3) = (   0.2499410   0.0003950   0.2506330  )
         4           Pd  tau(   4) = (   0.0000440   0.2497880   0.2504020  )
         5           Pd  tau(   5) = (   0.0003240   0.9998570   0.5003680  )
         6           Pd  tau(   6) = (   0.2501570   0.2500730   0.4995850  )
         7           Pd  tau(   7) = (   0.2496540   0.9994960   0.7497050  )
         8           Pd  tau(   8) = (   0.0000710   0.2498550   0.7498980  )
         9           Pd  tau(   9) = (   0.0001430   0.4997540   0.0000630  )
        10           Pd  tau(  10) = (   0.2499180   0.7502650   0.0003430  )
        11           Pd  tau(  11) = (   0.2505120   0.4997780   0.2498860  )
        12           Pd  tau(  12) = (   0.0004160   0.7500320   0.2504060  )
        13           Pd  tau(  13) = (   0.0001920   0.5001110   0.4996130  )
        14           Pd  tau(  14) = (   0.2493480   0.7501960   0.5000320  )
        15           Pd  tau(  15) = (   0.2499120   0.5001280   0.7495100  )
        16           Pd  tau(  16) = (   0.9996270   0.7497490   0.7498180  )
        17           Pd  tau(  17) = (   0.4998440   0.0001880   0.9999510  )
        18           Pd  tau(  18) = (   0.7496280   0.2498510   0.9996680  )
        19           Pd  tau(  19) = (   0.7494500   0.0001940   0.2496970  )
        20           Pd  tau(  20) = (   0.4999180   0.2493660   0.2501620  )
        21           Pd  tau(  21) = (   0.4997100   0.0003980   0.5001100  )
        22           Pd  tau(  22) = (   0.7501730   0.2503930   0.4995230  )
        23           Pd  tau(  23) = (   0.7502840   0.0004820   0.7500520  )
        24           Pd  tau(  24) = (   0.4999600   0.2499680   0.7500370  )
        25           Pd  tau(  25) = (   0.4996210   0.5000650   0.9997940  )
        26           Pd  tau(  26) = (   0.7500420   0.7501520   0.9999590  )
        27           Pd  tau(  27) = (   0.7498200   0.4996750   0.2496080  )
        28           Pd  tau(  28) = (   0.4997940   0.7502660   0.2495220  )
        29           Pd  tau(  29) = (   0.4998840   0.5004020   0.5003130  )
        30           Pd  tau(  30) = (   0.7498310   0.7495410   0.5000320  )
        31           Pd  tau(  31) = (   0.7503250   0.4994890   0.7500890  )
        32           Pd  tau(  32) = (   0.4994660   0.7496610   0.7495140  )

     number of k points=   365  Marzari-Vanderbilt smearing, width (Ry)=  0.0400

     Number of k-points >= 100: set verbosity='high' to print them.

     Check: negative core charge=   -0.000002

     Initial potential from superposition of free atoms

     starting charge  575.98776, renormalised to  576.00000
     Starting wfcs are  320 randomized atomic wfcs +   26 random wfcs
     Checking if some PAW data can be deallocated...

     Self-consistent Calculation

     iteration #  1     ecut=    71.00 Ry     beta= 0.30
     Davidson diagonalization with overlap
     ethr =  1.00E-02,  avg # of iterations =  3.0

     Threshold (ethr) on eigenvalues was too large:
     Diagonalizing with lowered threshold

     Davidson diagonalization with overlap
     ethr =  8.96E-05,  avg # of iterations =  4.4

     total energy              =  -16384.99185092 Ry
     estimated scf accuracy    <       0.47937611 Ry

[...]

     total energy              =  -16384.95829989 Ry
     estimated scf accuracy    <       0.00000008 Ry

     iteration # 10     ecut=    71.00 Ry     beta= 0.30
     Davidson diagonalization with overlap
     ethr =  1.33E-11,  avg # of iterations =  2.0

     End of self-consistent calculation

     Number of k-points >= 100: set verbosity='high' to print the bands.

     the Fermi energy is    19.2727 ev

!    total energy              =  -16384.95830008 Ry

     total all-electron energy =   -322945.812007 Ry
     estimated scf accuracy    <          2.6E-09 Ry
     smearing contrib. (-TS)   =       0.03318760 Ry
     internal energy E=F+TS    =  -16384.99148768 Ry

     The total energy is F=E-TS. E is the sum of the following terms:
     one-electron contribution =   -2487.84780549 Ry
     hartree contribution      =    1661.34645605 Ry
     xc contribution           =    -986.50625016 Ry
     ewald contribution        =   -6404.55794209 Ry
     one-center paw contrib.   =   -8167.42594600 Ry

     convergence has been achieved in  10 iterations

     Forces acting on atoms (cartesian axes, Ry/au):

     atom    1 type  1   force =     0.00014698    0.00098533    0.00113527
     atom    2 type  1   force =    -0.00020625   -0.00161561   -0.00059524
     atom    3 type  1   force =    -0.00028191   -0.00078739   -0.00186141
     atom    4 type  1   force =    -0.00046678    0.00003565   -0.00159900
     atom    5 type  1   force =    -0.00220063    0.00041368   -0.00104553
     atom    6 type  1   force =    -0.00024582    0.00039819    0.00166042
     atom    7 type  1   force =     0.00087691    0.00154723    0.00126389
     atom    8 type  1   force =     0.00060632    0.00052421   -0.00010828
     atom    9 type  1   force =    -0.00021800    0.00056081    0.00019528
     atom   10 type  1   force =    -0.00021667   -0.00052555   -0.00086353
     atom   11 type  1   force =    -0.00068435    0.00067222    0.00032554
     atom   12 type  1   force =    -0.00165438    0.00012401   -0.00120481
     atom   13 type  1   force =    -0.00047781   -0.00060687    0.00031993
     atom   14 type  1   force =     0.00182132   -0.00076661   -0.00071578
     atom   15 type  1   force =    -0.00054097   -0.00049968    0.00107262
     atom   16 type  1   force =     0.00014390   -0.00015753    0.00082344
     atom   17 type  1   force =    -0.00065955   -0.00070410   -0.00113867
     atom   18 type  1   force =     0.00108834    0.00032272    0.00105150
     atom   19 type  1   force =     0.00184031   -0.00097352    0.00113940
     atom   20 type  1   force =     0.00026528    0.00211208   -0.00054848
     atom   21 type  1   force =     0.00132255   -0.00150179    0.00050060
     atom   22 type  1   force =    -0.00038395   -0.00091825    0.00099938
     atom   23 type  1   force =    -0.00130394   -0.00149183   -0.00094815
     atom   24 type  1   force =    -0.00055235    0.00005698   -0.00055405
     atom   25 type  1   force =     0.00085928    0.00001598    0.00001066
     atom   26 type  1   force =    -0.00024464   -0.00074291   -0.00023628
     atom   27 type  1   force =    -0.00010621    0.00087381    0.00014535
     atom   28 type  1   force =     0.00045561   -0.00037180    0.00145052
     atom   29 type  1   force =     0.00034235   -0.00091786   -0.00139876
     atom   30 type  1   force =    -0.00015590    0.00144629   -0.00056233
     atom   31 type  1   force =    -0.00079161    0.00107302    0.00000039
     atom   32 type  1   force =     0.00162254    0.00141909    0.00128612

     Total force =     0.009263     Total SCF correction =     0.000117

     Computing stress (Cartesian axis) and pressure

          total   stress  (Ry/bohr**3)                   (kbar)     P=        0.11
   0.00000078   0.00000001   0.00000001            0.11        0.00        0.00
   0.00000001   0.00000077   0.00000003            0.00        0.11        0.00
   0.00000001   0.00000003   0.00000076            0.00        0.00        0.11

     Writing output data file /scratch/pdheat_0017.save/

     General routines

     Parallel routines

   This run was terminated on:   5:15:22  20Mar2022

   JOB DONE.