     Program PWSCF v.6.7MaX starts on 13Mar2022 at  3:37: 4

     R & G space division:  proc/nbgrp/npool/nimage =      72
     Reading input from fe_0004.in
Warning: card &CELL ignored
Warning: card CELL_DYNAMICS = 'BFGS', ignored
Warning: card CELL_FACTOR = 2.0, ignored
Warning: card PRESS = 0.0, ignored
Warning: card / ignored

     Current dimensions of program PWSCF are:
     Max number of different atomic species (ntypx) = 10
     Max number of k-points (npk) =  40000
     Max angular momentum in pseudopotentials (lmaxx) =  3
     file Fe.pbe-spn-kjpaw_psl.1.0.0.UPF: wavefunction(s)  3P 3D renormalized
     file Fe.pbe-spn-kjpaw_psl.1.0.0.UPF: wavefunction(s)  3P 3D renormalized

     Subspace diagonalization in iterative solution of the eigenvalue problem:
     one sub-group per band group will be used

     bravais-lattice index     =            0
     lattice parameter (alat)  =      12.9382  a.u.
     unit-cell volume          =    2283.7616 (a.u.)^3
     number of atoms/cell      =           32
     number of atomic types    =            2
     number of electrons       =       512.00
     number of Kohn-Sham states=          320
     kinetic-energy cutoff     =      71.0000  Ry
     charge density cutoff     =     430.0000  Ry
     scf convergence threshold =      1.0E-08
     mixing beta               =       0.3000
     number of iterations used =           10  local-TF  mixing
     Exchange-correlation= SLA  PW   PBX  PBC
                           (   1   4   3   4   0   0   0)

     celldm(1)=  12.938150  celldm(2)=   0.000000  celldm(3)=   0.000000
     celldm(4)=   0.000000  celldm(5)=   0.000000  celldm(6)=   0.000000

     crystal axes: (cart. coord. in units of alat)
               a(1) = (   1.000000   0.000000   0.000000 )
               a(2) = (   0.000000   1.054470   0.000000 )
               a(3) = (   0.000000   0.000000   1.000000 )

     reciprocal axes: (cart. coord. in units 2 pi/alat)
               b(1) = (  1.000000  0.000000  0.000000 )
               b(2) = (  0.000000  0.948344  0.000000 )
               b(3) = (  0.000000  0.000000  1.000000 )

     PseudoPot. # 1 for Fe read from file:
     /rds/homes/b/bxp912/pp/Fe.pbe-spn-kjpaw_psl.1.0.0.UPF
     MD5 check sum: 42f43b795421b414b0dc916aa790dbcb
     Pseudo is Projector augmented-wave + core cor, Zval = 16.0
     Generated using &quot;atomic&quot; code by A. Dal Corso  v.6.3
     Shape of augmentation charge: PSQ
     Using radial grid of 1191 points,  6 beta functions with:
                l(1) =   0
                l(2) =   0
                l(3) =   1
                l(4) =   1
                l(5) =   2
                l(6) =   2
     Q(r) pseudized with 0 coefficients

     PseudoPot. # 2 for Fe read from file:
     /rds/homes/b/bxp912/pp/Fe.pbe-spn-kjpaw_psl.1.0.0.UPF
     MD5 check sum: 42f43b795421b414b0dc916aa790dbcb
     Pseudo is Projector augmented-wave + core cor, Zval = 16.0
     Generated using &quot;atomic&quot; code by A. Dal Corso  v.6.3
     Shape of augmentation charge: PSQ
     Using radial grid of 1191 points,  6 beta functions with:
                l(1) =   0
                l(2) =   0
                l(3) =   1
                l(4) =   1
                l(5) =   2
                l(6) =   2
     Q(r) pseudized with 0 coefficients

     atomic species   valence    mass     pseudopotential
        Fe1           16.00    55.84500     Fe( 1.00)
        Fe2           16.00    55.84500     Fe( 1.00)

     Starting magnetic structure
     atomic species   magnetization
        Fe1          0.100
        Fe2         -0.100

     No symmetry found

   Cartesian axes

     site n.     atom                  positions (alat units)
         1           Fe1 tau(   1) = (   0.9997390   0.0003944   0.0003240  )
         2           Fe2 tau(   2) = (   0.2500960   0.2636512   0.0001510  )
         3           Fe1 tau(   3) = (   0.2497210   1.0542053   0.2500540  )
         4           Fe2 tau(   4) = (   0.9998810   0.2638811   0.2501710  )
         5           Fe1 tau(   5) = (   0.0003540   1.0540071   0.4999360  )
         6           Fe2 tau(   6) = (   0.2497100   0.2630987   0.5001350  )
         7           Fe1 tau(   7) = (   0.2502220   1.0544552   0.7498410  )
         8           Fe2 tau(   8) = (   0.0003860   0.2635447   0.7498420  )
         9           Fe1 tau(   9) = (   0.0001510   0.5273742   0.9997530  )
        10           Fe2 tau(  10) = (   0.2501630   0.7910729   0.9996470  )
        11           Fe1 tau(  11) = (   0.2504730   0.5271222   0.2499890  )
        12           Fe2 tau(  12) = (   0.9998560   0.7917267   0.2494520  )
        13           Fe1 tau(  13) = (   0.0002350   0.5271791   0.4999990  )
        14           Fe2 tau(  14) = (   0.2502030   0.7908852   0.5000410  )
        15           Fe1 tau(  15) = (   0.2500360   0.5271875   0.7498650  )
        16           Fe2 tau(  16) = (   0.0002890   0.7914019   0.7495030  )
        17           Fe1 tau(  17) = (   0.4995940   1.0542781   0.0005310  )
        18           Fe2 tau(  18) = (   0.7498870   0.2639634   0.9995560  )
        19           Fe1 tau(  19) = (   0.7495420   0.0003469   0.2508530  )
        20           Fe2 tau(  20) = (   0.5000110   0.2632579   0.2499330  )
        21           Fe1 tau(  21) = (   0.4993120   1.0544352   0.4999650  )
        22           Fe2 tau(  22) = (   0.7500970   0.2632716   0.5001880  )
        23           Fe1 tau(  23) = (   0.7501000   1.0544341   0.7500610  )
        24           Fe2 tau(  24) = (   0.4997360   0.2636534   0.7496840  )
        25           Fe1 tau(  25) = (   0.4999190   0.5269883   0.9997170  )
        26           Fe2 tau(  26) = (   0.7498280   0.7910866   0.0000490  )
        27           Fe1 tau(  27) = (   0.7502410   0.5267679   0.2497750  )
        28           Fe2 tau(  28) = (   0.5001030   0.7911256   0.2498390  )
        29           Fe1 tau(  29) = (   0.4995450   0.5279362   0.4995500  )
        30           Fe2 tau(  30) = (   0.7501130   0.7901660   0.5003750  )
        31           Fe1 tau(  31) = (   0.7498230   0.5274480   0.7503280  )
        32           Fe2 tau(  32) = (   0.5000910   0.7908093   0.7501260  )

     number of k points=   365  Marzari-Vanderbilt smearing, width (Ry)=  0.0400

     Number of k-points >= 100: set verbosity='high' to print them.

     Check: negative core charge=   -0.000006
     Generating pointlists ...
     new r_m :   0.1454 (alat units)  1.8818 (a.u.) for type    1
     new r_m :   0.1456 (alat units)  1.8833 (a.u.) for type    2

     Initial potential from superposition of free atoms

     starting charge  511.98600, renormalised to  512.00000
     Starting wfcs are  320 randomized atomic wfcs
     Checking if some PAW data can be deallocated...

     Self-consistent Calculation

     iteration #  1     ecut=    71.00 Ry     beta= 0.30
     Davidson diagonalization with overlap
     ethr =  1.00E-02,  avg # of iterations =  7.7

     negative rho (up, down):  1.150E-01 2.419E-01

     total energy              =  -10532.33741534 Ry
     estimated scf accuracy    <      36.88758283 Ry

     total magnetization       =    -0.19 Bohr mag/cell
     absolute magnetization    =    61.13 Bohr mag/cell

[...]

     iteration #  5     ecut=    71.00 Ry     beta= 0.30
     Davidson diagonalization with overlap
     c_bands:  1 eigenvalues not converged
     ethr =  2.33E-04,  avg # of iterations =  4.1

[...]

     negative rho (up, down):  0.000E+00 9.690E-06

[...]

     iteration # 10     ecut=    71.00 Ry     beta= 0.30
     Davidson diagonalization with overlap
     c_bands:  2 eigenvalues not converged
     c_bands:  2 eigenvalues not converged
     c_bands:  1 eigenvalues not converged
     c_bands:  1 eigenvalues not converged
     c_bands:  1 eigenvalues not converged
     c_bands:  1 eigenvalues not converged
     c_bands:  1 eigenvalues not converged
     c_bands:  2 eigenvalues not converged
     c_bands:  1 eigenvalues not converged
     c_bands:  1 eigenvalues not converged
     ethr =  4.12E-06,  avg # of iterations =  5.8

[...]

     total energy              =  -10536.25040894 Ry
     estimated scf accuracy    <       0.00000001 Ry

[...]

     iteration # 37     ecut=    71.00 Ry     beta= 0.30
     Davidson diagonalization with overlap
     ethr =  2.04E-12,  avg # of iterations =  3.5

     Magnetic moment per site:
     atom:    1    charge:   14.3735    magn:    1.4919    constr:    0.0000
     atom:    2    charge:   14.3795    magn:   -1.4924    constr:    0.0000
     atom:    3    charge:   14.3763    magn:    1.4863    constr:    0.0000
     atom:    4    charge:   14.3793    magn:   -1.4904    constr:    0.0000
     atom:    5    charge:   14.3761    magn:    1.4818    constr:    0.0000
     atom:    6    charge:   14.3808    magn:   -1.4857    constr:    0.0000
     atom:    7    charge:   14.3758    magn:    1.4826    constr:    0.0000
     atom:    8    charge:   14.3795    magn:   -1.4931    constr:    0.0000
     atom:    9    charge:   14.3729    magn:    1.4979    constr:    0.0000
     atom:   10    charge:   14.3795    magn:   -1.4927    constr:    0.0000
     atom:   11    charge:   14.3729    magn:    1.5015    constr:    0.0000
     atom:   12    charge:   14.3781    magn:   -1.4946    constr:    0.0000
     atom:   13    charge:   14.3731    magn:    1.4947    constr:    0.0000
     atom:   14    charge:   14.3812    magn:   -1.4809    constr:    0.0000
     atom:   15    charge:   14.3747    magn:    1.4896    constr:    0.0000
     atom:   16    charge:   14.3796    magn:   -1.4917    constr:    0.0000
     atom:   17    charge:   14.3745    magn:    1.4875    constr:    0.0000
     atom:   18    charge:   14.3788    magn:   -1.4924    constr:    0.0000
     atom:   19    charge:   14.3741    magn:    1.4896    constr:    0.0000
     atom:   20    charge:   14.3796    magn:   -1.4871    constr:    0.0000
     atom:   21    charge:   14.3755    magn:    1.4889    constr:    0.0000
     atom:   22    charge:   14.3782    magn:   -1.4996    constr:    0.0000
     atom:   23    charge:   14.3726    magn:    1.4921    constr:    0.0000
     atom:   24    charge:   14.3789    magn:   -1.4961    constr:    0.0000
     atom:   25    charge:   14.3749    magn:    1.4889    constr:    0.0000
     atom:   26    charge:   14.3788    magn:   -1.4945    constr:    0.0000
     atom:   27    charge:   14.3724    magn:    1.4966    constr:    0.0000
     atom:   28    charge:   14.3800    magn:   -1.4858    constr:    0.0000
     atom:   29    charge:   14.3735    magn:    1.4966    constr:    0.0000
     atom:   30    charge:   14.3786    magn:   -1.4967    constr:    0.0000
     atom:   31    charge:   14.3735    magn:    1.4908    constr:    0.0000
     atom:   32    charge:   14.3806    magn:   -1.4893    constr:    0.0000

     End of self-consistent calculation

     Number of k-points >= 100: set verbosity='high' to print the bands.

     the Fermi energy is    20.1183 ev

!    total energy              =  -10536.25040896 Ry

     total all-electron energy =    -81457.739467 Ry
     estimated scf accuracy    <          4.3E-09 Ry
     smearing contrib. (-TS)   =       0.01441695 Ry
     internal energy E=F+TS    =  -10536.26482591 Ry

     The total energy is F=E-TS. E is the sum of the following terms:
     one-electron contribution =   -3292.41132701 Ry
     hartree contribution      =    1996.52726298 Ry
     xc contribution           =    -886.95656307 Ry
     ewald contribution        =   -5703.86348260 Ry
     one-center paw contrib.   =   -2649.56071623 Ry

     total magnetization       =    -0.00 Bohr mag/cell
     absolute magnetization    =    49.54 Bohr mag/cell

     convergence has been achieved in  37 iterations

     Forces acting on atoms (cartesian axes, Ry/au):

     atom    1 type  1   force =     0.00007684   -0.00058744   -0.00090289
     atom    2 type  2   force =    -0.00028114   -0.00021579   -0.00024863
     atom    3 type  1   force =     0.00050650    0.00068820   -0.00040315
     atom    4 type  2   force =     0.00012350   -0.00055360   -0.00064497
     atom    5 type  1   force =    -0.00143602    0.00138375    0.00051188
     atom    6 type  2   force =     0.00078976    0.00135338   -0.00106762
     atom    7 type  1   force =    -0.00087617    0.00011225    0.00123682
     atom    8 type  2   force =    -0.00112786    0.00024326    0.00043582
     atom    9 type  1   force =    -0.00030917   -0.00002280    0.00042336
     atom   10 type  2   force =    -0.00051170   -0.00061398    0.00096559
     atom   11 type  1   force =    -0.00164858    0.00073876   -0.00025150
     atom   12 type  2   force =     0.00026551   -0.00279705    0.00141787
     atom   13 type  1   force =    -0.00070502    0.00042578   -0.00018213
     atom   14 type  2   force =    -0.00061173   -0.00020806   -0.00051767
     atom   15 type  1   force =    -0.00003771    0.00017083   -0.00006678
     atom   16 type  2   force =    -0.00078765   -0.00132312    0.00157386
     atom   17 type  1   force =     0.00159272    0.00104297   -0.00170505
     atom   18 type  2   force =     0.00012138   -0.00139017    0.00099243
     atom   19 type  1   force =     0.00120100   -0.00076526   -0.00203156
     atom   20 type  2   force =    -0.00005193    0.00117156    0.00047822
     atom   21 type  1   force =     0.00197211   -0.00026190    0.00058372
     atom   22 type  2   force =    -0.00034026    0.00122264   -0.00009191
     atom   23 type  1   force =    -0.00077521    0.00000522   -0.00027497
     atom   24 type  2   force =     0.00055298    0.00000854    0.00064164
     atom   25 type  1   force =     0.00024947    0.00081142    0.00093540
     atom   26 type  2   force =     0.00070487   -0.00029639   -0.00012885
     atom   27 type  1   force =    -0.00063104    0.00134976    0.00032312
     atom   28 type  2   force =    -0.00005073   -0.00080513    0.00014660
     atom   29 type  1   force =     0.00172692   -0.00250500    0.00112392
     atom   30 type  2   force =    -0.00022316    0.00184329   -0.00166821
     atom   31 type  1   force =     0.00079070   -0.00048968   -0.00119682
     atom   32 type  2   force =    -0.00026917    0.00026376   -0.00040752

     Total force =     0.009225     Total SCF correction =     0.000245

     Computing stress (Cartesian axis) and pressure

          total   stress  (Ry/bohr**3)                   (kbar)     P=       -0.02
  -0.00000045  -0.00000004  -0.00000002           -0.07       -0.01       -0.00
  -0.00000004   0.00000078  -0.00000005           -0.01        0.11       -0.01
  -0.00000002  -0.00000005  -0.00000064           -0.00       -0.01       -0.09

     Writing output data file /scratch/bxp912/fescf_0004.save/

     General routines

     Parallel routines

   This run was terminated on:   9:36:33  13Mar2022

   JOB DONE.