     Program PWSCF v.6.7MaX starts on 14Mar2022 at  3:13:56

     R & G space division:  proc/nbgrp/npool/nimage =      72
     Reading input from fe_0020.in
Warning: card &CELL ignored
Warning: card CELL_DYNAMICS = 'BFGS', ignored
Warning: card CELL_FACTOR = 2.0, ignored
Warning: card PRESS = 0.0, ignored
Warning: card / ignored

     Current dimensions of program PWSCF are:
     Max number of different atomic species (ntypx) = 10
     Max number of k-points (npk) =  40000
     Max angular momentum in pseudopotentials (lmaxx) =  3
     file Fe.pbe-spn-kjpaw_psl.1.0.0.UPF: wavefunction(s)  3P 3D renormalized
     file Fe.pbe-spn-kjpaw_psl.1.0.0.UPF: wavefunction(s)  3P 3D renormalized

     Subspace diagonalization in iterative solution of the eigenvalue problem:
     one sub-group per band group will be used

     bravais-lattice index     =            0
     lattice parameter (alat)  =      12.9382  a.u.
     unit-cell volume          =    2283.7616 (a.u.)^3
     number of atoms/cell      =           32
     number of atomic types    =            2
     number of electrons       =       512.00
     number of Kohn-Sham states=          320
     kinetic-energy cutoff     =      71.0000  Ry
     charge density cutoff     =     430.0000  Ry
     scf convergence threshold =      1.0E-08
     mixing beta               =       0.3000
     number of iterations used =           10  local-TF  mixing
     Exchange-correlation= SLA  PW   PBX  PBC
                           (   1   4   3   4   0   0   0)

     celldm(1)=  12.938150  celldm(2)=   0.000000  celldm(3)=   0.000000
     celldm(4)=   0.000000  celldm(5)=   0.000000  celldm(6)=   0.000000

     crystal axes: (cart. coord. in units of alat)
               a(1) = (   1.000000   0.000000   0.000000 )
               a(2) = (   0.000000   1.054470   0.000000 )
               a(3) = (   0.000000   0.000000   1.000000 )

     reciprocal axes: (cart. coord. in units 2 pi/alat)
               b(1) = (  1.000000  0.000000  0.000000 )
               b(2) = (  0.000000  0.948344  0.000000 )
               b(3) = (  0.000000  0.000000  1.000000 )

     PseudoPot. # 1 for Fe read from file:
     /rds/homes/b/bxp912/pp/Fe.pbe-spn-kjpaw_psl.1.0.0.UPF
     MD5 check sum: 42f43b795421b414b0dc916aa790dbcb
     Pseudo is Projector augmented-wave + core cor, Zval = 16.0
     Generated using &quot;atomic&quot; code by A. Dal Corso  v.6.3
     Shape of augmentation charge: PSQ
     Using radial grid of 1191 points,  6 beta functions with:
                l(1) =   0
                l(2) =   0
                l(3) =   1
                l(4) =   1
                l(5) =   2
                l(6) =   2
     Q(r) pseudized with 0 coefficients

     PseudoPot. # 2 for Fe read from file:
     /rds/homes/b/bxp912/pp/Fe.pbe-spn-kjpaw_psl.1.0.0.UPF
     MD5 check sum: 42f43b795421b414b0dc916aa790dbcb
     Pseudo is Projector augmented-wave + core cor, Zval = 16.0
     Generated using &quot;atomic&quot; code by A. Dal Corso  v.6.3
     Shape of augmentation charge: PSQ
     Using radial grid of 1191 points,  6 beta functions with:
                l(1) =   0
                l(2) =   0
                l(3) =   1
                l(4) =   1
                l(5) =   2
                l(6) =   2
     Q(r) pseudized with 0 coefficients

     atomic species   valence    mass     pseudopotential
        Fe1           16.00    55.84500     Fe( 1.00)
        Fe2           16.00    55.84500     Fe( 1.00)

     Starting magnetic structure
     atomic species   magnetization
        Fe1          0.100
        Fe2         -0.100

     No symmetry found

   Cartesian axes

     site n.     atom                  positions (alat units)
         1           Fe1 tau(   1) = (   0.0001660   1.0540714   0.0001630  )
         2           Fe2 tau(   2) = (   0.2512020   0.2628646   0.9981420  )
         3           Fe1 tau(   3) = (   0.2500340   1.0540999   0.2510660  )
         4           Fe2 tau(   4) = (   0.0001640   0.2639528   0.2498230  )
         5           Fe1 tau(   5) = (   0.9998810   1.0523706   0.5010550  )
         6           Fe2 tau(   6) = (   0.2492500   0.2634741   0.4998840  )
         7           Fe1 tau(   7) = (   0.2520000   0.0010534   0.7497770  )
         8           Fe2 tau(   8) = (   0.9989680   0.2641932   0.7501930  )
         9           Fe1 tau(   9) = (   0.0002040   0.5258906   0.9997740  )
        10           Fe2 tau(  10) = (   0.2494390   0.7909031   0.0000600  )
        11           Fe1 tau(  11) = (   0.2500520   0.5277211   0.2501420  )
        12           Fe2 tau(  12) = (   0.9997280   0.7917024   0.2495600  )
        13           Fe1 tau(  13) = (   0.0002120   0.5285447   0.5002640  )
        14           Fe2 tau(  14) = (   0.2492610   0.7909833   0.5003280  )
        15           Fe1 tau(  15) = (   0.2494920   0.5279215   0.7504400  )
        16           Fe2 tau(  16) = (   0.0013940   0.7909601   0.7495330  )
        17           Fe1 tau(  17) = (   0.4994360   1.0538131   0.9995670  )
        18           Fe2 tau(  18) = (   0.7483280   0.2645391   0.0006510  )
        19           Fe1 tau(  19) = (   0.7517190   0.0002320   0.2511800  )
        20           Fe2 tau(  20) = (   0.5005690   0.2634214   0.2500800  )
        21           Fe1 tau(  21) = (   0.5009810   1.0537709   0.4992110  )
        22           Fe2 tau(  22) = (   0.7489900   0.2638495   0.4989970  )
        23           Fe1 tau(  23) = (   0.7479790   1.0533955   0.7489630  )
        24           Fe2 tau(  24) = (   0.4990890   0.2633159   0.7498590  )
        25           Fe1 tau(  25) = (   0.5002270   0.5272666   0.0008260  )
        26           Fe2 tau(  26) = (   0.7505510   0.7905256   0.0007050  )
        27           Fe1 tau(  27) = (   0.7494780   0.5280427   0.2490520  )
        28           Fe2 tau(  28) = (   0.4995670   0.7913207   0.2487060  )
        29           Fe1 tau(  29) = (   0.4994620   0.5276462   0.4996780  )
        30           Fe2 tau(  30) = (   0.7486840   0.7911425   0.4987340  )
        31           Fe1 tau(  31) = (   0.7500980   0.5273025   0.7498180  )
        32           Fe2 tau(  32) = (   0.4988950   0.7910792   0.7495290  )

     number of k points=   365  Marzari-Vanderbilt smearing, width (Ry)=  0.0400

     Number of k-points >= 100: set verbosity='high' to print them.

     Check: negative core charge=   -0.000006
     Generating pointlists ...
     new r_m :   0.1449 (alat units)  1.8747 (a.u.) for type    1
     new r_m :   0.1447 (alat units)  1.8725 (a.u.) for type    2

     Initial potential from superposition of free atoms

     starting charge  511.98600, renormalised to  512.00000
     Starting wfcs are  320 randomized atomic wfcs
     Checking if some PAW data can be deallocated...

     Self-consistent Calculation

     iteration #  1     ecut=    71.00 Ry     beta= 0.30
     Davidson diagonalization with overlap
     ethr =  1.00E-02,  avg # of iterations =  7.7

     negative rho (up, down):  1.140E-01 2.448E-01

     total energy              =  -10532.40891382 Ry
     estimated scf accuracy    <      36.89261620 Ry

     total magnetization       =    -0.20 Bohr mag/cell
     absolute magnetization    =    61.14 Bohr mag/cell

[...]

     iteration #  5     ecut=    71.00 Ry     beta= 0.30
     Davidson diagonalization with overlap
     c_bands:  1 eigenvalues not converged
     ethr =  2.32E-04,  avg # of iterations =  4.2

[...]

     negative rho (up, down):  0.000E+00 4.474E-05

[...]

     iteration # 11     ecut=    71.00 Ry     beta= 0.30
     Davidson diagonalization with overlap
     c_bands:  3 eigenvalues not converged
     ethr =  1.05E-06,  avg # of iterations =  2.0

[...]

     total energy              =  -10536.24947226 Ry
     estimated scf accuracy    <       0.00000001 Ry

[...]

     iteration # 34     ecut=    71.00 Ry     beta= 0.30
     Davidson diagonalization with overlap
     ethr =  2.19E-12,  avg # of iterations =  1.4

     Magnetic moment per site:
     atom:    1    charge:   14.3452    magn:    1.5043    constr:    0.0000
     atom:    2    charge:   14.3428    magn:   -1.4951    constr:    0.0000
     atom:    3    charge:   14.3497    magn:    1.4971    constr:    0.0000
     atom:    4    charge:   14.3385    magn:   -1.5060    constr:    0.0000
     atom:    5    charge:   14.3511    magn:    1.4885    constr:    0.0000
     atom:    6    charge:   14.3401    magn:   -1.5068    constr:    0.0000
     atom:    7    charge:   14.3544    magn:    1.4641    constr:    0.0000
     atom:    8    charge:   14.3379    magn:   -1.5093    constr:    0.0000
     atom:    9    charge:   14.3508    magn:    1.4882    constr:    0.0000
     atom:   10    charge:   14.3458    magn:   -1.4839    constr:    0.0000
     atom:   11    charge:   14.3487    magn:    1.5065    constr:    0.0000
     atom:   12    charge:   14.3473    magn:   -1.4695    constr:    0.0000
     atom:   13    charge:   14.3488    magn:    1.4970    constr:    0.0000
     atom:   14    charge:   14.3482    magn:   -1.4691    constr:    0.0000
     atom:   15    charge:   14.3527    magn:    1.4720    constr:    0.0000
     atom:   16    charge:   14.3435    magn:   -1.4834    constr:    0.0000
     atom:   17    charge:   14.3517    magn:    1.4797    constr:    0.0000
     atom:   18    charge:   14.3417    magn:   -1.5014    constr:    0.0000
     atom:   19    charge:   14.3531    magn:    1.4700    constr:    0.0000
     atom:   20    charge:   14.3439    magn:   -1.4960    constr:    0.0000
     atom:   21    charge:   14.3560    magn:    1.4771    constr:    0.0000
     atom:   22    charge:   14.3410    magn:   -1.4985    constr:    0.0000
     atom:   23    charge:   14.3469    magn:    1.5163    constr:    0.0000
     atom:   24    charge:   14.3455    magn:   -1.4832    constr:    0.0000
     atom:   25    charge:   14.3524    magn:    1.4802    constr:    0.0000
     atom:   26    charge:   14.3415    magn:   -1.4955    constr:    0.0000
     atom:   27    charge:   14.3530    magn:    1.4704    constr:    0.0000
     atom:   28    charge:   14.3463    magn:   -1.4779    constr:    0.0000
     atom:   29    charge:   14.3488    magn:    1.5006    constr:    0.0000
     atom:   30    charge:   14.3458    magn:   -1.4660    constr:    0.0000
     atom:   31    charge:   14.3464    magn:    1.5150    constr:    0.0000
     atom:   32    charge:   14.3444    magn:   -1.4764    constr:    0.0000

     End of self-consistent calculation

     Number of k-points >= 100: set verbosity='high' to print the bands.

     the Fermi energy is    20.1182 ev

!    total energy              =  -10536.24947226 Ry

     total all-electron energy =    -81457.738530 Ry
     estimated scf accuracy    <          8.9E-09 Ry
     smearing contrib. (-TS)   =       0.01449469 Ry
     internal energy E=F+TS    =  -10536.26396695 Ry

     The total energy is F=E-TS. E is the sum of the following terms:
     one-electron contribution =   -3292.69399355 Ry
     hartree contribution      =    1996.66879614 Ry
     xc contribution           =    -886.95779191 Ry
     ewald contribution        =   -5703.72039191 Ry
     one-center paw contrib.   =   -2649.56058572 Ry

     total magnetization       =     0.00 Bohr mag/cell
     absolute magnetization    =    49.53 Bohr mag/cell

     convergence has been achieved in  34 iterations

     Forces acting on atoms (cartesian axes, Ry/au):

     atom    1 type  1   force =    -0.00046167    0.00247428   -0.00256302
     atom    2 type  2   force =    -0.00358742    0.00181007    0.00548361
     atom    3 type  1   force =    -0.00153287    0.00168429   -0.00318019
     atom    4 type  2   force =    -0.00048865   -0.00073318    0.00008779
     atom    5 type  1   force =     0.00020905    0.00625177   -0.00149705
     atom    6 type  2   force =     0.00012639    0.00058498    0.00050619
     atom    7 type  1   force =    -0.00534771   -0.00293763    0.00012807
     atom    8 type  2   force =     0.00130358   -0.00276753   -0.00120801
     atom    9 type  1   force =    -0.00072731    0.00312704    0.00102008
     atom   10 type  2   force =     0.00012352    0.00012961   -0.00095850
     atom   11 type  1   force =    -0.00060851   -0.00110357   -0.00111567
     atom   12 type  2   force =     0.00038593   -0.00305229    0.00081884
     atom   13 type  1   force =    -0.00135644   -0.00333697   -0.00155102
     atom   14 type  2   force =     0.00285342   -0.00022579   -0.00178206
     atom   15 type  1   force =     0.00113268   -0.00225252   -0.00129677
     atom   16 type  2   force =    -0.00530270    0.00022846    0.00129238
     atom   17 type  1   force =     0.00264391    0.00093130    0.00313939
     atom   18 type  2   force =     0.00359492   -0.00391721   -0.00241759
     atom   19 type  1   force =    -0.00367203   -0.00015828   -0.00463185
     atom   20 type  2   force =    -0.00355638    0.00016096   -0.00002363
     atom   21 type  1   force =    -0.00327321    0.00225779    0.00068621
     atom   22 type  2   force =     0.00371433    0.00004161    0.00231983
     atom   23 type  1   force =     0.00533979    0.00282113    0.00381924
     atom   24 type  2   force =     0.00356827    0.00214546   -0.00152606
     atom   25 type  1   force =    -0.00164920    0.00063266   -0.00357229
     atom   26 type  2   force =    -0.00111711    0.00123366   -0.00344595
     atom   27 type  1   force =     0.00144932   -0.00170794    0.00313983
     atom   28 type  2   force =     0.00117226   -0.00063656    0.00254909
     atom   29 type  1   force =     0.00107802   -0.00131456    0.00079552
     atom   30 type  2   force =     0.00250245   -0.00188913    0.00350440
     atom   31 type  1   force =    -0.00112659    0.00130618   -0.00003126
     atom   32 type  2   force =     0.00260994   -0.00178807    0.00151044

     Total force =     0.023566     Total SCF correction =     0.000184

     Computing stress (Cartesian axis) and pressure

          total   stress  (Ry/bohr**3)                   (kbar)     P=        0.19
   0.00000112  -0.00000016   0.00000023            0.17       -0.02        0.03
  -0.00000016   0.00000161   0.00000006           -0.02        0.24        0.01
   0.00000023   0.00000006   0.00000115            0.03        0.01        0.17

     Writing output data file /scratch/bxp912/fescf_0020.save/

     General routines

     Parallel routines

   This run was terminated on:   8:50: 8  14Mar2022

   JOB DONE.