     Program PWSCF v.6.7MaX starts on 16Mar2022 at 13: 5:43

     R & G space division:  proc/nbgrp/npool/nimage =      72
     Reading input from fe_0026.in
Warning: card &CELL ignored
Warning: card CELL_DYNAMICS = 'BFGS', ignored
Warning: card CELL_FACTOR = 2.0, ignored
Warning: card PRESS = 0.0, ignored
Warning: card / ignored

     Current dimensions of program PWSCF are:
     Max number of different atomic species (ntypx) = 10
     Max number of k-points (npk) =  40000
     Max angular momentum in pseudopotentials (lmaxx) =  3
     file Fe.pbe-spn-kjpaw_psl.1.0.0.UPF: wavefunction(s)  3P 3D renormalized
     file Fe.pbe-spn-kjpaw_psl.1.0.0.UPF: wavefunction(s)  3P 3D renormalized

     Subspace diagonalization in iterative solution of the eigenvalue problem:
     one sub-group per band group will be used

     bravais-lattice index     =            0
     lattice parameter (alat)  =      12.9382  a.u.
     unit-cell volume          =    2283.7616 (a.u.)^3
     number of atoms/cell      =           32
     number of atomic types    =            2
     number of electrons       =       512.00
     number of Kohn-Sham states=          320
     kinetic-energy cutoff     =      71.0000  Ry
     charge density cutoff     =     430.0000  Ry
     scf convergence threshold =      1.0E-08
     mixing beta               =       0.3000
     number of iterations used =           10  local-TF  mixing
     Exchange-correlation= SLA  PW   PBX  PBC
                           (   1   4   3   4   0   0   0)

     celldm(1)=  12.938150  celldm(2)=   0.000000  celldm(3)=   0.000000
     celldm(4)=   0.000000  celldm(5)=   0.000000  celldm(6)=   0.000000

     crystal axes: (cart. coord. in units of alat)
               a(1) = (   1.000000   0.000000   0.000000 )
               a(2) = (   0.000000   1.054470   0.000000 )
               a(3) = (   0.000000   0.000000   1.000000 )

     reciprocal axes: (cart. coord. in units 2 pi/alat)
               b(1) = (  1.000000  0.000000  0.000000 )
               b(2) = (  0.000000  0.948344  0.000000 )
               b(3) = (  0.000000  0.000000  1.000000 )

     PseudoPot. # 1 for Fe read from file:
     /rds/homes/b/bxp912/pp/Fe.pbe-spn-kjpaw_psl.1.0.0.UPF
     MD5 check sum: 42f43b795421b414b0dc916aa790dbcb
     Pseudo is Projector augmented-wave + core cor, Zval = 16.0
     Generated using &quot;atomic&quot; code by A. Dal Corso  v.6.3
     Shape of augmentation charge: PSQ
     Using radial grid of 1191 points,  6 beta functions with:
                l(1) =   0
                l(2) =   0
                l(3) =   1
                l(4) =   1
                l(5) =   2
                l(6) =   2
     Q(r) pseudized with 0 coefficients

     PseudoPot. # 2 for Fe read from file:
     /rds/homes/b/bxp912/pp/Fe.pbe-spn-kjpaw_psl.1.0.0.UPF
     MD5 check sum: 42f43b795421b414b0dc916aa790dbcb
     Pseudo is Projector augmented-wave + core cor, Zval = 16.0
     Generated using &quot;atomic&quot; code by A. Dal Corso  v.6.3
     Shape of augmentation charge: PSQ
     Using radial grid of 1191 points,  6 beta functions with:
                l(1) =   0
                l(2) =   0
                l(3) =   1
                l(4) =   1
                l(5) =   2
                l(6) =   2
     Q(r) pseudized with 0 coefficients

     atomic species   valence    mass     pseudopotential
        Fe1           16.00    55.84500     Fe( 1.00)
        Fe2           16.00    55.84500     Fe( 1.00)

     Starting magnetic structure
     atomic species   magnetization
        Fe1          0.100
        Fe2         -0.100

     No symmetry found

   Cartesian axes

     site n.     atom                  positions (alat units)
         1           Fe1 tau(   1) = (   0.9998900   1.0543751   0.0004250  )
         2           Fe2 tau(   2) = (   0.2502290   0.2632780   0.9998140  )
         3           Fe1 tau(   3) = (   0.2499010   0.0002647   0.2493990  )
         4           Fe2 tau(   4) = (   0.0003290   0.2631166   0.2501340  )
         5           Fe1 tau(   5) = (   0.0000940   0.0005452   0.5003590  )
         6           Fe2 tau(   6) = (   0.2501390   0.2636607   0.5001070  )
         7           Fe1 tau(   7) = (   0.2502010   0.0004481   0.7497430  )
         8           Fe2 tau(   8) = (   0.9995590   0.2639497   0.7498010  )
         9           Fe1 tau(   9) = (   0.9999640   0.5273911   0.0001030  )
        10           Fe2 tau(  10) = (   0.2497080   0.7913260   0.0002510  )
        11           Fe1 tau(  11) = (   0.2501920   0.5267911   0.2499150  )
        12           Fe2 tau(  12) = (   0.9998330   0.7915780   0.2494910  )
        13           Fe1 tau(  13) = (   0.9999470   0.5274427   0.5003680  )
        14           Fe2 tau(  14) = (   0.2499080   0.7906279   0.4999700  )
        15           Fe1 tau(  15) = (   0.2502790   0.5271074   0.7497390  )
        16           Fe2 tau(  16) = (   0.9999300   0.7906922   0.7499130  )
        17           Fe1 tau(  17) = (   0.4998860   0.0002193   0.0002850  )
        18           Fe2 tau(  18) = (   0.7502020   0.2640699   0.0004730  )
        19           Fe1 tau(  19) = (   0.7499820   1.0543846   0.2500460  )
        20           Fe2 tau(  20) = (   0.4998480   0.2634730   0.2497380  )
        21           Fe1 tau(  21) = (   0.4994480   0.0000812   0.4998330  )
        22           Fe2 tau(  22) = (   0.7496350   0.2636449   0.4997900  )
        23           Fe1 tau(  23) = (   0.7501820   1.0543920   0.7497790  )
        24           Fe2 tau(  24) = (   0.4998600   0.2637620   0.7499180  )
        25           Fe1 tau(  25) = (   0.4998630   0.5269197   0.0000630  )
        26           Fe2 tau(  26) = (   0.7499770   0.7903421   0.0002290  )
        27           Fe1 tau(  27) = (   0.7497620   0.5269176   0.2502570  )
        28           Fe2 tau(  28) = (   0.5000410   0.7907840   0.2500770  )
        29           Fe1 tau(  29) = (   0.5000720   0.5269376   0.4998370  )
        30           Fe2 tau(  30) = (   0.7506620   0.7909495   0.4999600  )
        31           Fe1 tau(  31) = (   0.7503070   0.5271485   0.7501750  )
        32           Fe2 tau(  32) = (   0.5001300   0.7906427   0.7498280  )

     number of k points=   365  Marzari-Vanderbilt smearing, width (Ry)=  0.0400

     Number of k-points >= 100: set verbosity='high' to print them.

     Check: negative core charge=   -0.000006
     Generating pointlists ...
     new r_m :   0.1455 (alat units)  1.8831 (a.u.) for type    1
     new r_m :   0.1456 (alat units)  1.8836 (a.u.) for type    2

     Initial potential from superposition of free atoms

     starting charge  511.98600, renormalised to  512.00000
     Starting wfcs are  320 randomized atomic wfcs
     Checking if some PAW data can be deallocated...

     Self-consistent Calculation

     iteration #  1     ecut=    71.00 Ry     beta= 0.30
     Davidson diagonalization with overlap
     ethr =  1.00E-02,  avg # of iterations =  7.7

     negative rho (up, down):  1.131E-01 2.401E-01

     total energy              =  -10532.29138348 Ry
     estimated scf accuracy    <      36.69053909 Ry

     total magnetization       =    -0.19 Bohr mag/cell
     absolute magnetization    =    61.09 Bohr mag/cell

[...]

     iteration #  5     ecut=    71.00 Ry     beta= 0.30
     Davidson diagonalization with overlap
     c_bands:  1 eigenvalues not converged
     ethr =  2.33E-04,  avg # of iterations =  4.0

[...]

     negative rho (up, down):  5.399E-06 1.564E-03

[...]

     iteration # 17     ecut=    71.00 Ry     beta= 0.30
     Davidson diagonalization with overlap
     c_bands:  2 eigenvalues not converged
     ethr =  8.58E-09,  avg # of iterations =  2.0

[...]

     total energy              =  -10536.25044688 Ry
     estimated scf accuracy    <       0.00000001 Ry

[...]

     iteration # 36     ecut=    71.00 Ry     beta= 0.30
     Davidson diagonalization with overlap
     ethr =  2.90E-12,  avg # of iterations =  2.0

     Magnetic moment per site:
     atom:    1    charge:   14.3794    magn:    1.4878    constr:    0.0000
     atom:    2    charge:   14.3817    magn:   -1.4857    constr:    0.0000
     atom:    3    charge:   14.3807    magn:    1.4830    constr:    0.0000
     atom:    4    charge:   14.3807    magn:   -1.4914    constr:    0.0000
     atom:    5    charge:   14.3791    magn:    1.4890    constr:    0.0000
     atom:    6    charge:   14.3822    magn:   -1.4836    constr:    0.0000
     atom:    7    charge:   14.3781    magn:    1.4935    constr:    0.0000
     atom:    8    charge:   14.3804    magn:   -1.4882    constr:    0.0000
     atom:    9    charge:   14.3780    magn:    1.4930    constr:    0.0000
     atom:   10    charge:   14.3795    magn:   -1.4965    constr:    0.0000
     atom:   11    charge:   14.3773    magn:    1.4968    constr:    0.0000
     atom:   12    charge:   14.3807    magn:   -1.4951    constr:    0.0000
     atom:   13    charge:   14.3783    magn:    1.4929    constr:    0.0000
     atom:   14    charge:   14.3790    magn:   -1.4982    constr:    0.0000
     atom:   15    charge:   14.3783    magn:    1.4920    constr:    0.0000
     atom:   16    charge:   14.3806    magn:   -1.4906    constr:    0.0000
     atom:   17    charge:   14.3782    magn:    1.4943    constr:    0.0000
     atom:   18    charge:   14.3802    magn:   -1.4927    constr:    0.0000
     atom:   19    charge:   14.3790    magn:    1.4874    constr:    0.0000
     atom:   20    charge:   14.3830    magn:   -1.4789    constr:    0.0000
     atom:   21    charge:   14.3781    magn:    1.4945    constr:    0.0000
     atom:   22    charge:   14.3809    magn:   -1.4897    constr:    0.0000
     atom:   23    charge:   14.3762    magn:    1.4994    constr:    0.0000
     atom:   24    charge:   14.3812    magn:   -1.4875    constr:    0.0000
     atom:   25    charge:   14.3789    magn:    1.4914    constr:    0.0000
     atom:   26    charge:   14.3803    magn:   -1.4949    constr:    0.0000
     atom:   27    charge:   14.3786    magn:    1.4894    constr:    0.0000
     atom:   28    charge:   14.3796    magn:   -1.4938    constr:    0.0000
     atom:   29    charge:   14.3794    magn:    1.4901    constr:    0.0000
     atom:   30    charge:   14.3799    magn:   -1.4957    constr:    0.0000
     atom:   31    charge:   14.3793    magn:    1.4865    constr:    0.0000
     atom:   32    charge:   14.3779    magn:   -1.5011    constr:    0.0000

     End of self-consistent calculation

     Number of k-points >= 100: set verbosity='high' to print the bands.

     the Fermi energy is    20.1183 ev

!    total energy              =  -10536.25044689 Ry

     total all-electron energy =    -81457.739505 Ry
     estimated scf accuracy    <          9.8E-09 Ry
     smearing contrib. (-TS)   =       0.01442317 Ry
     internal energy E=F+TS    =  -10536.26487005 Ry

     The total energy is F=E-TS. E is the sum of the following terms:
     one-electron contribution =   -3292.41379331 Ry
     hartree contribution      =    1996.52802801 Ry
     xc contribution           =    -886.95636827 Ry
     ewald contribution        =   -5703.86201722 Ry
     one-center paw contrib.   =   -2649.56071927 Ry

     total magnetization       =    -0.00 Bohr mag/cell
     absolute magnetization    =    49.54 Bohr mag/cell

     convergence has been achieved in  36 iterations

     Forces acting on atoms (cartesian axes, Ry/au):

     atom    1 type  1   force =    -0.00045605    0.00068350   -0.00204175
     atom    2 type  2   force =    -0.00124301    0.00091947    0.00002654
     atom    3 type  1   force =     0.00031787   -0.00080602    0.00180840
     atom    4 type  2   force =    -0.00088247    0.00164258   -0.00024812
     atom    5 type  1   force =    -0.00002624   -0.00133265   -0.00080942
     atom    6 type  2   force =    -0.00019137    0.00020736    0.00000135
     atom    7 type  1   force =    -0.00069361   -0.00139075    0.00086551
     atom    8 type  2   force =     0.00096342   -0.00069703    0.00050858
     atom    9 type  1   force =     0.00067254   -0.00051100    0.00016358
     atom   10 type  2   force =     0.00148438   -0.00128537   -0.00095956
     atom   11 type  1   force =    -0.00083430    0.00129279    0.00017199
     atom   12 type  2   force =     0.00060824   -0.00217605    0.00151215
     atom   13 type  1   force =     0.00006370   -0.00073610   -0.00153133
     atom   14 type  2   force =     0.00001098    0.00066430   -0.00010951
     atom   15 type  1   force =    -0.00079199    0.00045811    0.00098231
     atom   16 type  2   force =     0.00049588    0.00067263    0.00051493
     atom   17 type  1   force =     0.00101101   -0.00077609   -0.00108656
     atom   18 type  2   force =    -0.00029816   -0.00133204   -0.00119570
     atom   19 type  1   force =    -0.00018139    0.00029392    0.00000321
     atom   20 type  2   force =     0.00006149    0.00029237    0.00051235
     atom   21 type  1   force =     0.00146959   -0.00044137    0.00044982
     atom   22 type  2   force =     0.00082642   -0.00040588    0.00043681
     atom   23 type  1   force =    -0.00078466    0.00031985    0.00069163
     atom   24 type  2   force =     0.00103817   -0.00054626    0.00041442
     atom   25 type  1   force =     0.00008859    0.00094862   -0.00010511
     atom   26 type  2   force =    -0.00039180    0.00129073   -0.00078142
     atom   27 type  1   force =     0.00112436    0.00083773   -0.00059854
     atom   28 type  2   force =    -0.00019779   -0.00003473   -0.00007021
     atom   29 type  1   force =     0.00005059    0.00105584    0.00061114
     atom   30 type  2   force =    -0.00178263    0.00000091    0.00021031
     atom   31 type  1   force =    -0.00097828    0.00022039   -0.00052574
     atom   32 type  2   force =    -0.00055348    0.00067024    0.00017794

     Total force =     0.008305     Total SCF correction =     0.000208

     Computing stress (Cartesian axis) and pressure

          total   stress  (Ry/bohr**3)                   (kbar)     P=       -0.07
  -0.00000081  -0.00000004  -0.00000003           -0.12       -0.01       -0.00
  -0.00000004   0.00000043  -0.00000001           -0.01        0.06       -0.00
  -0.00000003  -0.00000001  -0.00000097           -0.00       -0.00       -0.14

     Writing output data file /scratch/bxp912/fescf_0026.save/

     General routines

     Parallel routines

   This run was terminated on:  18:53: 1  16Mar2022

   JOB DONE.