     Program PWSCF v.6.7MaX starts on 17Mar2022 at 14:17:17

     R & G space division:  proc/nbgrp/npool/nimage =      72
     Reading input from fe_0046.in
Warning: card &CELL ignored
Warning: card CELL_DYNAMICS = 'BFGS', ignored
Warning: card CELL_FACTOR = 2.0, ignored
Warning: card PRESS = 0.0, ignored
Warning: card / ignored

     Current dimensions of program PWSCF are:
     Max number of different atomic species (ntypx) = 10
     Max number of k-points (npk) =  40000
     Max angular momentum in pseudopotentials (lmaxx) =  3
     file Fe.pbe-spn-kjpaw_psl.1.0.0.UPF: wavefunction(s)  3P 3D renormalized
     file Fe.pbe-spn-kjpaw_psl.1.0.0.UPF: wavefunction(s)  3P 3D renormalized

     Subspace diagonalization in iterative solution of the eigenvalue problem:
     one sub-group per band group will be used

     bravais-lattice index     =            0
     lattice parameter (alat)  =      12.9382  a.u.
     unit-cell volume          =    2283.7616 (a.u.)^3
     number of atoms/cell      =           32
     number of atomic types    =            2
     number of electrons       =       512.00
     number of Kohn-Sham states=          320
     kinetic-energy cutoff     =      71.0000  Ry
     charge density cutoff     =     430.0000  Ry
     scf convergence threshold =      1.0E-08
     mixing beta               =       0.3000
     number of iterations used =           10  local-TF  mixing
     Exchange-correlation= SLA  PW   PBX  PBC
                           (   1   4   3   4   0   0   0)

     celldm(1)=  12.938150  celldm(2)=   0.000000  celldm(3)=   0.000000
     celldm(4)=   0.000000  celldm(5)=   0.000000  celldm(6)=   0.000000

     crystal axes: (cart. coord. in units of alat)
               a(1) = (   1.000000   0.000000   0.000000 )
               a(2) = (   0.000000   1.054470   0.000000 )
               a(3) = (   0.000000   0.000000   1.000000 )

     reciprocal axes: (cart. coord. in units 2 pi/alat)
               b(1) = (  1.000000  0.000000  0.000000 )
               b(2) = (  0.000000  0.948344  0.000000 )
               b(3) = (  0.000000  0.000000  1.000000 )

     PseudoPot. # 1 for Fe read from file:
     /rds/homes/b/bxp912/pp/Fe.pbe-spn-kjpaw_psl.1.0.0.UPF
     MD5 check sum: 42f43b795421b414b0dc916aa790dbcb
     Pseudo is Projector augmented-wave + core cor, Zval = 16.0
     Generated using &quot;atomic&quot; code by A. Dal Corso  v.6.3
     Shape of augmentation charge: PSQ
     Using radial grid of 1191 points,  6 beta functions with:
                l(1) =   0
                l(2) =   0
                l(3) =   1
                l(4) =   1
                l(5) =   2
                l(6) =   2
     Q(r) pseudized with 0 coefficients

     PseudoPot. # 2 for Fe read from file:
     /rds/homes/b/bxp912/pp/Fe.pbe-spn-kjpaw_psl.1.0.0.UPF
     MD5 check sum: 42f43b795421b414b0dc916aa790dbcb
     Pseudo is Projector augmented-wave + core cor, Zval = 16.0
     Generated using &quot;atomic&quot; code by A. Dal Corso  v.6.3
     Shape of augmentation charge: PSQ
     Using radial grid of 1191 points,  6 beta functions with:
                l(1) =   0
                l(2) =   0
                l(3) =   1
                l(4) =   1
                l(5) =   2
                l(6) =   2
     Q(r) pseudized with 0 coefficients

     atomic species   valence    mass     pseudopotential
        Fe1           16.00    55.84500     Fe( 1.00)
        Fe2           16.00    55.84500     Fe( 1.00)

     Starting magnetic structure
     atomic species   magnetization
        Fe1          0.100
        Fe2         -0.100

     No symmetry found

   Cartesian axes

     site n.     atom                  positions (alat units)
         1           Fe1 tau(   1) = (   0.0016360   0.0007930   0.9992210  )
         2           Fe2 tau(   2) = (   0.2482780   0.2631620   0.9992760  )
         3           Fe1 tau(   3) = (   0.2508100   1.0529273   0.2490950  )
         4           Fe2 tau(   4) = (   0.0018680   0.2654966   0.2508020  )
         5           Fe1 tau(   5) = (   0.0017770   1.0540862   0.5006520  )
         6           Fe2 tau(   6) = (   0.2494270   0.2646424   0.5003020  )
         7           Fe1 tau(   7) = (   0.2507050   1.0519551   0.7489230  )
         8           Fe2 tau(   8) = (   0.9991560   0.2636681   0.7495560  )
         9           Fe1 tau(   9) = (   0.9999260   0.5279067   0.0002220  )
        10           Fe2 tau(  10) = (   0.2485210   0.7908926   0.9989190  )
        11           Fe1 tau(  11) = (   0.2513580   0.5275577   0.2514710  )
        12           Fe2 tau(  12) = (   0.0017230   0.7886708   0.2490770  )
        13           Fe1 tau(  13) = (   0.0001130   0.5266403   0.5004980  )
        14           Fe2 tau(  14) = (   0.2506090   0.7920356   0.5008010  )
        15           Fe1 tau(  15) = (   0.2500450   0.5258389   0.7500730  )
        16           Fe2 tau(  16) = (   0.0007990   0.7927031   0.7502710  )
        17           Fe1 tau(  17) = (   0.5005240   0.0007508   0.9994900  )
        18           Fe2 tau(  18) = (   0.7495050   0.2637883   0.0011560  )
        19           Fe1 tau(  19) = (   0.7512580   1.0527723   0.2484220  )
        20           Fe2 tau(  20) = (   0.5002510   0.2637367   0.2485260  )
        21           Fe1 tau(  21) = (   0.4993820   0.0001286   0.4993680  )
        22           Fe2 tau(  22) = (   0.7498520   0.2637831   0.4997760  )
        23           Fe1 tau(  23) = (   0.7511180   0.0009923   0.7498020  )
        24           Fe2 tau(  24) = (   0.4999970   0.2646941   0.7497080  )
        25           Fe1 tau(  25) = (   0.4981420   0.5267573   0.9996510  )
        26           Fe2 tau(  26) = (   0.7509740   0.7897400   0.0009130  )
        27           Fe1 tau(  27) = (   0.7491020   0.5269387   0.2479720  )
        28           Fe2 tau(  28) = (   0.4994650   0.7900321   0.2505600  )
        29           Fe1 tau(  29) = (   0.4996430   0.5265738   0.4986520  )
        30           Fe2 tau(  30) = (   0.7485980   0.7906732   0.5004320  )
        31           Fe1 tau(  31) = (   0.7501500   0.5274090   0.7484910  )
        32           Fe2 tau(  32) = (   0.5015710   0.7909379   0.7480050  )

     number of k points=   365  Marzari-Vanderbilt smearing, width (Ry)=  0.0400

     Number of k-points >= 100: set verbosity='high' to print them.

     Check: negative core charge=   -0.000006
     Generating pointlists ...
     new r_m :   0.1445 (alat units)  1.8698 (a.u.) for type    1
     new r_m :   0.1443 (alat units)  1.8665 (a.u.) for type    2

     Initial potential from superposition of free atoms

     starting charge  511.98600, renormalised to  512.00000
     Starting wfcs are  320 randomized atomic wfcs
     Checking if some PAW data can be deallocated...

     Self-consistent Calculation

     iteration #  1     ecut=    71.00 Ry     beta= 0.30
     Davidson diagonalization with overlap
     ethr =  1.00E-02,  avg # of iterations =  7.7

     negative rho (up, down):  1.139E-01 2.441E-01

     total energy              =  -10532.48220465 Ry
     estimated scf accuracy    <      36.64385539 Ry

     total magnetization       =    -0.19 Bohr mag/cell
     absolute magnetization    =    61.09 Bohr mag/cell

[...]

     iteration #  5     ecut=    71.00 Ry     beta= 0.30
     Davidson diagonalization with overlap
     c_bands:  1 eigenvalues not converged
     ethr =  2.33E-04,  avg # of iterations =  4.1

[...]

     negative rho (up, down):  0.000E+00 8.660E-06

[...]

     iteration # 11     ecut=    71.00 Ry     beta= 0.30
     Davidson diagonalization with overlap
     c_bands:  1 eigenvalues not converged
     c_bands:  1 eigenvalues not converged
     ethr =  8.39E-07,  avg # of iterations =  1.5

[...]

     total energy              =  -10536.24871017 Ry
     estimated scf accuracy    <       0.00000001 Ry

[...]

     iteration # 34     ecut=    71.00 Ry     beta= 0.30
     Davidson diagonalization with overlap
     ethr =  2.70E-12,  avg # of iterations =  2.0

     Magnetic moment per site:
     atom:    1    charge:   14.3365    magn:    1.4747    constr:    0.0000
     atom:    2    charge:   14.3238    magn:   -1.4893    constr:    0.0000
     atom:    3    charge:   14.3338    magn:    1.4977    constr:    0.0000
     atom:    4    charge:   14.3210    magn:   -1.5081    constr:    0.0000
     atom:    5    charge:   14.3318    magn:    1.5040    constr:    0.0000
     atom:    6    charge:   14.3257    magn:   -1.4767    constr:    0.0000
     atom:    7    charge:   14.3397    magn:    1.4751    constr:    0.0000
     atom:    8    charge:   14.3259    magn:   -1.4759    constr:    0.0000
     atom:    9    charge:   14.3364    magn:    1.4655    constr:    0.0000
     atom:   10    charge:   14.3255    magn:   -1.4797    constr:    0.0000
     atom:   11    charge:   14.3399    magn:    1.4688    constr:    0.0000
     atom:   12    charge:   14.3224    magn:   -1.4962    constr:    0.0000
     atom:   13    charge:   14.3340    magn:    1.4897    constr:    0.0000
     atom:   14    charge:   14.3295    magn:   -1.4599    constr:    0.0000
     atom:   15    charge:   14.3353    magn:    1.4891    constr:    0.0000
     atom:   16    charge:   14.3262    magn:   -1.4744    constr:    0.0000
     atom:   17    charge:   14.3297    magn:    1.5191    constr:    0.0000
     atom:   18    charge:   14.3229    magn:   -1.4864    constr:    0.0000
     atom:   19    charge:   14.3256    magn:    1.5213    constr:    0.0000
     atom:   20    charge:   14.3238    magn:   -1.4766    constr:    0.0000
     atom:   21    charge:   14.3334    magn:    1.4862    constr:    0.0000
     atom:   22    charge:   14.3203    magn:   -1.5069    constr:    0.0000
     atom:   23    charge:   14.3322    magn:    1.4920    constr:    0.0000
     atom:   24    charge:   14.3219    magn:   -1.4935    constr:    0.0000
     atom:   25    charge:   14.3338    magn:    1.5006    constr:    0.0000
     atom:   26    charge:   14.3206    magn:   -1.4930    constr:    0.0000
     atom:   27    charge:   14.3363    magn:    1.4718    constr:    0.0000
     atom:   28    charge:   14.3248    magn:   -1.4699    constr:    0.0000
     atom:   29    charge:   14.3398    magn:    1.4619    constr:    0.0000
     atom:   30    charge:   14.3205    magn:   -1.5069    constr:    0.0000
     atom:   31    charge:   14.3327    magn:    1.4858    constr:    0.0000
     atom:   32    charge:   14.3224    magn:   -1.4974    constr:    0.0000

     End of self-consistent calculation

     Number of k-points >= 100: set verbosity='high' to print the bands.

     the Fermi energy is    20.1182 ev

!    total energy              =  -10536.24871018 Ry

     total all-electron energy =    -81457.737768 Ry
     estimated scf accuracy    <          9.3E-09 Ry
     smearing contrib. (-TS)   =       0.01451653 Ry
     internal energy E=F+TS    =  -10536.26322671 Ry

     The total energy is F=E-TS. E is the sum of the following terms:
     one-electron contribution =   -3292.86811603 Ry
     hartree contribution      =    1996.75522392 Ry
     xc contribution           =    -886.95831659 Ry
     ewald contribution        =   -5703.63151623 Ry
     one-center paw contrib.   =   -2649.56050177 Ry

     total magnetization       =     0.00 Bohr mag/cell
     absolute magnetization    =    49.52 Bohr mag/cell

     convergence has been achieved in  34 iterations

     Forces acting on atoms (cartesian axes, Ry/au):

     atom    1 type  1   force =    -0.00444391   -0.00184787    0.00233764
     atom    2 type  2   force =     0.00464286    0.00084154    0.00104644
     atom    3 type  1   force =    -0.00189979    0.00425927    0.00147003
     atom    4 type  2   force =    -0.00530358   -0.00534484   -0.00251649
     atom    5 type  1   force =    -0.00450407    0.00078463   -0.00436950
     atom    6 type  2   force =     0.00284866   -0.00409265   -0.00068558
     atom    7 type  1   force =     0.00055810    0.00847859    0.00232813
     atom    8 type  2   force =     0.00207330   -0.00069483    0.00030148
     atom    9 type  1   force =     0.00112319   -0.00259343   -0.00240375
     atom   10 type  2   force =     0.00623490   -0.00108398    0.00175375
     atom   11 type  1   force =    -0.00375981   -0.00165511   -0.00515385
     atom   12 type  2   force =    -0.00386346    0.00509742    0.00289554
     atom   13 type  1   force =    -0.00122136    0.00391057   -0.00162238
     atom   14 type  2   force =    -0.00082612   -0.00543131   -0.00221340
     atom   15 type  1   force =    -0.00140421    0.00460699   -0.00204762
     atom   16 type  2   force =    -0.00378400   -0.00566797   -0.00169495
     atom   17 type  1   force =     0.00040561   -0.00363700    0.00030403
     atom   18 type  2   force =     0.00276294    0.00007672   -0.00343474
     atom   19 type  1   force =    -0.00096200    0.00411897    0.00356814
     atom   20 type  2   force =    -0.00197703   -0.00237220    0.00308800
     atom   21 type  1   force =     0.00445829    0.00115872    0.00001643
     atom   22 type  2   force =    -0.00016412   -0.00144477   -0.00177836
     atom   23 type  1   force =    -0.00294309   -0.00244502   -0.00072959
     atom   24 type  2   force =     0.00066508   -0.00329061    0.00052921
     atom   25 type  1   force =     0.00531052    0.00257128   -0.00034337
     atom   26 type  2   force =    -0.00270293    0.00267510   -0.00344640
     atom   27 type  1   force =     0.00188708    0.00052164    0.00510069
     atom   28 type  2   force =     0.00186392    0.00284822   -0.00331699
     atom   29 type  1   force =     0.00227583    0.00134435    0.00388766
     atom   30 type  2   force =     0.00571071    0.00059814   -0.00336783
     atom   31 type  1   force =    -0.00000921   -0.00104779    0.00452833
     atom   32 type  2   force =    -0.00305230   -0.00124277    0.00596930

     Total force =     0.030848     Total SCF correction =     0.000183

     Computing stress (Cartesian axis) and pressure

          total   stress  (Ry/bohr**3)                   (kbar)     P=        0.30
   0.00000211   0.00000025  -0.00000008            0.31        0.04       -0.01
   0.00000025   0.00000197   0.00000047            0.04        0.29        0.07
  -0.00000008   0.00000047   0.00000207           -0.01        0.07        0.30

     Writing output data file /scratch/bxp912/fescf_0046.save/

     General routines

     Parallel routines

   This run was terminated on:  20: 0:12  17Mar2022

   JOB DONE.