     Program PWSCF v.6.7MaX starts on 17Mar2022 at  9:25:24

     R & G space division:  proc/nbgrp/npool/nimage =      72
     Reading input from fe_0035.in
Warning: card &CELL ignored
Warning: card CELL_DYNAMICS = 'BFGS', ignored
Warning: card CELL_FACTOR = 2.0, ignored
Warning: card PRESS = 0.0, ignored
Warning: card / ignored

     Current dimensions of program PWSCF are:
     Max number of different atomic species (ntypx) = 10
     Max number of k-points (npk) =  40000
     Max angular momentum in pseudopotentials (lmaxx) =  3
     file Fe.pbe-spn-kjpaw_psl.1.0.0.UPF: wavefunction(s)  3P 3D renormalized
     file Fe.pbe-spn-kjpaw_psl.1.0.0.UPF: wavefunction(s)  3P 3D renormalized

     Subspace diagonalization in iterative solution of the eigenvalue problem:
     one sub-group per band group will be used

     bravais-lattice index     =            0
     lattice parameter (alat)  =      12.9382  a.u.
     unit-cell volume          =    2283.7616 (a.u.)^3
     number of atoms/cell      =           32
     number of atomic types    =            2
     number of electrons       =       512.00
     number of Kohn-Sham states=          320
     kinetic-energy cutoff     =      71.0000  Ry
     charge density cutoff     =     430.0000  Ry
     scf convergence threshold =      1.0E-08
     mixing beta               =       0.3000
     number of iterations used =           10  local-TF  mixing
     Exchange-correlation= SLA  PW   PBX  PBC
                           (   1   4   3   4   0   0   0)

     celldm(1)=  12.938150  celldm(2)=   0.000000  celldm(3)=   0.000000
     celldm(4)=   0.000000  celldm(5)=   0.000000  celldm(6)=   0.000000

     crystal axes: (cart. coord. in units of alat)
               a(1) = (   1.000000   0.000000   0.000000 )
               a(2) = (   0.000000   1.054470   0.000000 )
               a(3) = (   0.000000   0.000000   1.000000 )

     reciprocal axes: (cart. coord. in units 2 pi/alat)
               b(1) = (  1.000000  0.000000  0.000000 )
               b(2) = (  0.000000  0.948344  0.000000 )
               b(3) = (  0.000000  0.000000  1.000000 )

     PseudoPot. # 1 for Fe read from file:
     /rds/homes/b/bxp912/pp/Fe.pbe-spn-kjpaw_psl.1.0.0.UPF
     MD5 check sum: 42f43b795421b414b0dc916aa790dbcb
     Pseudo is Projector augmented-wave + core cor, Zval = 16.0
     Generated using &quot;atomic&quot; code by A. Dal Corso  v.6.3
     Shape of augmentation charge: PSQ
     Using radial grid of 1191 points,  6 beta functions with:
                l(1) =   0
                l(2) =   0
                l(3) =   1
                l(4) =   1
                l(5) =   2
                l(6) =   2
     Q(r) pseudized with 0 coefficients

     PseudoPot. # 2 for Fe read from file:
     /rds/homes/b/bxp912/pp/Fe.pbe-spn-kjpaw_psl.1.0.0.UPF
     MD5 check sum: 42f43b795421b414b0dc916aa790dbcb
     Pseudo is Projector augmented-wave + core cor, Zval = 16.0
     Generated using &quot;atomic&quot; code by A. Dal Corso  v.6.3
     Shape of augmentation charge: PSQ
     Using radial grid of 1191 points,  6 beta functions with:
                l(1) =   0
                l(2) =   0
                l(3) =   1
                l(4) =   1
                l(5) =   2
                l(6) =   2
     Q(r) pseudized with 0 coefficients

     atomic species   valence    mass     pseudopotential
        Fe1           16.00    55.84500     Fe( 1.00)
        Fe2           16.00    55.84500     Fe( 1.00)

     Starting magnetic structure
     atomic species   magnetization
        Fe1          0.100
        Fe2         -0.100

     No symmetry found

   Cartesian axes

     site n.     atom                  positions (alat units)
         1           Fe1 tau(   1) = (   0.0009670   0.0018401   0.9983870  )
         2           Fe2 tau(   2) = (   0.2462010   0.2617838   0.9991360  )
         3           Fe1 tau(   3) = (   0.2488760   1.0522219   0.2485170  )
         4           Fe2 tau(   4) = (   0.9915750   0.2572390   0.2559270  )
         5           Fe1 tau(   5) = (   0.9967660   0.0008583   0.5024100  )
         6           Fe2 tau(   6) = (   0.2496500   0.2669570   0.4988840  )
         7           Fe1 tau(   7) = (   0.2518370   1.0532879   0.7497120  )
         8           Fe2 tau(   8) = (   0.0002930   0.2693981   0.7485870  )
         9           Fe1 tau(   9) = (   0.0013920   0.5289928   0.9996290  )
        10           Fe2 tau(  10) = (   0.2517260   0.7940560   0.0005780  )
        11           Fe1 tau(  11) = (   0.2454180   0.5257566   0.2449330  )
        12           Fe2 tau(  12) = (   0.9986760   0.7916655   0.2509510  )
        13           Fe1 tau(  13) = (   0.0008870   0.5246347   0.4938150  )
        14           Fe2 tau(  14) = (   0.2493510   0.7904950   0.4986150  )
        15           Fe1 tau(  15) = (   0.2479970   0.5250206   0.7484210  )
        16           Fe2 tau(  16) = (   0.9966060   0.7887921   0.7481630  )
        17           Fe1 tau(  17) = (   0.5008120   1.0533248   0.9989440  )
        18           Fe2 tau(  18) = (   0.7474230   0.2675549   0.9973360  )
        19           Fe1 tau(  19) = (   0.7486790   1.0526384   0.2483960  )
        20           Fe2 tau(  20) = (   0.4987400   0.2575986   0.2516110  )
        21           Fe1 tau(  21) = (   0.4961380   0.0027416   0.5021330  )
        22           Fe2 tau(  22) = (   0.7491980   0.2684902   0.5017520  )
        23           Fe1 tau(  23) = (   0.7472670   1.0534134   0.7471200  )
        24           Fe2 tau(  24) = (   0.4975490   0.2678628   0.7528450  )
        25           Fe1 tau(  25) = (   0.4999530   0.5304237   0.9998080  )
        26           Fe2 tau(  26) = (   0.7510810   0.7878515   0.0008610  )
        27           Fe1 tau(  27) = (   0.7456550   0.5263524   0.2444310  )
        28           Fe2 tau(  28) = (   0.5006680   0.7957748   0.2466450  )
        29           Fe1 tau(  29) = (   0.5026860   0.5283211   0.4977680  )
        30           Fe2 tau(  30) = (   0.7508580   0.7913818   0.4990270  )
        31           Fe1 tau(  31) = (   0.7478940   0.5327583   0.7481330  )
        32           Fe2 tau(  32) = (   0.5036950   0.7942384   0.7470130  )

     number of k points=   365  Marzari-Vanderbilt smearing, width (Ry)=  0.0400

     Number of k-points >= 100: set verbosity='high' to print them.

     Check: negative core charge=   -0.000006
     Generating pointlists ...
     new r_m :   0.1427 (alat units)  1.8467 (a.u.) for type    1
     new r_m :   0.1425 (alat units)  1.8434 (a.u.) for type    2

     Initial potential from superposition of free atoms

     starting charge  511.98600, renormalised to  512.00000
     Starting wfcs are  320 randomized atomic wfcs
     Checking if some PAW data can be deallocated...

     Self-consistent Calculation

     iteration #  1     ecut=    71.00 Ry     beta= 0.30
     Davidson diagonalization with overlap
     ethr =  1.00E-02,  avg # of iterations =  7.7

     negative rho (up, down):  1.119E-01 2.376E-01

     total energy              =  -10532.36418531 Ry
     estimated scf accuracy    <      36.43828792 Ry

     total magnetization       =    -0.21 Bohr mag/cell
     absolute magnetization    =    61.06 Bohr mag/cell

[...]

     iteration #  5     ecut=    71.00 Ry     beta= 0.30
     Davidson diagonalization with overlap
     c_bands:  1 eigenvalues not converged
     ethr =  2.24E-04,  avg # of iterations =  4.1

[...]

     negative rho (up, down):  2.407E-04 9.330E-04

[...]

     iteration # 11     ecut=    71.00 Ry     beta= 0.30
     Davidson diagonalization with overlap
     c_bands:  1 eigenvalues not converged
     c_bands:  3 eigenvalues not converged
     c_bands:  2 eigenvalues not converged
     c_bands:  1 eigenvalues not converged
     ethr =  8.86E-07,  avg # of iterations =  2.9

[...]

     total energy              =  -10536.23830544 Ry
     estimated scf accuracy    <       0.00000002 Ry

[...]

     iteration # 36     ecut=    71.00 Ry     beta= 0.30
     Davidson diagonalization with overlap
     ethr =  3.39E-12,  avg # of iterations =  3.0

     Magnetic moment per site:
     atom:    1    charge:   14.2474    magn:    1.5419    constr:    0.0000
     atom:    2    charge:   14.2423    magn:   -1.4647    constr:    0.0000
     atom:    3    charge:   14.2609    magn:    1.4600    constr:    0.0000
     atom:    4    charge:   14.2483    magn:   -1.4719    constr:    0.0000
     atom:    5    charge:   14.2570    magn:    1.4563    constr:    0.0000
     atom:    6    charge:   14.2478    magn:   -1.4752    constr:    0.0000
     atom:    7    charge:   14.2561    magn:    1.5109    constr:    0.0000
     atom:    8    charge:   14.2459    magn:   -1.5053    constr:    0.0000
     atom:    9    charge:   14.2600    magn:    1.4947    constr:    0.0000
     atom:   10    charge:   14.2457    magn:   -1.4410    constr:    0.0000
     atom:   11    charge:   14.2499    magn:    1.5464    constr:    0.0000
     atom:   12    charge:   14.2497    magn:   -1.4697    constr:    0.0000
     atom:   13    charge:   14.2650    magn:    1.4068    constr:    0.0000
     atom:   14    charge:   14.2352    magn:   -1.5280    constr:    0.0000
     atom:   15    charge:   14.2540    magn:    1.4911    constr:    0.0000
     atom:   16    charge:   14.2425    magn:   -1.5120    constr:    0.0000
     atom:   17    charge:   14.2665    magn:    1.4478    constr:    0.0000
     atom:   18    charge:   14.2395    magn:   -1.5173    constr:    0.0000
     atom:   19    charge:   14.2614    magn:    1.4493    constr:    0.0000
     atom:   20    charge:   14.2404    magn:   -1.5116    constr:    0.0000
     atom:   21    charge:   14.2615    magn:    1.4801    constr:    0.0000
     atom:   22    charge:   14.2525    magn:   -1.4864    constr:    0.0000
     atom:   23    charge:   14.2561    magn:    1.4946    constr:    0.0000
     atom:   24    charge:   14.2477    magn:   -1.4729    constr:    0.0000
     atom:   25    charge:   14.2593    magn:    1.4914    constr:    0.0000
     atom:   26    charge:   14.2586    magn:   -1.4316    constr:    0.0000
     atom:   27    charge:   14.2641    magn:    1.4588    constr:    0.0000
     atom:   28    charge:   14.2513    magn:   -1.4630    constr:    0.0000
     atom:   29    charge:   14.2503    magn:    1.5178    constr:    0.0000
     atom:   30    charge:   14.2553    magn:   -1.4699    constr:    0.0000
     atom:   31    charge:   14.2690    magn:    1.4019    constr:    0.0000
     atom:   32    charge:   14.2529    magn:   -1.4325    constr:    0.0000

     End of self-consistent calculation

     Number of k-points >= 100: set verbosity='high' to print the bands.

     the Fermi energy is    20.1182 ev

!    total energy              =  -10536.23830546 Ry

     total all-electron energy =    -81457.727363 Ry
     estimated scf accuracy    <          8.7E-09 Ry
     smearing contrib. (-TS)   =       0.01481865 Ry
     internal energy E=F+TS    =  -10536.25312412 Ry

     The total energy is F=E-TS. E is the sum of the following terms:
     one-electron contribution =   -3294.89422364 Ry
     hartree contribution      =    1997.77076241 Ry
     xc contribution           =    -886.96814556 Ry
     ewald contribution        =   -5702.60237577 Ry
     one-center paw contrib.   =   -2649.55914155 Ry

     total magnetization       =    -0.02 Bohr mag/cell
     absolute magnetization    =    49.40 Bohr mag/cell

     convergence has been achieved in  36 iterations

     Forces acting on atoms (cartesian axes, Ry/au):

     atom    1 type  1   force =    -0.01024078   -0.00436202   -0.00097111
     atom    2 type  2   force =     0.00545296    0.00348994    0.00668410
     atom    3 type  1   force =    -0.00295064    0.00716204    0.00448634
     atom    4 type  2   force =     0.01860614    0.01541401   -0.01928490
     atom    5 type  1   force =     0.00853691   -0.00136135   -0.00472838
     atom    6 type  2   force =    -0.00205263   -0.00843618   -0.00074839
     atom    7 type  1   force =    -0.00925624    0.00536419   -0.00191827
     atom    8 type  2   force =    -0.00421217   -0.01279046    0.00218148
     atom    9 type  1   force =    -0.00574613   -0.00429822   -0.00144926
     atom   10 type  2   force =    -0.00742132   -0.00660544   -0.00771554
     atom   11 type  1   force =     0.01329649    0.00211019    0.01001190
     atom   12 type  2   force =     0.00501109   -0.00131634   -0.00647549
     atom   13 type  1   force =    -0.00762259    0.01090780    0.01012648
     atom   14 type  2   force =     0.00060155   -0.00005673    0.00308917
     atom   15 type  1   force =     0.00429189    0.01195857   -0.00024469
     atom   16 type  2   force =     0.01207201    0.00528837    0.00202838
     atom   17 type  1   force =    -0.00263206    0.00643020    0.00006350
     atom   18 type  2   force =     0.00468813   -0.00959535    0.00338520
     atom   19 type  1   force =     0.00233267    0.00585659    0.00365838
     atom   20 type  2   force =     0.00119503    0.01726270   -0.00977958
     atom   21 type  1   force =     0.00862508   -0.00447826   -0.00831910
     atom   22 type  2   force =    -0.00750716   -0.01277502    0.00016039
     atom   23 type  1   force =     0.00616776    0.00780980    0.00731478
     atom   24 type  2   force =     0.00057389   -0.00732797   -0.00655319
     atom   25 type  1   force =    -0.00721109   -0.00507521   -0.00483210
     atom   26 type  2   force =    -0.00331345    0.01205164   -0.00399407
     atom   27 type  1   force =     0.00942812    0.00146117    0.01315170
     atom   28 type  2   force =    -0.00535416   -0.01366431    0.00899951
     atom   29 type  1   force =    -0.01229377    0.00107581   -0.00005505
     atom   30 type  2   force =    -0.00377590    0.00102794   -0.00406818
     atom   31 type  1   force =     0.00382293   -0.01270474    0.00045478
     atom   32 type  2   force =    -0.01311257   -0.00982337    0.00534120

     Total force =     0.075241     Total SCF correction =     0.000133

     Computing stress (Cartesian axis) and pressure

          total   stress  (Ry/bohr**3)                   (kbar)     P=        1.77
   0.00001536   0.00000294  -0.00000106            2.26        0.43       -0.16
   0.00000294   0.00000904  -0.00000140            0.43        1.33       -0.21
  -0.00000106  -0.00000140   0.00001166           -0.16       -0.21        1.71

     Writing output data file /scratch/bxp912/fescf_0035.save/

     General routines

     Parallel routines

   This run was terminated on:  15:13:39  17Mar2022

   JOB DONE.