     Program PWSCF v.6.7MaX starts on  6Mar2022 at 14:22:11

     R & G space division:  proc/nbgrp/npool/nimage =      72
     Reading input from relaxed.in
Warning: card &CELL ignored
Warning: card CELL_DYNAMICS = 'BFGS', ignored
Warning: card CELL_FACTOR = 2.0, ignored
Warning: card PRESS = 0.0, ignored
Warning: card / ignored

     Current dimensions of program PWSCF are:
     Max number of different atomic species (ntypx) = 10
     Max number of k-points (npk) =  40000
     Max angular momentum in pseudopotentials (lmaxx) =  3
     file Fe.pbe-spn-kjpaw_psl.1.0.0.UPF: wavefunction(s)  3P 3D renormalized
     file Fe.pbe-spn-kjpaw_psl.1.0.0.UPF: wavefunction(s)  3P 3D renormalized

     Subspace diagonalization in iterative solution of the eigenvalue problem:
     one sub-group per band group will be used

     Found symmetry operation: I + (  0.2500  0.0000  0.2500)
     This is a supercell, fractional translations are disabled
     Message from routine setup:
     using ibrav=0 with symmetry is DISCOURAGED, use correct ibrav instead

     bravais-lattice index     =            0
     lattice parameter (alat)  =      12.9382  a.u.
     unit-cell volume          =    2283.7616 (a.u.)^3
     number of atoms/cell      =           32
     number of atomic types    =            2
     number of electrons       =       512.00
     number of Kohn-Sham states=          320
     kinetic-energy cutoff     =      71.0000  Ry
     charge density cutoff     =     430.0000  Ry
     scf convergence threshold =      1.0E-08
     mixing beta               =       0.3000
     number of iterations used =           10  plain     mixing
     Exchange-correlation= SLA  PW   PBX  PBC
                           (   1   4   3   4   0   0   0)

     celldm(1)=  12.938150  celldm(2)=   0.000000  celldm(3)=   0.000000
     celldm(4)=   0.000000  celldm(5)=   0.000000  celldm(6)=   0.000000

     crystal axes: (cart. coord. in units of alat)
               a(1) = (   1.000000   0.000000   0.000000 )
               a(2) = (   0.000000   1.054470   0.000000 )
               a(3) = (   0.000000   0.000000   1.000000 )

     reciprocal axes: (cart. coord. in units 2 pi/alat)
               b(1) = (  1.000000  0.000000  0.000000 )
               b(2) = (  0.000000  0.948344  0.000000 )
               b(3) = (  0.000000  0.000000  1.000000 )

     PseudoPot. # 1 for Fe read from file:
     /rds/homes/b/bxp912/pp/Fe.pbe-spn-kjpaw_psl.1.0.0.UPF
     MD5 check sum: 42f43b795421b414b0dc916aa790dbcb
     Pseudo is Projector augmented-wave + core cor, Zval = 16.0
     Generated using &quot;atomic&quot; code by A. Dal Corso  v.6.3
     Shape of augmentation charge: PSQ
     Using radial grid of 1191 points,  6 beta functions with:
                l(1) =   0
                l(2) =   0
                l(3) =   1
                l(4) =   1
                l(5) =   2
                l(6) =   2
     Q(r) pseudized with 0 coefficients

     PseudoPot. # 2 for Fe read from file:
     /rds/homes/b/bxp912/pp/Fe.pbe-spn-kjpaw_psl.1.0.0.UPF
     MD5 check sum: 42f43b795421b414b0dc916aa790dbcb
     Pseudo is Projector augmented-wave + core cor, Zval = 16.0
     Generated using &quot;atomic&quot; code by A. Dal Corso  v.6.3
     Shape of augmentation charge: PSQ
     Using radial grid of 1191 points,  6 beta functions with:
                l(1) =   0
                l(2) =   0
                l(3) =   1
                l(4) =   1
                l(5) =   2
                l(6) =   2
     Q(r) pseudized with 0 coefficients

     atomic species   valence    mass     pseudopotential
        Fe1           16.00    55.84500     Fe( 1.00)
        Fe2           16.00    55.84500     Fe( 1.00)

     Starting magnetic structure
     atomic species   magnetization
        Fe1          0.100
        Fe2         -0.100

     16 Sym. Ops., with inversion, found

   Cartesian axes

     site n.     atom                  positions (alat units)
         1           Fe1 tau(   1) = (   0.0000000   0.0000000   0.0000000  )
         2           Fe2 tau(   2) = (   0.2500000   0.2636175   0.0000000  )
         3           Fe1 tau(   3) = (   0.2500000   0.0000000   0.2500000  )
         4           Fe2 tau(   4) = (   0.0000000   0.2636175   0.2500000  )
         5           Fe1 tau(   5) = (   0.0000000   0.0000000   0.5000000  )
         6           Fe2 tau(   6) = (   0.2500000   0.2636175   0.5000000  )
         7           Fe1 tau(   7) = (   0.2500000   0.0000000   0.7500000  )
         8           Fe2 tau(   8) = (   0.0000000   0.2636175   0.7500000  )
         9           Fe1 tau(   9) = (   0.0000000   0.5272350   0.0000000  )
        10           Fe2 tau(  10) = (   0.2500000   0.7908525   0.0000000  )
        11           Fe1 tau(  11) = (   0.2500000   0.5272350   0.2500000  )
        12           Fe2 tau(  12) = (   0.0000000   0.7908525   0.2500000  )
        13           Fe1 tau(  13) = (   0.0000000   0.5272350   0.5000000  )
        14           Fe2 tau(  14) = (   0.2500000   0.7908525   0.5000000  )
        15           Fe1 tau(  15) = (   0.2500000   0.5272350   0.7500000  )
        16           Fe2 tau(  16) = (   0.0000000   0.7908525   0.7500000  )
        17           Fe1 tau(  17) = (   0.5000000   0.0000000   0.0000000  )
        18           Fe2 tau(  18) = (   0.7500000   0.2636175   0.0000000  )
        19           Fe1 tau(  19) = (   0.7500000   0.0000000   0.2500000  )
        20           Fe2 tau(  20) = (   0.5000000   0.2636175   0.2500000  )
        21           Fe1 tau(  21) = (   0.5000000   0.0000000   0.5000000  )
        22           Fe2 tau(  22) = (   0.7500000   0.2636175   0.5000000  )
        23           Fe1 tau(  23) = (   0.7500000   0.0000000   0.7500000  )
        24           Fe2 tau(  24) = (   0.5000000   0.2636175   0.7500000  )
        25           Fe1 tau(  25) = (   0.5000000   0.5272350   0.0000000  )
        26           Fe2 tau(  26) = (   0.7500000   0.7908525   0.0000000  )
        27           Fe1 tau(  27) = (   0.7500000   0.5272350   0.2500000  )
        28           Fe2 tau(  28) = (   0.5000000   0.7908525   0.2500000  )
        29           Fe1 tau(  29) = (   0.5000000   0.5272350   0.5000000  )
        30           Fe2 tau(  30) = (   0.7500000   0.7908525   0.5000000  )
        31           Fe1 tau(  31) = (   0.7500000   0.5272350   0.7500000  )
        32           Fe2 tau(  32) = (   0.5000000   0.7908525   0.7500000  )

     number of k points=    75  Marzari-Vanderbilt smearing, width (Ry)=  0.0400
                       cart. coord. in units 2pi/alat
        k(    1) = (   0.0555556   0.0526858   0.0555556), wk =   0.0109739
        k(    2) = (   0.0555556   0.0526858   0.1666667), wk =   0.0219479
        k(    3) = (   0.0555556   0.0526858   0.2777778), wk =   0.0219479
        k(    4) = (   0.0555556   0.0526858   0.3888889), wk =   0.0219479
        k(    5) = (   0.0555556   0.0526858  -0.5000000), wk =   0.0109739
        k(    6) = (   0.0555556   0.1580573   0.0555556), wk =   0.0109739
        k(    7) = (   0.0555556   0.1580573   0.1666667), wk =   0.0219479
        k(    8) = (   0.0555556   0.1580573   0.2777778), wk =   0.0219479
        k(    9) = (   0.0555556   0.1580573   0.3888889), wk =   0.0219479
        k(   10) = (   0.0555556   0.1580573  -0.5000000), wk =   0.0109739
        k(   11) = (   0.0555556   0.2634288   0.0555556), wk =   0.0109739
        k(   12) = (   0.0555556   0.2634288   0.1666667), wk =   0.0219479
        k(   13) = (   0.0555556   0.2634288   0.2777778), wk =   0.0219479
        k(   14) = (   0.0555556   0.2634288   0.3888889), wk =   0.0219479
        k(   15) = (   0.0555556   0.2634288  -0.5000000), wk =   0.0109739
        k(   16) = (   0.0555556   0.3688003   0.0555556), wk =   0.0109739
        k(   17) = (   0.0555556   0.3688003   0.1666667), wk =   0.0219479
        k(   18) = (   0.0555556   0.3688003   0.2777778), wk =   0.0219479
        k(   19) = (   0.0555556   0.3688003   0.3888889), wk =   0.0219479
        k(   20) = (   0.0555556   0.3688003  -0.5000000), wk =   0.0109739
        k(   21) = (   0.0555556  -0.4741719   0.0555556), wk =   0.0054870
        k(   22) = (   0.0555556  -0.4741719   0.1666667), wk =   0.0109739
        k(   23) = (   0.0555556  -0.4741719   0.2777778), wk =   0.0109739
        k(   24) = (   0.0555556  -0.4741719   0.3888889), wk =   0.0109739
        k(   25) = (   0.0555556  -0.4741719  -0.5000000), wk =   0.0054870
        k(   26) = (   0.1666667   0.0526858   0.1666667), wk =   0.0109739
        k(   27) = (   0.1666667   0.0526858   0.2777778), wk =   0.0219479
        k(   28) = (   0.1666667   0.0526858   0.3888889), wk =   0.0219479
        k(   29) = (   0.1666667   0.0526858  -0.5000000), wk =   0.0109739
        k(   30) = (   0.1666667   0.1580573   0.1666667), wk =   0.0109739
        k(   31) = (   0.1666667   0.1580573   0.2777778), wk =   0.0219479
        k(   32) = (   0.1666667   0.1580573   0.3888889), wk =   0.0219479
        k(   33) = (   0.1666667   0.1580573  -0.5000000), wk =   0.0109739
        k(   34) = (   0.1666667   0.2634288   0.1666667), wk =   0.0109739
        k(   35) = (   0.1666667   0.2634288   0.2777778), wk =   0.0219479
        k(   36) = (   0.1666667   0.2634288   0.3888889), wk =   0.0219479
        k(   37) = (   0.1666667   0.2634288  -0.5000000), wk =   0.0109739
        k(   38) = (   0.1666667   0.3688003   0.1666667), wk =   0.0109739
        k(   39) = (   0.1666667   0.3688003   0.2777778), wk =   0.0219479
        k(   40) = (   0.1666667   0.3688003   0.3888889), wk =   0.0219479
        k(   41) = (   0.1666667   0.3688003  -0.5000000), wk =   0.0109739
        k(   42) = (   0.1666667  -0.4741719   0.1666667), wk =   0.0054870
        k(   43) = (   0.1666667  -0.4741719   0.2777778), wk =   0.0109739
        k(   44) = (   0.1666667  -0.4741719   0.3888889), wk =   0.0109739
        k(   45) = (   0.1666667  -0.4741719  -0.5000000), wk =   0.0054870
        k(   46) = (   0.2777778   0.0526858   0.2777778), wk =   0.0109739
        k(   47) = (   0.2777778   0.0526858   0.3888889), wk =   0.0219479
        k(   48) = (   0.2777778   0.0526858  -0.5000000), wk =   0.0109739
        k(   49) = (   0.2777778   0.1580573   0.2777778), wk =   0.0109739
        k(   50) = (   0.2777778   0.1580573   0.3888889), wk =   0.0219479
        k(   51) = (   0.2777778   0.1580573  -0.5000000), wk =   0.0109739
        k(   52) = (   0.2777778   0.2634288   0.2777778), wk =   0.0109739
        k(   53) = (   0.2777778   0.2634288   0.3888889), wk =   0.0219479
        k(   54) = (   0.2777778   0.2634288  -0.5000000), wk =   0.0109739
        k(   55) = (   0.2777778   0.3688003   0.2777778), wk =   0.0109739
        k(   56) = (   0.2777778   0.3688003   0.3888889), wk =   0.0219479
        k(   57) = (   0.2777778   0.3688003  -0.5000000), wk =   0.0109739
        k(   58) = (   0.2777778  -0.4741719   0.2777778), wk =   0.0054870
        k(   59) = (   0.2777778  -0.4741719   0.3888889), wk =   0.0109739
        k(   60) = (   0.2777778  -0.4741719  -0.5000000), wk =   0.0054870
        k(   61) = (   0.3888889   0.0526858   0.3888889), wk =   0.0109739
        k(   62) = (   0.3888889   0.0526858  -0.5000000), wk =   0.0109739
        k(   63) = (   0.3888889   0.1580573   0.3888889), wk =   0.0109739
        k(   64) = (   0.3888889   0.1580573  -0.5000000), wk =   0.0109739
        k(   65) = (   0.3888889   0.2634288   0.3888889), wk =   0.0109739
        k(   66) = (   0.3888889   0.2634288  -0.5000000), wk =   0.0109739
        k(   67) = (   0.3888889   0.3688003   0.3888889), wk =   0.0109739
        k(   68) = (   0.3888889   0.3688003  -0.5000000), wk =   0.0109739
        k(   69) = (   0.3888889  -0.4741719   0.3888889), wk =   0.0054870
        k(   70) = (   0.3888889  -0.4741719  -0.5000000), wk =   0.0054870
        k(   71) = (  -0.5000000   0.0526858  -0.5000000), wk =   0.0027435
        k(   72) = (  -0.5000000   0.1580573  -0.5000000), wk =   0.0027435
        k(   73) = (  -0.5000000   0.2634288  -0.5000000), wk =   0.0027435
        k(   74) = (  -0.5000000   0.3688003  -0.5000000), wk =   0.0027435
        k(   75) = (  -0.5000000  -0.4741719  -0.5000000), wk =   0.0013717

     Check: negative core charge=   -0.000006
     Generating pointlists ...
     new r_m :   0.1458 (alat units)  1.8869 (a.u.) for type    1
     new r_m :   0.1458 (alat units)  1.8869 (a.u.) for type    2

     Initial potential from superposition of free atoms

     starting charge  511.98600, renormalised to  512.00000
     Starting wfcs are  320 randomized atomic wfcs
     Checking if some PAW data can be deallocated...

     Self-consistent Calculation

     iteration #  1     ecut=    71.00 Ry     beta= 0.30
     Davidson diagonalization with overlap
     ethr =  1.00E-02,  avg # of iterations =  5.3

     Threshold (ethr) on eigenvalues was too large:
     Diagonalizing with lowered threshold

     Davidson diagonalization with overlap
     ethr =  2.65E-04,  avg # of iterations =  5.2

     total energy              =  -10535.86007564 Ry
     estimated scf accuracy    <       1.71822940 Ry

     total magnetization       =     0.11 Bohr mag/cell
     absolute magnetization    =    44.33 Bohr mag/cell

[...]

     iteration #  3     ecut=    71.00 Ry     beta= 0.30
     Davidson diagonalization with overlap
     c_bands:  1 eigenvalues not converged
     ethr =  4.60E-05,  avg # of iterations =  4.3

[...]

     iteration # 13     ecut=    71.00 Ry     beta= 0.30
     Davidson diagonalization with overlap
     c_bands:  1 eigenvalues not converged
     ethr =  2.02E-07,  avg # of iterations =  3.4

[...]

     total energy              =  -10536.25058236 Ry
     estimated scf accuracy    <       0.00000003 Ry

[...]

     iteration # 67     ecut=    71.00 Ry     beta= 0.30
     Davidson diagonalization with overlap
     ethr =  2.05E-12,  avg # of iterations =  1.6

     Magnetic moment per site:
     atom:    1    charge:   14.3915    magn:    1.4916    constr:    0.0000
     atom:    2    charge:   14.3917    magn:   -1.4923    constr:    0.0000
     atom:    3    charge:   14.3912    magn:    1.4928    constr:    0.0000
     atom:    4    charge:   14.3917    magn:   -1.4923    constr:    0.0000
     atom:    5    charge:   14.3914    magn:    1.4918    constr:    0.0000
     atom:    6    charge:   14.3917    magn:   -1.4922    constr:    0.0000
     atom:    7    charge:   14.3912    magn:    1.4928    constr:    0.0000
     atom:    8    charge:   14.3917    magn:   -1.4923    constr:    0.0000
     atom:    9    charge:   14.3914    magn:    1.4918    constr:    0.0000
     atom:   10    charge:   14.3917    magn:   -1.4923    constr:    0.0000
     atom:   11    charge:   14.3912    magn:    1.4928    constr:    0.0000
     atom:   12    charge:   14.3917    magn:   -1.4923    constr:    0.0000
     atom:   13    charge:   14.3914    magn:    1.4918    constr:    0.0000
     atom:   14    charge:   14.3917    magn:   -1.4922    constr:    0.0000
     atom:   15    charge:   14.3912    magn:    1.4928    constr:    0.0000
     atom:   16    charge:   14.3917    magn:   -1.4923    constr:    0.0000
     atom:   17    charge:   14.3914    magn:    1.4918    constr:    0.0000
     atom:   18    charge:   14.3917    magn:   -1.4923    constr:    0.0000
     atom:   19    charge:   14.3912    magn:    1.4928    constr:    0.0000
     atom:   20    charge:   14.3917    magn:   -1.4922    constr:    0.0000
     atom:   21    charge:   14.3915    magn:    1.4917    constr:    0.0000
     atom:   22    charge:   14.3917    magn:   -1.4922    constr:    0.0000
     atom:   23    charge:   14.3912    magn:    1.4928    constr:    0.0000
     atom:   24    charge:   14.3917    magn:   -1.4922    constr:    0.0000
     atom:   25    charge:   14.3914    magn:    1.4918    constr:    0.0000
     atom:   26    charge:   14.3917    magn:   -1.4923    constr:    0.0000
     atom:   27    charge:   14.3912    magn:    1.4928    constr:    0.0000
     atom:   28    charge:   14.3917    magn:   -1.4922    constr:    0.0000
     atom:   29    charge:   14.3914    magn:    1.4917    constr:    0.0000
     atom:   30    charge:   14.3917    magn:   -1.4922    constr:    0.0000
     atom:   31    charge:   14.3912    magn:    1.4928    constr:    0.0000
     atom:   32    charge:   14.3917    magn:   -1.4922    constr:    0.0000

     End of self-consistent calculation

     Number of k-points >= 100: set verbosity='high' to print the bands.

     the Fermi energy is    20.1183 ev

!    total energy              =  -10536.25058237 Ry

     total all-electron energy =    -81457.739640 Ry
     estimated scf accuracy    <          5.2E-09 Ry
     smearing contrib. (-TS)   =       0.01441633 Ry
     internal energy E=F+TS    =  -10536.26499869 Ry

     The total energy is F=E-TS. E is the sum of the following terms:
     one-electron contribution =   -3292.37111162 Ry
     hartree contribution      =    1996.50724294 Ry
     xc contribution           =    -886.95637942 Ry
     ewald contribution        =   -5703.88401268 Ry
     one-center paw contrib.   =   -2649.56073791 Ry

     total magnetization       =     0.00 Bohr mag/cell
     absolute magnetization    =    49.54 Bohr mag/cell

     convergence has been achieved in  67 iterations

     Forces acting on atoms (cartesian axes, Ry/au):

     atom    1 type  1   force =     0.00000000    0.00000000    0.00000000
     atom    2 type  2   force =     0.00000149    0.00000401    0.00000000
     atom    3 type  1   force =     0.00000146    0.00000000    0.00000146
     atom    4 type  2   force =     0.00000000    0.00000401    0.00000149
     atom    5 type  1   force =     0.00000000    0.00000000    0.00000000
     atom    6 type  2   force =     0.00000122    0.00000458    0.00000000
     atom    7 type  1   force =     0.00000146    0.00000000   -0.00000146
     atom    8 type  2   force =     0.00000000    0.00000401   -0.00000149
     atom    9 type  1   force =     0.00000000    0.00000000    0.00000000
     atom   10 type  2   force =     0.00000149   -0.00000401    0.00000000
     atom   11 type  1   force =     0.00000251    0.00000000    0.00000251
     atom   12 type  2   force =     0.00000000   -0.00000401    0.00000149
     atom   13 type  1   force =     0.00000000    0.00000000    0.00000000
     atom   14 type  2   force =     0.00000122   -0.00000458    0.00000000
     atom   15 type  1   force =     0.00000251    0.00000000   -0.00000251
     atom   16 type  2   force =     0.00000000   -0.00000401   -0.00000149
     atom   17 type  1   force =     0.00000000    0.00000000    0.00000000
     atom   18 type  2   force =    -0.00000149    0.00000401    0.00000000
     atom   19 type  1   force =    -0.00000146    0.00000000    0.00000146
     atom   20 type  2   force =     0.00000000    0.00000458    0.00000122
     atom   21 type  1   force =     0.00000000    0.00000000    0.00000000
     atom   22 type  2   force =    -0.00000122    0.00000458    0.00000000
     atom   23 type  1   force =    -0.00000146    0.00000000   -0.00000146
     atom   24 type  2   force =     0.00000000    0.00000458   -0.00000122
     atom   25 type  1   force =     0.00000000    0.00000000    0.00000000
     atom   26 type  2   force =    -0.00000149   -0.00000401    0.00000000
     atom   27 type  1   force =    -0.00000251    0.00000000    0.00000251
     atom   28 type  2   force =     0.00000000   -0.00000458    0.00000122
     atom   29 type  1   force =     0.00000000    0.00000000    0.00000000
     atom   30 type  2   force =    -0.00000122   -0.00000458    0.00000000
     atom   31 type  1   force =    -0.00000251    0.00000000   -0.00000251
     atom   32 type  2   force =     0.00000000   -0.00000458   -0.00000122

     Total force =     0.000020     Total SCF correction =     0.000396
     SCF correction compared to forces is large: reduce conv_thr to get better values

     Computing stress (Cartesian axis) and pressure

          total   stress  (Ry/bohr**3)                   (kbar)     P=       -0.03
  -0.00000062   0.00000000   0.00000000           -0.09        0.00        0.00
   0.00000000   0.00000071   0.00000000            0.00        0.10        0.00
   0.00000000   0.00000000  -0.00000062            0.00        0.00       -0.09

     Writing output data file /scratch/bxp912/fescf.save/

     General routines

     Parallel routines

   This run was terminated on:  16:21:18   6Mar2022

   JOB DONE.