     Program PWSCF v.6.7MaX starts on 25Feb2022 at 19:24:28

     R & G space division:  proc/nbgrp/npool/nimage =      72
     Reading input from fe_octa_1.in

     Current dimensions of program PWSCF are:
     Max number of different atomic species (ntypx) = 10
     Max number of k-points (npk) =  40000
     Max angular momentum in pseudopotentials (lmaxx) =  3
     file Fe.pbe-spn-kjpaw_psl.1.0.0.UPF: wavefunction(s)  3P 3D renormalized
     file Fe.pbe-spn-kjpaw_psl.1.0.0.UPF: wavefunction(s)  3P 3D renormalized
     file Fe.pbe-spn-kjpaw_psl.1.0.0.UPF: wavefunction(s)  3P 3D renormalized

     Subspace diagonalization in iterative solution of the eigenvalue problem:
     one sub-group per band group will be used

     Message from routine setup:
     using ibrav=0 with symmetry is DISCOURAGED, use correct ibrav instead

     bravais-lattice index     =            0
     lattice parameter (alat)  =      13.2000  a.u.
     unit-cell volume          =    2425.2473 (a.u.)^3
     number of atoms/cell      =           33
     number of atomic types    =            3
     number of electrons       =       528.00
     number of Kohn-Sham states=          320
     kinetic-energy cutoff     =      71.0000  Ry
     charge density cutoff     =     430.0000  Ry
     scf convergence threshold =      1.0E-08
     mixing beta               =       0.3000
     number of iterations used =           10  local-TF  mixing
     energy convergence thresh.=      1.0E-04
     force convergence thresh. =      1.0E-03
     press convergence thresh. =      5.0E-01
     Exchange-correlation= SLA  PW   PBX  PBC
                           (   1   4   3   4   0   0   0)
     nstep                     =           40

     celldm(1)=  13.200000  celldm(2)=   0.000000  celldm(3)=   0.000000
     celldm(4)=   0.000000  celldm(5)=   0.000000  celldm(6)=   0.000000

     crystal axes: (cart. coord. in units of alat)
               a(1) = (   1.000000   0.000000   0.000000 )
               a(2) = (   0.000000   1.054470   0.000000 )
               a(3) = (   0.000000   0.000000   1.000000 )

     reciprocal axes: (cart. coord. in units 2 pi/alat)
               b(1) = (  1.000000  0.000000  0.000000 )
               b(2) = (  0.000000  0.948344  0.000000 )
               b(3) = (  0.000000  0.000000  1.000000 )

     PseudoPot. # 1 for Fe read from file:
     /rds/homes/b/bxp912/pp/Fe.pbe-spn-kjpaw_psl.1.0.0.UPF
     MD5 check sum: 42f43b795421b414b0dc916aa790dbcb
     Pseudo is Projector augmented-wave + core cor, Zval = 16.0
     Generated using &quot;atomic&quot; code by A. Dal Corso  v.6.3
     Shape of augmentation charge: PSQ
     Using radial grid of 1191 points,  6 beta functions with:
                l(1) =   0
                l(2) =   0
                l(3) =   1
                l(4) =   1
                l(5) =   2
                l(6) =   2
     Q(r) pseudized with 0 coefficients

[...]

     atomic species   valence    mass     pseudopotential
        Fe1           16.00    55.84500     Fe( 1.00)
        Fe2           16.00    55.84500     Fe( 1.00)
        Fe3           16.00    55.84500     Fe( 1.00)

     Starting magnetic structure
     atomic species   magnetization
        Fe1          0.100
        Fe2         -0.100
        Fe3         -0.010

     16 Sym. Ops., with inversion, found (14 have fractional translation)

   Cartesian axes

     site n.     atom                  positions (alat units)
         1           Fe3 tau(   1) = (   0.2500000   0.2636175   0.2500000  )
         2           Fe1 tau(   2) = (   0.0016619   0.0017524   0.0016619  )
         3           Fe2 tau(   3) = (   0.2500000   0.2636175  -0.0596750  )
         4           Fe1 tau(   4) = (   0.2500000  -0.0629255   0.2500000  )
         5           Fe2 tau(   5) = (  -0.0596750   0.2636175   0.2500000  )
         6           Fe1 tau(   6) = (   0.0016619   0.0017524   0.4983381  )
         7           Fe2 tau(   7) = (   0.2500000   0.2636175   0.5596750  )
         8           Fe1 tau(   8) = (   0.2500000  -0.0161233   0.7500000  )
         9           Fe2 tau(   9) = (  -0.0152904   0.2636175   0.7500000  )
        10           Fe1 tau(  10) = (   0.0016619   0.5254826   0.0016619  )
        11           Fe2 tau(  11) = (   0.2500000   0.7908525  -0.0152904  )
        12           Fe1 tau(  12) = (   0.2500000   0.5901605   0.2500000  )
        13           Fe2 tau(  13) = (  -0.0152904   0.7908525   0.2500000  )
        14           Fe1 tau(  14) = (   0.0016619   0.5254826   0.4983381  )
        15           Fe2 tau(  15) = (   0.2500000   0.7908525   0.5152904  )
        16           Fe1 tau(  16) = (   0.2500000   0.5433583   0.7500000  )
        17           Fe2 tau(  17) = (  -0.0053626   0.7908525   0.7500000  )
        18           Fe1 tau(  18) = (   0.4983381   0.0017524   0.0016619  )
        19           Fe2 tau(  19) = (   0.7500000   0.2636175  -0.0152904  )
        20           Fe1 tau(  20) = (   0.7500000  -0.0161233   0.2500000  )
        21           Fe2 tau(  21) = (   0.5596750   0.2636175   0.2500000  )
        22           Fe1 tau(  22) = (   0.4983381   0.0017524   0.4983381  )
        23           Fe2 tau(  23) = (   0.7500000   0.2636175   0.5152904  )
        24           Fe1 tau(  24) = (   0.7500000  -0.0056547   0.7500000  )
        25           Fe2 tau(  25) = (   0.5152904   0.2636175   0.7500000  )
        26           Fe1 tau(  26) = (   0.4983381   0.5254826   0.0016619  )
        27           Fe2 tau(  27) = (   0.7500000   0.7908525  -0.0053626  )
        28           Fe1 tau(  28) = (   0.7500000   0.5433583   0.2500000  )
        29           Fe2 tau(  29) = (   0.5152904   0.7908525   0.2500000  )
        30           Fe1 tau(  30) = (   0.4983381   0.5254826   0.4983381  )
        31           Fe2 tau(  31) = (   0.7500000   0.7908525   0.5053626  )
        32           Fe1 tau(  32) = (   0.7500000   0.5328897   0.7500000  )
        33           Fe2 tau(  33) = (   0.5053626   0.7908525   0.7500000  )

     number of k points=    75  Marzari-Vanderbilt smearing, width (Ry)=  0.0400
                       cart. coord. in units 2pi/alat
        k(    1) = (   0.0555556   0.0526858   0.0555556), wk =   0.0109739
        k(    2) = (   0.0555556   0.0526858   0.1666667), wk =   0.0219479
        k(    3) = (   0.0555556   0.0526858   0.2777778), wk =   0.0219479
        k(    4) = (   0.0555556   0.0526858   0.3888889), wk =   0.0219479
        k(    5) = (   0.0555556   0.0526858  -0.5000000), wk =   0.0109739
        k(    6) = (   0.0555556   0.1580573   0.0555556), wk =   0.0109739
        k(    7) = (   0.0555556   0.1580573   0.1666667), wk =   0.0219479
        k(    8) = (   0.0555556   0.1580573   0.2777778), wk =   0.0219479
        k(    9) = (   0.0555556   0.1580573   0.3888889), wk =   0.0219479
        k(   10) = (   0.0555556   0.1580573  -0.5000000), wk =   0.0109739
        k(   11) = (   0.0555556   0.2634288   0.0555556), wk =   0.0109739
        k(   12) = (   0.0555556   0.2634288   0.1666667), wk =   0.0219479
        k(   13) = (   0.0555556   0.2634288   0.2777778), wk =   0.0219479
        k(   14) = (   0.0555556   0.2634288   0.3888889), wk =   0.0219479
        k(   15) = (   0.0555556   0.2634288  -0.5000000), wk =   0.0109739
        k(   16) = (   0.0555556   0.3688003   0.0555556), wk =   0.0109739
        k(   17) = (   0.0555556   0.3688003   0.1666667), wk =   0.0219479
        k(   18) = (   0.0555556   0.3688003   0.2777778), wk =   0.0219479
        k(   19) = (   0.0555556   0.3688003   0.3888889), wk =   0.0219479
        k(   20) = (   0.0555556   0.3688003  -0.5000000), wk =   0.0109739
        k(   21) = (   0.0555556  -0.4741719   0.0555556), wk =   0.0054870
        k(   22) = (   0.0555556  -0.4741719   0.1666667), wk =   0.0109739
        k(   23) = (   0.0555556  -0.4741719   0.2777778), wk =   0.0109739
        k(   24) = (   0.0555556  -0.4741719   0.3888889), wk =   0.0109739
        k(   25) = (   0.0555556  -0.4741719  -0.5000000), wk =   0.0054870
        k(   26) = (   0.1666667   0.0526858   0.1666667), wk =   0.0109739
        k(   27) = (   0.1666667   0.0526858   0.2777778), wk =   0.0219479
        k(   28) = (   0.1666667   0.0526858   0.3888889), wk =   0.0219479
        k(   29) = (   0.1666667   0.0526858  -0.5000000), wk =   0.0109739
        k(   30) = (   0.1666667   0.1580573   0.1666667), wk =   0.0109739
        k(   31) = (   0.1666667   0.1580573   0.2777778), wk =   0.0219479
        k(   32) = (   0.1666667   0.1580573   0.3888889), wk =   0.0219479
        k(   33) = (   0.1666667   0.1580573  -0.5000000), wk =   0.0109739
        k(   34) = (   0.1666667   0.2634288   0.1666667), wk =   0.0109739
        k(   35) = (   0.1666667   0.2634288   0.2777778), wk =   0.0219479
        k(   36) = (   0.1666667   0.2634288   0.3888889), wk =   0.0219479
        k(   37) = (   0.1666667   0.2634288  -0.5000000), wk =   0.0109739
        k(   38) = (   0.1666667   0.3688003   0.1666667), wk =   0.0109739
        k(   39) = (   0.1666667   0.3688003   0.2777778), wk =   0.0219479
        k(   40) = (   0.1666667   0.3688003   0.3888889), wk =   0.0219479
        k(   41) = (   0.1666667   0.3688003  -0.5000000), wk =   0.0109739
        k(   42) = (   0.1666667  -0.4741719   0.1666667), wk =   0.0054870
        k(   43) = (   0.1666667  -0.4741719   0.2777778), wk =   0.0109739
        k(   44) = (   0.1666667  -0.4741719   0.3888889), wk =   0.0109739
        k(   45) = (   0.1666667  -0.4741719  -0.5000000), wk =   0.0054870
        k(   46) = (   0.2777778   0.0526858   0.2777778), wk =   0.0109739
        k(   47) = (   0.2777778   0.0526858   0.3888889), wk =   0.0219479
        k(   48) = (   0.2777778   0.0526858  -0.5000000), wk =   0.0109739
        k(   49) = (   0.2777778   0.1580573   0.2777778), wk =   0.0109739
        k(   50) = (   0.2777778   0.1580573   0.3888889), wk =   0.0219479
        k(   51) = (   0.2777778   0.1580573  -0.5000000), wk =   0.0109739
        k(   52) = (   0.2777778   0.2634288   0.2777778), wk =   0.0109739
        k(   53) = (   0.2777778   0.2634288   0.3888889), wk =   0.0219479
        k(   54) = (   0.2777778   0.2634288  -0.5000000), wk =   0.0109739
        k(   55) = (   0.2777778   0.3688003   0.2777778), wk =   0.0109739
        k(   56) = (   0.2777778   0.3688003   0.3888889), wk =   0.0219479
        k(   57) = (   0.2777778   0.3688003  -0.5000000), wk =   0.0109739
        k(   58) = (   0.2777778  -0.4741719   0.2777778), wk =   0.0054870
        k(   59) = (   0.2777778  -0.4741719   0.3888889), wk =   0.0109739
        k(   60) = (   0.2777778  -0.4741719  -0.5000000), wk =   0.0054870
        k(   61) = (   0.3888889   0.0526858   0.3888889), wk =   0.0109739
        k(   62) = (   0.3888889   0.0526858  -0.5000000), wk =   0.0109739
        k(   63) = (   0.3888889   0.1580573   0.3888889), wk =   0.0109739
        k(   64) = (   0.3888889   0.1580573  -0.5000000), wk =   0.0109739
        k(   65) = (   0.3888889   0.2634288   0.3888889), wk =   0.0109739
        k(   66) = (   0.3888889   0.2634288  -0.5000000), wk =   0.0109739
[...]
                l(3) =   1
                l(4) =   1
                l(5) =   2
                l(6) =   2
     Q(r) pseudized with 0 coefficients

     atomic species   valence    mass     pseudopotential
        Fe1           16.00    55.84500     Fe( 1.00)
        Fe2           16.00    55.84500     Fe( 1.00)
        Fe3           16.00    55.84500     Fe( 1.00)

     Starting magnetic structure
     atomic species   magnetization
        Fe1          0.106
        Fe2         -0.095
        Fe3          0.112

     16 Sym. Ops., with inversion, found (14 have fractional translation)

   Cartesian axes

     site n.     atom                  positions (alat units)
         1           Fe3 tau(   1) = (   0.2499960   0.2615835   0.2499960  )
         2           Fe1 tau(   2) = (   0.0012548   0.0008405   0.0012548  )
         3           Fe2 tau(   3) = (   0.2499960   0.2615835  -0.0561845  )
         4           Fe1 tau(   4) = (   0.2499960  -0.0487882   0.2499960  )
         5           Fe2 tau(   5) = (  -0.0561845   0.2615835   0.2499960  )
         6           Fe1 tau(   6) = (   0.0012548   0.0008405   0.4987371  )
         7           Fe2 tau(   7) = (   0.2499960   0.2615835   0.5561765  )
         8           Fe1 tau(   8) = (   0.2499960  -0.0105891   0.7499879  )
         9           Fe2 tau(   9) = (  -0.0101313   0.2615835   0.7499879  )
        10           Fe1 tau(  10) = (   0.0012548   0.5223265   0.0012548  )
        11           Fe2 tau(  11) = (   0.2499960   0.7847505  -0.0095239  )
        12           Fe1 tau(  12) = (   0.2499960   0.5719552   0.2499960  )
        13           Fe2 tau(  13) = (  -0.0095239   0.7847505   0.2499960  )
        14           Fe1 tau(  14) = (   0.0012548   0.5223265   0.4987371  )
        15           Fe2 tau(  15) = (   0.2499960   0.7847505   0.5095159  )
        16           Fe1 tau(  16) = (   0.2499960   0.5337561   0.7499879  )
        17           Fe2 tau(  17) = (   0.0018276   0.7847505   0.7499879  )
        18           Fe1 tau(  18) = (   0.4987371   0.0008405   0.0012548  )
        19           Fe2 tau(  19) = (   0.7499879   0.2615835  -0.0101313  )
        20           Fe1 tau(  20) = (   0.7499879  -0.0105891   0.2499960  )
        21           Fe2 tau(  21) = (   0.5561765   0.2615835   0.2499960  )
        22           Fe1 tau(  22) = (   0.4987371   0.0008405   0.4987371  )
        23           Fe2 tau(  23) = (   0.7499879   0.2615835   0.5101233  )
        24           Fe1 tau(  24) = (   0.7499879  -0.0010689   0.7499879  )
        25           Fe2 tau(  25) = (   0.5101233   0.2615835   0.7499879  )
        26           Fe1 tau(  26) = (   0.4987371   0.5223265   0.0012548  )
        27           Fe2 tau(  27) = (   0.7499879   0.7847505   0.0018276  )
        28           Fe1 tau(  28) = (   0.7499879   0.5337561   0.2499960  )
        29           Fe2 tau(  29) = (   0.5095159   0.7847505   0.2499960  )
        30           Fe1 tau(  30) = (   0.4987371   0.5223265   0.4987371  )
        31           Fe2 tau(  31) = (   0.7499879   0.7847505   0.4981644  )
        32           Fe1 tau(  32) = (   0.7499879   0.5242359   0.7499879  )
        33           Fe2 tau(  33) = (   0.4981644   0.7847505   0.7499879  )

     number of k points=    75  Marzari-Vanderbilt smearing, width (Ry)=  0.0400
                       cart. coord. in units 2pi/alat
        k(    1) = (   0.0555564   0.0530954   0.0555564), wk =   0.0109739
        k(    2) = (   0.0555564   0.0530954   0.1666693), wk =   0.0219479
        k(    3) = (   0.0555564   0.0530954   0.2777822), wk =   0.0219479
        k(    4) = (   0.0555564   0.0530954   0.3888951), wk =   0.0219479
        k(    5) = (   0.0555564   0.0530954  -0.5000080), wk =   0.0109739
        k(    6) = (   0.0555564   0.1592863   0.0555564), wk =   0.0109739
        k(    7) = (   0.0555564   0.1592863   0.1666693), wk =   0.0219479
        k(    8) = (   0.0555564   0.1592863   0.2777822), wk =   0.0219479
        k(    9) = (   0.0555564   0.1592863   0.3888951), wk =   0.0219479
        k(   10) = (   0.0555564   0.1592863  -0.5000080), wk =   0.0109739
        k(   11) = (   0.0555564   0.2654772   0.0555564), wk =   0.0109739
        k(   12) = (   0.0555564   0.2654772   0.1666693), wk =   0.0219479
        k(   13) = (   0.0555564   0.2654772   0.2777822), wk =   0.0219479
        k(   14) = (   0.0555564   0.2654772   0.3888951), wk =   0.0219479
        k(   15) = (   0.0555564   0.2654772  -0.5000080), wk =   0.0109739
        k(   16) = (   0.0555564   0.3716680   0.0555564), wk =   0.0109739
        k(   17) = (   0.0555564   0.3716680   0.1666693), wk =   0.0219479
        k(   18) = (   0.0555564   0.3716680   0.2777822), wk =   0.0219479
        k(   19) = (   0.0555564   0.3716680   0.3888951), wk =   0.0219479
        k(   20) = (   0.0555564   0.3716680  -0.5000080), wk =   0.0109739
        k(   21) = (   0.0555564  -0.4778589   0.0555564), wk =   0.0054870
        k(   22) = (   0.0555564  -0.4778589   0.1666693), wk =   0.0109739
        k(   23) = (   0.0555564  -0.4778589   0.2777822), wk =   0.0109739
        k(   24) = (   0.0555564  -0.4778589   0.3888951), wk =   0.0109739
        k(   25) = (   0.0555564  -0.4778589  -0.5000080), wk =   0.0054870
        k(   26) = (   0.1666693   0.0530954   0.1666693), wk =   0.0109739
        k(   27) = (   0.1666693   0.0530954   0.2777822), wk =   0.0219479
        k(   28) = (   0.1666693   0.0530954   0.3888951), wk =   0.0219479
        k(   29) = (   0.1666693   0.0530954  -0.5000080), wk =   0.0109739
        k(   30) = (   0.1666693   0.1592863   0.1666693), wk =   0.0109739
        k(   31) = (   0.1666693   0.1592863   0.2777822), wk =   0.0219479
        k(   32) = (   0.1666693   0.1592863   0.3888951), wk =   0.0219479
        k(   33) = (   0.1666693   0.1592863  -0.5000080), wk =   0.0109739
        k(   34) = (   0.1666693   0.2654772   0.1666693), wk =   0.0109739
        k(   35) = (   0.1666693   0.2654772   0.2777822), wk =   0.0219479
        k(   36) = (   0.1666693   0.2654772   0.3888951), wk =   0.0219479
        k(   37) = (   0.1666693   0.2654772  -0.5000080), wk =   0.0109739
        k(   38) = (   0.1666693   0.3716680   0.1666693), wk =   0.0109739
        k(   39) = (   0.1666693   0.3716680   0.2777822), wk =   0.0219479
        k(   40) = (   0.1666693   0.3716680   0.3888951), wk =   0.0219479
        k(   41) = (   0.1666693   0.3716680  -0.5000080), wk =   0.0109739
        k(   42) = (   0.1666693  -0.4778589   0.1666693), wk =   0.0054870
        k(   43) = (   0.1666693  -0.4778589   0.2777822), wk =   0.0109739
        k(   44) = (   0.1666693  -0.4778589   0.3888951), wk =   0.0109739
        k(   45) = (   0.1666693  -0.4778589  -0.5000080), wk =   0.0054870
        k(   46) = (   0.2777822   0.0530954   0.2777822), wk =   0.0109739
        k(   47) = (   0.2777822   0.0530954   0.3888951), wk =   0.0219479
        k(   48) = (   0.2777822   0.0530954  -0.5000080), wk =   0.0109739
        k(   49) = (   0.2777822   0.1592863   0.2777822), wk =   0.0109739
        k(   50) = (   0.2777822   0.1592863   0.3888951), wk =   0.0219479
        k(   51) = (   0.2777822   0.1592863  -0.5000080), wk =   0.0109739
        k(   52) = (   0.2777822   0.2654772   0.2777822), wk =   0.0109739
        k(   53) = (   0.2777822   0.2654772   0.3888951), wk =   0.0219479
        k(   54) = (   0.2777822   0.2654772  -0.5000080), wk =   0.0109739
        k(   55) = (   0.2777822   0.3716680   0.2777822), wk =   0.0109739
        k(   56) = (   0.2777822   0.3716680   0.3888951), wk =   0.0219479
        k(   57) = (   0.2777822   0.3716680  -0.5000080), wk =   0.0109739
        k(   58) = (   0.2777822  -0.4778589   0.2777822), wk =   0.0054870
        k(   59) = (   0.2777822  -0.4778589   0.3888951), wk =   0.0109739
        k(   60) = (   0.2777822  -0.4778589  -0.5000080), wk =   0.0054870
        k(   61) = (   0.3888951   0.0530954   0.3888951), wk =   0.0109739
        k(   62) = (   0.3888951   0.0530954  -0.5000080), wk =   0.0109739
        k(   63) = (   0.3888951   0.1592863   0.3888951), wk =   0.0109739
        k(   64) = (   0.3888951   0.1592863  -0.5000080), wk =   0.0109739
        k(   65) = (   0.3888951   0.2654772   0.3888951), wk =   0.0109739
        k(   66) = (   0.3888951   0.2654772  -0.5000080), wk =   0.0109739
        k(   67) = (   0.3888951   0.3716680   0.3888951), wk =   0.0109739
        k(   68) = (   0.3888951   0.3716680  -0.5000080), wk =   0.0109739
        k(   69) = (   0.3888951  -0.4778589   0.3888951), wk =   0.0054870
        k(   70) = (   0.3888951  -0.4778589  -0.5000080), wk =   0.0054870
        k(   71) = (  -0.5000080   0.0530954  -0.5000080), wk =   0.0027435
        k(   72) = (  -0.5000080   0.1592863  -0.5000080), wk =   0.0027435
        k(   73) = (  -0.5000080   0.2654772  -0.5000080), wk =   0.0027435
        k(   74) = (  -0.5000080   0.3716680  -0.5000080), wk =   0.0027435
        k(   75) = (  -0.5000080  -0.4778589  -0.5000080), wk =   0.0013717

     Check: negative core charge=   -0.000006
     Generating pointlists ...

     Initial potential from superposition of free atoms

     starting charge  527.98556, renormalised to  528.00000
     Starting wfcs are  330 randomized atomic wfcs
     Checking if some PAW data can be deallocated...

     Self-consistent Calculation

[...]

     iteration #  8     ecut=    71.00 Ry     beta= 0.30
     Davidson diagonalization with overlap
     c_bands:  1 eigenvalues not converged
     c_bands:  1 eigenvalues not converged
     c_bands:  1 eigenvalues not converged
     ethr =  2.42E-06,  avg # of iterations =  8.5

[...]

     total energy              =  -10865.18399063 Ry
     estimated scf accuracy    <          1.1E-10 Ry

[...]

     iteration # 54     ecut=    71.00 Ry     beta= 0.30
     Davidson diagonalization with overlap
     ethr =  1.00E-13,  avg # of iterations =  1.5

[...]

     Magnetic moment per site:
     atom:    1    charge:   13.8154    magn:    1.5483    constr:    0.0000
     atom:    2    charge:   13.6895    magn:    1.8953    constr:    0.0000
     atom:    3    charge:   13.7223    magn:   -0.9506    constr:    0.0000
     atom:    4    charge:   13.7866    magn:    1.1001    constr:    0.0000
     atom:    5    charge:   13.7223    magn:   -0.9506    constr:    0.0000
     atom:    6    charge:   13.6895    magn:    1.8953    constr:    0.0000
     atom:    7    charge:   13.7223    magn:   -0.9506    constr:    0.0000
     atom:    8    charge:   13.7581    magn:    0.7117    constr:    0.0000
     atom:    9    charge:   13.6805    magn:   -1.4865    constr:    0.0000
     atom:   10    charge:   13.6895    magn:    1.8953    constr:    0.0000
     atom:   11    charge:   13.6671    magn:   -1.2026    constr:    0.0000
     atom:   12    charge:   13.7866    magn:    1.1001    constr:    0.0000
     atom:   13    charge:   13.6671    magn:   -1.2026    constr:    0.0000
     atom:   14    charge:   13.6895    magn:    1.8953    constr:    0.0000
     atom:   15    charge:   13.6671    magn:   -1.2026    constr:    0.0000
     atom:   16    charge:   13.7581    magn:    0.7117    constr:    0.0000
     atom:   17    charge:   13.6329    magn:   -1.5383    constr:    0.0000
     atom:   18    charge:   13.6895    magn:    1.8953    constr:    0.0000
     atom:   19    charge:   13.6805    magn:   -1.4865    constr:    0.0000
     atom:   20    charge:   13.7581    magn:    0.7117    constr:    0.0000
     atom:   21    charge:   13.7223    magn:   -0.9506    constr:    0.0000
     atom:   22    charge:   13.6895    magn:    1.8953    constr:    0.0000
     atom:   23    charge:   13.6805    magn:   -1.4865    constr:    0.0000
     atom:   24    charge:   13.7097    magn:    1.5296    constr:    0.0000
     atom:   25    charge:   13.6805    magn:   -1.4865    constr:    0.0000
     atom:   26    charge:   13.6895    magn:    1.8953    constr:    0.0000
     atom:   27    charge:   13.6329    magn:   -1.5383    constr:    0.0000
     atom:   28    charge:   13.7581    magn:    0.7117    constr:    0.0000
     atom:   29    charge:   13.6671    magn:   -1.2026    constr:    0.0000
     atom:   30    charge:   13.6895    magn:    1.8953    constr:    0.0000
     atom:   31    charge:   13.6329    magn:   -1.5383    constr:    0.0000
     atom:   32    charge:   13.7097    magn:    1.5296    constr:    0.0000
     atom:   33    charge:   13.6329    magn:   -1.5383    constr:    0.0000

     End of self-consistent calculation

     Number of k-points >= 100: set verbosity='high' to print the bands.

     the Fermi energy is    19.6522 ev

!    total energy              =  -10865.18399063 Ry

     total all-electron energy =    -84002.969582 Ry
     estimated scf accuracy    <          5.1E-11 Ry
     smearing contrib. (-TS)   =       0.01509230 Ry
     internal energy E=F+TS    =  -10865.19908293 Ry

     The total energy is F=E-TS. E is the sum of the following terms:
     one-electron contribution =   -3510.45228204 Ry
     hartree contribution      =    2107.48301172 Ry
     xc contribution           =    -914.66766084 Ry
     ewald contribution        =   -5815.26790007 Ry
     one-center paw contrib.   =   -2732.29425171 Ry

     total magnetization       =     4.16 Bohr mag/cell
     absolute magnetization    =    49.26 Bohr mag/cell

     convergence has been achieved in  54 iterations

     negative rho (up, down):  0.000E+00 2.023E-04

     Forces acting on atoms (cartesian axes, Ry/au):

     atom    1 type  3   force =     0.00000000    0.00000000    0.00000000
     atom    2 type  1   force =     0.00010327   -0.00004038    0.00010327
     atom    3 type  2   force =     0.00000000    0.00000000   -0.00001598
     atom    4 type  1   force =     0.00000000    0.00080329   -0.00000000
     atom    5 type  2   force =    -0.00001598    0.00000000    0.00000000
     atom    6 type  1   force =     0.00010327   -0.00004038   -0.00010327
     atom    7 type  2   force =     0.00000000    0.00000000    0.00001598
     atom    8 type  1   force =     0.00000000   -0.00066049    0.00000000
     atom    9 type  2   force =    -0.00009214    0.00000000    0.00000000
     atom   10 type  1   force =     0.00010327    0.00004038    0.00010327
     atom   11 type  2   force =     0.00000000   -0.00000000    0.00001541
     atom   12 type  1   force =     0.00000000   -0.00080329   -0.00000000
     atom   13 type  2   force =     0.00001541    0.00000000    0.00000000
     atom   14 type  1   force =     0.00010327    0.00004038   -0.00010327
     atom   15 type  2   force =     0.00000000   -0.00000000   -0.00001541
     atom   16 type  1   force =     0.00000000    0.00066049    0.00000000
     atom   17 type  2   force =     0.00013125    0.00000000    0.00000000
     atom   18 type  1   force =    -0.00010327   -0.00004038    0.00010327
     atom   19 type  2   force =     0.00000000   -0.00000000   -0.00009214
     atom   20 type  1   force =     0.00000000   -0.00066049    0.00000000
     atom   21 type  2   force =     0.00001598    0.00000000    0.00000000
     atom   22 type  1   force =    -0.00010327   -0.00004038   -0.00010327
     atom   23 type  2   force =     0.00000000   -0.00000000    0.00009214
     atom   24 type  1   force =     0.00000000    0.00058786    0.00000000
     atom   25 type  2   force =     0.00009214    0.00000000    0.00000000
     atom   26 type  1   force =    -0.00010327    0.00004038    0.00010327
     atom   27 type  2   force =     0.00000000    0.00000000    0.00013125
     atom   28 type  1   force =     0.00000000    0.00066049    0.00000000
     atom   29 type  2   force =    -0.00001541    0.00000000    0.00000000
     atom   30 type  1   force =    -0.00010327    0.00004038   -0.00010327
     atom   31 type  2   force =     0.00000000    0.00000000   -0.00013125
     atom   32 type  1   force =     0.00000000   -0.00058786    0.00000000
     atom   33 type  2   force =    -0.00013125    0.00000000    0.00000000

     Total force =     0.002004     Total SCF correction =     0.000020

     Computing stress (Cartesian axis) and pressure

     negative rho (up, down):  0.000E+00 2.023E-04
          total   stress  (Ry/bohr**3)                   (kbar)     P=        0.16
   0.00000285   0.00000000   0.00000000            0.42        0.00        0.00
   0.00000000  -0.00000242   0.00000000            0.00       -0.36        0.00
   0.00000000   0.00000000   0.00000285            0.00        0.00        0.42

     Writing output data file /scratch/bxp912/feoctarelax1.save/

     General routines

     Parallel routines

   This run was terminated on:  11:14:54  26Feb2022

   JOB DONE.