     Program PWSCF v.6.7MaX starts on 27Feb2022 at 15:22:33

     R & G space division:  proc/nbgrp/npool/nimage =      72
     Reading input from fe_tetra_1.in

     Current dimensions of program PWSCF are:
     Max number of different atomic species (ntypx) = 10
     Max number of k-points (npk) =  40000
     Max angular momentum in pseudopotentials (lmaxx) =  3
     file Fe.pbe-spn-kjpaw_psl.1.0.0.UPF: wavefunction(s)  3P 3D renormalized
     file Fe.pbe-spn-kjpaw_psl.1.0.0.UPF: wavefunction(s)  3P 3D renormalized
     file Fe.pbe-spn-kjpaw_psl.1.0.0.UPF: wavefunction(s)  3P 3D renormalized

     Subspace diagonalization in iterative solution of the eigenvalue problem:
     one sub-group per band group will be used

     Message from routine setup:
     using ibrav=0 with symmetry is DISCOURAGED, use correct ibrav instead

     bravais-lattice index     =            0
     lattice parameter (alat)  =      13.2000  a.u.
     unit-cell volume          =    2425.2473 (a.u.)^3
     number of atoms/cell      =           33
     number of atomic types    =            3
     number of electrons       =       528.00
     number of Kohn-Sham states=          320
     kinetic-energy cutoff     =      71.0000  Ry
     charge density cutoff     =     430.0000  Ry
     scf convergence threshold =      1.0E-08
     mixing beta               =       0.3000
     number of iterations used =           10  local-TF  mixing
     energy convergence thresh.=      1.0E-04
     force convergence thresh. =      1.0E-03
     press convergence thresh. =      5.0E-01
     Exchange-correlation= SLA  PW   PBX  PBC
                           (   1   4   3   4   0   0   0)
     nstep                     =           40

     celldm(1)=  13.200000  celldm(2)=   0.000000  celldm(3)=   0.000000
     celldm(4)=   0.000000  celldm(5)=   0.000000  celldm(6)=   0.000000

     crystal axes: (cart. coord. in units of alat)
               a(1) = (   1.000000   0.000000   0.000000 )
               a(2) = (   0.000000   1.054470   0.000000 )
               a(3) = (   0.000000   0.000000   1.000000 )

     reciprocal axes: (cart. coord. in units 2 pi/alat)
               b(1) = (  1.000000  0.000000  0.000000 )
               b(2) = (  0.000000  0.948344  0.000000 )
               b(3) = (  0.000000  0.000000  1.000000 )

     PseudoPot. # 1 for Fe read from file:
     /rds/homes/b/bxp912/pp/Fe.pbe-spn-kjpaw_psl.1.0.0.UPF
     MD5 check sum: 42f43b795421b414b0dc916aa790dbcb
     Pseudo is Projector augmented-wave + core cor, Zval = 16.0
     Generated using &quot;atomic&quot; code by A. Dal Corso  v.6.3
     Shape of augmentation charge: PSQ
     Using radial grid of 1191 points,  6 beta functions with:
                l(1) =   0
                l(2) =   0
                l(3) =   1
                l(4) =   1
                l(5) =   2
                l(6) =   2
     Q(r) pseudized with 0 coefficients

[...]

     atomic species   valence    mass     pseudopotential
        Fe1           16.00    55.84500     Fe( 1.00)
        Fe2           16.00    55.84500     Fe( 1.00)
        Fe3           16.00    55.84500     Fe( 1.00)

     Starting magnetic structure
     atomic species   magnetization
        Fe1          0.100
        Fe2         -0.100
        Fe3         -0.010

      4 Sym. Ops. (no inversion) found ( 2 have fractional translation)

   Cartesian axes

     site n.     atom                  positions (alat units)
         1           Fe3 tau(   1) = (   0.1250000   0.1318088   0.1250000  )
         2           Fe1 tau(   2) = (  -0.0435719  -0.0459452  -0.0435719  )
         3           Fe2 tau(   3) = (   0.2935719   0.3095627  -0.0435719  )
         4           Fe1 tau(   4) = (   0.2935719  -0.0459452   0.2935719  )
         5           Fe2 tau(   5) = (  -0.0435719   0.3095627   0.2935719  )
         6           Fe1 tau(   6) = (   0.0018181   0.0019171   0.4961919  )
         7           Fe2 tau(   7) = (   0.2481819   0.2617004   0.4961919  )
         8           Fe1 tau(   8) = (   0.2481819   0.0019171   0.7538081  )
         9           Fe2 tau(   9) = (   0.0018181   0.2617004   0.7538081  )
        10           Fe1 tau(  10) = (   0.0018181   0.5232195   0.0018181  )
        11           Fe2 tau(  11) = (   0.2481819   0.7948680   0.0018181  )
        12           Fe1 tau(  12) = (   0.2481819   0.5232195   0.2481819  )
        13           Fe2 tau(  13) = (   0.0018181   0.7948680   0.2481819  )
        14           Fe1 tau(  14) = (  -0.0013207   0.5389610   0.5111203  )
        15           Fe2 tau(  15) = (   0.2513207   0.7791265   0.5111203  )
        16           Fe1 tau(  16) = (   0.2513207   0.5389610   0.7388797  )
        17           Fe2 tau(  17) = (  -0.0013207   0.7791265   0.7388797  )
        18           Fe1 tau(  18) = (   0.4961919   0.0019171   0.0018181  )
        19           Fe2 tau(  19) = (   0.7538081   0.2617004   0.0018181  )
        20           Fe1 tau(  20) = (   0.7538081   0.0019171   0.2481819  )
        21           Fe2 tau(  21) = (   0.4961919   0.2617004   0.2481819  )
        22           Fe1 tau(  22) = (   0.5111203  -0.0013926   0.5111203  )
        23           Fe2 tau(  23) = (   0.7388797   0.2650101   0.5111203  )
        24           Fe1 tau(  24) = (   0.7388797  -0.0013926   0.7388797  )
        25           Fe2 tau(  25) = (   0.5111203   0.2650101   0.7388797  )
        26           Fe1 tau(  26) = (   0.5111203   0.5389610  -0.0013207  )
        27           Fe2 tau(  27) = (   0.7388797   0.7791265  -0.0013207  )
        28           Fe1 tau(  28) = (   0.7388797   0.5389610   0.2513207  )
        29           Fe2 tau(  29) = (   0.5111203   0.7791265   0.2513207  )
        30           Fe1 tau(  30) = (   0.4996496   0.5268655   0.4996496  )
        31           Fe2 tau(  31) = (   0.7503504   0.7912220   0.4996496  )
        32           Fe1 tau(  32) = (   0.7503504   0.5268655   0.7503504  )
        33           Fe2 tau(  33) = (   0.4996496   0.7912220   0.7503504  )

     number of k points=   125  Marzari-Vanderbilt smearing, width (Ry)=  0.0400

     Number of k-points >= 100: set verbosity='high' to print them.

     Check: negative core charge=   -0.000006
     Generating pointlists ...
     new r_m :   0.1227 (alat units)  1.6192 (a.u.) for type    1
     new r_m :   0.1227 (alat units)  1.6192 (a.u.) for type    2
     new r_m :   0.1227 (alat units)  1.6192 (a.u.) for type    3

     Initial potential from superposition of free atoms

     starting charge  527.98556, renormalised to  528.00000
     Starting wfcs are  330 randomized atomic wfcs
     Checking if some PAW data can be deallocated...

     Self-consistent Calculation

     iteration #  1     ecut=    71.00 Ry     beta= 0.30
     Davidson diagonalization with overlap
     ethr =  1.00E-02,  avg # of iterations =  4.6

     Threshold (ethr) on eigenvalues was too large:
     Diagonalizing with lowered threshold

     Davidson diagonalization with overlap
     ethr =  8.73E-04,  avg # of iterations =  2.6

     negative rho (up, down):  7.587E-04 0.000E+00

     total energy              =  -10864.79160903 Ry
     estimated scf accuracy    <       5.49030545 Ry

     total magnetization       =     0.03 Bohr mag/cell
     absolute magnetization    =    46.64 Bohr mag/cell

[...]

     iteration #  5     ecut=    71.00 Ry     beta= 0.30
     Davidson diagonalization with overlap
     c_bands:  1 eigenvalues not converged
     c_bands:  1 eigenvalues not converged
     c_bands:  2 eigenvalues not converged
     c_bands:  1 eigenvalues not converged
     c_bands:  1 eigenvalues not converged
     c_bands:  1 eigenvalues not converged
     c_bands:  2 eigenvalues not converged
     c_bands:  1 eigenvalues not converged
     ethr =  4.17E-05,  avg # of iterations =  5.9

     negative rho (up, down):  2.025E-04 0.000E+00

[...]

     Magnetic moment per site:
     atom:    1    charge:   13.6211    magn:   -0.0045    constr:    0.0000
     atom:    2    charge:   13.5833    magn:    0.8006    constr:    0.0000
     atom:    3    charge:   13.5833    magn:   -0.7991    constr:    0.0000
     atom:    4    charge:   13.5833    magn:    0.8006    constr:    0.0000
     atom:    5    charge:   13.5833    magn:   -0.7991    constr:    0.0000
     atom:    6    charge:   13.4516    magn:    1.7138    constr:    0.0000
     atom:    7    charge:   13.4516    magn:   -1.7143    constr:    0.0000
     atom:    8    charge:   13.4516    magn:    1.7138    constr:    0.0000
     atom:    9    charge:   13.4516    magn:   -1.7143    constr:    0.0000
     atom:   10    charge:   13.4508    magn:    1.7802    constr:    0.0000
     atom:   11    charge:   13.4508    magn:   -1.7804    constr:    0.0000
     atom:   12    charge:   13.4508    magn:    1.7802    constr:    0.0000
     atom:   13    charge:   13.4508    magn:   -1.7804    constr:    0.0000
     atom:   14    charge:   13.5093    magn:    1.2194    constr:    0.0000
     atom:   15    charge:   13.5093    magn:   -1.2186    constr:    0.0000
     atom:   16    charge:   13.5093    magn:    1.2194    constr:    0.0000
     atom:   17    charge:   13.5093    magn:   -1.2186    constr:    0.0000
     atom:   18    charge:   13.4516    magn:    1.7138    constr:    0.0000
     atom:   19    charge:   13.4516    magn:   -1.7143    constr:    0.0000
     atom:   20    charge:   13.4516    magn:    1.7138    constr:    0.0000
     atom:   21    charge:   13.4516    magn:   -1.7143    constr:    0.0000
     atom:   22    charge:   13.5184    magn:    1.4910    constr:    0.0000
     atom:   23    charge:   13.5184    magn:   -1.4908    constr:    0.0000
     atom:   24    charge:   13.5184    magn:    1.4910    constr:    0.0000
     atom:   25    charge:   13.5184    magn:   -1.4908    constr:    0.0000
     atom:   26    charge:   13.5093    magn:    1.2194    constr:    0.0000
     atom:   27    charge:   13.5093    magn:   -1.2186    constr:    0.0000
     atom:   28    charge:   13.5093    magn:    1.2194    constr:    0.0000
     atom:   29    charge:   13.5093    magn:   -1.2186    constr:    0.0000
     atom:   30    charge:   13.4761    magn:    1.5187    constr:    0.0000
     atom:   31    charge:   13.4761    magn:   -1.5190    constr:    0.0000
     atom:   32    charge:   13.4761    magn:    1.5187    constr:    0.0000
     atom:   33    charge:   13.4761    magn:   -1.5190    constr:    0.0000

     End of self-consistent calculation

     Number of k-points >= 100: set verbosity='high' to print the bands.

     the Fermi energy is    19.4786 ev

!    total energy              =  -10865.14496685 Ry

     total all-electron energy =    -84002.930558 Ry
     estimated scf accuracy    <          9.7E-09 Ry
     smearing contrib. (-TS)   =       0.00975992 Ry
     internal energy E=F+TS    =  -10865.15472678 Ry

     The total energy is F=E-TS. E is the sum of the following terms:
     one-electron contribution =   -3534.93647578 Ry
     hartree contribution      =    2116.48065660 Ry
     xc contribution           =    -914.61800240 Ry
     ewald contribution        =   -5799.80106174 Ry
[...]
Fe2           0.7432102783        0.7411589038        0.0005268582
Fe1           0.7432102397        0.5088410308        0.2494726837
Fe2           0.5067897217        0.7411589038        0.2494731418
Fe1           0.5015524592        0.5002691334        0.5015524592
Fe2           0.7484476792        0.7497307810        0.5015523208
Fe1           0.7484475408        0.5002691334        0.7484475408
Fe2           0.5015523208        0.7497307810        0.7484476792

     Writing output data file /scratch/bxp912/fetetrarelax1.save/
     NEW-OLD atomic charge density approx. for the potential

     Check: negative core charge=   -0.000006
     extrapolated charge  527.98804, renormalised to  528.00000
     Generating pointlists ...

[...]

     Energy error            =      5.7E-05
     Gradient error          =      6.0E-04
     Cell gradient error     =      1.4E-06

     bfgs converged in   7 scf cycles and   6 bfgs steps
     (criteria: energy <  1.0E-04 Ry, force <  1.0E-03Ry/Bohr, cell <  5.0E-01kbar)

     End of BFGS Geometry Optimization

     Final enthalpy =  -10865.1674864928 Ry

     File /scratch/bxp912/fetetrarelax1.bfgs deleted, as requested
Begin final coordinates
     new unit-cell volume =   2414.55201 a.u.^3 (   357.79969 Ang^3 )
     density =      8.55278 g/cm^3

CELL_PARAMETERS (alat= 13.20000000)
   0.997080410   0.000000000   0.000002592
   0.000000000   1.055976866   0.000000000
   0.000002592   0.000000000   0.997080410

ATOMIC_POSITIONS (crystal)
Fe3           0.1250000000        0.1249986533        0.1250000000
Fe1          -0.0374832561       -0.0396166268       -0.0374832561
Fe2           0.2874821814        0.2896173547       -0.0374821814
Fe1           0.2874832561       -0.0396166268        0.2874832561
Fe2          -0.0374821814        0.2896173547        0.2874821814
Fe1           0.0011242584        0.0005558410        0.4981124391
Fe2           0.2488758761        0.2494442408        0.4981125155
Fe1           0.2488757416        0.0005558410        0.7518875609
Fe2           0.0011241239        0.2494442408        0.7518874845
Fe1           0.0003895593        0.4977036442        0.0003895593
Fe2           0.2496103096        0.7522964664        0.0003896904
Fe1           0.2496104407        0.4977036442        0.2496104407
Fe2           0.0003896904        0.7522964664        0.2496103096
Fe1           0.0005273163        0.5088410308        0.5067897603
Fe2           0.2494731418        0.7411589038        0.5067897217
Fe1           0.2494726837        0.5088410308        0.7432102397
Fe2           0.0005268582        0.7411589038        0.7432102783
Fe1           0.4981124391        0.0005558410        0.0011242584
Fe2           0.7518874845        0.2494442408        0.0011241239
Fe1           0.7518875609        0.0005558410        0.2488757416
Fe2           0.4981125155        0.2494442408        0.2488758761
Fe1           0.5088179384        0.0019739604        0.5088179384
Fe2           0.7411824540        0.2480259270        0.5088175460
Fe1           0.7411820616        0.0019739604        0.7411820616
Fe2           0.5088175460        0.2480259270        0.7411824540
Fe1           0.5067897603        0.5088410308        0.0005273163
Fe2           0.7432102783        0.7411589038        0.0005268582
Fe1           0.7432102397        0.5088410308        0.2494726837
Fe2           0.5067897217        0.7411589038        0.2494731418
Fe1           0.5015524592        0.5002691334        0.5015524592
Fe2           0.7484476792        0.7497307810        0.5015523208
Fe1           0.7484475408        0.5002691334        0.7484475408
Fe2           0.5015523208        0.7497307810        0.7484476792
End final coordinates

     Writing output data file /scratch/bxp912/fetetrarelax1.save/

     Final scf calculation at the relaxed structure.
     The G-vectors are recalculated for the final unit cell
     Results may differ from those at the preceding step.

     bravais-lattice index     =            0
     lattice parameter (alat)  =      13.2000  a.u.
     unit-cell volume          =    2414.5520 (a.u.)^3
     number of atoms/cell      =           33
     number of atomic types    =            3
     number of electrons       =       528.00
     number of Kohn-Sham states=          320
     kinetic-energy cutoff     =      71.0000  Ry
     charge density cutoff     =     430.0000  Ry
     scf convergence threshold =      1.0E-10
     mixing beta               =       0.3000
     number of iterations used =           10  local-TF  mixing
     press convergence thresh. =      5.0E-01
     Exchange-correlation= SLA  PW   PBX  PBC
                           (   1   4   3   4   0   0   0)

     celldm(1)=  13.200000  celldm(2)=   0.000000  celldm(3)=   0.000000
     celldm(4)=   0.000000  celldm(5)=   0.000000  celldm(6)=   0.000000

     crystal axes: (cart. coord. in units of alat)
               a(1) = (   0.997080   0.000000   0.000003 )
               a(2) = (   0.000000   1.055977   0.000000 )
               a(3) = (   0.000003   0.000000   0.997080 )

     reciprocal axes: (cart. coord. in units 2 pi/alat)
               b(1) = (  1.002928  0.000000 -0.000003 )
               b(2) = (  0.000000  0.946990  0.000000 )
               b(3) = ( -0.000003  0.000000  1.002928 )

[...]

     PseudoPot. # 3 for Fe read from file:
     /rds/homes/b/bxp912/pp/Fe.pbe-spn-kjpaw_psl.1.0.0.UPF
     MD5 check sum: 42f43b795421b414b0dc916aa790dbcb
     Pseudo is Projector augmented-wave + core cor, Zval = 16.0
     Generated using &quot;atomic&quot; code by A. Dal Corso  v.6.3
     Shape of augmentation charge: PSQ
     Using radial grid of 1191 points,  6 beta functions with:
                l(1) =   0
                l(2) =   0
                l(3) =   1
                l(4) =   1
                l(5) =   2
                l(6) =   2
     Q(r) pseudized with 0 coefficients

     atomic species   valence    mass     pseudopotential
        Fe1           16.00    55.84500     Fe( 1.00)
        Fe2           16.00    55.84500     Fe( 1.00)
        Fe3           16.00    55.84500     Fe( 1.00)

     Starting magnetic structure
     atomic species   magnetization
        Fe1          0.106
        Fe2         -0.106
        Fe3          0.000

      4 Sym. Ops. (no inversion) found ( 2 have fractional translation)

   Cartesian axes

     site n.     atom                  positions (alat units)
         1           Fe3 tau(   1) = (   0.1246354   0.1319957   0.1246354  )
         2           Fe1 tau(   2) = (  -0.0373739  -0.0418342  -0.0373739  )
         3           Fe2 tau(   3) = (   0.2866428   0.3058292  -0.0373720  )
         4           Fe1 tau(   4) = (   0.2866447  -0.0418342   0.2866447  )
         5           Fe2 tau(   5) = (  -0.0373720   0.3058292   0.2866428  )
         6           Fe1 tau(   6) = (   0.0011223   0.0005870   0.4966582  )
         7           Fe2 tau(   7) = (   0.2481506   0.2634073   0.4966589  )
         8           Fe1 tau(   8) = (   0.2481511   0.0005870   0.7496930  )
         9           Fe2 tau(   9) = (   0.0011228   0.2634073   0.7496923  )
        10           Fe1 tau(  10) = (   0.0003884   0.5255635   0.0003884  )
        11           Fe2 tau(  11) = (   0.2488816   0.7944077   0.0003892  )
        12           Fe1 tau(  12) = (   0.2488823   0.5255635   0.2488823  )
        13           Fe2 tau(  13) = (   0.0003892   0.7944077   0.2488816  )
        14           Fe1 tau(  14) = (   0.0005271   0.5373244   0.5053101  )
        15           Fe2 tau(  15) = (   0.2487461   0.7826467   0.5053108  )
        16           Fe1 tau(  16) = (   0.2487463   0.5373244   0.7410410  )
        17           Fe2 tau(  17) = (   0.0005272   0.7826467   0.7410404  )
        18           Fe1 tau(  18) = (   0.4966582   0.0005870   0.0011223  )
        19           Fe2 tau(  19) = (   0.7496923   0.2634073   0.0011228  )
        20           Fe1 tau(  20) = (   0.7496930   0.0005870   0.2481511  )
        21           Fe2 tau(  21) = (   0.4966589   0.2634073   0.2481506  )
        22           Fe1 tau(  22) = (   0.5073337   0.0020845   0.5073337  )
        23           Fe2 tau(  23) = (   0.7390198   0.2619096   0.5073339  )
        24           Fe1 tau(  24) = (   0.7390200   0.0020845   0.7390200  )
        25           Fe2 tau(  25) = (   0.5073339   0.2619096   0.7390198  )
        26           Fe1 tau(  26) = (   0.5053101   0.5373244   0.0005271  )
        27           Fe2 tau(  27) = (   0.7410404   0.7826467   0.0005272  )
        28           Fe1 tau(  28) = (   0.7410410   0.5373244   0.2487463  )
        29           Fe2 tau(  29) = (   0.5053108   0.7826467   0.2487461  )
        30           Fe1 tau(  30) = (   0.5000894   0.5282726   0.5000894  )
        31           Fe2 tau(  31) = (   0.7462638   0.7916984   0.5000899  )
        32           Fe1 tau(  32) = (   0.7462643   0.5282726   0.7462643  )
        33           Fe2 tau(  33) = (   0.5000899   0.7916984   0.7462638  )

     number of k points=   125  Marzari-Vanderbilt smearing, width (Ry)=  0.0400

     Number of k-points >= 100: set verbosity='high' to print them.

     Check: negative core charge=   -0.000006
     Generating pointlists ...

     Initial potential from superposition of free atoms

     starting charge  527.98556, renormalised to  528.00000
     Starting wfcs are  330 randomized atomic wfcs
     Checking if some PAW data can be deallocated...

     Self-consistent Calculation

[...]

     iteration #  7     ecut=    71.00 Ry     beta= 0.30
     Davidson diagonalization with overlap
     c_bands:  1 eigenvalues not converged
     c_bands:  1 eigenvalues not converged
     c_bands:  2 eigenvalues not converged
     ethr =  5.00E-06,  avg # of iterations =  6.9

[...]

     total energy              =  -10865.16391769 Ry
     estimated scf accuracy    <          1.4E-10 Ry

[...]

     iteration # 40     ecut=    71.00 Ry     beta= 0.30
     Davidson diagonalization with overlap
     ethr =  1.00E-13,  avg # of iterations =  2.0

     Magnetic moment per site:
     atom:    1    charge:   13.4614    magn:    0.0000    constr:    0.0000
     atom:    2    charge:   13.3755    magn:    0.7144    constr:    0.0000
     atom:    3    charge:   13.3755    magn:   -0.7144    constr:    0.0000
     atom:    4    charge:   13.3755    magn:    0.7144    constr:    0.0000
     atom:    5    charge:   13.3755    magn:   -0.7144    constr:    0.0000
     atom:    6    charge:   13.2551    magn:    1.6698    constr:    0.0000
     atom:    7    charge:   13.2551    magn:   -1.6698    constr:    0.0000
     atom:    8    charge:   13.2551    magn:    1.6698    constr:    0.0000
     atom:    9    charge:   13.2551    magn:   -1.6698    constr:    0.0000
     atom:   10    charge:   13.2571    magn:    1.6895    constr:    0.0000
     atom:   11    charge:   13.2571    magn:   -1.6895    constr:    0.0000
     atom:   12    charge:   13.2571    magn:    1.6895    constr:    0.0000
     atom:   13    charge:   13.2571    magn:   -1.6895    constr:    0.0000
     atom:   14    charge:   13.2933    magn:    1.2665    constr:    0.0000
     atom:   15    charge:   13.2933    magn:   -1.2665    constr:    0.0000
     atom:   16    charge:   13.2933    magn:    1.2665    constr:    0.0000
     atom:   17    charge:   13.2933    magn:   -1.2665    constr:    0.0000
     atom:   18    charge:   13.2551    magn:    1.6698    constr:    0.0000
     atom:   19    charge:   13.2551    magn:   -1.6698    constr:    0.0000
     atom:   20    charge:   13.2551    magn:    1.6698    constr:    0.0000
     atom:   21    charge:   13.2551    magn:   -1.6698    constr:    0.0000
     atom:   22    charge:   13.3022    magn:    1.4631    constr:    0.0000
     atom:   23    charge:   13.3022    magn:   -1.4631    constr:    0.0000
     atom:   24    charge:   13.3022    magn:    1.4631    constr:    0.0000
     atom:   25    charge:   13.3022    magn:   -1.4631    constr:    0.0000
     atom:   26    charge:   13.2933    magn:    1.2665    constr:    0.0000
     atom:   27    charge:   13.2933    magn:   -1.2665    constr:    0.0000
     atom:   28    charge:   13.2933    magn:    1.2665    constr:    0.0000
     atom:   29    charge:   13.2933    magn:   -1.2665    constr:    0.0000
     atom:   30    charge:   13.2683    magn:    1.5202    constr:    0.0000
     atom:   31    charge:   13.2683    magn:   -1.5202    constr:    0.0000
     atom:   32    charge:   13.2683    magn:    1.5202    constr:    0.0000
     atom:   33    charge:   13.2683    magn:   -1.5202    constr:    0.0000

     End of self-consistent calculation

     Number of k-points >= 100: set verbosity='high' to print the bands.

     the Fermi energy is    19.5716 ev

!    total energy              =  -10865.16391769 Ry

     total all-electron energy =    -84002.949509 Ry
     estimated scf accuracy    <          6.8E-11 Ry
     smearing contrib. (-TS)   =       0.01619201 Ry
     internal energy E=F+TS    =  -10865.18010970 Ry

     The total energy is F=E-TS. E is the sum of the following terms:
     one-electron contribution =   -3518.96785052 Ry
     hartree contribution      =    2110.31650019 Ry
     xc contribution           =    -914.71660318 Ry
     ewald contribution        =   -5809.52940092 Ry
     one-center paw contrib.   =   -2732.28275527 Ry

     total magnetization       =     0.00 Bohr mag/cell
     absolute magnetization    =    50.32 Bohr mag/cell

     convergence has been achieved in  40 iterations

     Forces acting on atoms (cartesian axes, Ry/au):

     atom    1 type  3   force =     0.00000000   -0.00000202    0.00000000
     atom    2 type  1   force =     0.00035634    0.00007277    0.00035634
     atom    3 type  2   force =    -0.00035758   -0.00007199    0.00035758
     atom    4 type  1   force =    -0.00035634    0.00007277   -0.00035634
     atom    5 type  2   force =     0.00035758   -0.00007199   -0.00035758
     atom    6 type  1   force =     0.00027524   -0.00029835   -0.00005029
     atom    7 type  2   force =    -0.00027488    0.00029849   -0.00004992
     atom    8 type  1   force =    -0.00027524   -0.00029835    0.00005029
     atom    9 type  2   force =     0.00027488    0.00029849    0.00004992
     atom   10 type  1   force =     0.00006106    0.00004771    0.00006106
     atom   11 type  2   force =    -0.00006133   -0.00004740    0.00006133
     atom   12 type  1   force =    -0.00006106    0.00004771   -0.00006106
     atom   13 type  2   force =     0.00006133   -0.00004740   -0.00006133
     atom   14 type  1   force =    -0.00021358    0.00060242    0.00016980
     atom   15 type  2   force =     0.00021386   -0.00060273    0.00016989
     atom   16 type  1   force =     0.00021358    0.00060242   -0.00016980
     atom   17 type  2   force =    -0.00021386   -0.00060273   -0.00016989
     atom   18 type  1   force =    -0.00005029   -0.00029835    0.00027524
     atom   19 type  2   force =     0.00004992    0.00029849    0.00027488
     atom   20 type  1   force =     0.00005029   -0.00029835   -0.00027524
     atom   21 type  2   force =    -0.00004992    0.00029849   -0.00027488
     atom   22 type  1   force =     0.00009871    0.00004575    0.00009871
     atom   23 type  2   force =    -0.00009805   -0.00004557    0.00009805
     atom   24 type  1   force =    -0.00009871    0.00004575   -0.00009871
     atom   25 type  2   force =     0.00009805   -0.00004557   -0.00009805
     atom   26 type  1   force =     0.00016980    0.00060242   -0.00021358
     atom   27 type  2   force =    -0.00016989   -0.00060273   -0.00021386
     atom   28 type  1   force =    -0.00016980    0.00060242    0.00021358
     atom   29 type  2   force =     0.00016989   -0.00060273    0.00021386
     atom   30 type  1   force =    -0.00004099   -0.00024780   -0.00004099
     atom   31 type  2   force =     0.00004080    0.00024789   -0.00004080
     atom   32 type  1   force =     0.00004099   -0.00024780    0.00004099
     atom   33 type  2   force =    -0.00004080    0.00024789    0.00004080

     Total force =     0.002503     Total SCF correction =     0.000044

     Computing stress (Cartesian axis) and pressure

          total   stress  (Ry/bohr**3)                   (kbar)     P=        0.07
   0.00000090   0.00000000   0.00000000            0.13        0.00        0.00
   0.00000000  -0.00000029   0.00000000            0.00       -0.04        0.00
   0.00000000   0.00000000   0.00000090            0.00        0.00        0.13

     Writing output data file /scratch/bxp912/fetetrarelax1.save/

     General routines

     Parallel routines

   This run was terminated on:   5:55:43  28Feb2022

   JOB DONE.