     Program PWSCF v.6.7MaX starts on 23Nov2021 at 11:55:13

     R & G space division:  proc/nbgrp/npool/nimage =      72
     Reading input from /rds/homes/b/bxp912/jobs/20211014_ru_eos/wd/eos/eos_002.in
Warning: card &CELL ignored
Warning: card CELL_DYNAMICS = 'BFGS', ignored
Warning: card CELL_FACTOR = 2.0, ignored
Warning: card PRESS = 0.0, ignored
Warning: card / ignored

     Current dimensions of program PWSCF are:
     Max number of different atomic species (ntypx) = 10
     Max number of k-points (npk) =  40000
     Max angular momentum in pseudopotentials (lmaxx) =  3
     file Ru.pbe-spn-kjpaw_psl.1.0.0.UPF: wavefunction(s)  4D renormalized

     Subspace diagonalization in iterative solution of the eigenvalue problem:
     one sub-group per band group will be used

     Found symmetry operation: I + (  0.2500  0.2500  0.0000)
     This is a supercell, fractional translations are disabled
     Message from routine setup:
     using ibrav=0 with symmetry is DISCOURAGED, use correct ibrav instead

     bravais-lattice index     =            0
     lattice parameter (alat)  =      14.4007  a.u.
     unit-cell volume          =    2950.7512 (a.u.)^3
     number of atoms/cell      =           32
     number of atomic types    =            1
     number of electrons       =       512.00
     number of Kohn-Sham states=          307
     kinetic-energy cutoff     =      71.0000  Ry
     charge density cutoff     =     430.0000  Ry
     scf convergence threshold =      1.0E-06
     mixing beta               =       0.1000
     number of iterations used =           10  plain     mixing
     Exchange-correlation= SLA  PW   PBX  PBC
                           (   1   4   3   4   0   0   0)

     celldm(1)=  14.400742  celldm(2)=   0.000000  celldm(3)=   0.000000
     celldm(4)=   0.000000  celldm(5)=   0.000000  celldm(6)=   0.000000

     crystal axes: (cart. coord. in units of alat)
               a(1) = (   0.996000   0.000000   0.000000 )
               a(2) = (   0.000000   0.996000   0.000000 )
               a(3) = (   0.000000   0.000000   0.996000 )

     reciprocal axes: (cart. coord. in units 2 pi/alat)
               b(1) = (  1.004016  0.000000  0.000000 )
               b(2) = (  0.000000  1.004016  0.000000 )
               b(3) = (  0.000000  0.000000  1.004016 )

     PseudoPot. # 1 for Ru read from file:
     /rds/homes/b/bxp912/pp/Ru.pbe-spn-kjpaw_psl.1.0.0.UPF
     MD5 check sum: 0ae1f594dea09af7be8575c3a481d1ae
     Pseudo is Projector augmented-wave + core cor, Zval = 16.0
     Generated using "atomic" code by A. Dal Corso  v.5.1
     Shape of augmentation charge: PSQ
     Using radial grid of 1233 points,  6 beta functions with:
                l(1) =   0
                l(2) =   0
                l(3) =   1
                l(4) =   1
                l(5) =   2
                l(6) =   2
     Q(r) pseudized with 0 coefficients

     atomic species   valence    mass     pseudopotential
        Ru            16.00   101.07000     Ru( 1.00)

     48 Sym. Ops., with inversion, found

   Cartesian axes

     site n.     atom                  positions (alat units)
         1           Ru  tau(   1) = (   0.0000000   0.0000000   0.0000000  )
         2           Ru  tau(   2) = (   0.2490000   0.2490000   0.0000000  )
         3           Ru  tau(   3) = (   0.2490000   0.0000000   0.2489995  )
         4           Ru  tau(   4) = (   0.0000000   0.2490000   0.2489995  )
         5           Ru  tau(   5) = (   0.0000000   0.0000000   0.4980000  )
         6           Ru  tau(   6) = (   0.2489990   0.2489990   0.4980000  )
         7           Ru  tau(   7) = (   0.2490000   0.0000000   0.7469995  )
         8           Ru  tau(   8) = (   0.0000000   0.2490000   0.7469995  )
         9           Ru  tau(   9) = (   0.0000000   0.4980002   0.0000000  )
        10           Ru  tau(  10) = (   0.2490000   0.7470004   0.0000000  )
        11           Ru  tau(  11) = (   0.2489990   0.4980002   0.2489984  )
        12           Ru  tau(  12) = (   0.0000000   0.7470004   0.2489995  )
        13           Ru  tau(  13) = (   0.0000000   0.4980002   0.4980000  )
        14           Ru  tau(  14) = (   0.2489990   0.7470015   0.4980000  )
        15           Ru  tau(  15) = (   0.2489990   0.4980002   0.7470005  )
        16           Ru  tau(  16) = (   0.0000000   0.7470004   0.7469995  )
        17           Ru  tau(  17) = (   0.4980002   0.0000000   0.0000000  )
        18           Ru  tau(  18) = (   0.7470004   0.2490000   0.0000000  )
        19           Ru  tau(  19) = (   0.7470004   0.0000000   0.2489995  )
        20           Ru  tau(  20) = (   0.4980002   0.2489990   0.2489984  )
        21           Ru  tau(  21) = (   0.4980002   0.0000000   0.4980000  )
        22           Ru  tau(  22) = (   0.7470015   0.2489990   0.4980000  )
        23           Ru  tau(  23) = (   0.7470004   0.0000000   0.7469995  )
        24           Ru  tau(  24) = (   0.4980002   0.2489990   0.7470005  )
        25           Ru  tau(  25) = (   0.4980002   0.4980002   0.0000000  )
        26           Ru  tau(  26) = (   0.7470004   0.7470004   0.0000000  )
        27           Ru  tau(  27) = (   0.7470015   0.4980002   0.2489984  )
        28           Ru  tau(  28) = (   0.4980002   0.7470015   0.2489984  )
        29           Ru  tau(  29) = (   0.4980002   0.4980002   0.4980000  )
        30           Ru  tau(  30) = (   0.7470015   0.7470015   0.4980000  )
        31           Ru  tau(  31) = (   0.7470015   0.4980002   0.7470005  )
        32           Ru  tau(  32) = (   0.4980002   0.7470015   0.7470005  )

     number of k points=    35  Marzari-Vanderbilt smearing, width (Ry)=  0.0400
                       cart. coord. in units 2pi/alat
        k(    1) = (   0.0557787   0.0557787   0.0557787), wk =   0.0219479
        k(    2) = (   0.0557787   0.0557787   0.1673360), wk =   0.0658436
        k(    3) = (   0.0557787   0.0557787   0.2788934), wk =   0.0658436
        k(    4) = (   0.0557787   0.0557787   0.3904507), wk =   0.0658436
        k(    5) = (   0.0557787   0.0557787  -0.5020080), wk =   0.0329218
        k(    6) = (   0.0557787   0.1673360   0.1673360), wk =   0.0658436
        k(    7) = (   0.0557787   0.1673360   0.2788934), wk =   0.1316872
        k(    8) = (   0.0557787   0.1673360   0.3904507), wk =   0.1316872
        k(    9) = (   0.0557787   0.1673360  -0.5020080), wk =   0.0658436
        k(   10) = (   0.0557787   0.2788934   0.2788934), wk =   0.0658436
        k(   11) = (   0.0557787   0.2788934   0.3904507), wk =   0.1316872
        k(   12) = (   0.0557787   0.2788934  -0.5020080), wk =   0.0658436
        k(   13) = (   0.0557787   0.3904507   0.3904507), wk =   0.0658436
        k(   14) = (   0.0557787   0.3904507  -0.5020080), wk =   0.0658436
        k(   15) = (   0.0557787  -0.5020080  -0.5020080), wk =   0.0164609
        k(   16) = (   0.1673360   0.1673360   0.1673360), wk =   0.0219479
        k(   17) = (   0.1673360   0.1673360   0.2788934), wk =   0.0658436
        k(   18) = (   0.1673360   0.1673360   0.3904507), wk =   0.0658436
        k(   19) = (   0.1673360   0.1673360  -0.5020080), wk =   0.0329218
        k(   20) = (   0.1673360   0.2788934   0.2788934), wk =   0.0658436
        k(   21) = (   0.1673360   0.2788934   0.3904507), wk =   0.1316872
        k(   22) = (   0.1673360   0.2788934  -0.5020080), wk =   0.0658436
        k(   23) = (   0.1673360   0.3904507   0.3904507), wk =   0.0658436
        k(   24) = (   0.1673360   0.3904507  -0.5020080), wk =   0.0658436
        k(   25) = (   0.1673360  -0.5020080  -0.5020080), wk =   0.0164609
        k(   26) = (   0.2788934   0.2788934   0.2788934), wk =   0.0219479
        k(   27) = (   0.2788934   0.2788934   0.3904507), wk =   0.0658436
        k(   28) = (   0.2788934   0.2788934  -0.5020080), wk =   0.0329218
        k(   29) = (   0.2788934   0.3904507   0.3904507), wk =   0.0658436
        k(   30) = (   0.2788934   0.3904507  -0.5020080), wk =   0.0658436
        k(   31) = (   0.2788934  -0.5020080  -0.5020080), wk =   0.0164609
        k(   32) = (   0.3904507   0.3904507   0.3904507), wk =   0.0219479
        k(   33) = (   0.3904507   0.3904507  -0.5020080), wk =   0.0329218
        k(   34) = (   0.3904507  -0.5020080  -0.5020080), wk =   0.0164609
        k(   35) = (  -0.5020080  -0.5020080  -0.5020080), wk =   0.0027435

     Check: negative core charge=   -0.000002

     Initial potential from superposition of free atoms

     starting charge  511.97959, renormalised to  512.00000
     Starting wfcs are  320 randomized atomic wfcs
     Checking if some PAW data can be deallocated...

     Self-consistent Calculation

     iteration #  1     ecut=    71.00 Ry     beta= 0.10
     Davidson diagonalization with overlap
     ethr =  1.00E-02,  avg # of iterations =  3.3

     Threshold (ethr) on eigenvalues was too large:
     Diagonalizing with lowered threshold

     Davidson diagonalization with overlap
     ethr =  8.43E-05,  avg # of iterations =  5.4

     total energy              =  -13813.40966349 Ry
     estimated scf accuracy    <       0.64189379 Ry

[...]

     total energy              =  -13813.29566675 Ry
     estimated scf accuracy    <       0.00000915 Ry

     iteration # 13     ecut=    71.00 Ry     beta= 0.10
     Davidson diagonalization with overlap
     ethr =  3.02E-10,  avg # of iterations =  3.2

     End of self-consistent calculation

          k = 0.0558 0.0558 0.0558 ( 29762 PWs)   bands (ev):

   -49.5869 -49.4818 -49.4818 -49.4818 -49.4615 -49.4615 -49.4615 -49.4236
   -49.4236 -49.4236 -49.4138 -49.4126 -49.4126 -49.4126 -49.4126 -49.4125
   -49.4125 -49.4119 -49.4119 -49.4119 -49.4032 -49.4032 -49.4032 -49.3555
   -49.3554 -49.3554 -49.3549 -49.3549 -49.3549 -49.3549 -49.3549 -49.3548
   -20.0114 -20.0114 -20.0114 -20.0073 -19.9459 -19.9459 -19.9459 -19.7377
   -19.7377 -19.7377 -19.7259 -19.7259 -19.7259 -19.7259 -19.7259 -19.7259
   -19.7048 -19.7048 -19.7048 -19.6810 -19.6810 -19.6810 -19.6810 -19.6810
   -19.6810 -19.6283 -19.6283 -19.6283 -19.6283 -19.6283 -19.6283 -19.5250
   -19.5250 -19.5250 -19.4488 -19.4488 -19.4488 -19.4409 -19.4409 -19.4409
   -19.4055 -19.4055 -19.4055 -19.4055 -19.4055 -19.4055 -19.3637 -19.3637
   -19.3637 -19.3564 -19.3564 -19.3564 -19.3564 -19.3564 -19.3564 -19.3500
   -19.3500 -19.3500 -19.3453 -19.3453 -19.3453 -19.1763 -19.1763 -19.1763
   -19.1757 -19.1757 -19.1757 -19.1428 -19.1428 -19.1428 -19.1426 -19.1426
   -19.1426 -19.1270 -19.1270 -19.1270 -19.1142 -19.1142 -19.1142 -19.1131
   -19.1131 -19.1131 -19.1131 -19.1131 -19.1131 -19.1109 -19.1109 -19.1109
   -19.1081 -19.1081 -19.0939 -19.0939 -19.0939 -18.9768 -18.9696 -18.9696
    15.6185  17.1382  17.1382  17.1382  17.4357  17.4535  17.4535  17.4535
    17.6124  17.6124  17.6124  17.8852  17.8852  17.8852  18.0495  18.0495
    18.0495  18.5698  18.5698  18.5698  18.5698  18.5699  18.5699  18.8879
    18.8879  18.8879  19.1655  19.1655  19.1656  19.1838  19.1838  19.1838
    19.2804  19.2804  19.2804  19.2899  19.2899  19.2899  19.2899  19.2899
    19.2899  19.7768  19.7768  19.7768  19.7768  19.7768  19.7768  19.9229
    19.9229  19.9229  19.9542  19.9542  19.9542  19.9542  19.9542  19.9542
    20.0190  20.0190  20.0190  20.2896  20.2896  20.2896  20.2896  20.2896
    20.2896  20.2914  20.2914  20.2914  20.2915  20.2915  20.2915  20.2929
    20.2929  20.2929  20.4596  20.4596  20.4597  20.7457  20.7457  20.7457
    20.7826  20.7826  20.7979  20.7979  20.7979  20.8794  20.9114  20.9114
    21.9083  21.9083  21.9083  22.0858  22.0858  22.0858  22.1248  22.1248
    22.1248  22.2272  22.2272  22.2272  22.2272  22.2272  22.2272  22.2410
    22.2410  22.2410  22.5456  22.5456  22.5456  22.6685  22.6685  22.6685
    22.9211  22.9211  22.9211  22.9973  22.9973  22.9973  22.9973  22.9973
    22.9973  23.0174  23.0174  23.0174  23.0607  23.0607  23.0607  23.2517
    23.2517  23.2517  23.2517  23.2517  23.2517  23.3154  23.3154  23.4282
    23.4282  23.4282  24.1051  24.1051  24.1051  24.1469  24.1469  24.1469
    24.2684  24.2684  24.2684  24.3475  25.1046  25.1046  25.1046  25.1469
    25.1469  25.1827  25.1827  25.1827  25.4708  25.4708  25.4708  25.4911
    25.4911  25.4911  25.6625  25.6625  25.6625  25.6625  25.6625  25.6625
    25.6675  25.6675  25.6675  27.1326  27.1326  27.1326  27.2767  27.2767
    27.2767  27.6732  27.6732

[...]

          k = 0.3905-0.5020-0.5020 ( 29828 PWs)   bands (ev):

[...]

          k =-0.5020-0.5020-0.5020 ( 29824 PWs)   bands (ev):

   -49.5012 -49.5010 -49.5010 -49.5010 -49.5008 -49.5008 -49.5008 -49.5006
   -49.3842 -49.3841 -49.3840 -49.3840 -49.3840 -49.3840 -49.3840 -49.3839
   -49.3839 -49.3839 -49.3838 -49.3838 -49.3838 -49.3838 -49.3837 -49.3837
   -49.3836 -49.3836 -49.3836 -49.3836 -49.3836 -49.3835 -49.3835 -49.3834
   -19.8361 -19.8361 -19.8361 -19.8361 -19.8360 -19.8360 -19.8360 -19.8360
   -19.8360 -19.8360 -19.8360 -19.8359 -19.8359 -19.8358 -19.8358 -19.8358
   -19.8358 -19.8358 -19.8358 -19.8357 -19.8357 -19.8357 -19.8357 -19.8357
   -19.5032 -19.5031 -19.5031 -19.5031 -19.5031 -19.5030 -19.5030 -19.5030
   -19.3860 -19.3859 -19.3859 -19.3859 -19.3859 -19.3859 -19.3859 -19.3858
   -19.3858 -19.3858 -19.3858 -19.3858 -19.3858 -19.3858 -19.3858 -19.3858
   -19.3858 -19.3857 -19.3857 -19.3857 -19.3857 -19.3857 -19.3857 -19.3857
   -19.2294 -19.2294 -19.2294 -19.2293 -19.2293 -19.2293 -19.2293 -19.2293
   -19.2293 -19.2293 -19.2293 -19.2293 -19.2292 -19.2292 -19.2292 -19.2291
   -19.2291 -19.2291 -19.2291 -19.2291 -19.2291 -19.2291 -19.2291 -19.2290
   -19.0394 -19.0394 -19.0394 -19.0393 -19.0393 -19.0393 -19.0393 -19.0393
   -19.0391 -19.0391 -19.0391 -19.0391 -19.0391 -19.0391 -19.0391 -19.0391
    17.4246  17.4247  17.4247  17.4248  17.4249  17.4249  17.4249  17.4251
    18.2560  18.2560  18.2560  18.2560  18.2560  18.2560  18.2560  18.2561
    18.2561  18.2561  18.2561  18.2561  18.2562  18.2562  18.2562  18.2562
    18.2562  18.2562  18.2562  18.2562  18.2562  18.2562  18.2562  18.2562
    19.3014  19.3014  19.3015  19.3015  19.3015  19.3015  19.3015  19.3015
    19.3015  19.3016  19.3016  19.3016  19.3016  19.3017  19.3017  19.3017
    19.3017  19.3017  19.3017  19.3017  19.3018  19.3018  19.3018  19.3018
    20.6534  20.6534  20.6534  20.6534  20.6534  20.6534  20.6534  20.6534
    21.2951  21.2951  21.2951  21.2951  21.2951  21.2951  21.2952  21.2952
    21.2952  21.2952  21.2953  21.2953  21.2953  21.2953  21.2953  21.2953
    21.4154  21.4154  21.4154  21.4154  21.4154  21.4154  21.4155  21.4155
    21.4155  21.4155  21.4155  21.4155  21.4155  21.4155  21.4155  21.4156
    21.4156  21.4156  21.4156  21.4156  21.4156  21.4156  21.4156  21.4156
    22.6428  22.6429  22.6429  22.6429  22.6429  22.6429  22.6430  22.6430
    22.6430  22.6430  22.6430  22.6430  22.6430  22.6431  22.6431  22.6431
    22.6431  22.6431  22.6431  22.6431  22.6431  22.6431  22.6432  22.6432
    23.4910  23.4910  23.4911  23.4911  23.4911  23.4911  23.4912  23.4912
    23.4912  23.4912  23.4912  23.4913  23.4913  23.4913  23.4913  23.4914
    25.3258  25.3258  25.3258  25.3258  25.3258  25.3258  25.3258  25.3258
    25.3259  25.3259  25.3259  25.3259  25.3259  25.3259  25.3260  25.3260
    25.3260  25.3260  25.3260  25.3260  25.3260  25.3260  25.3260  25.3260
    28.7447  28.7448  28.7448  28.7448  28.7448  28.7449  28.7449  28.7449
    28.7449  28.7449  28.7450

     the Fermi energy is    23.4576 ev

!    total energy              =  -13813.29566983 Ry

     total all-electron energy =   -289989.686009 Ry
     estimated scf accuracy    <       0.00000013 Ry
     smearing contrib. (-TS)   =       0.02139076 Ry
     internal energy E=F+TS    =  -13813.31706059 Ry

     The total energy is F=E-TS. E is the sum of the following terms:
     one-electron contribution =    -965.00269573 Ry
     hartree contribution      =     906.92052524 Ry
     xc contribution           =    -928.54004628 Ry
     ewald contribution        =   -5237.23448111 Ry
     one-center paw contrib.   =   -7589.46036272 Ry

     convergence has been achieved in  13 iterations

     Forces acting on atoms (cartesian axes, Ry/au):

     atom    1 type  1   force =     0.00000000    0.00000000    0.00000000
     atom    2 type  1   force =    -0.00000121   -0.00000121    0.00000000
     atom    3 type  1   force =    -0.00000121    0.00000000   -0.00000121
     atom    4 type  1   force =     0.00000000   -0.00000121   -0.00000121
     atom    5 type  1   force =     0.00000000    0.00000000    0.00000000
     atom    6 type  1   force =    -0.00000219   -0.00000219    0.00000000
     atom    7 type  1   force =    -0.00000121   -0.00000000    0.00000121
     atom    8 type  1   force =     0.00000000   -0.00000121    0.00000121
     atom    9 type  1   force =     0.00000000    0.00000000    0.00000000
     atom   10 type  1   force =    -0.00000121    0.00000121   -0.00000000
     atom   11 type  1   force =    -0.00000219    0.00000000   -0.00000219
     atom   12 type  1   force =    -0.00000000    0.00000121   -0.00000121
     atom   13 type  1   force =     0.00000000    0.00000000    0.00000000
     atom   14 type  1   force =    -0.00000219    0.00000219    0.00000000
     atom   15 type  1   force =    -0.00000219    0.00000000    0.00000219
     atom   16 type  1   force =    -0.00000000    0.00000121    0.00000121
     atom   17 type  1   force =     0.00000000    0.00000000    0.00000000
     atom   18 type  1   force =     0.00000121   -0.00000121   -0.00000000
     atom   19 type  1   force =     0.00000121    0.00000000   -0.00000121
     atom   20 type  1   force =     0.00000000   -0.00000219   -0.00000219
     atom   21 type  1   force =     0.00000000    0.00000000    0.00000000
     atom   22 type  1   force =     0.00000219   -0.00000219    0.00000000
     atom   23 type  1   force =     0.00000121   -0.00000000    0.00000121
     atom   24 type  1   force =     0.00000000   -0.00000219    0.00000219
     atom   25 type  1   force =     0.00000000    0.00000000    0.00000000
     atom   26 type  1   force =     0.00000121    0.00000121    0.00000000
     atom   27 type  1   force =     0.00000219    0.00000000   -0.00000219
     atom   28 type  1   force =     0.00000000    0.00000219   -0.00000219
     atom   29 type  1   force =     0.00000000    0.00000000    0.00000000
     atom   30 type  1   force =     0.00000219    0.00000219    0.00000000
     atom   31 type  1   force =     0.00000219    0.00000000    0.00000219
     atom   32 type  1   force =     0.00000000    0.00000219    0.00000219

     Total force =     0.000012     Total SCF correction =     0.000162
     SCF correction compared to forces is large: reduce conv_thr to get better values

     Computing stress (Cartesian axis) and pressure

          total   stress  (Ry/bohr**3)                   (kbar)     P=       34.25
   0.00023281   0.00000000   0.00000000           34.25        0.00        0.00
   0.00000000   0.00023281   0.00000000            0.00       34.25        0.00
   0.00000000   0.00000000   0.00023281            0.00        0.00       34.25

     Writing output data file /scratch/FkElRBWJrqWtYvQL.save/

     General routines

     Parallel routines

   This run was terminated on:  12: 6: 2  23Nov2021

   JOB DONE.