     Program PWSCF v.6.7MaX starts on 23Nov2021 at 11:44:17

     R & G space division:  proc/nbgrp/npool/nimage =      72
     Reading input from /rds/homes/b/bxp912/jobs/20211014_ru_eos/wd/eos/eos_001.in
Warning: card &CELL ignored
Warning: card CELL_DYNAMICS = 'BFGS', ignored
Warning: card CELL_FACTOR = 2.0, ignored
Warning: card PRESS = 0.0, ignored
Warning: card / ignored

     Current dimensions of program PWSCF are:
     Max number of different atomic species (ntypx) = 10
     Max number of k-points (npk) =  40000
     Max angular momentum in pseudopotentials (lmaxx) =  3
     file Ru.pbe-spn-kjpaw_psl.1.0.0.UPF: wavefunction(s)  4D renormalized

     Subspace diagonalization in iterative solution of the eigenvalue problem:
     one sub-group per band group will be used

     Found symmetry operation: I + (  0.2500  0.2500  0.0000)
     This is a supercell, fractional translations are disabled
     Message from routine setup:
     using ibrav=0 with symmetry is DISCOURAGED, use correct ibrav instead

     bravais-lattice index     =            0
     lattice parameter (alat)  =      14.4007  a.u.
     unit-cell volume          =    2941.8723 (a.u.)^3
     number of atoms/cell      =           32
     number of atomic types    =            1
     number of electrons       =       512.00
     number of Kohn-Sham states=          307
     kinetic-energy cutoff     =      71.0000  Ry
     charge density cutoff     =     430.0000  Ry
     scf convergence threshold =      1.0E-06
     mixing beta               =       0.1000
     number of iterations used =           10  plain     mixing
     Exchange-correlation= SLA  PW   PBX  PBC
                           (   1   4   3   4   0   0   0)

     celldm(1)=  14.400742  celldm(2)=   0.000000  celldm(3)=   0.000000
     celldm(4)=   0.000000  celldm(5)=   0.000000  celldm(6)=   0.000000

     crystal axes: (cart. coord. in units of alat)
               a(1) = (   0.995000   0.000000   0.000000 )
               a(2) = (   0.000000   0.995000   0.000000 )
               a(3) = (   0.000000   0.000000   0.995000 )

     reciprocal axes: (cart. coord. in units 2 pi/alat)
               b(1) = (  1.005025  0.000000  0.000000 )
               b(2) = (  0.000000  1.005025  0.000000 )
               b(3) = (  0.000000  0.000000  1.005025 )

     PseudoPot. # 1 for Ru read from file:
     /rds/homes/b/bxp912/pp/Ru.pbe-spn-kjpaw_psl.1.0.0.UPF
     MD5 check sum: 0ae1f594dea09af7be8575c3a481d1ae
     Pseudo is Projector augmented-wave + core cor, Zval = 16.0
     Generated using "atomic" code by A. Dal Corso  v.5.1
     Shape of augmentation charge: PSQ
     Using radial grid of 1233 points,  6 beta functions with:
                l(1) =   0
                l(2) =   0
                l(3) =   1
                l(4) =   1
                l(5) =   2
                l(6) =   2
     Q(r) pseudized with 0 coefficients

     atomic species   valence    mass     pseudopotential
        Ru            16.00   101.07000     Ru( 1.00)

     48 Sym. Ops., with inversion, found

   Cartesian axes

     site n.     atom                  positions (alat units)
         1           Ru  tau(   1) = (   0.0000000   0.0000000   0.0000000  )
         2           Ru  tau(   2) = (   0.2487500   0.2487500   0.0000000  )
         3           Ru  tau(   3) = (   0.2487500   0.0000000   0.2487495  )
         4           Ru  tau(   4) = (   0.0000000   0.2487500   0.2487495  )
         5           Ru  tau(   5) = (   0.0000000   0.0000000   0.4975000  )
         6           Ru  tau(   6) = (   0.2487490   0.2487490   0.4975000  )
         7           Ru  tau(   7) = (   0.2487500   0.0000000   0.7462495  )
         8           Ru  tau(   8) = (   0.0000000   0.2487500   0.7462495  )
         9           Ru  tau(   9) = (   0.0000000   0.4975002   0.0000000  )
        10           Ru  tau(  10) = (   0.2487500   0.7462504   0.0000000  )
        11           Ru  tau(  11) = (   0.2487490   0.4975002   0.2487484  )
        12           Ru  tau(  12) = (   0.0000000   0.7462504   0.2487495  )
        13           Ru  tau(  13) = (   0.0000000   0.4975002   0.4975000  )
        14           Ru  tau(  14) = (   0.2487490   0.7462515   0.4975000  )
        15           Ru  tau(  15) = (   0.2487490   0.4975002   0.7462505  )
        16           Ru  tau(  16) = (   0.0000000   0.7462504   0.7462495  )
        17           Ru  tau(  17) = (   0.4975002   0.0000000   0.0000000  )
        18           Ru  tau(  18) = (   0.7462504   0.2487500   0.0000000  )
        19           Ru  tau(  19) = (   0.7462504   0.0000000   0.2487495  )
        20           Ru  tau(  20) = (   0.4975002   0.2487490   0.2487484  )
        21           Ru  tau(  21) = (   0.4975002   0.0000000   0.4975000  )
        22           Ru  tau(  22) = (   0.7462515   0.2487490   0.4975000  )
        23           Ru  tau(  23) = (   0.7462504   0.0000000   0.7462495  )
        24           Ru  tau(  24) = (   0.4975002   0.2487490   0.7462505  )
        25           Ru  tau(  25) = (   0.4975002   0.4975002   0.0000000  )
        26           Ru  tau(  26) = (   0.7462504   0.7462504   0.0000000  )
        27           Ru  tau(  27) = (   0.7462515   0.4975002   0.2487484  )
        28           Ru  tau(  28) = (   0.4975002   0.7462515   0.2487484  )
        29           Ru  tau(  29) = (   0.4975002   0.4975002   0.4975000  )
        30           Ru  tau(  30) = (   0.7462515   0.7462515   0.4975000  )
        31           Ru  tau(  31) = (   0.7462515   0.4975002   0.7462505  )
        32           Ru  tau(  32) = (   0.4975002   0.7462515   0.7462505  )

     number of k points=    35  Marzari-Vanderbilt smearing, width (Ry)=  0.0400
                       cart. coord. in units 2pi/alat
        k(    1) = (   0.0558347   0.0558347   0.0558347), wk =   0.0219479
        k(    2) = (   0.0558347   0.0558347   0.1675042), wk =   0.0658436
        k(    3) = (   0.0558347   0.0558347   0.2791736), wk =   0.0658436
        k(    4) = (   0.0558347   0.0558347   0.3908431), wk =   0.0658436
        k(    5) = (   0.0558347   0.0558347  -0.5025126), wk =   0.0329218
        k(    6) = (   0.0558347   0.1675042   0.1675042), wk =   0.0658436
        k(    7) = (   0.0558347   0.1675042   0.2791736), wk =   0.1316872
        k(    8) = (   0.0558347   0.1675042   0.3908431), wk =   0.1316872
        k(    9) = (   0.0558347   0.1675042  -0.5025126), wk =   0.0658436
        k(   10) = (   0.0558347   0.2791736   0.2791736), wk =   0.0658436
        k(   11) = (   0.0558347   0.2791736   0.3908431), wk =   0.1316872
        k(   12) = (   0.0558347   0.2791736  -0.5025126), wk =   0.0658436
        k(   13) = (   0.0558347   0.3908431   0.3908431), wk =   0.0658436
        k(   14) = (   0.0558347   0.3908431  -0.5025126), wk =   0.0658436
        k(   15) = (   0.0558347  -0.5025126  -0.5025126), wk =   0.0164609
        k(   16) = (   0.1675042   0.1675042   0.1675042), wk =   0.0219479
        k(   17) = (   0.1675042   0.1675042   0.2791736), wk =   0.0658436
        k(   18) = (   0.1675042   0.1675042   0.3908431), wk =   0.0658436
        k(   19) = (   0.1675042   0.1675042  -0.5025126), wk =   0.0329218
        k(   20) = (   0.1675042   0.2791736   0.2791736), wk =   0.0658436
        k(   21) = (   0.1675042   0.2791736   0.3908431), wk =   0.1316872
        k(   22) = (   0.1675042   0.2791736  -0.5025126), wk =   0.0658436
        k(   23) = (   0.1675042   0.3908431   0.3908431), wk =   0.0658436
        k(   24) = (   0.1675042   0.3908431  -0.5025126), wk =   0.0658436
        k(   25) = (   0.1675042  -0.5025126  -0.5025126), wk =   0.0164609
        k(   26) = (   0.2791736   0.2791736   0.2791736), wk =   0.0219479
        k(   27) = (   0.2791736   0.2791736   0.3908431), wk =   0.0658436
        k(   28) = (   0.2791736   0.2791736  -0.5025126), wk =   0.0329218
        k(   29) = (   0.2791736   0.3908431   0.3908431), wk =   0.0658436
        k(   30) = (   0.2791736   0.3908431  -0.5025126), wk =   0.0658436
        k(   31) = (   0.2791736  -0.5025126  -0.5025126), wk =   0.0164609
        k(   32) = (   0.3908431   0.3908431   0.3908431), wk =   0.0219479
        k(   33) = (   0.3908431   0.3908431  -0.5025126), wk =   0.0329218
        k(   34) = (   0.3908431  -0.5025126  -0.5025126), wk =   0.0164609
        k(   35) = (  -0.5025126  -0.5025126  -0.5025126), wk =   0.0027435

     Check: negative core charge=   -0.000002

     Initial potential from superposition of free atoms

     starting charge  511.97959, renormalised to  512.00000
     Starting wfcs are  320 randomized atomic wfcs
     Checking if some PAW data can be deallocated...

     Self-consistent Calculation

     iteration #  1     ecut=    71.00 Ry     beta= 0.10
     Davidson diagonalization with overlap
     ethr =  1.00E-02,  avg # of iterations =  3.5

     Threshold (ethr) on eigenvalues was too large:
     Diagonalizing with lowered threshold

     Davidson diagonalization with overlap
     ethr =  8.44E-05,  avg # of iterations =  5.4

     total energy              =  -13813.40736267 Ry
     estimated scf accuracy    <       0.64266115 Ry

[...]

     iteration #  4     ecut=    71.00 Ry     beta= 0.10
     Davidson diagonalization with overlap
     c_bands:  1 eigenvalues not converged
     ethr =  1.97E-06,  avg # of iterations =  3.5

[...]

     total energy              =  -13813.29290143 Ry
     estimated scf accuracy    <       0.00000860 Ry

     iteration # 13     ecut=    71.00 Ry     beta= 0.10
     Davidson diagonalization with overlap
     ethr =  3.00E-10,  avg # of iterations =  3.2

     End of self-consistent calculation

          k = 0.0558 0.0558 0.0558 ( 29681 PWs)   bands (ev):

   -49.5059 -49.3995 -49.3995 -49.3995 -49.3790 -49.3789 -49.3789 -49.3406
   -49.3406 -49.3406 -49.3306 -49.3294 -49.3294 -49.3294 -49.3294 -49.3294
   -49.3294 -49.3287 -49.3287 -49.3286 -49.3199 -49.3199 -49.3199 -49.2716
   -49.2715 -49.2715 -49.2710 -49.2710 -49.2710 -49.2710 -49.2709 -49.2709
   -19.9355 -19.9355 -19.9355 -19.9314 -19.8693 -19.8693 -19.8693 -19.6591
   -19.6591 -19.6591 -19.6472 -19.6472 -19.6472 -19.6472 -19.6472 -19.6472
   -19.6259 -19.6259 -19.6259 -19.6017 -19.6017 -19.6017 -19.6017 -19.6017
   -19.6017 -19.5485 -19.5485 -19.5485 -19.5485 -19.5485 -19.5485 -19.4443
   -19.4443 -19.4443 -19.3673 -19.3673 -19.3672 -19.3594 -19.3594 -19.3594
   -19.3236 -19.3236 -19.3236 -19.3236 -19.3236 -19.3236 -19.2813 -19.2813
   -19.2813 -19.2739 -19.2739 -19.2739 -19.2739 -19.2739 -19.2739 -19.2674
   -19.2674 -19.2674 -19.2626 -19.2626 -19.2626 -19.0919 -19.0919 -19.0919
   -19.0914 -19.0914 -19.0914 -19.0581 -19.0581 -19.0581 -19.0580 -19.0580
   -19.0580 -19.0422 -19.0422 -19.0422 -19.0292 -19.0292 -19.0292 -19.0281
   -19.0281 -19.0281 -19.0281 -19.0281 -19.0281 -19.0258 -19.0258 -19.0258
   -19.0230 -19.0230 -19.0087 -19.0087 -19.0087 -18.8905 -18.8832 -18.8832
    15.6879  17.1981  17.1981  17.1981  17.5000  17.5178  17.5178  17.5178
    17.6736  17.6736  17.6736  17.9578  17.9578  17.9578  18.1203  18.1203
    18.1203  18.6353  18.6354  18.6354  18.6354  18.6354  18.6354  18.9540
    18.9540  18.9540  19.2328  19.2328  19.2328  19.2573  19.2573  19.2573
    19.3516  19.3516  19.3517  19.3626  19.3626  19.3626  19.3626  19.3626
    19.3626  19.8486  19.8486  19.8486  19.8486  19.8486  19.8487  19.9952
    19.9952  19.9952  20.0263  20.0263  20.0263  20.0263  20.0263  20.0263
    20.0913  20.0913  20.0913  20.3635  20.3635  20.3635  20.3635  20.3635
    20.3635  20.3656  20.3656  20.3656  20.3656  20.3656  20.3656  20.3679
    20.3679  20.3679  20.5335  20.5335  20.5335  20.8199  20.8199  20.8199
    20.8570  20.8570  20.8724  20.8724  20.8724  20.9546  20.9867  20.9867
    21.9889  21.9889  21.9889  22.1682  22.1682  22.1683  22.2050  22.2050
    22.2050  22.3079  22.3079  22.3079  22.3079  22.3079  22.3079  22.3217
    22.3218  22.3218  22.6283  22.6283  22.6283  22.7519  22.7519  22.7519
    23.0055  23.0055  23.0055  23.0813  23.0813  23.0813  23.0813  23.0813
    23.0814  23.1018  23.1018  23.1018  23.1460  23.1460  23.1460  23.3372
    23.3372  23.3372  23.3372  23.3372  23.3372  23.4020  23.4020  23.5146
    23.5146  23.5146  24.1954  24.1954  24.1954  24.2361  24.2361  24.2361
    24.3595  24.3595  24.3595  24.4367  25.1999  25.1999  25.1999  25.2423
    25.2423  25.2783  25.2783  25.2783  25.5675  25.5675  25.5675  25.5867
    25.5867  25.5867  25.7604  25.7604  25.7604  25.7605  25.7605  25.7605
    25.7656  25.7656  25.7656  27.2362  27.2362  27.2362  27.3752  27.3752
    27.3752  27.7784  27.7784

[...]

          k = 0.3908-0.5025-0.5025 ( 29692 PWs)   bands (ev):

[...]

          k =-0.5025-0.5025-0.5025 ( 29824 PWs)   bands (ev):

   -49.4192 -49.4190 -49.4190 -49.4190 -49.4188 -49.4188 -49.4188 -49.4186
   -49.3006 -49.3005 -49.3005 -49.3004 -49.3004 -49.3004 -49.3004 -49.3004
   -49.3003 -49.3003 -49.3003 -49.3002 -49.3002 -49.3002 -49.3002 -49.3002
   -49.3001 -49.3001 -49.3000 -49.3000 -49.3000 -49.3000 -49.2999 -49.2998
   -19.7585 -19.7585 -19.7585 -19.7585 -19.7584 -19.7584 -19.7584 -19.7584
   -19.7584 -19.7584 -19.7583 -19.7583 -19.7583 -19.7582 -19.7582 -19.7582
   -19.7582 -19.7581 -19.7581 -19.7581 -19.7581 -19.7581 -19.7581 -19.7581
   -19.4223 -19.4222 -19.4222 -19.4222 -19.4222 -19.4222 -19.4222 -19.4221
   -19.3038 -19.3038 -19.3037 -19.3037 -19.3037 -19.3037 -19.3037 -19.3037
   -19.3037 -19.3036 -19.3036 -19.3036 -19.3036 -19.3036 -19.3036 -19.3036
   -19.3036 -19.3036 -19.3036 -19.3036 -19.3035 -19.3035 -19.3035 -19.3035
   -19.1456 -19.1456 -19.1455 -19.1455 -19.1455 -19.1455 -19.1455 -19.1455
   -19.1455 -19.1455 -19.1454 -19.1454 -19.1454 -19.1454 -19.1453 -19.1453
   -19.1453 -19.1453 -19.1453 -19.1453 -19.1453 -19.1452 -19.1452 -19.1452
   -18.9537 -18.9537 -18.9537 -18.9536 -18.9536 -18.9536 -18.9536 -18.9536
   -18.9535 -18.9534 -18.9534 -18.9534 -18.9534 -18.9534 -18.9534 -18.9534
    17.4957  17.4959  17.4959  17.4959  17.4961  17.4961  17.4961  17.4962
    18.3212  18.3212  18.3212  18.3212  18.3212  18.3212  18.3212  18.3212
    18.3212  18.3212  18.3212  18.3212  18.3213  18.3213  18.3214  18.3214
    18.3214  18.3214  18.3214  18.3214  18.3214  18.3214  18.3214  18.3214
    19.3706  19.3707  19.3707  19.3707  19.3707  19.3707  19.3707  19.3707
    19.3708  19.3708  19.3708  19.3708  19.3709  19.3709  19.3709  19.3709
    19.3709  19.3709  19.3709  19.3709  19.3710  19.3710  19.3710  19.3710
    20.7299  20.7299  20.7299  20.7299  20.7299  20.7299  20.7299  20.7300
    21.3720  21.3720  21.3720  21.3720  21.3720  21.3720  21.3721  21.3721
    21.3721  21.3721  21.3721  21.3722  21.3722  21.3722  21.3722  21.3722
    21.4950  21.4950  21.4950  21.4951  21.4951  21.4951  21.4951  21.4951
    21.4951  21.4951  21.4952  21.4952  21.4952  21.4952  21.4952  21.4952
    21.4952  21.4952  21.4952  21.4952  21.4952  21.4953  21.4953  21.4953
    22.7256  22.7257  22.7257  22.7257  22.7257  22.7257  22.7257  22.7258
    22.7258  22.7258  22.7258  22.7258  22.7258  22.7258  22.7258  22.7259
    22.7259  22.7259  22.7259  22.7259  22.7259  22.7259  22.7260  22.7260
    23.5779  23.5779  23.5780  23.5780  23.5780  23.5780  23.5780  23.5781
    23.5781  23.5781  23.5781  23.5781  23.5782  23.5782  23.5782  23.5782
    25.4221  25.4221  25.4221  25.4221  25.4221  25.4221  25.4222  25.4222
    25.4222  25.4222  25.4222  25.4222  25.4222  25.4223  25.4223  25.4223
    25.4223  25.4223  25.4223  25.4223  25.4223  25.4223  25.4223  25.4223
    28.8508  28.8508  28.8508  28.8509  28.8509  28.8509  28.8510  28.8510
    28.8510  28.8510  28.8511

     the Fermi energy is    23.5443 ev

!    total energy              =  -13813.29290441 Ry

     total all-electron energy =   -289989.683244 Ry
     estimated scf accuracy    <       0.00000012 Ry
     smearing contrib. (-TS)   =       0.02162665 Ry
     internal energy E=F+TS    =  -13813.31453106 Ry

     The total energy is F=E-TS. E is the sum of the following terms:
     one-electron contribution =    -957.33610957 Ry
     hartree contribution      =     904.64429186 Ry
     xc contribution           =    -928.65987973 Ry
     ewald contribution        =   -5242.49803335 Ry
     one-center paw contrib.   =   -7589.46480027 Ry

     convergence has been achieved in  13 iterations

     Forces acting on atoms (cartesian axes, Ry/au):

     atom    1 type  1   force =     0.00000000    0.00000000    0.00000000
     atom    2 type  1   force =    -0.00000156   -0.00000156   -0.00000000
     atom    3 type  1   force =    -0.00000156    0.00000000   -0.00000156
     atom    4 type  1   force =     0.00000000   -0.00000156   -0.00000156
     atom    5 type  1   force =     0.00000000    0.00000000    0.00000000
     atom    6 type  1   force =    -0.00000246   -0.00000246   -0.00000000
     atom    7 type  1   force =    -0.00000156   -0.00000000    0.00000156
     atom    8 type  1   force =     0.00000000   -0.00000156    0.00000156
     atom    9 type  1   force =     0.00000000    0.00000000    0.00000000
     atom   10 type  1   force =    -0.00000156    0.00000156    0.00000000
     atom   11 type  1   force =    -0.00000246    0.00000000   -0.00000246
     atom   12 type  1   force =    -0.00000000    0.00000156   -0.00000156
     atom   13 type  1   force =     0.00000000    0.00000000    0.00000000
     atom   14 type  1   force =    -0.00000246    0.00000246   -0.00000000
     atom   15 type  1   force =    -0.00000246    0.00000000    0.00000246
     atom   16 type  1   force =    -0.00000000    0.00000156    0.00000156
     atom   17 type  1   force =     0.00000000    0.00000000    0.00000000
     atom   18 type  1   force =     0.00000156   -0.00000156    0.00000000
     atom   19 type  1   force =     0.00000156    0.00000000   -0.00000156
     atom   20 type  1   force =    -0.00000000   -0.00000246   -0.00000246
     atom   21 type  1   force =     0.00000000    0.00000000    0.00000000
     atom   22 type  1   force =     0.00000246   -0.00000246   -0.00000000
     atom   23 type  1   force =     0.00000156    0.00000000    0.00000156
     atom   24 type  1   force =    -0.00000000   -0.00000246    0.00000246
     atom   25 type  1   force =     0.00000000    0.00000000    0.00000000
     atom   26 type  1   force =     0.00000156    0.00000156   -0.00000000
     atom   27 type  1   force =     0.00000246    0.00000000   -0.00000246
     atom   28 type  1   force =     0.00000000    0.00000246   -0.00000246
     atom   29 type  1   force =     0.00000000    0.00000000    0.00000000
     atom   30 type  1   force =     0.00000246    0.00000246   -0.00000000
     atom   31 type  1   force =     0.00000246    0.00000000    0.00000246
     atom   32 type  1   force =    -0.00000000    0.00000246    0.00000246

     Total force =     0.000014     Total SCF correction =     0.000177
     SCF correction compared to forces is large: reduce conv_thr to get better values

     Computing stress (Cartesian axis) and pressure

          total   stress  (Ry/bohr**3)                   (kbar)     P=       44.11
   0.00029984   0.00000000   0.00000000           44.11        0.00        0.00
   0.00000000   0.00029984   0.00000000            0.00       44.11        0.00
   0.00000000   0.00000000   0.00029984            0.00        0.00       44.11

     Writing output data file /scratch/xjoYKskYDeobkKdQ.save/

     General routines

     Parallel routines

   This run was terminated on:  11:54:51  23Nov2021

   JOB DONE.