     Program PWSCF v.6.7MaX starts on 23Nov2021 at 13:35:23

     R & G space division:  proc/nbgrp/npool/nimage =      72
     Reading input from /rds/homes/b/bxp912/jobs/20211014_ru_eos/wd/eos/eos_011.in
Warning: card &CELL ignored
Warning: card CELL_DYNAMICS = 'BFGS', ignored
Warning: card CELL_FACTOR = 2.0, ignored
Warning: card PRESS = 0.0, ignored
Warning: card / ignored

     Current dimensions of program PWSCF are:
     Max number of different atomic species (ntypx) = 10
     Max number of k-points (npk) =  40000
     Max angular momentum in pseudopotentials (lmaxx) =  3
     file Ru.pbe-spn-kjpaw_psl.1.0.0.UPF: wavefunction(s)  4D renormalized

     Subspace diagonalization in iterative solution of the eigenvalue problem:
     one sub-group per band group will be used

     Found symmetry operation: I + (  0.2500  0.2500  0.0000)
     This is a supercell, fractional translations are disabled
     Message from routine setup:
     using ibrav=0 with symmetry is DISCOURAGED, use correct ibrav instead

     bravais-lattice index     =            0
     lattice parameter (alat)  =      14.4007  a.u.
     unit-cell volume          =    3031.4664 (a.u.)^3
     number of atoms/cell      =           32
     number of atomic types    =            1
     number of electrons       =       512.00
     number of Kohn-Sham states=          307
     kinetic-energy cutoff     =      71.0000  Ry
     charge density cutoff     =     430.0000  Ry
     scf convergence threshold =      1.0E-06
     mixing beta               =       0.1000
     number of iterations used =           10  plain     mixing
     Exchange-correlation= SLA  PW   PBX  PBC
                           (   1   4   3   4   0   0   0)

     celldm(1)=  14.400742  celldm(2)=   0.000000  celldm(3)=   0.000000
     celldm(4)=   0.000000  celldm(5)=   0.000000  celldm(6)=   0.000000

     crystal axes: (cart. coord. in units of alat)
               a(1) = (   1.005000   0.000000   0.000000 )
               a(2) = (   0.000000   1.005000   0.000000 )
               a(3) = (   0.000000   0.000000   1.005000 )

     reciprocal axes: (cart. coord. in units 2 pi/alat)
               b(1) = (  0.995025  0.000000  0.000000 )
               b(2) = (  0.000000  0.995025  0.000000 )
               b(3) = (  0.000000  0.000000  0.995025 )

     PseudoPot. # 1 for Ru read from file:
     /rds/homes/b/bxp912/pp/Ru.pbe-spn-kjpaw_psl.1.0.0.UPF
     MD5 check sum: 0ae1f594dea09af7be8575c3a481d1ae
     Pseudo is Projector augmented-wave + core cor, Zval = 16.0
     Generated using "atomic" code by A. Dal Corso  v.5.1
     Shape of augmentation charge: PSQ
     Using radial grid of 1233 points,  6 beta functions with:
                l(1) =   0
                l(2) =   0
                l(3) =   1
                l(4) =   1
                l(5) =   2
                l(6) =   2
     Q(r) pseudized with 0 coefficients

     atomic species   valence    mass     pseudopotential
        Ru            16.00   101.07000     Ru( 1.00)

     48 Sym. Ops., with inversion, found

   Cartesian axes

     site n.     atom                  positions (alat units)
         1           Ru  tau(   1) = (   0.0000000   0.0000000   0.0000000  )
         2           Ru  tau(   2) = (   0.2512500   0.2512500   0.0000000  )
         3           Ru  tau(   3) = (   0.2512500   0.0000000   0.2512495  )
         4           Ru  tau(   4) = (   0.0000000   0.2512500   0.2512495  )
         5           Ru  tau(   5) = (   0.0000000   0.0000000   0.5025000  )
         6           Ru  tau(   6) = (   0.2512489   0.2512489   0.5025000  )
         7           Ru  tau(   7) = (   0.2512500   0.0000000   0.7537495  )
         8           Ru  tau(   8) = (   0.0000000   0.2512500   0.7537495  )
         9           Ru  tau(   9) = (   0.0000000   0.5025002   0.0000000  )
        10           Ru  tau(  10) = (   0.2512500   0.7537504   0.0000000  )
        11           Ru  tau(  11) = (   0.2512489   0.5025002   0.2512484  )
        12           Ru  tau(  12) = (   0.0000000   0.7537504   0.2512495  )
        13           Ru  tau(  13) = (   0.0000000   0.5025002   0.5025000  )
        14           Ru  tau(  14) = (   0.2512489   0.7537515   0.5025000  )
        15           Ru  tau(  15) = (   0.2512489   0.5025002   0.7537505  )
        16           Ru  tau(  16) = (   0.0000000   0.7537504   0.7537495  )
        17           Ru  tau(  17) = (   0.5025002   0.0000000   0.0000000  )
        18           Ru  tau(  18) = (   0.7537504   0.2512500   0.0000000  )
        19           Ru  tau(  19) = (   0.7537504   0.0000000   0.2512495  )
        20           Ru  tau(  20) = (   0.5025002   0.2512489   0.2512484  )
        21           Ru  tau(  21) = (   0.5025002   0.0000000   0.5025000  )
        22           Ru  tau(  22) = (   0.7537515   0.2512489   0.5025000  )
        23           Ru  tau(  23) = (   0.7537504   0.0000000   0.7537495  )
        24           Ru  tau(  24) = (   0.5025002   0.2512489   0.7537505  )
        25           Ru  tau(  25) = (   0.5025002   0.5025002   0.0000000  )
        26           Ru  tau(  26) = (   0.7537504   0.7537504   0.0000000  )
        27           Ru  tau(  27) = (   0.7537515   0.5025002   0.2512484  )
        28           Ru  tau(  28) = (   0.5025002   0.7537515   0.2512484  )
        29           Ru  tau(  29) = (   0.5025002   0.5025002   0.5025000  )
        30           Ru  tau(  30) = (   0.7537515   0.7537515   0.5025000  )
        31           Ru  tau(  31) = (   0.7537515   0.5025002   0.7537505  )
        32           Ru  tau(  32) = (   0.5025002   0.7537515   0.7537505  )

     number of k points=    35  Marzari-Vanderbilt smearing, width (Ry)=  0.0400
                       cart. coord. in units 2pi/alat
        k(    1) = (   0.0552792   0.0552792   0.0552792), wk =   0.0219479
        k(    2) = (   0.0552792   0.0552792   0.1658375), wk =   0.0658436
        k(    3) = (   0.0552792   0.0552792   0.2763958), wk =   0.0658436
        k(    4) = (   0.0552792   0.0552792   0.3869541), wk =   0.0658436
        k(    5) = (   0.0552792   0.0552792  -0.4975124), wk =   0.0329218
        k(    6) = (   0.0552792   0.1658375   0.1658375), wk =   0.0658436
        k(    7) = (   0.0552792   0.1658375   0.2763958), wk =   0.1316872
        k(    8) = (   0.0552792   0.1658375   0.3869541), wk =   0.1316872
        k(    9) = (   0.0552792   0.1658375  -0.4975124), wk =   0.0658436
        k(   10) = (   0.0552792   0.2763958   0.2763958), wk =   0.0658436
        k(   11) = (   0.0552792   0.2763958   0.3869541), wk =   0.1316872
        k(   12) = (   0.0552792   0.2763958  -0.4975124), wk =   0.0658436
        k(   13) = (   0.0552792   0.3869541   0.3869541), wk =   0.0658436
        k(   14) = (   0.0552792   0.3869541  -0.4975124), wk =   0.0658436
        k(   15) = (   0.0552792  -0.4975124  -0.4975124), wk =   0.0164609
        k(   16) = (   0.1658375   0.1658375   0.1658375), wk =   0.0219479
        k(   17) = (   0.1658375   0.1658375   0.2763958), wk =   0.0658436
        k(   18) = (   0.1658375   0.1658375   0.3869541), wk =   0.0658436
        k(   19) = (   0.1658375   0.1658375  -0.4975124), wk =   0.0329218
        k(   20) = (   0.1658375   0.2763958   0.2763958), wk =   0.0658436
        k(   21) = (   0.1658375   0.2763958   0.3869541), wk =   0.1316872
        k(   22) = (   0.1658375   0.2763958  -0.4975124), wk =   0.0658436
        k(   23) = (   0.1658375   0.3869541   0.3869541), wk =   0.0658436
        k(   24) = (   0.1658375   0.3869541  -0.4975124), wk =   0.0658436
        k(   25) = (   0.1658375  -0.4975124  -0.4975124), wk =   0.0164609
        k(   26) = (   0.2763958   0.2763958   0.2763958), wk =   0.0219479
        k(   27) = (   0.2763958   0.2763958   0.3869541), wk =   0.0658436
        k(   28) = (   0.2763958   0.2763958  -0.4975124), wk =   0.0329218
        k(   29) = (   0.2763958   0.3869541   0.3869541), wk =   0.0658436
        k(   30) = (   0.2763958   0.3869541  -0.4975124), wk =   0.0658436
        k(   31) = (   0.2763958  -0.4975124  -0.4975124), wk =   0.0164609
        k(   32) = (   0.3869541   0.3869541   0.3869541), wk =   0.0219479
        k(   33) = (   0.3869541   0.3869541  -0.4975124), wk =   0.0329218
        k(   34) = (   0.3869541  -0.4975124  -0.4975124), wk =   0.0164609
        k(   35) = (  -0.4975124  -0.4975124  -0.4975124), wk =   0.0027435

     Check: negative core charge=   -0.000002

     Initial potential from superposition of free atoms

     starting charge  511.97959, renormalised to  512.00000
     Starting wfcs are  320 randomized atomic wfcs
     Checking if some PAW data can be deallocated...

     Self-consistent Calculation

     iteration #  1     ecut=    71.00 Ry     beta= 0.10
     Davidson diagonalization with overlap
     ethr =  1.00E-02,  avg # of iterations =  3.5

     Threshold (ethr) on eigenvalues was too large:
     Diagonalizing with lowered threshold

     Davidson diagonalization with overlap
     ethr =  8.17E-05,  avg # of iterations =  5.3

     total energy              =  -13813.40422744 Ry
     estimated scf accuracy    <       0.63246064 Ry

[...]

     iteration #  4     ecut=    71.00 Ry     beta= 0.10
     Davidson diagonalization with overlap
     c_bands:  1 eigenvalues not converged
     ethr =  2.01E-06,  avg # of iterations =  3.2

[...]

     total energy              =  -13813.29482395 Ry
     estimated scf accuracy    <       0.00001629 Ry

     iteration # 13     ecut=    71.00 Ry     beta= 0.10
     Davidson diagonalization with overlap
     ethr =  6.16E-10,  avg # of iterations =  3.1

     End of self-consistent calculation

          k = 0.0553 0.0553 0.0553 ( 30746 PWs)   bands (ev):

   -50.3025 -50.2088 -50.2088 -50.2088 -50.1907 -50.1907 -50.1907 -50.1570
   -50.1570 -50.1570 -50.1482 -50.1472 -50.1471 -50.1471 -50.1471 -50.1471
   -50.1471 -50.1466 -50.1465 -50.1465 -50.1388 -50.1388 -50.1388 -50.0962
   -50.0962 -50.0962 -50.0957 -50.0957 -50.0957 -50.0956 -50.0956 -50.0956
   -20.6833 -20.6833 -20.6833 -20.6796 -20.6241 -20.6241 -20.6241 -20.4331
   -20.4331 -20.4331 -20.4223 -20.4223 -20.4223 -20.4223 -20.4223 -20.4223
   -20.4030 -20.4030 -20.4030 -20.3816 -20.3816 -20.3816 -20.3816 -20.3816
   -20.3816 -20.3336 -20.3336 -20.3335 -20.3335 -20.3335 -20.3335 -20.2387
   -20.2387 -20.2387 -20.1694 -20.1694 -20.1694 -20.1616 -20.1616 -20.1616
   -20.1298 -20.1298 -20.1298 -20.1298 -20.1298 -20.1298 -20.0916 -20.0916
   -20.0916 -20.0851 -20.0851 -20.0851 -20.0851 -20.0851 -20.0851 -20.0800
   -20.0800 -20.0800 -20.0758 -20.0758 -20.0758 -19.9207 -19.9207 -19.9207
   -19.9202 -19.9202 -19.9202 -19.8900 -19.8900 -19.8900 -19.8899 -19.8899
   -19.8899 -19.8760 -19.8760 -19.8760 -19.8643 -19.8643 -19.8643 -19.8633
   -19.8633 -19.8633 -19.8633 -19.8632 -19.8632 -19.8613 -19.8613 -19.8613
   -19.8587 -19.8587 -19.8457 -19.8457 -19.8457 -19.7378 -19.7312 -19.7312
    15.0081  16.6091  16.6091  16.6091  16.8681  16.8857  16.8857  16.8857
    17.0703  17.0703  17.0703  17.2458  17.2458  17.2459  17.4251  17.4251
    17.4251  17.9908  17.9908  17.9908  17.9908  17.9909  17.9909  18.3029
    18.3029  18.3030  18.5352  18.5352  18.5353  18.5706  18.5706  18.5706
    18.6480  18.6480  18.6480  18.6481  18.6481  18.6481  18.6510  18.6510
    18.6510  19.1426  19.1426  19.1426  19.1426  19.1426  19.1427  19.2848
    19.2848  19.2848  19.3171  19.3171  19.3171  19.3171  19.3171  19.3171
    19.3811  19.3811  19.3811  19.6321  19.6321  19.6322  19.6367  19.6367
    19.6367  19.6368  19.6368  19.6368  19.6384  19.6384  19.6384  19.6384
    19.6385  19.6385  19.8078  19.8078  19.8078  20.0892  20.0892  20.0892
    20.1244  20.1244  20.1392  20.1392  20.1392  20.2147  20.2454  20.2454
    21.1968  21.1968  21.1969  21.3591  21.3591  21.3591  21.4163  21.4163
    21.4163  21.5139  21.5139  21.5139  21.5139  21.5139  21.5139  21.5278
    21.5278  21.5278  21.8156  21.8156  21.8156  21.9320  21.9320  21.9321
    22.1762  22.1762  22.1762  22.2550  22.2550  22.2550  22.2550  22.2550
    22.2551  22.2717  22.2718  22.2718  22.3083  22.3083  22.3084  22.4963
    22.4963  22.4963  22.4963  22.4963  22.4963  22.5504  22.5504  22.6656
    22.6656  22.6656  23.3081  23.3081  23.3081  23.3615  23.3615  23.3615
    23.4645  23.4645  23.4645  23.5624  24.2635  24.2635  24.2635  24.3056
    24.3056  24.3396  24.3396  24.3396  24.6182  24.6182  24.6182  24.6480
    24.6480  24.6480  24.7981  24.7981  24.7981  24.7981  24.7981  24.7981
    24.8030  24.8030  24.8030  26.2200  26.2200  26.2200  26.4102  26.4102
    26.4102  26.7454  26.7454

[...]

          k = 0.3870-0.4975-0.4975 ( 30640 PWs)   bands (ev):

[...]

          k =-0.4975-0.4975-0.4975 ( 30592 PWs)   bands (ev):

   -50.2261 -50.2259 -50.2259 -50.2259 -50.2257 -50.2257 -50.2257 -50.2255
   -50.1218 -50.1217 -50.1217 -50.1216 -50.1216 -50.1216 -50.1216 -50.1216
   -50.1215 -50.1215 -50.1215 -50.1214 -50.1214 -50.1214 -50.1214 -50.1213
   -50.1213 -50.1213 -50.1212 -50.1212 -50.1212 -50.1212 -50.1211 -50.1210
   -20.5232 -20.5232 -20.5232 -20.5232 -20.5232 -20.5231 -20.5231 -20.5231
   -20.5231 -20.5231 -20.5231 -20.5230 -20.5230 -20.5230 -20.5229 -20.5229
   -20.5229 -20.5229 -20.5229 -20.5229 -20.5228 -20.5228 -20.5228 -20.5228
   -20.2182 -20.2182 -20.2182 -20.2181 -20.2181 -20.2181 -20.2181 -20.2180
   -20.1121 -20.1121 -20.1120 -20.1120 -20.1120 -20.1120 -20.1120 -20.1120
   -20.1120 -20.1120 -20.1120 -20.1120 -20.1119 -20.1119 -20.1119 -20.1119
   -20.1119 -20.1119 -20.1119 -20.1119 -20.1119 -20.1119 -20.1118 -20.1118
   -19.9696 -19.9696 -19.9696 -19.9696 -19.9696 -19.9695 -19.9695 -19.9695
   -19.9695 -19.9695 -19.9695 -19.9695 -19.9694 -19.9694 -19.9694 -19.9693
   -19.9693 -19.9693 -19.9693 -19.9693 -19.9693 -19.9693 -19.9693 -19.9693
   -19.7954 -19.7954 -19.7954 -19.7954 -19.7954 -19.7953 -19.7953 -19.7953
   -19.7952 -19.7952 -19.7952 -19.7952 -19.7952 -19.7951 -19.7951 -19.7951
    16.7975  16.7977  16.7977  16.7977  16.7979  16.7979  16.7979  16.7980
    17.6800  17.6800  17.6800  17.6801  17.6801  17.6801  17.6801  17.6801
    17.6801  17.6801  17.6801  17.6801  17.6802  17.6802  17.6802  17.6802
    17.6802  17.6803  17.6803  17.6803  17.6803  17.6803  17.6803  17.6803
    18.6901  18.6901  18.6902  18.6902  18.6902  18.6902  18.6902  18.6902
    18.6902  18.6902  18.6902  18.6903  18.6903  18.6903  18.6904  18.6904
    18.6904  18.6904  18.6904  18.6904  18.6904  18.6904  18.6905  18.6905
    19.9790  19.9790  19.9790  19.9790  19.9790  19.9790  19.9790  19.9790
    20.6158  20.6158  20.6158  20.6158  20.6159  20.6159  20.6159  20.6159
    20.6159  20.6159  20.6160  20.6160  20.6160  20.6160  20.6160  20.6160
    20.7130  20.7130  20.7130  20.7130  20.7130  20.7130  20.7131  20.7131
    20.7131  20.7131  20.7131  20.7131  20.7131  20.7131  20.7131  20.7132
    20.7132  20.7132  20.7132  20.7132  20.7132  20.7132  20.7132  20.7133
    21.9116  21.9116  21.9117  21.9117  21.9117  21.9117  21.9117  21.9118
    21.9118  21.9118  21.9118  21.9118  21.9118  21.9118  21.9118  21.9118
    21.9119  21.9119  21.9119  21.9119  21.9119  21.9119  21.9120  21.9120
    22.7238  22.7238  22.7238  22.7238  22.7238  22.7239  22.7239  22.7239
    22.7239  22.7239  22.7239  22.7240  22.7240  22.7240  22.7240  22.7241
    24.4761  24.4761  24.4761  24.4762  24.4762  24.4762  24.4762  24.4762
    24.4762  24.4762  24.4762  24.4762  24.4763  24.4763  24.4763  24.4763
    24.4763  24.4763  24.4763  24.4764  24.4764  24.4764  24.4764  24.4764
    27.8099  27.8099  27.8100  27.8100  27.8100  27.8100  27.8100  27.8101
    27.8101  27.8101  27.8101

     the Fermi energy is    22.6924 ev

!    total energy              =  -13813.29482816 Ry

     total all-electron energy =   -289989.685167 Ry
     estimated scf accuracy    <       0.00000024 Ry
     smearing contrib. (-TS)   =       0.01920490 Ry
     internal energy E=F+TS    =  -13813.31403306 Ry

     The total energy is F=E-TS. E is the sum of the following terms:
     one-electron contribution =   -1033.48469475 Ry
     hartree contribution      =     927.42213097 Ry
     xc contribution           =    -927.49540911 Ry
     ewald contribution        =   -5190.33387382 Ry
     one-center paw contrib.   =   -7589.42218637 Ry

     convergence has been achieved in  13 iterations

     Forces acting on atoms (cartesian axes, Ry/au):

     atom    1 type  1   force =     0.00000000    0.00000000    0.00000000
     atom    2 type  1   force =    -0.00000239   -0.00000239    0.00000000
     atom    3 type  1   force =    -0.00000239    0.00000000   -0.00000239
     atom    4 type  1   force =     0.00000000   -0.00000239   -0.00000239
     atom    5 type  1   force =     0.00000000    0.00000000    0.00000000
     atom    6 type  1   force =    -0.00000099   -0.00000099    0.00000000
     atom    7 type  1   force =    -0.00000239    0.00000000    0.00000239
     atom    8 type  1   force =     0.00000000   -0.00000239    0.00000239
     atom    9 type  1   force =     0.00000000    0.00000000    0.00000000
     atom   10 type  1   force =    -0.00000239    0.00000239   -0.00000000
     atom   11 type  1   force =    -0.00000099    0.00000000   -0.00000099
     atom   12 type  1   force =     0.00000000    0.00000239   -0.00000239
     atom   13 type  1   force =     0.00000000    0.00000000    0.00000000
     atom   14 type  1   force =    -0.00000099    0.00000099    0.00000000
     atom   15 type  1   force =    -0.00000099    0.00000000    0.00000099
     atom   16 type  1   force =     0.00000000    0.00000239    0.00000239
     atom   17 type  1   force =     0.00000000    0.00000000    0.00000000
     atom   18 type  1   force =     0.00000239   -0.00000239   -0.00000000
     atom   19 type  1   force =     0.00000239    0.00000000   -0.00000239
     atom   20 type  1   force =    -0.00000000   -0.00000099   -0.00000099
     atom   21 type  1   force =     0.00000000    0.00000000    0.00000000
     atom   22 type  1   force =     0.00000099   -0.00000099    0.00000000
     atom   23 type  1   force =     0.00000239    0.00000000    0.00000239
     atom   24 type  1   force =     0.00000000   -0.00000099    0.00000099
     atom   25 type  1   force =     0.00000000    0.00000000    0.00000000
     atom   26 type  1   force =     0.00000239    0.00000239    0.00000000
     atom   27 type  1   force =     0.00000099    0.00000000   -0.00000099
     atom   28 type  1   force =     0.00000000    0.00000099   -0.00000099
     atom   29 type  1   force =     0.00000000    0.00000000    0.00000000
     atom   30 type  1   force =     0.00000099    0.00000099    0.00000000
     atom   31 type  1   force =     0.00000099    0.00000000    0.00000099
     atom   32 type  1   force =    -0.00000000    0.00000099    0.00000099

     Total force =     0.000013     Total SCF correction =     0.000099
     SCF correction compared to forces is large: reduce conv_thr to get better values

     Computing stress (Cartesian axis) and pressure

          total   stress  (Ry/bohr**3)                   (kbar)     P=      -47.75
  -0.00032457   0.00000000   0.00000000          -47.75        0.00        0.00
   0.00000000  -0.00032457   0.00000000            0.00      -47.75        0.00
   0.00000000   0.00000000  -0.00032457            0.00        0.00      -47.75

     Writing output data file /scratch/EdUUjdatumpOuMWA.save/

     General routines

     Parallel routines

   This run was terminated on:  13:45:44  23Nov2021

   JOB DONE.