     Program PWSCF v.6.7MaX starts on 23Nov2021 at 12:50:50

     R & G space division:  proc/nbgrp/npool/nimage =      72
     Reading input from /rds/homes/b/bxp912/jobs/20211014_ru_eos/wd/eos/eos_007.in
Warning: card &CELL ignored
Warning: card CELL_DYNAMICS = 'BFGS', ignored
Warning: card CELL_FACTOR = 2.0, ignored
Warning: card PRESS = 0.0, ignored
Warning: card / ignored

     Current dimensions of program PWSCF are:
     Max number of different atomic species (ntypx) = 10
     Max number of k-points (npk) =  40000
     Max angular momentum in pseudopotentials (lmaxx) =  3
     file Ru.pbe-spn-kjpaw_psl.1.0.0.UPF: wavefunction(s)  4D renormalized

     Subspace diagonalization in iterative solution of the eigenvalue problem:
     one sub-group per band group will be used

     Found symmetry operation: I + (  0.2500  0.2500  0.0000)
     This is a supercell, fractional translations are disabled
     Message from routine setup:
     using ibrav=0 with symmetry is DISCOURAGED, use correct ibrav instead

     bravais-lattice index     =            0
     lattice parameter (alat)  =      14.4007  a.u.
     unit-cell volume          =    2995.4137 (a.u.)^3
     number of atoms/cell      =           32
     number of atomic types    =            1
     number of electrons       =       512.00
     number of Kohn-Sham states=          307
     kinetic-energy cutoff     =      71.0000  Ry
     charge density cutoff     =     430.0000  Ry
     scf convergence threshold =      1.0E-06
     mixing beta               =       0.1000
     number of iterations used =           10  plain     mixing
     Exchange-correlation= SLA  PW   PBX  PBC
                           (   1   4   3   4   0   0   0)

     celldm(1)=  14.400742  celldm(2)=   0.000000  celldm(3)=   0.000000
     celldm(4)=   0.000000  celldm(5)=   0.000000  celldm(6)=   0.000000

     crystal axes: (cart. coord. in units of alat)
               a(1) = (   1.001000   0.000000   0.000000 )
               a(2) = (   0.000000   1.001000   0.000000 )
               a(3) = (   0.000000   0.000000   1.001000 )

     reciprocal axes: (cart. coord. in units 2 pi/alat)
               b(1) = (  0.999001  0.000000  0.000000 )
               b(2) = (  0.000000  0.999001  0.000000 )
               b(3) = (  0.000000  0.000000  0.999001 )

     PseudoPot. # 1 for Ru read from file:
     /rds/homes/b/bxp912/pp/Ru.pbe-spn-kjpaw_psl.1.0.0.UPF
     MD5 check sum: 0ae1f594dea09af7be8575c3a481d1ae
     Pseudo is Projector augmented-wave + core cor, Zval = 16.0
     Generated using "atomic" code by A. Dal Corso  v.5.1
     Shape of augmentation charge: PSQ
     Using radial grid of 1233 points,  6 beta functions with:
                l(1) =   0
                l(2) =   0
                l(3) =   1
                l(4) =   1
                l(5) =   2
                l(6) =   2
     Q(r) pseudized with 0 coefficients

     atomic species   valence    mass     pseudopotential
        Ru            16.00   101.07000     Ru( 1.00)

     48 Sym. Ops., with inversion, found

   Cartesian axes

     site n.     atom                  positions (alat units)
         1           Ru  tau(   1) = (   0.0000000   0.0000000   0.0000000  )
         2           Ru  tau(   2) = (   0.2502500   0.2502500   0.0000000  )
         3           Ru  tau(   3) = (   0.2502500   0.0000000   0.2502495  )
         4           Ru  tau(   4) = (   0.0000000   0.2502500   0.2502495  )
         5           Ru  tau(   5) = (   0.0000000   0.0000000   0.5005000  )
         6           Ru  tau(   6) = (   0.2502489   0.2502489   0.5005000  )
         7           Ru  tau(   7) = (   0.2502500   0.0000000   0.7507495  )
         8           Ru  tau(   8) = (   0.0000000   0.2502500   0.7507495  )
         9           Ru  tau(   9) = (   0.0000000   0.5005002   0.0000000  )
        10           Ru  tau(  10) = (   0.2502500   0.7507504   0.0000000  )
        11           Ru  tau(  11) = (   0.2502489   0.5005002   0.2502484  )
        12           Ru  tau(  12) = (   0.0000000   0.7507504   0.2502495  )
        13           Ru  tau(  13) = (   0.0000000   0.5005002   0.5005000  )
        14           Ru  tau(  14) = (   0.2502489   0.7507515   0.5005000  )
        15           Ru  tau(  15) = (   0.2502489   0.5005002   0.7507505  )
        16           Ru  tau(  16) = (   0.0000000   0.7507504   0.7507495  )
        17           Ru  tau(  17) = (   0.5005002   0.0000000   0.0000000  )
        18           Ru  tau(  18) = (   0.7507504   0.2502500   0.0000000  )
        19           Ru  tau(  19) = (   0.7507504   0.0000000   0.2502495  )
        20           Ru  tau(  20) = (   0.5005002   0.2502489   0.2502484  )
        21           Ru  tau(  21) = (   0.5005002   0.0000000   0.5005000  )
        22           Ru  tau(  22) = (   0.7507515   0.2502489   0.5005000  )
        23           Ru  tau(  23) = (   0.7507504   0.0000000   0.7507495  )
        24           Ru  tau(  24) = (   0.5005002   0.2502489   0.7507505  )
        25           Ru  tau(  25) = (   0.5005002   0.5005002   0.0000000  )
        26           Ru  tau(  26) = (   0.7507504   0.7507504   0.0000000  )
        27           Ru  tau(  27) = (   0.7507515   0.5005002   0.2502484  )
        28           Ru  tau(  28) = (   0.5005002   0.7507515   0.2502484  )
        29           Ru  tau(  29) = (   0.5005002   0.5005002   0.5005000  )
        30           Ru  tau(  30) = (   0.7507515   0.7507515   0.5005000  )
        31           Ru  tau(  31) = (   0.7507515   0.5005002   0.7507505  )
        32           Ru  tau(  32) = (   0.5005002   0.7507515   0.7507505  )

     number of k points=    35  Marzari-Vanderbilt smearing, width (Ry)=  0.0400
                       cart. coord. in units 2pi/alat
        k(    1) = (   0.0555001   0.0555001   0.0555001), wk =   0.0219479
        k(    2) = (   0.0555001   0.0555001   0.1665002), wk =   0.0658436
        k(    3) = (   0.0555001   0.0555001   0.2775003), wk =   0.0658436
        k(    4) = (   0.0555001   0.0555001   0.3885004), wk =   0.0658436
        k(    5) = (   0.0555001   0.0555001  -0.4995005), wk =   0.0329218
        k(    6) = (   0.0555001   0.1665002   0.1665002), wk =   0.0658436
        k(    7) = (   0.0555001   0.1665002   0.2775003), wk =   0.1316872
        k(    8) = (   0.0555001   0.1665002   0.3885004), wk =   0.1316872
        k(    9) = (   0.0555001   0.1665002  -0.4995005), wk =   0.0658436
        k(   10) = (   0.0555001   0.2775003   0.2775003), wk =   0.0658436
        k(   11) = (   0.0555001   0.2775003   0.3885004), wk =   0.1316872
        k(   12) = (   0.0555001   0.2775003  -0.4995005), wk =   0.0658436
        k(   13) = (   0.0555001   0.3885004   0.3885004), wk =   0.0658436
        k(   14) = (   0.0555001   0.3885004  -0.4995005), wk =   0.0658436
        k(   15) = (   0.0555001  -0.4995005  -0.4995005), wk =   0.0164609
        k(   16) = (   0.1665002   0.1665002   0.1665002), wk =   0.0219479
        k(   17) = (   0.1665002   0.1665002   0.2775003), wk =   0.0658436
        k(   18) = (   0.1665002   0.1665002   0.3885004), wk =   0.0658436
        k(   19) = (   0.1665002   0.1665002  -0.4995005), wk =   0.0329218
        k(   20) = (   0.1665002   0.2775003   0.2775003), wk =   0.0658436
        k(   21) = (   0.1665002   0.2775003   0.3885004), wk =   0.1316872
        k(   22) = (   0.1665002   0.2775003  -0.4995005), wk =   0.0658436
        k(   23) = (   0.1665002   0.3885004   0.3885004), wk =   0.0658436
        k(   24) = (   0.1665002   0.3885004  -0.4995005), wk =   0.0658436
        k(   25) = (   0.1665002  -0.4995005  -0.4995005), wk =   0.0164609
        k(   26) = (   0.2775003   0.2775003   0.2775003), wk =   0.0219479
        k(   27) = (   0.2775003   0.2775003   0.3885004), wk =   0.0658436
        k(   28) = (   0.2775003   0.2775003  -0.4995005), wk =   0.0329218
        k(   29) = (   0.2775003   0.3885004   0.3885004), wk =   0.0658436
        k(   30) = (   0.2775003   0.3885004  -0.4995005), wk =   0.0658436
        k(   31) = (   0.2775003  -0.4995005  -0.4995005), wk =   0.0164609
        k(   32) = (   0.3885004   0.3885004   0.3885004), wk =   0.0219479
        k(   33) = (   0.3885004   0.3885004  -0.4995005), wk =   0.0329218
        k(   34) = (   0.3885004  -0.4995005  -0.4995005), wk =   0.0164609
        k(   35) = (  -0.4995005  -0.4995005  -0.4995005), wk =   0.0027435

     Check: negative core charge=   -0.000002

     Initial potential from superposition of free atoms

     starting charge  511.97959, renormalised to  512.00000
     Starting wfcs are  320 randomized atomic wfcs
     Checking if some PAW data can be deallocated...

     Self-consistent Calculation

     iteration #  1     ecut=    71.00 Ry     beta= 0.10
     Davidson diagonalization with overlap
     ethr =  1.00E-02,  avg # of iterations =  3.3

     Threshold (ethr) on eigenvalues was too large:
     Diagonalizing with lowered threshold

     Davidson diagonalization with overlap
     ethr =  8.31E-05,  avg # of iterations =  5.4

     total energy              =  -13813.41231266 Ry
     estimated scf accuracy    <       0.63729666 Ry

[...]

     total energy              =  -13813.30076026 Ry
     estimated scf accuracy    <       0.00001257 Ry

     iteration # 13     ecut=    71.00 Ry     beta= 0.10
     Davidson diagonalization with overlap
     ethr =  4.27E-10,  avg # of iterations =  3.2

     End of self-consistent calculation

          k = 0.0555 0.0555 0.0555 ( 30317 PWs)   bands (ev):

   -49.9873 -49.8887 -49.8887 -49.8887 -49.8697 -49.8697 -49.8697 -49.8342
   -49.8342 -49.8342 -49.8249 -49.8238 -49.8238 -49.8238 -49.8238 -49.8238
   -49.8238 -49.8232 -49.8232 -49.8232 -49.8150 -49.8150 -49.8150 -49.7702
   -49.7702 -49.7702 -49.7697 -49.7697 -49.7697 -49.7697 -49.7696 -49.7696
   -20.3872 -20.3872 -20.3872 -20.3831 -20.3252 -20.3252 -20.3252 -20.1267
   -20.1267 -20.1267 -20.1155 -20.1155 -20.1155 -20.1155 -20.1155 -20.1154
   -20.0954 -20.0954 -20.0954 -20.0730 -20.0730 -20.0730 -20.0730 -20.0730
   -20.0730 -20.0229 -20.0229 -20.0229 -20.0229 -20.0229 -20.0229 -19.9245
   -19.9245 -19.9245 -19.8521 -19.8521 -19.8521 -19.8443 -19.8443 -19.8443
   -19.8109 -19.8109 -19.8109 -19.8109 -19.8109 -19.8109 -19.7711 -19.7711
   -19.7711 -19.7643 -19.7643 -19.7643 -19.7643 -19.7643 -19.7643 -19.7587
   -19.7587 -19.7587 -19.7541 -19.7541 -19.7541 -19.5931 -19.5931 -19.5931
   -19.5925 -19.5925 -19.5925 -19.5612 -19.5612 -19.5612 -19.5611 -19.5611
   -19.5611 -19.5464 -19.5464 -19.5464 -19.5343 -19.5342 -19.5342 -19.5332
   -19.5332 -19.5332 -19.5332 -19.5332 -19.5331 -19.5312 -19.5312 -19.5312
   -19.5285 -19.5285 -19.5149 -19.5149 -19.5149 -19.4030 -19.3961 -19.3961
    15.2762  16.8422  16.8422  16.8422  17.1180  17.1356  17.1356  17.1356
    17.3091  17.3091  17.3091  17.5269  17.5269  17.5269  17.6998  17.6998
    17.6998  18.2458  18.2458  18.2458  18.2458  18.2458  18.2458  18.5607
    18.5607  18.5607  18.8206  18.8206  18.8206  18.8327  18.8327  18.8327
    18.9282  18.9282  18.9282  18.9305  18.9305  18.9305  18.9306  18.9306
    18.9306  19.4218  19.4218  19.4218  19.4218  19.4218  19.4218  19.5657
    19.5657  19.5657  19.5976  19.5976  19.5976  19.5976  19.5976  19.5976
    19.6619  19.6619  19.6619  19.9227  19.9227  19.9227  19.9248  19.9248
    19.9248  19.9248  19.9248  19.9248  19.9249  19.9249  19.9249  19.9249
    19.9249  19.9249  20.0946  20.0946  20.0946  20.3783  20.3783  20.3783
    20.4143  20.4143  20.4293  20.4293  20.4293  20.5074  20.5387  20.5387
    21.5099  21.5099  21.5099  21.6787  21.6787  21.6787  21.7283  21.7283
    21.7283  21.8280  21.8280  21.8280  21.8280  21.8280  21.8280  21.8418
    21.8419  21.8419  22.1369  22.1370  22.1370  22.2562  22.2562  22.2562
    22.5041  22.5041  22.5041  22.5818  22.5818  22.5819  22.5819  22.5819
    22.5819  22.6000  22.6001  22.6001  22.6395  22.6395  22.6395  22.8288
    22.8289  22.8289  22.8289  22.8289  22.8289  22.8871  22.8871  23.0013
    23.0013  23.0013  23.6589  23.6589  23.6589  23.7068  23.7068  23.7068
    23.8183  23.8183  23.8183  23.9074  24.6336  24.6336  24.6336  24.6758
    24.6758  24.7106  24.7106  24.7106  24.9933  24.9933  24.9933  25.0188
    25.0188  25.0188  25.1784  25.1784  25.1784  25.1784  25.1784  25.1784
    25.1834  25.1834  25.1834  26.6213  26.6213  26.6214  26.7909  26.7909
    26.7909  27.1534  27.1534

[...]

          k = 0.3885-0.4995-0.4995 ( 30244 PWs)   bands (ev):

[...]

          k =-0.4995-0.4995-0.4995 ( 30280 PWs)   bands (ev):

   -49.9069 -49.9067 -49.9067 -49.9067 -49.9066 -49.9065 -49.9065 -49.9064
   -49.7972 -49.7971 -49.7970 -49.7970 -49.7970 -49.7970 -49.7970 -49.7969
   -49.7969 -49.7969 -49.7968 -49.7968 -49.7968 -49.7968 -49.7967 -49.7967
   -49.7966 -49.7966 -49.7966 -49.7966 -49.7966 -49.7965 -49.7964 -49.7964
   -20.2204 -20.2204 -20.2204 -20.2204 -20.2203 -20.2203 -20.2203 -20.2203
   -20.2203 -20.2203 -20.2202 -20.2202 -20.2202 -20.2201 -20.2201 -20.2201
   -20.2201 -20.2201 -20.2200 -20.2200 -20.2200 -20.2200 -20.2200 -20.2200
   -19.9034 -19.9033 -19.9033 -19.9033 -19.9033 -19.9032 -19.9032 -19.9032
   -19.7924 -19.7924 -19.7923 -19.7923 -19.7923 -19.7923 -19.7923 -19.7923
   -19.7923 -19.7923 -19.7923 -19.7922 -19.7922 -19.7922 -19.7922 -19.7922
   -19.7922 -19.7922 -19.7922 -19.7922 -19.7922 -19.7922 -19.7921 -19.7921
   -19.6439 -19.6439 -19.6439 -19.6438 -19.6438 -19.6438 -19.6438 -19.6438
   -19.6438 -19.6438 -19.6438 -19.6438 -19.6437 -19.6437 -19.6437 -19.6436
   -19.6436 -19.6436 -19.6436 -19.6436 -19.6436 -19.6436 -19.6436 -19.6435
   -19.4627 -19.4627 -19.4627 -19.4627 -19.4627 -19.4627 -19.4627 -19.4627
   -19.4625 -19.4625 -19.4625 -19.4625 -19.4625 -19.4624 -19.4624 -19.4624
    17.0732  17.0734  17.0734  17.0734  17.0736  17.0736  17.0736  17.0737
    17.9337  17.9337  17.9337  17.9337  17.9337  17.9337  17.9338  17.9338
    17.9338  17.9338  17.9338  17.9338  17.9339  17.9339  17.9339  17.9339
    17.9339  17.9339  17.9339  17.9339  17.9339  17.9339  17.9340  17.9340
    18.9592  18.9592  18.9593  18.9593  18.9593  18.9593  18.9593  18.9593
    18.9594  18.9594  18.9594  18.9594  18.9595  18.9595  18.9595  18.9595
    18.9595  18.9595  18.9595  18.9595  18.9596  18.9596  18.9596  18.9596
    20.2756  20.2756  20.2756  20.2756  20.2756  20.2756  20.2756  20.2756
    20.9150  20.9150  20.9150  20.9150  20.9150  20.9150  20.9151  20.9151
    20.9151  20.9151  20.9151  20.9151  20.9151  20.9152  20.9152  20.9152
    21.0220  21.0220  21.0220  21.0220  21.0220  21.0220  21.0220  21.0220
    21.0221  21.0221  21.0221  21.0221  21.0221  21.0221  21.0221  21.0221
    21.0222  21.0222  21.0222  21.0222  21.0222  21.0222  21.0222  21.0222
    22.2336  22.2336  22.2336  22.2336  22.2336  22.2336  22.2337  22.2337
    22.2337  22.2337  22.2337  22.2337  22.2337  22.2338  22.2338  22.2338
    22.2338  22.2338  22.2338  22.2338  22.2339  22.2339  22.2339  22.2340
    23.0615  23.0615  23.0616  23.0616  23.0616  23.0616  23.0616  23.0617
    23.0617  23.0617  23.0617  23.0618  23.0618  23.0618  23.0618  23.0619
    24.8500  24.8500  24.8500  24.8500  24.8500  24.8500  24.8500  24.8500
    24.8500  24.8501  24.8501  24.8501  24.8501  24.8501  24.8501  24.8502
    24.8502  24.8502  24.8502  24.8502  24.8502  24.8502  24.8502  24.8502
    28.2210  28.2211  28.2211  28.2211  28.2211  28.2211  28.2212  28.2212
    28.2212  28.2212  28.2212

     the Fermi energy is    23.0292 ev

!    total energy              =  -13813.30076388 Ry

     total all-electron energy =   -289989.691103 Ry
     estimated scf accuracy    <       0.00000018 Ry
     smearing contrib. (-TS)   =       0.02018865 Ry
     internal energy E=F+TS    =  -13813.32095253 Ry

     The total energy is F=E-TS. E is the sum of the following terms:
     one-electron contribution =   -1003.16285392 Ry
     hartree contribution      =     918.30759951 Ry
     xc contribution           =    -927.95239600 Ry
     ewald contribution        =   -5211.07446872 Ry
     one-center paw contrib.   =   -7589.43883341 Ry

     convergence has been achieved in  13 iterations

     Forces acting on atoms (cartesian axes, Ry/au):

     atom    1 type  1   force =     0.00000000    0.00000000    0.00000000
     atom    2 type  1   force =    -0.00000175   -0.00000175    0.00000000
     atom    3 type  1   force =    -0.00000175   -0.00000000   -0.00000175
     atom    4 type  1   force =     0.00000000   -0.00000175   -0.00000175
     atom    5 type  1   force =     0.00000000    0.00000000    0.00000000
     atom    6 type  1   force =    -0.00000082   -0.00000082    0.00000000
     atom    7 type  1   force =    -0.00000175    0.00000000    0.00000175
     atom    8 type  1   force =     0.00000000   -0.00000175    0.00000175
     atom    9 type  1   force =     0.00000000    0.00000000    0.00000000
     atom   10 type  1   force =    -0.00000175    0.00000175   -0.00000000
     atom   11 type  1   force =    -0.00000082    0.00000000   -0.00000082
     atom   12 type  1   force =     0.00000000    0.00000175   -0.00000175
     atom   13 type  1   force =     0.00000000    0.00000000    0.00000000
     atom   14 type  1   force =    -0.00000082    0.00000082    0.00000000
     atom   15 type  1   force =    -0.00000082    0.00000000    0.00000082
     atom   16 type  1   force =     0.00000000    0.00000175    0.00000175
     atom   17 type  1   force =     0.00000000    0.00000000    0.00000000
     atom   18 type  1   force =     0.00000175   -0.00000175   -0.00000000
     atom   19 type  1   force =     0.00000175    0.00000000   -0.00000175
     atom   20 type  1   force =     0.00000000   -0.00000082   -0.00000082
     atom   21 type  1   force =     0.00000000    0.00000000    0.00000000
     atom   22 type  1   force =     0.00000082   -0.00000082    0.00000000
     atom   23 type  1   force =     0.00000175    0.00000000    0.00000175
     atom   24 type  1   force =     0.00000000   -0.00000082    0.00000082
     atom   25 type  1   force =     0.00000000    0.00000000    0.00000000
     atom   26 type  1   force =     0.00000175    0.00000175    0.00000000
     atom   27 type  1   force =     0.00000082    0.00000000   -0.00000082
     atom   28 type  1   force =     0.00000000    0.00000082   -0.00000082
     atom   29 type  1   force =     0.00000000    0.00000000    0.00000000
     atom   30 type  1   force =     0.00000082    0.00000082    0.00000000
     atom   31 type  1   force =     0.00000082    0.00000000    0.00000082
     atom   32 type  1   force =     0.00000000    0.00000082    0.00000082

     Total force =     0.000009     Total SCF correction =     0.000099
     SCF correction compared to forces is large: reduce conv_thr to get better values

     Computing stress (Cartesian axis) and pressure

          total   stress  (Ry/bohr**3)                   (kbar)     P=      -12.74
  -0.00008659   0.00000000   0.00000000          -12.74        0.00        0.00
   0.00000000  -0.00008659   0.00000000            0.00      -12.74        0.00
   0.00000000   0.00000000  -0.00008659            0.00        0.00      -12.74

     Writing output data file /scratch/bSKYXJOWrNOjOsrI.save/

     General routines

     Parallel routines

   This run was terminated on:  13: 1:25  23Nov2021

   JOB DONE.