     Program PWSCF v.6.7MaX starts on 23Nov2021 at 12:28:49

     R & G space division:  proc/nbgrp/npool/nimage =      72
     Reading input from /rds/homes/b/bxp912/jobs/20211014_ru_eos/wd/eos/eos_005.in
Warning: card &CELL ignored
Warning: card CELL_DYNAMICS = 'BFGS', ignored
Warning: card CELL_FACTOR = 2.0, ignored
Warning: card PRESS = 0.0, ignored
Warning: card / ignored

     Current dimensions of program PWSCF are:
     Max number of different atomic species (ntypx) = 10
     Max number of k-points (npk) =  40000
     Max angular momentum in pseudopotentials (lmaxx) =  3
     file Ru.pbe-spn-kjpaw_psl.1.0.0.UPF: wavefunction(s)  4D renormalized

     Subspace diagonalization in iterative solution of the eigenvalue problem:
     one sub-group per band group will be used

     Found symmetry operation: I + (  0.2500  0.2500  0.0000)
     This is a supercell, fractional translations are disabled
     Message from routine setup:
     using ibrav=0 with symmetry is DISCOURAGED, use correct ibrav instead

     bravais-lattice index     =            0
     lattice parameter (alat)  =      14.4007  a.u.
     unit-cell volume          =    2977.4950 (a.u.)^3
     number of atoms/cell      =           32
     number of atomic types    =            1
     number of electrons       =       512.00
     number of Kohn-Sham states=          307
     kinetic-energy cutoff     =      71.0000  Ry
     charge density cutoff     =     430.0000  Ry
     scf convergence threshold =      1.0E-06
     mixing beta               =       0.1000
     number of iterations used =           10  plain     mixing
     Exchange-correlation= SLA  PW   PBX  PBC
                           (   1   4   3   4   0   0   0)

     celldm(1)=  14.400742  celldm(2)=   0.000000  celldm(3)=   0.000000
     celldm(4)=   0.000000  celldm(5)=   0.000000  celldm(6)=   0.000000

     crystal axes: (cart. coord. in units of alat)
               a(1) = (   0.999000   0.000000   0.000000 )
               a(2) = (   0.000000   0.999000   0.000000 )
               a(3) = (   0.000000   0.000000   0.999000 )

     reciprocal axes: (cart. coord. in units 2 pi/alat)
               b(1) = (  1.001001  0.000000  0.000000 )
               b(2) = (  0.000000  1.001001  0.000000 )
               b(3) = (  0.000000  0.000000  1.001001 )

     PseudoPot. # 1 for Ru read from file:
     /rds/homes/b/bxp912/pp/Ru.pbe-spn-kjpaw_psl.1.0.0.UPF
     MD5 check sum: 0ae1f594dea09af7be8575c3a481d1ae
     Pseudo is Projector augmented-wave + core cor, Zval = 16.0
     Generated using "atomic" code by A. Dal Corso  v.5.1
     Shape of augmentation charge: PSQ
     Using radial grid of 1233 points,  6 beta functions with:
                l(1) =   0
                l(2) =   0
                l(3) =   1
                l(4) =   1
                l(5) =   2
                l(6) =   2
     Q(r) pseudized with 0 coefficients

     atomic species   valence    mass     pseudopotential
        Ru            16.00   101.07000     Ru( 1.00)

     48 Sym. Ops., with inversion, found

   Cartesian axes

     site n.     atom                  positions (alat units)
         1           Ru  tau(   1) = (   0.0000000   0.0000000   0.0000000  )
         2           Ru  tau(   2) = (   0.2497500   0.2497500   0.0000000  )
         3           Ru  tau(   3) = (   0.2497500   0.0000000   0.2497495  )
         4           Ru  tau(   4) = (   0.0000000   0.2497500   0.2497495  )
         5           Ru  tau(   5) = (   0.0000000   0.0000000   0.4995000  )
         6           Ru  tau(   6) = (   0.2497490   0.2497490   0.4995000  )
         7           Ru  tau(   7) = (   0.2497500   0.0000000   0.7492495  )
         8           Ru  tau(   8) = (   0.0000000   0.2497500   0.7492495  )
         9           Ru  tau(   9) = (   0.0000000   0.4995002   0.0000000  )
        10           Ru  tau(  10) = (   0.2497500   0.7492504   0.0000000  )
        11           Ru  tau(  11) = (   0.2497490   0.4995002   0.2497484  )
        12           Ru  tau(  12) = (   0.0000000   0.7492504   0.2497495  )
        13           Ru  tau(  13) = (   0.0000000   0.4995002   0.4995000  )
        14           Ru  tau(  14) = (   0.2497490   0.7492515   0.4995000  )
        15           Ru  tau(  15) = (   0.2497490   0.4995002   0.7492505  )
        16           Ru  tau(  16) = (   0.0000000   0.7492504   0.7492495  )
        17           Ru  tau(  17) = (   0.4995002   0.0000000   0.0000000  )
        18           Ru  tau(  18) = (   0.7492504   0.2497500   0.0000000  )
        19           Ru  tau(  19) = (   0.7492504   0.0000000   0.2497495  )
        20           Ru  tau(  20) = (   0.4995002   0.2497490   0.2497484  )
        21           Ru  tau(  21) = (   0.4995002   0.0000000   0.4995000  )
        22           Ru  tau(  22) = (   0.7492515   0.2497490   0.4995000  )
        23           Ru  tau(  23) = (   0.7492504   0.0000000   0.7492495  )
        24           Ru  tau(  24) = (   0.4995002   0.2497490   0.7492505  )
        25           Ru  tau(  25) = (   0.4995002   0.4995002   0.0000000  )
        26           Ru  tau(  26) = (   0.7492504   0.7492504   0.0000000  )
        27           Ru  tau(  27) = (   0.7492515   0.4995002   0.2497484  )
        28           Ru  tau(  28) = (   0.4995002   0.7492515   0.2497484  )
        29           Ru  tau(  29) = (   0.4995002   0.4995002   0.4995000  )
        30           Ru  tau(  30) = (   0.7492515   0.7492515   0.4995000  )
        31           Ru  tau(  31) = (   0.7492515   0.4995002   0.7492505  )
        32           Ru  tau(  32) = (   0.4995002   0.7492515   0.7492505  )

     number of k points=    35  Marzari-Vanderbilt smearing, width (Ry)=  0.0400
                       cart. coord. in units 2pi/alat
        k(    1) = (   0.0556112   0.0556112   0.0556112), wk =   0.0219479
        k(    2) = (   0.0556112   0.0556112   0.1668335), wk =   0.0658436
        k(    3) = (   0.0556112   0.0556112   0.2780558), wk =   0.0658436
        k(    4) = (   0.0556112   0.0556112   0.3892782), wk =   0.0658436
        k(    5) = (   0.0556112   0.0556112  -0.5005005), wk =   0.0329218
        k(    6) = (   0.0556112   0.1668335   0.1668335), wk =   0.0658436
        k(    7) = (   0.0556112   0.1668335   0.2780558), wk =   0.1316872
        k(    8) = (   0.0556112   0.1668335   0.3892782), wk =   0.1316872
        k(    9) = (   0.0556112   0.1668335  -0.5005005), wk =   0.0658436
        k(   10) = (   0.0556112   0.2780558   0.2780558), wk =   0.0658436
        k(   11) = (   0.0556112   0.2780558   0.3892782), wk =   0.1316872
        k(   12) = (   0.0556112   0.2780558  -0.5005005), wk =   0.0658436
        k(   13) = (   0.0556112   0.3892782   0.3892782), wk =   0.0658436
        k(   14) = (   0.0556112   0.3892782  -0.5005005), wk =   0.0658436
        k(   15) = (   0.0556112  -0.5005005  -0.5005005), wk =   0.0164609
        k(   16) = (   0.1668335   0.1668335   0.1668335), wk =   0.0219479
        k(   17) = (   0.1668335   0.1668335   0.2780558), wk =   0.0658436
        k(   18) = (   0.1668335   0.1668335   0.3892782), wk =   0.0658436
        k(   19) = (   0.1668335   0.1668335  -0.5005005), wk =   0.0329218
        k(   20) = (   0.1668335   0.2780558   0.2780558), wk =   0.0658436
        k(   21) = (   0.1668335   0.2780558   0.3892782), wk =   0.1316872
        k(   22) = (   0.1668335   0.2780558  -0.5005005), wk =   0.0658436
        k(   23) = (   0.1668335   0.3892782   0.3892782), wk =   0.0658436
        k(   24) = (   0.1668335   0.3892782  -0.5005005), wk =   0.0658436
        k(   25) = (   0.1668335  -0.5005005  -0.5005005), wk =   0.0164609
        k(   26) = (   0.2780558   0.2780558   0.2780558), wk =   0.0219479
        k(   27) = (   0.2780558   0.2780558   0.3892782), wk =   0.0658436
        k(   28) = (   0.2780558   0.2780558  -0.5005005), wk =   0.0329218
        k(   29) = (   0.2780558   0.3892782   0.3892782), wk =   0.0658436
        k(   30) = (   0.2780558   0.3892782  -0.5005005), wk =   0.0658436
        k(   31) = (   0.2780558  -0.5005005  -0.5005005), wk =   0.0164609
        k(   32) = (   0.3892782   0.3892782   0.3892782), wk =   0.0219479
        k(   33) = (   0.3892782   0.3892782  -0.5005005), wk =   0.0329218
        k(   34) = (   0.3892782  -0.5005005  -0.5005005), wk =   0.0164609
        k(   35) = (  -0.5005005  -0.5005005  -0.5005005), wk =   0.0027435

     Check: negative core charge=   -0.000002

     Initial potential from superposition of free atoms

     starting charge  511.97959, renormalised to  512.00000
     Starting wfcs are  320 randomized atomic wfcs
     Checking if some PAW data can be deallocated...

     Self-consistent Calculation

     iteration #  1     ecut=    71.00 Ry     beta= 0.10
     Davidson diagonalization with overlap
     ethr =  1.00E-02,  avg # of iterations =  3.3

     Threshold (ethr) on eigenvalues was too large:
     Diagonalizing with lowered threshold

     Davidson diagonalization with overlap
     ethr =  8.35E-05,  avg # of iterations =  5.4

     total energy              =  -13813.41299638 Ry
     estimated scf accuracy    <       0.63931257 Ry

[...]

     total energy              =  -13813.30043959 Ry
     estimated scf accuracy    <       0.00001120 Ry

     iteration # 13     ecut=    71.00 Ry     beta= 0.10
     Davidson diagonalization with overlap
     ethr =  3.90E-10,  avg # of iterations =  3.1

     End of self-consistent calculation

          k = 0.0556 0.0556 0.0556 ( 30086 PWs)   bands (ev):

   -49.8280 -49.7269 -49.7269 -49.7269 -49.7074 -49.7074 -49.7074 -49.6709
   -49.6709 -49.6709 -49.6614 -49.6603 -49.6603 -49.6603 -49.6602 -49.6602
   -49.6602 -49.6597 -49.6597 -49.6596 -49.6513 -49.6513 -49.6513 -49.6053
   -49.6053 -49.6052 -49.6048 -49.6048 -49.6048 -49.6047 -49.6047 -49.6047
   -20.2377 -20.2377 -20.2377 -20.2335 -20.1742 -20.1742 -20.1742 -19.9719
   -19.9719 -19.9719 -19.9604 -19.9604 -19.9604 -19.9604 -19.9604 -19.9604
   -19.9400 -19.9400 -19.9400 -19.9170 -19.9170 -19.9170 -19.9170 -19.9170
   -19.9170 -19.8659 -19.8659 -19.8659 -19.8659 -19.8659 -19.8659 -19.7656
   -19.7656 -19.7656 -19.6917 -19.6917 -19.6917 -19.6839 -19.6839 -19.6839
   -19.6497 -19.6497 -19.6497 -19.6497 -19.6497 -19.6497 -19.6091 -19.6091
   -19.6091 -19.6021 -19.6021 -19.6021 -19.6021 -19.6021 -19.6021 -19.5961
   -19.5961 -19.5961 -19.5915 -19.5915 -19.5915 -19.4274 -19.4274 -19.4274
   -19.4268 -19.4268 -19.4268 -19.3949 -19.3949 -19.3949 -19.3947 -19.3946
   -19.3946 -19.3796 -19.3796 -19.3796 -19.3673 -19.3672 -19.3672 -19.3662
   -19.3662 -19.3662 -19.3662 -19.3662 -19.3661 -19.3642 -19.3642 -19.3642
   -19.3612 -19.3612 -19.3475 -19.3475 -19.3475 -19.2336 -19.2266 -19.2266
    15.4121  16.9600  16.9600  16.9600  17.2443  17.2621  17.2621  17.2621
    17.4298  17.4298  17.4298  17.6693  17.6693  17.6693  17.8388  17.8388
    17.8388  18.3747  18.3747  18.3747  18.3747  18.3747  18.3747  18.6909
    18.6909  18.6909  18.9650  18.9650  18.9650  18.9651  18.9652  18.9652
    19.0683  19.0683  19.0683  19.0734  19.0734  19.0734  19.0734  19.0734
    19.0735  19.5629  19.5629  19.5629  19.5630  19.5630  19.5630  19.7077
    19.7077  19.7077  19.7394  19.7394  19.7394  19.7395  19.7395  19.7395
    19.8039  19.8039  19.8039  20.0698  20.0698  20.0698  20.0698  20.0698
    20.0698  20.0698  20.0698  20.0698  20.0706  20.0706  20.0706  20.0706
    20.0706  20.0706  20.2397  20.2397  20.2398  20.5245  20.5245  20.5245
    20.5608  20.5608  20.5760  20.5760  20.5760  20.6554  20.6869  20.6869
    21.6683  21.6683  21.6683  21.8405  21.8405  21.8405  21.8860  21.8860
    21.8860  21.9867  21.9867  21.9868  21.9868  21.9868  21.9868  22.0006
    22.0006  22.0006  22.2995  22.2995  22.2995  22.4201  22.4201  22.4202
    22.6699  22.6700  22.6700  22.7471  22.7471  22.7471  22.7471  22.7471
    22.7471  22.7660  22.7661  22.7661  22.8070  22.8070  22.8070  22.9970
    22.9970  22.9970  22.9970  22.9971  22.9971  23.0574  23.0574  23.1711
    23.1711  23.1711  23.8363  23.8363  23.8363  23.8817  23.8817  23.8817
    23.9973  23.9973  23.9973  24.0822  24.8209  24.8209  24.8209  24.8631
    24.8631  24.8983  24.8983  24.8983  25.1831  25.1831  25.1831  25.2065
    25.2065  25.2065  25.3708  25.3708  25.3708  25.3708  25.3708  25.3708
    25.3759  25.3759  25.3759  26.8246  26.8246  26.8246  26.9839  26.9839
    26.9839  27.3600  27.3600

[...]

          k = 0.3893-0.5005-0.5005 ( 30088 PWs)   bands (ev):

[...]

          k =-0.5005-0.5005-0.5005 ( 29992 PWs)   bands (ev):

   -49.7455 -49.7454 -49.7454 -49.7454 -49.7452 -49.7452 -49.7452 -49.7450
   -49.6329 -49.6329 -49.6328 -49.6327 -49.6327 -49.6327 -49.6327 -49.6327
   -49.6326 -49.6326 -49.6326 -49.6326 -49.6325 -49.6325 -49.6325 -49.6325
   -49.6324 -49.6324 -49.6323 -49.6323 -49.6323 -49.6323 -49.6322 -49.6321
   -20.0675 -20.0675 -20.0674 -20.0674 -20.0674 -20.0674 -20.0674 -20.0673
   -20.0673 -20.0673 -20.0673 -20.0673 -20.0672 -20.0672 -20.0672 -20.0672
   -20.0671 -20.0671 -20.0671 -20.0671 -20.0671 -20.0670 -20.0670 -20.0670
   -19.7441 -19.7441 -19.7441 -19.7441 -19.7440 -19.7440 -19.7440 -19.7439
   -19.6307 -19.6307 -19.6307 -19.6306 -19.6306 -19.6306 -19.6306 -19.6306
   -19.6306 -19.6306 -19.6306 -19.6306 -19.6306 -19.6306 -19.6305 -19.6305
   -19.6305 -19.6305 -19.6305 -19.6305 -19.6305 -19.6305 -19.6305 -19.6304
   -19.4790 -19.4790 -19.4790 -19.4790 -19.4790 -19.4789 -19.4789 -19.4789
   -19.4789 -19.4789 -19.4789 -19.4789 -19.4788 -19.4788 -19.4788 -19.4787
   -19.4787 -19.4787 -19.4787 -19.4787 -19.4787 -19.4787 -19.4787 -19.4787
   -19.2944 -19.2944 -19.2944 -19.2944 -19.2944 -19.2944 -19.2944 -19.2944
   -19.2942 -19.2942 -19.2942 -19.2942 -19.2942 -19.2941 -19.2941 -19.2941
    17.2129  17.2130  17.2130  17.2131  17.2132  17.2132  17.2132  17.2134
    18.0619  18.0619  18.0619  18.0619  18.0619  18.0620  18.0620  18.0620
    18.0620  18.0620  18.0620  18.0620  18.0621  18.0621  18.0621  18.0621
    18.0621  18.0621  18.0621  18.0621  18.0622  18.0622  18.0622  18.0622
    19.0953  19.0953  19.0954  19.0954  19.0954  19.0954  19.0954  19.0954
    19.0954  19.0955  19.0955  19.0955  19.0955  19.0956  19.0956  19.0956
    19.0956  19.0956  19.0956  19.0956  19.0957  19.0957  19.0957  19.0957
    20.4257  20.4257  20.4257  20.4257  20.4258  20.4258  20.4258  20.4258
    21.0662  21.0662  21.0662  21.0662  21.0662  21.0662  21.0663  21.0663
    21.0663  21.0663  21.0663  21.0664  21.0664  21.0664  21.0664  21.0664
    21.1783  21.1784  21.1784  21.1784  21.1784  21.1784  21.1784  21.1784
    21.1785  21.1785  21.1785  21.1785  21.1785  21.1785  21.1785  21.1785
    21.1786  21.1786  21.1786  21.1786  21.1786  21.1786  21.1786  21.1786
    22.3963  22.3964  22.3964  22.3964  22.3964  22.3964  22.3965  22.3965
    22.3965  22.3965  22.3965  22.3965  22.3965  22.3965  22.3965  22.3966
    22.3966  22.3966  22.3966  22.3966  22.3966  22.3966  22.3967  22.3967
    23.2323  23.2323  23.2324  23.2324  23.2324  23.2325  23.2325  23.2325
    23.2325  23.2325  23.2325  23.2326  23.2326  23.2326  23.2326  23.2327
    25.0391  25.0391  25.0392  25.0392  25.0392  25.0392  25.0392  25.0392
    25.0392  25.0392  25.0392  25.0393  25.0393  25.0393  25.0393  25.0393
    25.0393  25.0393  25.0393  25.0394  25.0394  25.0394  25.0394  25.0394
    28.4292  28.4292  28.4292  28.4292  28.4293  28.4293  28.4293  28.4293
    28.4294  28.4294  28.4294

     the Fermi energy is    23.1996 ev

!    total energy              =  -13813.30044295 Ry

     total all-electron energy =   -289989.690782 Ry
     estimated scf accuracy    <       0.00000017 Ry
     smearing contrib. (-TS)   =       0.02067362 Ry
     internal energy E=F+TS    =  -13813.32111657 Ry

     The total energy is F=E-TS. E is the sum of the following terms:
     one-electron contribution =    -987.93376313 Ry
     hartree contribution      =     913.75236402 Ry
     xc contribution           =    -928.18531250 Ry
     ewald contribution        =   -5221.50705023 Ry
     one-center paw contrib.   =   -7589.44735473 Ry

     convergence has been achieved in  13 iterations

     Forces acting on atoms (cartesian axes, Ry/au):

     atom    1 type  1   force =     0.00000000    0.00000000    0.00000000
     atom    2 type  1   force =    -0.00000143   -0.00000143    0.00000000
     atom    3 type  1   force =    -0.00000143    0.00000000   -0.00000143
     atom    4 type  1   force =    -0.00000000   -0.00000143   -0.00000143
     atom    5 type  1   force =     0.00000000    0.00000000    0.00000000
     atom    6 type  1   force =    -0.00000162   -0.00000162   -0.00000000
     atom    7 type  1   force =    -0.00000143   -0.00000000    0.00000143
     atom    8 type  1   force =     0.00000000   -0.00000143    0.00000143
     atom    9 type  1   force =     0.00000000    0.00000000    0.00000000
     atom   10 type  1   force =    -0.00000143    0.00000143    0.00000000
     atom   11 type  1   force =    -0.00000162    0.00000000   -0.00000162
     atom   12 type  1   force =    -0.00000000    0.00000143   -0.00000143
     atom   13 type  1   force =     0.00000000    0.00000000    0.00000000
     atom   14 type  1   force =    -0.00000162    0.00000162    0.00000000
     atom   15 type  1   force =    -0.00000162    0.00000000    0.00000162
     atom   16 type  1   force =    -0.00000000    0.00000143    0.00000143
     atom   17 type  1   force =     0.00000000    0.00000000    0.00000000
     atom   18 type  1   force =     0.00000143   -0.00000143    0.00000000
     atom   19 type  1   force =     0.00000143    0.00000000   -0.00000143
     atom   20 type  1   force =    -0.00000000   -0.00000162   -0.00000162
     atom   21 type  1   force =     0.00000000    0.00000000    0.00000000
     atom   22 type  1   force =     0.00000162   -0.00000162    0.00000000
     atom   23 type  1   force =     0.00000143    0.00000000    0.00000143
     atom   24 type  1   force =     0.00000000   -0.00000162    0.00000162
     atom   25 type  1   force =     0.00000000    0.00000000    0.00000000
     atom   26 type  1   force =     0.00000143    0.00000143    0.00000000
     atom   27 type  1   force =     0.00000162    0.00000000   -0.00000162
     atom   28 type  1   force =    -0.00000000    0.00000162   -0.00000162
     atom   29 type  1   force =     0.00000000    0.00000000    0.00000000
     atom   30 type  1   force =     0.00000162    0.00000162   -0.00000000
     atom   31 type  1   force =     0.00000162    0.00000000    0.00000162
     atom   32 type  1   force =    -0.00000000    0.00000162    0.00000162

     Total force =     0.000011     Total SCF correction =     0.000124
     SCF correction compared to forces is large: reduce conv_thr to get better values

     Computing stress (Cartesian axis) and pressure

          total   stress  (Ry/bohr**3)                   (kbar)     P=        5.64
   0.00003834   0.00000000   0.00000000            5.64        0.00        0.00
   0.00000000   0.00003834   0.00000000            0.00        5.64        0.00
   0.00000000   0.00000000   0.00003834            0.00        0.00        5.64

     Writing output data file /scratch/qvIxABxuGFkyAXtQ.save/

     General routines

     Parallel routines

   This run was terminated on:  12:39:32  23Nov2021

   JOB DONE.