     Program PWSCF v.6.7MaX starts on 23Nov2021 at 12:17:27

     R & G space division:  proc/nbgrp/npool/nimage =      72
     Reading input from /rds/homes/b/bxp912/jobs/20211014_ru_eos/wd/eos/eos_004.in
Warning: card &CELL ignored
Warning: card CELL_DYNAMICS = 'BFGS', ignored
Warning: card CELL_FACTOR = 2.0, ignored
Warning: card PRESS = 0.0, ignored
Warning: card / ignored

     Current dimensions of program PWSCF are:
     Max number of different atomic species (ntypx) = 10
     Max number of k-points (npk) =  40000
     Max angular momentum in pseudopotentials (lmaxx) =  3
     file Ru.pbe-spn-kjpaw_psl.1.0.0.UPF: wavefunction(s)  4D renormalized

     Subspace diagonalization in iterative solution of the eigenvalue problem:
     one sub-group per band group will be used

     Found symmetry operation: I + (  0.2500  0.2500  0.0000)
     This is a supercell, fractional translations are disabled
     Message from routine setup:
     using ibrav=0 with symmetry is DISCOURAGED, use correct ibrav instead

     bravais-lattice index     =            0
     lattice parameter (alat)  =      14.4007  a.u.
     unit-cell volume          =    2968.5625 (a.u.)^3
     number of atoms/cell      =           32
     number of atomic types    =            1
     number of electrons       =       512.00
     number of Kohn-Sham states=          307
     kinetic-energy cutoff     =      71.0000  Ry
     charge density cutoff     =     430.0000  Ry
     scf convergence threshold =      1.0E-06
     mixing beta               =       0.1000
     number of iterations used =           10  plain     mixing
     Exchange-correlation= SLA  PW   PBX  PBC
                           (   1   4   3   4   0   0   0)

     celldm(1)=  14.400742  celldm(2)=   0.000000  celldm(3)=   0.000000
     celldm(4)=   0.000000  celldm(5)=   0.000000  celldm(6)=   0.000000

     crystal axes: (cart. coord. in units of alat)
               a(1) = (   0.998000   0.000000   0.000000 )
               a(2) = (   0.000000   0.998000   0.000000 )
               a(3) = (   0.000000   0.000000   0.998000 )

     reciprocal axes: (cart. coord. in units 2 pi/alat)
               b(1) = (  1.002004  0.000000  0.000000 )
               b(2) = (  0.000000  1.002004  0.000000 )
               b(3) = (  0.000000  0.000000  1.002004 )

     PseudoPot. # 1 for Ru read from file:
     /rds/homes/b/bxp912/pp/Ru.pbe-spn-kjpaw_psl.1.0.0.UPF
     MD5 check sum: 0ae1f594dea09af7be8575c3a481d1ae
     Pseudo is Projector augmented-wave + core cor, Zval = 16.0
     Generated using "atomic" code by A. Dal Corso  v.5.1
     Shape of augmentation charge: PSQ
     Using radial grid of 1233 points,  6 beta functions with:
                l(1) =   0
                l(2) =   0
                l(3) =   1
                l(4) =   1
                l(5) =   2
                l(6) =   2
     Q(r) pseudized with 0 coefficients

     atomic species   valence    mass     pseudopotential
        Ru            16.00   101.07000     Ru( 1.00)

     48 Sym. Ops., with inversion, found

   Cartesian axes

     site n.     atom                  positions (alat units)
         1           Ru  tau(   1) = (   0.0000000   0.0000000   0.0000000  )
         2           Ru  tau(   2) = (   0.2495000   0.2495000   0.0000000  )
         3           Ru  tau(   3) = (   0.2495000   0.0000000   0.2494995  )
         4           Ru  tau(   4) = (   0.0000000   0.2495000   0.2494995  )
         5           Ru  tau(   5) = (   0.0000000   0.0000000   0.4990000  )
         6           Ru  tau(   6) = (   0.2494990   0.2494990   0.4990000  )
         7           Ru  tau(   7) = (   0.2495000   0.0000000   0.7484995  )
         8           Ru  tau(   8) = (   0.0000000   0.2495000   0.7484995  )
         9           Ru  tau(   9) = (   0.0000000   0.4990002   0.0000000  )
        10           Ru  tau(  10) = (   0.2495000   0.7485004   0.0000000  )
        11           Ru  tau(  11) = (   0.2494990   0.4990002   0.2494984  )
        12           Ru  tau(  12) = (   0.0000000   0.7485004   0.2494995  )
        13           Ru  tau(  13) = (   0.0000000   0.4990002   0.4990000  )
        14           Ru  tau(  14) = (   0.2494990   0.7485015   0.4990000  )
        15           Ru  tau(  15) = (   0.2494990   0.4990002   0.7485005  )
        16           Ru  tau(  16) = (   0.0000000   0.7485004   0.7484995  )
        17           Ru  tau(  17) = (   0.4990002   0.0000000   0.0000000  )
        18           Ru  tau(  18) = (   0.7485004   0.2495000   0.0000000  )
        19           Ru  tau(  19) = (   0.7485004   0.0000000   0.2494995  )
        20           Ru  tau(  20) = (   0.4990002   0.2494990   0.2494984  )
        21           Ru  tau(  21) = (   0.4990002   0.0000000   0.4990000  )
        22           Ru  tau(  22) = (   0.7485015   0.2494990   0.4990000  )
        23           Ru  tau(  23) = (   0.7485004   0.0000000   0.7484995  )
        24           Ru  tau(  24) = (   0.4990002   0.2494990   0.7485005  )
        25           Ru  tau(  25) = (   0.4990002   0.4990002   0.0000000  )
        26           Ru  tau(  26) = (   0.7485004   0.7485004   0.0000000  )
        27           Ru  tau(  27) = (   0.7485015   0.4990002   0.2494984  )
        28           Ru  tau(  28) = (   0.4990002   0.7485015   0.2494984  )
        29           Ru  tau(  29) = (   0.4990002   0.4990002   0.4990000  )
        30           Ru  tau(  30) = (   0.7485015   0.7485015   0.4990000  )
        31           Ru  tau(  31) = (   0.7485015   0.4990002   0.7485005  )
        32           Ru  tau(  32) = (   0.4990002   0.7485015   0.7485005  )

     number of k points=    35  Marzari-Vanderbilt smearing, width (Ry)=  0.0400
                       cart. coord. in units 2pi/alat
        k(    1) = (   0.0556669   0.0556669   0.0556669), wk =   0.0219479
        k(    2) = (   0.0556669   0.0556669   0.1670007), wk =   0.0658436
        k(    3) = (   0.0556669   0.0556669   0.2783344), wk =   0.0658436
        k(    4) = (   0.0556669   0.0556669   0.3896682), wk =   0.0658436
        k(    5) = (   0.0556669   0.0556669  -0.5010020), wk =   0.0329218
        k(    6) = (   0.0556669   0.1670007   0.1670007), wk =   0.0658436
        k(    7) = (   0.0556669   0.1670007   0.2783344), wk =   0.1316872
        k(    8) = (   0.0556669   0.1670007   0.3896682), wk =   0.1316872
        k(    9) = (   0.0556669   0.1670007  -0.5010020), wk =   0.0658436
        k(   10) = (   0.0556669   0.2783344   0.2783344), wk =   0.0658436
        k(   11) = (   0.0556669   0.2783344   0.3896682), wk =   0.1316872
        k(   12) = (   0.0556669   0.2783344  -0.5010020), wk =   0.0658436
        k(   13) = (   0.0556669   0.3896682   0.3896682), wk =   0.0658436
        k(   14) = (   0.0556669   0.3896682  -0.5010020), wk =   0.0658436
        k(   15) = (   0.0556669  -0.5010020  -0.5010020), wk =   0.0164609
        k(   16) = (   0.1670007   0.1670007   0.1670007), wk =   0.0219479
        k(   17) = (   0.1670007   0.1670007   0.2783344), wk =   0.0658436
        k(   18) = (   0.1670007   0.1670007   0.3896682), wk =   0.0658436
        k(   19) = (   0.1670007   0.1670007  -0.5010020), wk =   0.0329218
        k(   20) = (   0.1670007   0.2783344   0.2783344), wk =   0.0658436
        k(   21) = (   0.1670007   0.2783344   0.3896682), wk =   0.1316872
        k(   22) = (   0.1670007   0.2783344  -0.5010020), wk =   0.0658436
        k(   23) = (   0.1670007   0.3896682   0.3896682), wk =   0.0658436
        k(   24) = (   0.1670007   0.3896682  -0.5010020), wk =   0.0658436
        k(   25) = (   0.1670007  -0.5010020  -0.5010020), wk =   0.0164609
        k(   26) = (   0.2783344   0.2783344   0.2783344), wk =   0.0219479
        k(   27) = (   0.2783344   0.2783344   0.3896682), wk =   0.0658436
        k(   28) = (   0.2783344   0.2783344  -0.5010020), wk =   0.0329218
        k(   29) = (   0.2783344   0.3896682   0.3896682), wk =   0.0658436
        k(   30) = (   0.2783344   0.3896682  -0.5010020), wk =   0.0658436
        k(   31) = (   0.2783344  -0.5010020  -0.5010020), wk =   0.0164609
        k(   32) = (   0.3896682   0.3896682   0.3896682), wk =   0.0219479
        k(   33) = (   0.3896682   0.3896682  -0.5010020), wk =   0.0329218
        k(   34) = (   0.3896682  -0.5010020  -0.5010020), wk =   0.0164609
        k(   35) = (  -0.5010020  -0.5010020  -0.5010020), wk =   0.0027435

     Check: negative core charge=   -0.000003

     Initial potential from superposition of free atoms

     starting charge  511.97959, renormalised to  512.00000
     Starting wfcs are  320 randomized atomic wfcs
     Checking if some PAW data can be deallocated...

     Self-consistent Calculation

     iteration #  1     ecut=    71.00 Ry     beta= 0.10
     Davidson diagonalization with overlap
     ethr =  1.00E-02,  avg # of iterations =  3.3

     Threshold (ethr) on eigenvalues was too large:
     Diagonalizing with lowered threshold

     Davidson diagonalization with overlap
     ethr =  8.35E-05,  avg # of iterations =  5.4

     total energy              =  -13813.41245436 Ry
     estimated scf accuracy    <       0.64022470 Ry

[...]

     total energy              =  -13813.29941566 Ry
     estimated scf accuracy    <       0.00001025 Ry

     iteration # 13     ecut=    71.00 Ry     beta= 0.10
     Davidson diagonalization with overlap
     ethr =  3.66E-10,  avg # of iterations =  3.1

     End of self-consistent calculation

          k = 0.0557 0.0557 0.0557 ( 29972 PWs)   bands (ev):

   -49.7479 -49.6455 -49.6455 -49.6455 -49.6257 -49.6257 -49.6257 -49.5888
   -49.5888 -49.5888 -49.5792 -49.5781 -49.5780 -49.5780 -49.5780 -49.5780
   -49.5780 -49.5774 -49.5774 -49.5773 -49.5689 -49.5689 -49.5689 -49.5223
   -49.5223 -49.5223 -49.5218 -49.5218 -49.5218 -49.5218 -49.5217 -49.5217
   -20.1625 -20.1625 -20.1625 -20.1583 -20.0984 -20.0984 -20.0984 -19.8942
   -19.8942 -19.8941 -19.8825 -19.8825 -19.8825 -19.8825 -19.8825 -19.8825
   -19.8619 -19.8619 -19.8619 -19.8386 -19.8386 -19.8386 -19.8386 -19.8386
   -19.8386 -19.7870 -19.7870 -19.7870 -19.7870 -19.7870 -19.7870 -19.6857
   -19.6857 -19.6857 -19.6110 -19.6110 -19.6110 -19.6032 -19.6032 -19.6032
   -19.5686 -19.5686 -19.5686 -19.5686 -19.5686 -19.5686 -19.5276 -19.5276
   -19.5276 -19.5205 -19.5205 -19.5205 -19.5205 -19.5205 -19.5205 -19.5144
   -19.5144 -19.5144 -19.5098 -19.5098 -19.5098 -19.3440 -19.3440 -19.3440
   -19.3435 -19.3435 -19.3435 -19.3112 -19.3112 -19.3112 -19.3110 -19.3110
   -19.3110 -19.2958 -19.2958 -19.2958 -19.2832 -19.2832 -19.2832 -19.2821
   -19.2821 -19.2821 -19.2821 -19.2821 -19.2821 -19.2801 -19.2800 -19.2800
   -19.2772 -19.2772 -19.2633 -19.2633 -19.2633 -19.1483 -19.1412 -19.1412
    15.4806  17.0192  17.0192  17.0192  17.3079  17.3256  17.3256  17.3256
    17.4905  17.4905  17.4905  17.7410  17.7410  17.7410  17.9088  17.9088
    17.9088  18.4395  18.4395  18.4395  18.4395  18.4395  18.4395  18.7563
    18.7563  18.7563  19.0317  19.0317  19.0317  19.0376  19.0376  19.0376
    19.1387  19.1387  19.1388  19.1453  19.1453  19.1453  19.1453  19.1453
    19.1453  19.6340  19.6340  19.6340  19.6340  19.6340  19.6340  19.7792
    19.7792  19.7792  19.8108  19.8108  19.8108  19.8108  19.8108  19.8108
    19.8753  19.8753  19.8754  20.1428  20.1428  20.1428  20.1428  20.1428
    20.1428  20.1438  20.1438  20.1438  20.1439  20.1439  20.1440  20.1440
    20.1440  20.1440  20.3127  20.3127  20.3128  20.5979  20.5979  20.5979
    20.6345  20.6345  20.6497  20.6497  20.6497  20.7298  20.7615  20.7615
    21.7480  21.7480  21.7480  21.9219  21.9219  21.9220  21.9653  21.9653
    21.9653  22.0666  22.0666  22.0666  22.0666  22.0666  22.0666  22.0805
    22.0805  22.0805  22.3812  22.3812  22.3812  22.5026  22.5026  22.5026
    22.7534  22.7534  22.7534  22.8302  22.8302  22.8302  22.8302  22.8302
    22.8302  22.8495  22.8495  22.8495  22.8912  22.8912  22.8913  23.0816
    23.0816  23.0816  23.0816  23.0816  23.0816  23.1431  23.1431  23.2565
    23.2565  23.2565  23.9256  23.9256  23.9256  23.9697  23.9697  23.9697
    24.0873  24.0873  24.0873  24.1702  24.9151  24.9151  24.9151  24.9573
    24.9573  24.9927  24.9927  24.9927  25.2786  25.2786  25.2786  25.3010
    25.3010  25.3010  25.4676  25.4676  25.4677  25.4677  25.4677  25.4677
    25.4727  25.4727  25.4727  26.9268  26.9268  26.9268  27.0810  27.0810
    27.0810  27.4639  27.4639

[...]

          k = 0.3897-0.5010-0.5010 ( 29984 PWs)   bands (ev):

[...]

          k =-0.5010-0.5010-0.5010 ( 29992 PWs)   bands (ev):

   -49.6644 -49.6642 -49.6642 -49.6642 -49.6640 -49.6640 -49.6640 -49.6638
   -49.5504 -49.5503 -49.5502 -49.5501 -49.5501 -49.5501 -49.5501 -49.5501
   -49.5500 -49.5500 -49.5500 -49.5500 -49.5499 -49.5499 -49.5499 -49.5499
   -49.5498 -49.5498 -49.5497 -49.5497 -49.5497 -49.5497 -49.5496 -49.5495
   -19.9906 -19.9906 -19.9906 -19.9906 -19.9905 -19.9905 -19.9905 -19.9905
   -19.9905 -19.9905 -19.9904 -19.9904 -19.9904 -19.9903 -19.9903 -19.9903
   -19.9903 -19.9903 -19.9903 -19.9902 -19.9902 -19.9902 -19.9902 -19.9902
   -19.6641 -19.6641 -19.6641 -19.6640 -19.6640 -19.6640 -19.6640 -19.6639
   -19.5495 -19.5494 -19.5494 -19.5494 -19.5494 -19.5494 -19.5494 -19.5493
   -19.5493 -19.5493 -19.5493 -19.5493 -19.5493 -19.5493 -19.5493 -19.5493
   -19.5493 -19.5492 -19.5492 -19.5492 -19.5492 -19.5492 -19.5492 -19.5492
   -19.3961 -19.3961 -19.3961 -19.3961 -19.3961 -19.3961 -19.3961 -19.3961
   -19.3960 -19.3960 -19.3960 -19.3960 -19.3959 -19.3959 -19.3959 -19.3959
   -19.3959 -19.3959 -19.3959 -19.3959 -19.3958 -19.3958 -19.3958 -19.3958
   -19.2097 -19.2097 -19.2097 -19.2097 -19.2097 -19.2097 -19.2097 -19.2097
   -19.2095 -19.2095 -19.2095 -19.2095 -19.2095 -19.2094 -19.2094 -19.2094
    17.2831  17.2833  17.2833  17.2833  17.2835  17.2835  17.2835  17.2836
    18.1264  18.1264  18.1264  18.1264  18.1264  18.1264  18.1264  18.1264
    18.1264  18.1265  18.1265  18.1265  18.1265  18.1266  18.1266  18.1266
    18.1266  18.1266  18.1266  18.1266  18.1266  18.1266  18.1266  18.1266
    19.1637  19.1638  19.1638  19.1638  19.1639  19.1639  19.1639  19.1639
    19.1639  19.1639  19.1639  19.1639  19.1640  19.1640  19.1640  19.1640
    19.1640  19.1640  19.1641  19.1641  19.1641  19.1641  19.1641  19.1641
    20.5013  20.5013  20.5013  20.5013  20.5013  20.5013  20.5013  20.5014
    21.1422  21.1422  21.1422  21.1423  21.1423  21.1423  21.1423  21.1423
    21.1423  21.1423  21.1424  21.1424  21.1424  21.1424  21.1424  21.1424
    21.2570  21.2571  21.2571  21.2571  21.2571  21.2571  21.2571  21.2571
    21.2571  21.2571  21.2572  21.2572  21.2572  21.2572  21.2572  21.2572
    21.2572  21.2572  21.2572  21.2572  21.2573  21.2573  21.2573  21.2573
    22.4782  22.4782  22.4783  22.4783  22.4783  22.4783  22.4783  22.4784
    22.4784  22.4784  22.4784  22.4784  22.4784  22.4784  22.4784  22.4784
    22.4785  22.4785  22.4785  22.4785  22.4785  22.4785  22.4786  22.4786
    23.3182  23.3183  23.3183  23.3183  23.3183  23.3184  23.3184  23.3184
    23.3184  23.3184  23.3184  23.3185  23.3185  23.3185  23.3185  23.3186
    25.1343  25.1343  25.1343  25.1343  25.1344  25.1344  25.1344  25.1344
    25.1344  25.1344  25.1344  25.1344  25.1345  25.1345  25.1345  25.1345
    25.1345  25.1345  25.1345  25.1345  25.1345  25.1346  25.1346  25.1346
    28.5339  28.5340  28.5340  28.5340  28.5340  28.5340  28.5341  28.5341
    28.5341  28.5341  28.5342

     the Fermi energy is    23.2852 ev

!    total energy              =  -13813.29941887 Ry

     total all-electron energy =   -289989.689758 Ry
     estimated scf accuracy    <       0.00000015 Ry
     smearing contrib. (-TS)   =       0.02091420 Ry
     internal energy E=F+TS    =  -13813.32033306 Ry

     The total energy is F=E-TS. E is the sum of the following terms:
     one-electron contribution =    -980.30140574 Ry
     hartree contribution      =     911.47452470 Ry
     xc contribution           =    -928.30277481 Ry
     ewald contribution        =   -5226.73902123 Ry
     one-center paw contrib.   =   -7589.45165599 Ry

     convergence has been achieved in  13 iterations

     Forces acting on atoms (cartesian axes, Ry/au):

     atom    1 type  1   force =     0.00000000    0.00000000    0.00000000
     atom    2 type  1   force =    -0.00000119   -0.00000119    0.00000000
     atom    3 type  1   force =    -0.00000119    0.00000000   -0.00000119
     atom    4 type  1   force =    -0.00000000   -0.00000119   -0.00000119
     atom    5 type  1   force =     0.00000000    0.00000000    0.00000000
     atom    6 type  1   force =    -0.00000142   -0.00000142    0.00000000
     atom    7 type  1   force =    -0.00000119   -0.00000000    0.00000119
     atom    8 type  1   force =    -0.00000000   -0.00000119    0.00000119
     atom    9 type  1   force =     0.00000000    0.00000000    0.00000000
     atom   10 type  1   force =    -0.00000119    0.00000119    0.00000000
     atom   11 type  1   force =    -0.00000142    0.00000000   -0.00000142
     atom   12 type  1   force =     0.00000000    0.00000119   -0.00000119
     atom   13 type  1   force =     0.00000000    0.00000000    0.00000000
     atom   14 type  1   force =    -0.00000142    0.00000142   -0.00000000
     atom   15 type  1   force =    -0.00000142    0.00000000    0.00000142
     atom   16 type  1   force =    -0.00000000    0.00000119    0.00000119
     atom   17 type  1   force =     0.00000000    0.00000000    0.00000000
     atom   18 type  1   force =     0.00000119   -0.00000119    0.00000000
     atom   19 type  1   force =     0.00000119   -0.00000000   -0.00000119
     atom   20 type  1   force =     0.00000000   -0.00000142   -0.00000142
     atom   21 type  1   force =     0.00000000    0.00000000    0.00000000
     atom   22 type  1   force =     0.00000142   -0.00000142   -0.00000000
     atom   23 type  1   force =     0.00000119   -0.00000000    0.00000119
     atom   24 type  1   force =    -0.00000000   -0.00000142    0.00000142
     atom   25 type  1   force =     0.00000000    0.00000000    0.00000000
     atom   26 type  1   force =     0.00000119    0.00000119    0.00000000
     atom   27 type  1   force =     0.00000142    0.00000000   -0.00000142
     atom   28 type  1   force =    -0.00000000    0.00000142   -0.00000142
     atom   29 type  1   force =     0.00000000    0.00000000    0.00000000
     atom   30 type  1   force =     0.00000142    0.00000142    0.00000000
     atom   31 type  1   force =     0.00000142    0.00000000    0.00000142
     atom   32 type  1   force =     0.00000000    0.00000142    0.00000142

     Total force =     0.000009     Total SCF correction =     0.000137
     SCF correction compared to forces is large: reduce conv_thr to get better values

     Computing stress (Cartesian axis) and pressure

          total   stress  (Ry/bohr**3)                   (kbar)     P=       15.01
   0.00010201   0.00000000   0.00000000           15.01        0.00        0.00
   0.00000000   0.00010201   0.00000000            0.00       15.01        0.00
   0.00000000   0.00000000   0.00010201            0.00        0.00       15.01

     Writing output data file /scratch/TBwGoyKyRYjLEiIH.save/

     General routines

     Parallel routines

   This run was terminated on:  12:28:26  23Nov2021

   JOB DONE.