     Program PWSCF v.6.7MaX starts on 23Nov2021 at 13:12:56

     R & G space division:  proc/nbgrp/npool/nimage =      72
     Reading input from /rds/homes/b/bxp912/jobs/20211014_ru_eos/wd/eos/eos_009.in
Warning: card &CELL ignored
Warning: card CELL_DYNAMICS = 'BFGS', ignored
Warning: card CELL_FACTOR = 2.0, ignored
Warning: card PRESS = 0.0, ignored
Warning: card / ignored

     Current dimensions of program PWSCF are:
     Max number of different atomic species (ntypx) = 10
     Max number of k-points (npk) =  40000
     Max angular momentum in pseudopotentials (lmaxx) =  3
     file Ru.pbe-spn-kjpaw_psl.1.0.0.UPF: wavefunction(s)  4D renormalized

     Subspace diagonalization in iterative solution of the eigenvalue problem:
     one sub-group per band group will be used

     Found symmetry operation: I + (  0.2500  0.2500  0.0000)
     This is a supercell, fractional translations are disabled
     Message from routine setup:
     using ibrav=0 with symmetry is DISCOURAGED, use correct ibrav instead

     bravais-lattice index     =            0
     lattice parameter (alat)  =      14.4007  a.u.
     unit-cell volume          =    3013.4041 (a.u.)^3
     number of atoms/cell      =           32
     number of atomic types    =            1
     number of electrons       =       512.00
     number of Kohn-Sham states=          307
     kinetic-energy cutoff     =      71.0000  Ry
     charge density cutoff     =     430.0000  Ry
     scf convergence threshold =      1.0E-06
     mixing beta               =       0.1000
     number of iterations used =           10  plain     mixing
     Exchange-correlation= SLA  PW   PBX  PBC
                           (   1   4   3   4   0   0   0)

     celldm(1)=  14.400742  celldm(2)=   0.000000  celldm(3)=   0.000000
     celldm(4)=   0.000000  celldm(5)=   0.000000  celldm(6)=   0.000000

     crystal axes: (cart. coord. in units of alat)
               a(1) = (   1.003000   0.000000   0.000000 )
               a(2) = (   0.000000   1.003000   0.000000 )
               a(3) = (   0.000000   0.000000   1.003000 )

     reciprocal axes: (cart. coord. in units 2 pi/alat)
               b(1) = (  0.997009  0.000000  0.000000 )
               b(2) = (  0.000000  0.997009  0.000000 )
               b(3) = (  0.000000  0.000000  0.997009 )

     PseudoPot. # 1 for Ru read from file:
     /rds/homes/b/bxp912/pp/Ru.pbe-spn-kjpaw_psl.1.0.0.UPF
     MD5 check sum: 0ae1f594dea09af7be8575c3a481d1ae
     Pseudo is Projector augmented-wave + core cor, Zval = 16.0
     Generated using "atomic" code by A. Dal Corso  v.5.1
     Shape of augmentation charge: PSQ
     Using radial grid of 1233 points,  6 beta functions with:
                l(1) =   0
                l(2) =   0
                l(3) =   1
                l(4) =   1
                l(5) =   2
                l(6) =   2
     Q(r) pseudized with 0 coefficients

     atomic species   valence    mass     pseudopotential
        Ru            16.00   101.07000     Ru( 1.00)

     48 Sym. Ops., with inversion, found

   Cartesian axes

     site n.     atom                  positions (alat units)
         1           Ru  tau(   1) = (   0.0000000   0.0000000   0.0000000  )
         2           Ru  tau(   2) = (   0.2507500   0.2507500   0.0000000  )
         3           Ru  tau(   3) = (   0.2507500   0.0000000   0.2507495  )
         4           Ru  tau(   4) = (   0.0000000   0.2507500   0.2507495  )
         5           Ru  tau(   5) = (   0.0000000   0.0000000   0.5015000  )
         6           Ru  tau(   6) = (   0.2507489   0.2507489   0.5015000  )
         7           Ru  tau(   7) = (   0.2507500   0.0000000   0.7522495  )
         8           Ru  tau(   8) = (   0.0000000   0.2507500   0.7522495  )
         9           Ru  tau(   9) = (   0.0000000   0.5015002   0.0000000  )
        10           Ru  tau(  10) = (   0.2507500   0.7522504   0.0000000  )
        11           Ru  tau(  11) = (   0.2507489   0.5015002   0.2507484  )
        12           Ru  tau(  12) = (   0.0000000   0.7522504   0.2507495  )
        13           Ru  tau(  13) = (   0.0000000   0.5015002   0.5015000  )
        14           Ru  tau(  14) = (   0.2507489   0.7522515   0.5015000  )
        15           Ru  tau(  15) = (   0.2507489   0.5015002   0.7522505  )
        16           Ru  tau(  16) = (   0.0000000   0.7522504   0.7522495  )
        17           Ru  tau(  17) = (   0.5015002   0.0000000   0.0000000  )
        18           Ru  tau(  18) = (   0.7522504   0.2507500   0.0000000  )
        19           Ru  tau(  19) = (   0.7522504   0.0000000   0.2507495  )
        20           Ru  tau(  20) = (   0.5015002   0.2507489   0.2507484  )
        21           Ru  tau(  21) = (   0.5015002   0.0000000   0.5015000  )
        22           Ru  tau(  22) = (   0.7522515   0.2507489   0.5015000  )
        23           Ru  tau(  23) = (   0.7522504   0.0000000   0.7522495  )
        24           Ru  tau(  24) = (   0.5015002   0.2507489   0.7522505  )
        25           Ru  tau(  25) = (   0.5015002   0.5015002   0.0000000  )
        26           Ru  tau(  26) = (   0.7522504   0.7522504   0.0000000  )
        27           Ru  tau(  27) = (   0.7522515   0.5015002   0.2507484  )
        28           Ru  tau(  28) = (   0.5015002   0.7522515   0.2507484  )
        29           Ru  tau(  29) = (   0.5015002   0.5015002   0.5015000  )
        30           Ru  tau(  30) = (   0.7522515   0.7522515   0.5015000  )
        31           Ru  tau(  31) = (   0.7522515   0.5015002   0.7522505  )
        32           Ru  tau(  32) = (   0.5015002   0.7522515   0.7522505  )

     number of k points=    35  Marzari-Vanderbilt smearing, width (Ry)=  0.0400
                       cart. coord. in units 2pi/alat
        k(    1) = (   0.0553894   0.0553894   0.0553894), wk =   0.0219479
        k(    2) = (   0.0553894   0.0553894   0.1661682), wk =   0.0658436
        k(    3) = (   0.0553894   0.0553894   0.2769469), wk =   0.0658436
        k(    4) = (   0.0553894   0.0553894   0.3877257), wk =   0.0658436
        k(    5) = (   0.0553894   0.0553894  -0.4985045), wk =   0.0329218
        k(    6) = (   0.0553894   0.1661682   0.1661682), wk =   0.0658436
        k(    7) = (   0.0553894   0.1661682   0.2769469), wk =   0.1316872
        k(    8) = (   0.0553894   0.1661682   0.3877257), wk =   0.1316872
        k(    9) = (   0.0553894   0.1661682  -0.4985045), wk =   0.0658436
        k(   10) = (   0.0553894   0.2769469   0.2769469), wk =   0.0658436
        k(   11) = (   0.0553894   0.2769469   0.3877257), wk =   0.1316872
        k(   12) = (   0.0553894   0.2769469  -0.4985045), wk =   0.0658436
        k(   13) = (   0.0553894   0.3877257   0.3877257), wk =   0.0658436
        k(   14) = (   0.0553894   0.3877257  -0.4985045), wk =   0.0658436
        k(   15) = (   0.0553894  -0.4985045  -0.4985045), wk =   0.0164609
        k(   16) = (   0.1661682   0.1661682   0.1661682), wk =   0.0219479
        k(   17) = (   0.1661682   0.1661682   0.2769469), wk =   0.0658436
        k(   18) = (   0.1661682   0.1661682   0.3877257), wk =   0.0658436
        k(   19) = (   0.1661682   0.1661682  -0.4985045), wk =   0.0329218
        k(   20) = (   0.1661682   0.2769469   0.2769469), wk =   0.0658436
        k(   21) = (   0.1661682   0.2769469   0.3877257), wk =   0.1316872
        k(   22) = (   0.1661682   0.2769469  -0.4985045), wk =   0.0658436
        k(   23) = (   0.1661682   0.3877257   0.3877257), wk =   0.0658436
        k(   24) = (   0.1661682   0.3877257  -0.4985045), wk =   0.0658436
        k(   25) = (   0.1661682  -0.4985045  -0.4985045), wk =   0.0164609
        k(   26) = (   0.2769469   0.2769469   0.2769469), wk =   0.0219479
        k(   27) = (   0.2769469   0.2769469   0.3877257), wk =   0.0658436
        k(   28) = (   0.2769469   0.2769469  -0.4985045), wk =   0.0329218
        k(   29) = (   0.2769469   0.3877257   0.3877257), wk =   0.0658436
        k(   30) = (   0.2769469   0.3877257  -0.4985045), wk =   0.0658436
        k(   31) = (   0.2769469  -0.4985045  -0.4985045), wk =   0.0164609
        k(   32) = (   0.3877257   0.3877257   0.3877257), wk =   0.0219479
        k(   33) = (   0.3877257   0.3877257  -0.4985045), wk =   0.0329218
        k(   34) = (   0.3877257  -0.4985045  -0.4985045), wk =   0.0164609
        k(   35) = (  -0.4985045  -0.4985045  -0.4985045), wk =   0.0027435

     Check: negative core charge=   -0.000002

     Initial potential from superposition of free atoms

     starting charge  511.97959, renormalised to  512.00000
     Starting wfcs are  320 randomized atomic wfcs
     Checking if some PAW data can be deallocated...

     Self-consistent Calculation

     iteration #  1     ecut=    71.00 Ry     beta= 0.10
     Davidson diagonalization with overlap
     ethr =  1.00E-02,  avg # of iterations =  3.5

     Threshold (ethr) on eigenvalues was too large:
     Diagonalizing with lowered threshold

     Davidson diagonalization with overlap
     ethr =  8.23E-05,  avg # of iterations =  5.3

     total energy              =  -13813.40939326 Ry
     estimated scf accuracy    <       0.63492968 Ry

[...]

     total energy              =  -13813.29888606 Ry
     estimated scf accuracy    <       0.00001515 Ry

     iteration # 13     ecut=    71.00 Ry     beta= 0.10
     Davidson diagonalization with overlap
     ethr =  5.29E-10,  avg # of iterations =  3.2

     End of self-consistent calculation

          k = 0.0554 0.0554 0.0554 ( 30512 PWs)   bands (ev):

   -50.1455 -50.0493 -50.0493 -50.0493 -50.0308 -50.0308 -50.0308 -49.9962
   -49.9962 -49.9962 -49.9872 -49.9861 -49.9861 -49.9861 -49.9861 -49.9860
   -49.9860 -49.9855 -49.9855 -49.9855 -49.9775 -49.9775 -49.9775 -49.9339
   -49.9338 -49.9338 -49.9333 -49.9333 -49.9333 -49.9333 -49.9333 -49.9332
   -20.5358 -20.5358 -20.5358 -20.5318 -20.4751 -20.4751 -20.4751 -20.2804
   -20.2804 -20.2804 -20.2694 -20.2694 -20.2694 -20.2694 -20.2694 -20.2694
   -20.2497 -20.2497 -20.2497 -20.2278 -20.2278 -20.2278 -20.2278 -20.2278
   -20.2278 -20.1788 -20.1788 -20.1788 -20.1788 -20.1788 -20.1788 -20.0822
   -20.0822 -20.0821 -20.0113 -20.0113 -20.0113 -20.0035 -20.0035 -20.0035
   -19.9710 -19.9710 -19.9710 -19.9710 -19.9710 -19.9710 -19.9319 -19.9319
   -19.9319 -19.9253 -19.9253 -19.9253 -19.9253 -19.9253 -19.9253 -19.9200
   -19.9200 -19.9200 -19.9156 -19.9156 -19.9156 -19.7575 -19.7575 -19.7575
   -19.7569 -19.7569 -19.7569 -19.7263 -19.7263 -19.7263 -19.7261 -19.7261
   -19.7261 -19.7119 -19.7119 -19.7118 -19.7000 -19.7000 -19.6999 -19.6989
   -19.6989 -19.6988 -19.6988 -19.6988 -19.6988 -19.6969 -19.6969 -19.6969
   -19.6942 -19.6942 -19.6809 -19.6809 -19.6809 -19.5710 -19.5643 -19.5643
    15.1415  16.7253  16.7253  16.7253  16.9926  17.0102  17.0102  17.0102
    17.1893  17.1893  17.1893  17.3858  17.3858  17.3858  17.5619  17.5619
    17.5619  18.1178  18.1179  18.1179  18.1179  18.1179  18.1179  18.4314
    18.4314  18.4314  18.6773  18.6773  18.6774  18.7012  18.7012  18.7012
    18.7887  18.7887  18.7887  18.7887  18.7888  18.7888  18.7891  18.7891
    18.7891  19.2817  19.2817  19.2817  19.2817  19.2817  19.2817  19.4247
    19.4247  19.4247  19.4568  19.4568  19.4568  19.4569  19.4569  19.4569
    19.5210  19.5210  19.5210  19.7768  19.7768  19.7768  19.7802  19.7802
    19.7802  19.7803  19.7803  19.7803  19.7810  19.7810  19.7810  19.7811
    19.7811  19.7811  19.9506  19.9506  19.9507  20.2332  20.2332  20.2332
    20.2688  20.2688  20.2837  20.2837  20.2837  20.3606  20.3915  20.3915
    21.3528  21.3528  21.3528  21.5182  21.5182  21.5182  21.5717  21.5717
    21.5717  21.6704  21.6704  21.6704  21.6704  21.6704  21.6704  21.6842
    21.6842  21.6842  21.9756  21.9757  21.9757  22.0935  22.0935  22.0935
    22.3395  22.3396  22.3396  22.4178  22.4178  22.4178  22.4178  22.4178
    22.4179  22.4353  22.4353  22.4353  22.4733  22.4733  22.4733  22.6619
    22.6620  22.6620  22.6620  22.6620  22.6620  22.7181  22.7181  22.8328
    22.8328  22.8328  23.4828  23.4828  23.4828  23.5334  23.5334  23.5334
    23.6407  23.6407  23.6407  23.7341  24.4478  24.4478  24.4478  24.4899
    24.4899  24.5244  24.5244  24.5244  24.8050  24.8050  24.8050  24.8326
    24.8326  24.8326  24.9875  24.9875  24.9875  24.9875  24.9875  24.9875
    24.9924  24.9924  24.9924  26.4198  26.4198  26.4198  26.5997  26.5997
    26.5997  26.9486  26.9486

[...]

          k = 0.3877-0.4985-0.4985 ( 30448 PWs)   bands (ev):

[...]

          k =-0.4985-0.4985-0.4985 ( 30592 PWs)   bands (ev):

   -50.0671 -50.0669 -50.0669 -50.0669 -50.0667 -50.0667 -50.0667 -50.0665
   -49.9602 -49.9601 -49.9600 -49.9600 -49.9599 -49.9599 -49.9599 -49.9599
   -49.9598 -49.9598 -49.9598 -49.9598 -49.9598 -49.9597 -49.9597 -49.9597
   -49.9596 -49.9596 -49.9596 -49.9595 -49.9595 -49.9595 -49.9594 -49.9593
   -20.3724 -20.3724 -20.3724 -20.3724 -20.3723 -20.3723 -20.3723 -20.3723
   -20.3723 -20.3723 -20.3722 -20.3722 -20.3722 -20.3721 -20.3721 -20.3721
   -20.3721 -20.3720 -20.3720 -20.3720 -20.3720 -20.3720 -20.3720 -20.3720
   -20.0614 -20.0613 -20.0613 -20.0613 -20.0613 -20.0612 -20.0612 -20.0612
   -19.9529 -19.9529 -19.9528 -19.9528 -19.9528 -19.9528 -19.9528 -19.9528
   -19.9528 -19.9528 -19.9528 -19.9528 -19.9527 -19.9527 -19.9527 -19.9527
   -19.9527 -19.9527 -19.9527 -19.9527 -19.9527 -19.9527 -19.9526 -19.9526
   -19.8074 -19.8074 -19.8074 -19.8073 -19.8073 -19.8073 -19.8073 -19.8073
   -19.8073 -19.8073 -19.8073 -19.8073 -19.8072 -19.8072 -19.8072 -19.8071
   -19.8071 -19.8071 -19.8071 -19.8071 -19.8071 -19.8071 -19.8071 -19.8070
   -19.6298 -19.6298 -19.6298 -19.6297 -19.6297 -19.6297 -19.6297 -19.6297
   -19.6295 -19.6295 -19.6295 -19.6295 -19.6295 -19.6295 -19.6295 -19.6295
    16.9348  16.9350  16.9350  16.9350  16.9351  16.9351  16.9352  16.9353
    17.8064  17.8064  17.8064  17.8064  17.8064  17.8064  17.8065  17.8065
    17.8065  17.8065  17.8065  17.8065  17.8066  17.8066  17.8066  17.8066
    17.8066  17.8066  17.8066  17.8066  17.8067  17.8067  17.8067  17.8067
    18.8241  18.8242  18.8242  18.8242  18.8242  18.8243  18.8243  18.8243
    18.8243  18.8243  18.8243  18.8243  18.8244  18.8244  18.8244  18.8244
    18.8244  18.8244  18.8244  18.8245  18.8245  18.8245  18.8245  18.8245
    20.1266  20.1267  20.1267  20.1267  20.1267  20.1267  20.1267  20.1267
    20.7649  20.7649  20.7649  20.7649  20.7649  20.7649  20.7649  20.7649
    20.7650  20.7650  20.7650  20.7650  20.7650  20.7650  20.7650  20.7650
    20.8668  20.8669  20.8669  20.8669  20.8669  20.8669  20.8669  20.8669
    20.8669  20.8670  20.8670  20.8670  20.8670  20.8670  20.8670  20.8670
    20.8670  20.8670  20.8671  20.8671  20.8671  20.8671  20.8671  20.8671
    22.0720  22.0720  22.0720  22.0720  22.0720  22.0721  22.0721  22.0721
    22.0721  22.0722  22.0722  22.0722  22.0722  22.0722  22.0722  22.0722
    22.0722  22.0722  22.0722  22.0723  22.0723  22.0723  22.0724  22.0724
    22.8920  22.8920  22.8921  22.8921  22.8921  22.8921  22.8921  22.8921
    22.8922  22.8922  22.8922  22.8922  22.8922  22.8922  22.8923  22.8923
    24.6623  24.6623  24.6623  24.6623  24.6624  24.6624  24.6624  24.6624
    24.6624  24.6624  24.6624  24.6624  24.6625  24.6625  24.6625  24.6625
    24.6625  24.6625  24.6625  24.6625  24.6625  24.6626  24.6626  24.6626
    28.0146  28.0146  28.0146  28.0147  28.0147  28.0147  28.0147  28.0148
    28.0148  28.0148  28.0148

     the Fermi energy is    22.8602 ev

!    total energy              =  -13813.29889015 Ry

     total all-electron energy =   -289989.689229 Ry
     estimated scf accuracy    <       0.00000021 Ry
     smearing contrib. (-TS)   =       0.01969885 Ry
     internal energy E=F+TS    =  -13813.31858899 Ry

     The total energy is F=E-TS. E is the sum of the following terms:
     one-electron contribution =   -1018.34643574 Ry
     hartree contribution      =     922.86420069 Ry
     xc contribution           =    -927.72242164 Ry
     ewald contribution        =   -5200.68349271 Ry
     one-center paw contrib.   =   -7589.43043960 Ry

     convergence has been achieved in  13 iterations

     Forces acting on atoms (cartesian axes, Ry/au):

     atom    1 type  1   force =     0.00000000    0.00000000    0.00000000
     atom    2 type  1   force =    -0.00000150   -0.00000150    0.00000000
     atom    3 type  1   force =    -0.00000150    0.00000000   -0.00000150
     atom    4 type  1   force =     0.00000000   -0.00000150   -0.00000150
     atom    5 type  1   force =     0.00000000    0.00000000    0.00000000
     atom    6 type  1   force =    -0.00000114   -0.00000114    0.00000000
     atom    7 type  1   force =    -0.00000150   -0.00000000    0.00000150
     atom    8 type  1   force =     0.00000000   -0.00000150    0.00000150
     atom    9 type  1   force =     0.00000000    0.00000000    0.00000000
     atom   10 type  1   force =    -0.00000150    0.00000150    0.00000000
     atom   11 type  1   force =    -0.00000114    0.00000000   -0.00000114
     atom   12 type  1   force =     0.00000000    0.00000150   -0.00000150
     atom   13 type  1   force =     0.00000000    0.00000000    0.00000000
     atom   14 type  1   force =    -0.00000114    0.00000114   -0.00000000
     atom   15 type  1   force =    -0.00000114    0.00000000    0.00000114
     atom   16 type  1   force =     0.00000000    0.00000150    0.00000150
     atom   17 type  1   force =     0.00000000    0.00000000    0.00000000
     atom   18 type  1   force =     0.00000150   -0.00000150    0.00000000
     atom   19 type  1   force =     0.00000150    0.00000000   -0.00000150
     atom   20 type  1   force =    -0.00000000   -0.00000114   -0.00000114
     atom   21 type  1   force =     0.00000000    0.00000000    0.00000000
     atom   22 type  1   force =     0.00000114   -0.00000114   -0.00000000
     atom   23 type  1   force =     0.00000150    0.00000000    0.00000150
     atom   24 type  1   force =     0.00000000   -0.00000114    0.00000114
     atom   25 type  1   force =     0.00000000    0.00000000    0.00000000
     atom   26 type  1   force =     0.00000150    0.00000150    0.00000000
     atom   27 type  1   force =     0.00000114    0.00000000   -0.00000114
     atom   28 type  1   force =    -0.00000000    0.00000114   -0.00000114
     atom   29 type  1   force =     0.00000000    0.00000000    0.00000000
     atom   30 type  1   force =     0.00000114    0.00000114    0.00000000
     atom   31 type  1   force =     0.00000114    0.00000000    0.00000114
     atom   32 type  1   force =    -0.00000000    0.00000114    0.00000114

     Total force =     0.000009     Total SCF correction =     0.000103
     SCF correction compared to forces is large: reduce conv_thr to get better values

     Computing stress (Cartesian axis) and pressure

          total   stress  (Ry/bohr**3)                   (kbar)     P=      -30.52
  -0.00020746   0.00000000   0.00000000          -30.52        0.00        0.00
   0.00000000  -0.00020746   0.00000000            0.00      -30.52        0.00
   0.00000000   0.00000000  -0.00020746            0.00        0.00      -30.52

     Writing output data file /scratch/IxehntHqjCtyBWxs.save/

     General routines

     Parallel routines

   This run was terminated on:  13:23:53  23Nov2021

   JOB DONE.