     Program PWSCF v.6.7MaX starts on 23Nov2021 at 12: 6:25

     R & G space division:  proc/nbgrp/npool/nimage =      72
     Reading input from /rds/homes/b/bxp912/jobs/20211014_ru_eos/wd/eos/eos_003.in
Warning: card &CELL ignored
Warning: card CELL_DYNAMICS = 'BFGS', ignored
Warning: card CELL_FACTOR = 2.0, ignored
Warning: card PRESS = 0.0, ignored
Warning: card / ignored

     Current dimensions of program PWSCF are:
     Max number of different atomic species (ntypx) = 10
     Max number of k-points (npk) =  40000
     Max angular momentum in pseudopotentials (lmaxx) =  3
     file Ru.pbe-spn-kjpaw_psl.1.0.0.UPF: wavefunction(s)  4D renormalized

     Subspace diagonalization in iterative solution of the eigenvalue problem:
     one sub-group per band group will be used

     Found symmetry operation: I + (  0.2500  0.2500  0.0000)
     This is a supercell, fractional translations are disabled
     Message from routine setup:
     using ibrav=0 with symmetry is DISCOURAGED, use correct ibrav instead

     bravais-lattice index     =            0
     lattice parameter (alat)  =      14.4007  a.u.
     unit-cell volume          =    2959.6479 (a.u.)^3
     number of atoms/cell      =           32
     number of atomic types    =            1
     number of electrons       =       512.00
     number of Kohn-Sham states=          307
     kinetic-energy cutoff     =      71.0000  Ry
     charge density cutoff     =     430.0000  Ry
     scf convergence threshold =      1.0E-06
     mixing beta               =       0.1000
     number of iterations used =           10  plain     mixing
     Exchange-correlation= SLA  PW   PBX  PBC
                           (   1   4   3   4   0   0   0)

     celldm(1)=  14.400742  celldm(2)=   0.000000  celldm(3)=   0.000000
     celldm(4)=   0.000000  celldm(5)=   0.000000  celldm(6)=   0.000000

     crystal axes: (cart. coord. in units of alat)
               a(1) = (   0.997000   0.000000   0.000000 )
               a(2) = (   0.000000   0.997000   0.000000 )
               a(3) = (   0.000000   0.000000   0.997000 )

     reciprocal axes: (cart. coord. in units 2 pi/alat)
               b(1) = (  1.003009  0.000000  0.000000 )
               b(2) = (  0.000000  1.003009  0.000000 )
               b(3) = (  0.000000  0.000000  1.003009 )

     PseudoPot. # 1 for Ru read from file:
     /rds/homes/b/bxp912/pp/Ru.pbe-spn-kjpaw_psl.1.0.0.UPF
     MD5 check sum: 0ae1f594dea09af7be8575c3a481d1ae
     Pseudo is Projector augmented-wave + core cor, Zval = 16.0
     Generated using "atomic" code by A. Dal Corso  v.5.1
     Shape of augmentation charge: PSQ
     Using radial grid of 1233 points,  6 beta functions with:
                l(1) =   0
                l(2) =   0
                l(3) =   1
                l(4) =   1
                l(5) =   2
                l(6) =   2
     Q(r) pseudized with 0 coefficients

     atomic species   valence    mass     pseudopotential
        Ru            16.00   101.07000     Ru( 1.00)

     48 Sym. Ops., with inversion, found

   Cartesian axes

     site n.     atom                  positions (alat units)
         1           Ru  tau(   1) = (   0.0000000   0.0000000   0.0000000  )
         2           Ru  tau(   2) = (   0.2492500   0.2492500   0.0000000  )
         3           Ru  tau(   3) = (   0.2492500   0.0000000   0.2492495  )
         4           Ru  tau(   4) = (   0.0000000   0.2492500   0.2492495  )
         5           Ru  tau(   5) = (   0.0000000   0.0000000   0.4985000  )
         6           Ru  tau(   6) = (   0.2492490   0.2492490   0.4985000  )
         7           Ru  tau(   7) = (   0.2492500   0.0000000   0.7477495  )
         8           Ru  tau(   8) = (   0.0000000   0.2492500   0.7477495  )
         9           Ru  tau(   9) = (   0.0000000   0.4985002   0.0000000  )
        10           Ru  tau(  10) = (   0.2492500   0.7477504   0.0000000  )
        11           Ru  tau(  11) = (   0.2492490   0.4985002   0.2492484  )
        12           Ru  tau(  12) = (   0.0000000   0.7477504   0.2492495  )
        13           Ru  tau(  13) = (   0.0000000   0.4985002   0.4985000  )
        14           Ru  tau(  14) = (   0.2492490   0.7477515   0.4985000  )
        15           Ru  tau(  15) = (   0.2492490   0.4985002   0.7477505  )
        16           Ru  tau(  16) = (   0.0000000   0.7477504   0.7477495  )
        17           Ru  tau(  17) = (   0.4985002   0.0000000   0.0000000  )
        18           Ru  tau(  18) = (   0.7477504   0.2492500   0.0000000  )
        19           Ru  tau(  19) = (   0.7477504   0.0000000   0.2492495  )
        20           Ru  tau(  20) = (   0.4985002   0.2492490   0.2492484  )
        21           Ru  tau(  21) = (   0.4985002   0.0000000   0.4985000  )
        22           Ru  tau(  22) = (   0.7477515   0.2492490   0.4985000  )
        23           Ru  tau(  23) = (   0.7477504   0.0000000   0.7477495  )
        24           Ru  tau(  24) = (   0.4985002   0.2492490   0.7477505  )
        25           Ru  tau(  25) = (   0.4985002   0.4985002   0.0000000  )
        26           Ru  tau(  26) = (   0.7477504   0.7477504   0.0000000  )
        27           Ru  tau(  27) = (   0.7477515   0.4985002   0.2492484  )
        28           Ru  tau(  28) = (   0.4985002   0.7477515   0.2492484  )
        29           Ru  tau(  29) = (   0.4985002   0.4985002   0.4985000  )
        30           Ru  tau(  30) = (   0.7477515   0.7477515   0.4985000  )
        31           Ru  tau(  31) = (   0.7477515   0.4985002   0.7477505  )
        32           Ru  tau(  32) = (   0.4985002   0.7477515   0.7477505  )

     number of k points=    35  Marzari-Vanderbilt smearing, width (Ry)=  0.0400
                       cart. coord. in units 2pi/alat
        k(    1) = (   0.0557227   0.0557227   0.0557227), wk =   0.0219479
        k(    2) = (   0.0557227   0.0557227   0.1671682), wk =   0.0658436
        k(    3) = (   0.0557227   0.0557227   0.2786136), wk =   0.0658436
        k(    4) = (   0.0557227   0.0557227   0.3900591), wk =   0.0658436
        k(    5) = (   0.0557227   0.0557227  -0.5015045), wk =   0.0329218
        k(    6) = (   0.0557227   0.1671682   0.1671682), wk =   0.0658436
        k(    7) = (   0.0557227   0.1671682   0.2786136), wk =   0.1316872
        k(    8) = (   0.0557227   0.1671682   0.3900591), wk =   0.1316872
        k(    9) = (   0.0557227   0.1671682  -0.5015045), wk =   0.0658436
        k(   10) = (   0.0557227   0.2786136   0.2786136), wk =   0.0658436
        k(   11) = (   0.0557227   0.2786136   0.3900591), wk =   0.1316872
        k(   12) = (   0.0557227   0.2786136  -0.5015045), wk =   0.0658436
        k(   13) = (   0.0557227   0.3900591   0.3900591), wk =   0.0658436
        k(   14) = (   0.0557227   0.3900591  -0.5015045), wk =   0.0658436
        k(   15) = (   0.0557227  -0.5015045  -0.5015045), wk =   0.0164609
        k(   16) = (   0.1671682   0.1671682   0.1671682), wk =   0.0219479
        k(   17) = (   0.1671682   0.1671682   0.2786136), wk =   0.0658436
        k(   18) = (   0.1671682   0.1671682   0.3900591), wk =   0.0658436
        k(   19) = (   0.1671682   0.1671682  -0.5015045), wk =   0.0329218
        k(   20) = (   0.1671682   0.2786136   0.2786136), wk =   0.0658436
        k(   21) = (   0.1671682   0.2786136   0.3900591), wk =   0.1316872
        k(   22) = (   0.1671682   0.2786136  -0.5015045), wk =   0.0658436
        k(   23) = (   0.1671682   0.3900591   0.3900591), wk =   0.0658436
        k(   24) = (   0.1671682   0.3900591  -0.5015045), wk =   0.0658436
        k(   25) = (   0.1671682  -0.5015045  -0.5015045), wk =   0.0164609
        k(   26) = (   0.2786136   0.2786136   0.2786136), wk =   0.0219479
        k(   27) = (   0.2786136   0.2786136   0.3900591), wk =   0.0658436
        k(   28) = (   0.2786136   0.2786136  -0.5015045), wk =   0.0329218
        k(   29) = (   0.2786136   0.3900591   0.3900591), wk =   0.0658436
        k(   30) = (   0.2786136   0.3900591  -0.5015045), wk =   0.0658436
        k(   31) = (   0.2786136  -0.5015045  -0.5015045), wk =   0.0164609
        k(   32) = (   0.3900591   0.3900591   0.3900591), wk =   0.0219479
        k(   33) = (   0.3900591   0.3900591  -0.5015045), wk =   0.0329218
        k(   34) = (   0.3900591  -0.5015045  -0.5015045), wk =   0.0164609
        k(   35) = (  -0.5015045  -0.5015045  -0.5015045), wk =   0.0027435

     Check: negative core charge=   -0.000002

     Initial potential from superposition of free atoms

     starting charge  511.97959, renormalised to  512.00000
     Starting wfcs are  320 randomized atomic wfcs
     Checking if some PAW data can be deallocated...

     Self-consistent Calculation

     iteration #  1     ecut=    71.00 Ry     beta= 0.10
     Davidson diagonalization with overlap
     ethr =  1.00E-02,  avg # of iterations =  3.3

     Threshold (ethr) on eigenvalues was too large:
     Diagonalizing with lowered threshold

     Davidson diagonalization with overlap
     ethr =  8.40E-05,  avg # of iterations =  5.4

     total energy              =  -13813.41134791 Ry
     estimated scf accuracy    <       0.64121500 Ry

[...]

     total energy              =  -13813.29782095 Ry
     estimated scf accuracy    <       0.00000890 Ry

     iteration # 13     ecut=    71.00 Ry     beta= 0.10
     Davidson diagonalization with overlap
     ethr =  3.25E-10,  avg # of iterations =  3.2

     End of self-consistent calculation

          k = 0.0557 0.0557 0.0557 ( 29879 PWs)   bands (ev):

   -49.6676 -49.5638 -49.5638 -49.5638 -49.5438 -49.5438 -49.5438 -49.5064
   -49.5064 -49.5064 -49.4966 -49.4955 -49.4955 -49.4954 -49.4954 -49.4954
   -49.4954 -49.4948 -49.4948 -49.4948 -49.4862 -49.4862 -49.4862 -49.4391
   -49.4390 -49.4390 -49.4386 -49.4385 -49.4385 -49.4385 -49.4385 -49.4384
   -20.0871 -20.0871 -20.0871 -20.0829 -20.0223 -20.0223 -20.0223 -19.8160
   -19.8160 -19.8160 -19.8043 -19.8043 -19.8043 -19.8043 -19.8043 -19.8043
   -19.7835 -19.7835 -19.7835 -19.7599 -19.7599 -19.7599 -19.7599 -19.7599
   -19.7599 -19.7078 -19.7078 -19.7078 -19.7078 -19.7078 -19.7078 -19.6055
   -19.6055 -19.6055 -19.5301 -19.5301 -19.5301 -19.5222 -19.5222 -19.5222
   -19.4872 -19.4872 -19.4872 -19.4872 -19.4872 -19.4872 -19.4458 -19.4458
   -19.4458 -19.4386 -19.4386 -19.4386 -19.4386 -19.4386 -19.4386 -19.4324
   -19.4324 -19.4324 -19.4277 -19.4277 -19.4277 -19.2603 -19.2603 -19.2603
   -19.2598 -19.2598 -19.2598 -19.2272 -19.2272 -19.2272 -19.2270 -19.2270
   -19.2270 -19.2116 -19.2116 -19.2116 -19.1989 -19.1989 -19.1989 -19.1978
   -19.1978 -19.1978 -19.1978 -19.1978 -19.1978 -19.1957 -19.1957 -19.1957
   -19.1928 -19.1928 -19.1788 -19.1788 -19.1787 -19.0627 -19.0556 -19.0556
    15.5494  17.0786  17.0786  17.0786  17.3716  17.3895  17.3895  17.3895
    17.5513  17.5513  17.5513  17.8129  17.8129  17.8129  17.9790  17.9790
    17.9790  18.5045  18.5045  18.5045  18.5045  18.5046  18.5046  18.8220
    18.8220  18.8220  19.0985  19.0985  19.0985  19.1105  19.1105  19.1106
    19.2094  19.2094  19.2095  19.2174  19.2174  19.2174  19.2175  19.2175
    19.2175  19.7052  19.7052  19.7052  19.7052  19.7052  19.7053  19.8509
    19.8509  19.8509  19.8823  19.8823  19.8823  19.8824  19.8824  19.8824
    19.9470  19.9470  19.9471  20.2160  20.2160  20.2160  20.2161  20.2161
    20.2161  20.2175  20.2175  20.2175  20.2176  20.2176  20.2176  20.2182
    20.2182  20.2182  20.3860  20.3860  20.3861  20.6717  20.6717  20.6717
    20.7084  20.7084  20.7237  20.7237  20.7237  20.8044  20.8363  20.8363
    21.8280  21.8280  21.8280  22.0037  22.0037  22.0037  22.0449  22.0449
    22.0449  22.1467  22.1467  22.1467  22.1467  22.1467  22.1467  22.1606
    22.1606  22.1606  22.4632  22.4633  22.4633  22.5854  22.5854  22.5854
    22.8371  22.8371  22.8371  22.9136  22.9136  22.9136  22.9136  22.9136
    22.9136  22.9333  22.9333  22.9333  22.9758  22.9758  22.9758  23.1665
    23.1665  23.1665  23.1665  23.1665  23.1665  23.2291  23.2291  23.3422
    23.3422  23.3422  24.0152  24.0152  24.0152  24.0581  24.0581  24.0581
    24.1777  24.1777  24.1777  24.2587  25.0096  25.0096  25.0096  25.0519
    25.0519  25.0875  25.0875  25.0875  25.3745  25.3745  25.3745  25.3958
    25.3958  25.3958  25.5648  25.5648  25.5648  25.5649  25.5649  25.5649
    25.5699  25.5699  25.5699  27.0295  27.0295  27.0295  27.1786  27.1786
    27.1786  27.5683  27.5683

[...]

          k = 0.3901-0.5015-0.5015 ( 29920 PWs)   bands (ev):

[...]

          k =-0.5015-0.5015-0.5015 ( 29824 PWs)   bands (ev):

   -49.5829 -49.5828 -49.5828 -49.5828 -49.5826 -49.5826 -49.5826 -49.5824
   -49.4674 -49.4673 -49.4673 -49.4672 -49.4672 -49.4672 -49.4672 -49.4672
   -49.4671 -49.4671 -49.4671 -49.4670 -49.4670 -49.4670 -49.4670 -49.4669
   -49.4669 -49.4669 -49.4668 -49.4668 -49.4668 -49.4668 -49.4667 -49.4666
   -19.9135 -19.9135 -19.9135 -19.9135 -19.9134 -19.9134 -19.9134 -19.9134
   -19.9134 -19.9134 -19.9133 -19.9133 -19.9133 -19.9132 -19.9132 -19.9132
   -19.9132 -19.9131 -19.9131 -19.9131 -19.9131 -19.9131 -19.9131 -19.9130
   -19.5838 -19.5837 -19.5837 -19.5837 -19.5837 -19.5836 -19.5836 -19.5836
   -19.4678 -19.4678 -19.4678 -19.4678 -19.4677 -19.4677 -19.4677 -19.4677
   -19.4677 -19.4677 -19.4677 -19.4677 -19.4677 -19.4677 -19.4677 -19.4676
   -19.4676 -19.4676 -19.4676 -19.4676 -19.4676 -19.4676 -19.4676 -19.4675
   -19.3129 -19.3129 -19.3129 -19.3129 -19.3129 -19.3128 -19.3128 -19.3128
   -19.3128 -19.3128 -19.3128 -19.3128 -19.3127 -19.3127 -19.3127 -19.3126
   -19.3126 -19.3126 -19.3126 -19.3126 -19.3126 -19.3126 -19.3126 -19.3126
   -19.1247 -19.1247 -19.1247 -19.1247 -19.1247 -19.1247 -19.1247 -19.1247
   -19.1245 -19.1245 -19.1245 -19.1245 -19.1245 -19.1244 -19.1244 -19.1244
    17.3537  17.3539  17.3539  17.3539  17.3540  17.3540  17.3540  17.3542
    18.1911  18.1911  18.1911  18.1911  18.1911  18.1911  18.1911  18.1911
    18.1911  18.1911  18.1911  18.1912  18.1912  18.1913  18.1913  18.1913
    18.1913  18.1913  18.1913  18.1913  18.1913  18.1913  18.1913  18.1913
    19.2324  19.2325  19.2325  19.2325  19.2325  19.2326  19.2326  19.2326
    19.2326  19.2326  19.2326  19.2326  19.2327  19.2327  19.2327  19.2327
    19.2327  19.2327  19.2327  19.2328  19.2328  19.2328  19.2328  19.2328
    20.5772  20.5772  20.5772  20.5772  20.5772  20.5772  20.5772  20.5772
    21.2185  21.2185  21.2185  21.2186  21.2186  21.2186  21.2186  21.2186
    21.2186  21.2186  21.2187  21.2187  21.2187  21.2187  21.2187  21.2187
    21.3360  21.3360  21.3361  21.3361  21.3361  21.3361  21.3361  21.3361
    21.3361  21.3361  21.3362  21.3362  21.3362  21.3362  21.3362  21.3362
    21.3362  21.3362  21.3362  21.3362  21.3363  21.3363  21.3363  21.3363
    22.5604  22.5604  22.5604  22.5604  22.5604  22.5605  22.5605  22.5605
    22.5605  22.5605  22.5605  22.5606  22.5606  22.5606  22.5606  22.5606
    22.5606  22.5606  22.5606  22.5607  22.5607  22.5607  22.5607  22.5608
    23.4045  23.4045  23.4045  23.4046  23.4046  23.4046  23.4046  23.4046
    23.4046  23.4046  23.4047  23.4047  23.4047  23.4047  23.4048  23.4048
    25.2298  25.2299  25.2299  25.2299  25.2299  25.2299  25.2299  25.2299
    25.2299  25.2299  25.2299  25.2300  25.2300  25.2300  25.2300  25.2300
    25.2300  25.2300  25.2301  25.2301  25.2301  25.2301  25.2301  25.2301
    28.6391  28.6391  28.6392  28.6392  28.6392  28.6392  28.6392  28.6393
    28.6393  28.6393  28.6393

     the Fermi energy is    23.3712 ev

!    total energy              =  -13813.29782395 Ry

     total all-electron energy =   -289989.688163 Ry
     estimated scf accuracy    <       0.00000014 Ry
     smearing contrib. (-TS)   =       0.02115324 Ry
     internal energy E=F+TS    =  -13813.31897718 Ry

     The total energy is F=E-TS. E is the sum of the following terms:
     one-electron contribution =    -972.65799463 Ry
     hartree contribution      =     909.19760410 Ry
     xc contribution           =    -928.42109230 Ry
     ewald contribution        =   -5231.98148765 Ry
     one-center paw contrib.   =   -7589.45600671 Ry

     convergence has been achieved in  13 iterations

     Forces acting on atoms (cartesian axes, Ry/au):

     atom    1 type  1   force =     0.00000000    0.00000000    0.00000000
     atom    2 type  1   force =    -0.00000114   -0.00000114    0.00000000
     atom    3 type  1   force =    -0.00000114   -0.00000000   -0.00000114
     atom    4 type  1   force =     0.00000000   -0.00000114   -0.00000114
     atom    5 type  1   force =     0.00000000    0.00000000    0.00000000
     atom    6 type  1   force =    -0.00000172   -0.00000172    0.00000000
     atom    7 type  1   force =    -0.00000114   -0.00000000    0.00000114
     atom    8 type  1   force =     0.00000000   -0.00000114    0.00000114
     atom    9 type  1   force =     0.00000000    0.00000000    0.00000000
     atom   10 type  1   force =    -0.00000114    0.00000114    0.00000000
     atom   11 type  1   force =    -0.00000172    0.00000000   -0.00000172
     atom   12 type  1   force =     0.00000000    0.00000114   -0.00000114
     atom   13 type  1   force =     0.00000000    0.00000000    0.00000000
     atom   14 type  1   force =    -0.00000172    0.00000172    0.00000000
     atom   15 type  1   force =    -0.00000172    0.00000000    0.00000172
     atom   16 type  1   force =    -0.00000000    0.00000114    0.00000114
     atom   17 type  1   force =     0.00000000    0.00000000    0.00000000
     atom   18 type  1   force =     0.00000114   -0.00000114    0.00000000
     atom   19 type  1   force =     0.00000114   -0.00000000   -0.00000114
     atom   20 type  1   force =     0.00000000   -0.00000172   -0.00000172
     atom   21 type  1   force =     0.00000000    0.00000000    0.00000000
     atom   22 type  1   force =     0.00000172   -0.00000172    0.00000000
     atom   23 type  1   force =     0.00000114    0.00000000    0.00000114
     atom   24 type  1   force =    -0.00000000   -0.00000172    0.00000172
     atom   25 type  1   force =     0.00000000    0.00000000    0.00000000
     atom   26 type  1   force =     0.00000114    0.00000114    0.00000000
     atom   27 type  1   force =     0.00000172    0.00000000   -0.00000172
     atom   28 type  1   force =    -0.00000000    0.00000172   -0.00000172
     atom   29 type  1   force =     0.00000000    0.00000000    0.00000000
     atom   30 type  1   force =     0.00000172    0.00000172    0.00000000
     atom   31 type  1   force =     0.00000172    0.00000000    0.00000172
     atom   32 type  1   force =     0.00000000    0.00000172    0.00000172

     Total force =     0.000010     Total SCF correction =     0.000147
     SCF correction compared to forces is large: reduce conv_thr to get better values

     Computing stress (Cartesian axis) and pressure

          total   stress  (Ry/bohr**3)                   (kbar)     P=       24.56
   0.00016692   0.00000000   0.00000000           24.56        0.00        0.00
   0.00000000   0.00016692   0.00000000            0.00       24.56        0.00
   0.00000000   0.00000000   0.00016692            0.00        0.00       24.56

     Writing output data file /scratch/BnfarQnWOkpLscEf.save/

     General routines

     Parallel routines

   This run was terminated on:  12:17: 5  23Nov2021

   JOB DONE.