     Program PWSCF v.6.7MaX starts on 23Nov2021 at 13:24:16

     R & G space division:  proc/nbgrp/npool/nimage =      72
     Reading input from /rds/homes/b/bxp912/jobs/20211014_ru_eos/wd/eos/eos_010.in
Warning: card &CELL ignored
Warning: card CELL_DYNAMICS = 'BFGS', ignored
Warning: card CELL_FACTOR = 2.0, ignored
Warning: card PRESS = 0.0, ignored
Warning: card / ignored

     Current dimensions of program PWSCF are:
     Max number of different atomic species (ntypx) = 10
     Max number of k-points (npk) =  40000
     Max angular momentum in pseudopotentials (lmaxx) =  3
     file Ru.pbe-spn-kjpaw_psl.1.0.0.UPF: wavefunction(s)  4D renormalized

     Subspace diagonalization in iterative solution of the eigenvalue problem:
     one sub-group per band group will be used

     Found symmetry operation: I + (  0.2500  0.2500  0.0000)
     This is a supercell, fractional translations are disabled
     Message from routine setup:
     using ibrav=0 with symmetry is DISCOURAGED, use correct ibrav instead

     bravais-lattice index     =            0
     lattice parameter (alat)  =      14.4007  a.u.
     unit-cell volume          =    3022.4262 (a.u.)^3
     number of atoms/cell      =           32
     number of atomic types    =            1
     number of electrons       =       512.00
     number of Kohn-Sham states=          307
     kinetic-energy cutoff     =      71.0000  Ry
     charge density cutoff     =     430.0000  Ry
     scf convergence threshold =      1.0E-06
     mixing beta               =       0.1000
     number of iterations used =           10  plain     mixing
     Exchange-correlation= SLA  PW   PBX  PBC
                           (   1   4   3   4   0   0   0)

     celldm(1)=  14.400742  celldm(2)=   0.000000  celldm(3)=   0.000000
     celldm(4)=   0.000000  celldm(5)=   0.000000  celldm(6)=   0.000000

     crystal axes: (cart. coord. in units of alat)
               a(1) = (   1.004000   0.000000   0.000000 )
               a(2) = (   0.000000   1.004000   0.000000 )
               a(3) = (   0.000000   0.000000   1.004000 )

     reciprocal axes: (cart. coord. in units 2 pi/alat)
               b(1) = (  0.996016  0.000000  0.000000 )
               b(2) = (  0.000000  0.996016  0.000000 )
               b(3) = (  0.000000  0.000000  0.996016 )

     PseudoPot. # 1 for Ru read from file:
     /rds/homes/b/bxp912/pp/Ru.pbe-spn-kjpaw_psl.1.0.0.UPF
     MD5 check sum: 0ae1f594dea09af7be8575c3a481d1ae
     Pseudo is Projector augmented-wave + core cor, Zval = 16.0
     Generated using "atomic" code by A. Dal Corso  v.5.1
     Shape of augmentation charge: PSQ
     Using radial grid of 1233 points,  6 beta functions with:
                l(1) =   0
                l(2) =   0
                l(3) =   1
                l(4) =   1
                l(5) =   2
                l(6) =   2
     Q(r) pseudized with 0 coefficients

     atomic species   valence    mass     pseudopotential
        Ru            16.00   101.07000     Ru( 1.00)

     48 Sym. Ops., with inversion, found

   Cartesian axes

     site n.     atom                  positions (alat units)
         1           Ru  tau(   1) = (   0.0000000   0.0000000   0.0000000  )
         2           Ru  tau(   2) = (   0.2510000   0.2510000   0.0000000  )
         3           Ru  tau(   3) = (   0.2510000   0.0000000   0.2509995  )
         4           Ru  tau(   4) = (   0.0000000   0.2510000   0.2509995  )
         5           Ru  tau(   5) = (   0.0000000   0.0000000   0.5020000  )
         6           Ru  tau(   6) = (   0.2509989   0.2509989   0.5020000  )
         7           Ru  tau(   7) = (   0.2510000   0.0000000   0.7529995  )
         8           Ru  tau(   8) = (   0.0000000   0.2510000   0.7529995  )
         9           Ru  tau(   9) = (   0.0000000   0.5020002   0.0000000  )
        10           Ru  tau(  10) = (   0.2510000   0.7530004   0.0000000  )
        11           Ru  tau(  11) = (   0.2509989   0.5020002   0.2509984  )
        12           Ru  tau(  12) = (   0.0000000   0.7530004   0.2509995  )
        13           Ru  tau(  13) = (   0.0000000   0.5020002   0.5020000  )
        14           Ru  tau(  14) = (   0.2509989   0.7530015   0.5020000  )
        15           Ru  tau(  15) = (   0.2509989   0.5020002   0.7530005  )
        16           Ru  tau(  16) = (   0.0000000   0.7530004   0.7529995  )
        17           Ru  tau(  17) = (   0.5020002   0.0000000   0.0000000  )
        18           Ru  tau(  18) = (   0.7530004   0.2510000   0.0000000  )
        19           Ru  tau(  19) = (   0.7530004   0.0000000   0.2509995  )
        20           Ru  tau(  20) = (   0.5020002   0.2509989   0.2509984  )
        21           Ru  tau(  21) = (   0.5020002   0.0000000   0.5020000  )
        22           Ru  tau(  22) = (   0.7530015   0.2509989   0.5020000  )
        23           Ru  tau(  23) = (   0.7530004   0.0000000   0.7529995  )
        24           Ru  tau(  24) = (   0.5020002   0.2509989   0.7530005  )
        25           Ru  tau(  25) = (   0.5020002   0.5020002   0.0000000  )
        26           Ru  tau(  26) = (   0.7530004   0.7530004   0.0000000  )
        27           Ru  tau(  27) = (   0.7530015   0.5020002   0.2509984  )
        28           Ru  tau(  28) = (   0.5020002   0.7530015   0.2509984  )
        29           Ru  tau(  29) = (   0.5020002   0.5020002   0.5020000  )
        30           Ru  tau(  30) = (   0.7530015   0.7530015   0.5020000  )
        31           Ru  tau(  31) = (   0.7530015   0.5020002   0.7530005  )
        32           Ru  tau(  32) = (   0.5020002   0.7530015   0.7530005  )

     number of k points=    35  Marzari-Vanderbilt smearing, width (Ry)=  0.0400
                       cart. coord. in units 2pi/alat
        k(    1) = (   0.0553342   0.0553342   0.0553342), wk =   0.0219479
        k(    2) = (   0.0553342   0.0553342   0.1660027), wk =   0.0658436
        k(    3) = (   0.0553342   0.0553342   0.2766711), wk =   0.0658436
        k(    4) = (   0.0553342   0.0553342   0.3873395), wk =   0.0658436
        k(    5) = (   0.0553342   0.0553342  -0.4980080), wk =   0.0329218
        k(    6) = (   0.0553342   0.1660027   0.1660027), wk =   0.0658436
        k(    7) = (   0.0553342   0.1660027   0.2766711), wk =   0.1316872
        k(    8) = (   0.0553342   0.1660027   0.3873395), wk =   0.1316872
        k(    9) = (   0.0553342   0.1660027  -0.4980080), wk =   0.0658436
        k(   10) = (   0.0553342   0.2766711   0.2766711), wk =   0.0658436
        k(   11) = (   0.0553342   0.2766711   0.3873395), wk =   0.1316872
        k(   12) = (   0.0553342   0.2766711  -0.4980080), wk =   0.0658436
        k(   13) = (   0.0553342   0.3873395   0.3873395), wk =   0.0658436
        k(   14) = (   0.0553342   0.3873395  -0.4980080), wk =   0.0658436
        k(   15) = (   0.0553342  -0.4980080  -0.4980080), wk =   0.0164609
        k(   16) = (   0.1660027   0.1660027   0.1660027), wk =   0.0219479
        k(   17) = (   0.1660027   0.1660027   0.2766711), wk =   0.0658436
        k(   18) = (   0.1660027   0.1660027   0.3873395), wk =   0.0658436
        k(   19) = (   0.1660027   0.1660027  -0.4980080), wk =   0.0329218
        k(   20) = (   0.1660027   0.2766711   0.2766711), wk =   0.0658436
        k(   21) = (   0.1660027   0.2766711   0.3873395), wk =   0.1316872
        k(   22) = (   0.1660027   0.2766711  -0.4980080), wk =   0.0658436
        k(   23) = (   0.1660027   0.3873395   0.3873395), wk =   0.0658436
        k(   24) = (   0.1660027   0.3873395  -0.4980080), wk =   0.0658436
        k(   25) = (   0.1660027  -0.4980080  -0.4980080), wk =   0.0164609
        k(   26) = (   0.2766711   0.2766711   0.2766711), wk =   0.0219479
        k(   27) = (   0.2766711   0.2766711   0.3873395), wk =   0.0658436
        k(   28) = (   0.2766711   0.2766711  -0.4980080), wk =   0.0329218
        k(   29) = (   0.2766711   0.3873395   0.3873395), wk =   0.0658436
        k(   30) = (   0.2766711   0.3873395  -0.4980080), wk =   0.0658436
        k(   31) = (   0.2766711  -0.4980080  -0.4980080), wk =   0.0164609
        k(   32) = (   0.3873395   0.3873395   0.3873395), wk =   0.0219479
        k(   33) = (   0.3873395   0.3873395  -0.4980080), wk =   0.0329218
        k(   34) = (   0.3873395  -0.4980080  -0.4980080), wk =   0.0164609
        k(   35) = (  -0.4980080  -0.4980080  -0.4980080), wk =   0.0027435

     Check: negative core charge=   -0.000002

     Initial potential from superposition of free atoms

     starting charge  511.97959, renormalised to  512.00000
     Starting wfcs are  320 randomized atomic wfcs
     Checking if some PAW data can be deallocated...

     Self-consistent Calculation

     iteration #  1     ecut=    71.00 Ry     beta= 0.10
     Davidson diagonalization with overlap
     ethr =  1.00E-02,  avg # of iterations =  3.5

     Threshold (ethr) on eigenvalues was too large:
     Diagonalizing with lowered threshold

     Davidson diagonalization with overlap
     ethr =  8.25E-05,  avg # of iterations =  5.3

     total energy              =  -13813.40705271 Ry
     estimated scf accuracy    <       0.63372179 Ry

[...]

     total energy              =  -13813.29710376 Ry
     estimated scf accuracy    <       0.00001546 Ry

     iteration # 13     ecut=    71.00 Ry     beta= 0.10
     Davidson diagonalization with overlap
     ethr =  5.72E-10,  avg # of iterations =  3.1

     End of self-consistent calculation

          k = 0.0553 0.0553 0.0553 ( 30614 PWs)   bands (ev):

   -50.2241 -50.1292 -50.1292 -50.1292 -50.1109 -50.1109 -50.1109 -50.0767
   -50.0767 -50.0767 -50.0678 -50.0668 -50.0668 -50.0668 -50.0667 -50.0667
   -50.0667 -50.0662 -50.0662 -50.0661 -50.0583 -50.0583 -50.0583 -50.0152
   -50.0152 -50.0152 -50.0147 -50.0147 -50.0147 -50.0146 -50.0146 -50.0146
   -20.6097 -20.6097 -20.6097 -20.6058 -20.5498 -20.5498 -20.5498 -20.3569
   -20.3569 -20.3569 -20.3460 -20.3460 -20.3460 -20.3460 -20.3460 -20.3460
   -20.3264 -20.3264 -20.3264 -20.3049 -20.3049 -20.3049 -20.3049 -20.3049
   -20.3049 -20.2563 -20.2563 -20.2563 -20.2563 -20.2563 -20.2563 -20.1606
   -20.1606 -20.1606 -20.0905 -20.0905 -20.0905 -20.0827 -20.0827 -20.0827
   -20.0506 -20.0506 -20.0506 -20.0505 -20.0505 -20.0505 -20.0119 -20.0119
   -20.0119 -20.0054 -20.0054 -20.0054 -20.0054 -20.0054 -20.0054 -20.0002
   -20.0002 -20.0002 -19.9959 -19.9958 -19.9958 -19.8393 -19.8393 -19.8393
   -19.8387 -19.8387 -19.8387 -19.8083 -19.8083 -19.8083 -19.8082 -19.8082
   -19.8082 -19.7941 -19.7941 -19.7941 -19.7823 -19.7823 -19.7823 -19.7812
   -19.7812 -19.7812 -19.7812 -19.7812 -19.7812 -19.7793 -19.7793 -19.7793
   -19.7766 -19.7766 -19.7635 -19.7635 -19.7635 -19.6546 -19.6479 -19.6479
    15.0746  16.6671  16.6671  16.6671  16.9302  16.9478  16.9478  16.9478
    17.1297  17.1297  17.1297  17.3157  17.3157  17.3157  17.4933  17.4933
    17.4934  18.0542  18.0542  18.0542  18.0542  18.0542  18.0542  18.3670
    18.3670  18.3671  18.6061  18.6061  18.6062  18.6358  18.6358  18.6358
    18.7182  18.7183  18.7183  18.7183  18.7183  18.7183  18.7199  18.7199
    18.7199  19.2120  19.2120  19.2120  19.2120  19.2120  19.2120  19.3546
    19.3546  19.3546  19.3868  19.3868  19.3868  19.3869  19.3869  19.3869
    19.4509  19.4509  19.4509  19.7043  19.7043  19.7043  19.7083  19.7083
    19.7083  19.7084  19.7084  19.7084  19.7096  19.7096  19.7096  19.7096
    19.7096  19.7096  19.8791  19.8791  19.8791  20.1611  20.1611  20.1611
    20.1965  20.1965  20.2113  20.2113  20.2113  20.2875  20.3183  20.3183
    21.2746  21.2746  21.2747  21.4385  21.4385  21.4385  21.4938  21.4938
    21.4938  21.5920  21.5920  21.5920  21.5920  21.5920  21.5920  21.6058
    21.6059  21.6059  21.8954  21.8955  21.8955  22.0126  22.0126  22.0126
    22.2577  22.2577  22.2577  22.3363  22.3363  22.3363  22.3363  22.3363
    22.3363  22.3533  22.3534  22.3534  22.3906  22.3906  22.3907  22.5789
    22.5790  22.5790  22.5790  22.5790  22.5790  22.6341  22.6341  22.7490
    22.7491  22.7491  23.3953  23.3953  23.3953  23.4473  23.4473  23.4473
    23.5524  23.5524  23.5524  23.6481  24.3555  24.3555  24.3555  24.3976
    24.3976  24.4318  24.4318  24.4318  24.7114  24.7114  24.7114  24.7401
    24.7401  24.7401  24.8926  24.8926  24.8926  24.8926  24.8926  24.8926
    24.8975  24.8975  24.8975  26.3197  26.3197  26.3197  26.5047  26.5047
    26.5047  26.8468  26.8468

[...]

          k = 0.3873-0.4980-0.4980 ( 30520 PWs)   bands (ev):

[...]

          k =-0.4980-0.4980-0.4980 ( 30592 PWs)   bands (ev):

   -50.1467 -50.1466 -50.1466 -50.1466 -50.1464 -50.1464 -50.1464 -50.1462
   -50.0412 -50.0411 -50.0410 -50.0410 -50.0410 -50.0409 -50.0409 -50.0409
   -50.0409 -50.0408 -50.0408 -50.0408 -50.0408 -50.0407 -50.0407 -50.0407
   -50.0406 -50.0406 -50.0406 -50.0406 -50.0406 -50.0405 -50.0404 -50.0403
   -20.4480 -20.4479 -20.4479 -20.4479 -20.4479 -20.4479 -20.4479 -20.4478
   -20.4478 -20.4478 -20.4478 -20.4477 -20.4477 -20.4477 -20.4476 -20.4476
   -20.4476 -20.4476 -20.4476 -20.4476 -20.4476 -20.4475 -20.4475 -20.4475
   -20.1400 -20.1399 -20.1399 -20.1399 -20.1398 -20.1398 -20.1398 -20.1398
   -20.0327 -20.0326 -20.0326 -20.0326 -20.0326 -20.0326 -20.0326 -20.0326
   -20.0325 -20.0325 -20.0325 -20.0325 -20.0325 -20.0325 -20.0325 -20.0325
   -20.0325 -20.0325 -20.0325 -20.0324 -20.0324 -20.0324 -20.0324 -20.0324
   -19.8887 -19.8886 -19.8886 -19.8886 -19.8886 -19.8886 -19.8886 -19.8886
   -19.8886 -19.8886 -19.8885 -19.8885 -19.8885 -19.8884 -19.8884 -19.8884
   -19.8884 -19.8884 -19.8884 -19.8884 -19.8884 -19.8883 -19.8883 -19.8883
   -19.7128 -19.7128 -19.7128 -19.7127 -19.7127 -19.7127 -19.7127 -19.7127
   -19.7125 -19.7125 -19.7125 -19.7125 -19.7125 -19.7125 -19.7125 -19.7125
    16.8660  16.8662  16.8662  16.8662  16.8663  16.8664  16.8664  16.8665
    17.7431  17.7431  17.7431  17.7431  17.7431  17.7431  17.7431  17.7432
    17.7432  17.7432  17.7432  17.7432  17.7433  17.7433  17.7433  17.7433
    17.7433  17.7433  17.7433  17.7433  17.7433  17.7433  17.7434  17.7434
    18.7570  18.7570  18.7571  18.7571  18.7571  18.7571  18.7571  18.7571
    18.7571  18.7571  18.7571  18.7572  18.7572  18.7572  18.7573  18.7573
    18.7573  18.7573  18.7573  18.7573  18.7573  18.7573  18.7573  18.7574
    20.0526  20.0527  20.0527  20.0527  20.0527  20.0527  20.0527  20.0527
    20.6902  20.6902  20.6902  20.6902  20.6902  20.6902  20.6903  20.6903
    20.6903  20.6903  20.6903  20.6904  20.6904  20.6904  20.6904  20.6904
    20.7897  20.7898  20.7898  20.7898  20.7898  20.7898  20.7898  20.7898
    20.7899  20.7899  20.7899  20.7899  20.7899  20.7899  20.7899  20.7899
    20.7900  20.7900  20.7900  20.7900  20.7900  20.7900  20.7900  20.7900
    21.9916  21.9917  21.9917  21.9917  21.9917  21.9917  21.9918  21.9918
    21.9918  21.9918  21.9918  21.9918  21.9918  21.9918  21.9918  21.9919
    21.9919  21.9919  21.9919  21.9919  21.9919  21.9919  21.9920  21.9920
    22.8077  22.8077  22.8078  22.8078  22.8078  22.8078  22.8078  22.8079
    22.8079  22.8079  22.8079  22.8079  22.8079  22.8080  22.8080  22.8080
    24.5690  24.5690  24.5690  24.5691  24.5691  24.5691  24.5691  24.5691
    24.5691  24.5691  24.5691  24.5691  24.5692  24.5692  24.5692  24.5692
    24.5692  24.5692  24.5692  24.5692  24.5693  24.5693  24.5693  24.5693
    27.9120  27.9120  27.9121  27.9121  27.9121  27.9122  27.9122  27.9122
    27.9122  27.9122  27.9123

     the Fermi energy is    22.7761 ev

!    total energy              =  -13813.29710784 Ry

     total all-electron energy =   -289989.687447 Ry
     estimated scf accuracy    <       0.00000024 Ry
     smearing contrib. (-TS)   =       0.01945232 Ry
     internal energy E=F+TS    =  -13813.31656016 Ry

     The total energy is F=E-TS. E is the sum of the following terms:
     one-electron contribution =   -1025.92153573 Ry
     hartree contribution      =     925.14350076 Ry
     xc contribution           =    -927.60866370 Ry
     ewald contribution        =   -5195.50352907 Ry
     one-center paw contrib.   =   -7589.42633242 Ry

     convergence has been achieved in  13 iterations

     Forces acting on atoms (cartesian axes, Ry/au):

     atom    1 type  1   force =     0.00000000    0.00000000    0.00000000
     atom    2 type  1   force =    -0.00000080   -0.00000080   -0.00000000
     atom    3 type  1   force =    -0.00000080   -0.00000000   -0.00000080
     atom    4 type  1   force =     0.00000000   -0.00000080   -0.00000080
     atom    5 type  1   force =     0.00000000    0.00000000    0.00000000
     atom    6 type  1   force =    -0.00000102   -0.00000102    0.00000000
     atom    7 type  1   force =    -0.00000080    0.00000000    0.00000080
     atom    8 type  1   force =    -0.00000000   -0.00000080    0.00000080
     atom    9 type  1   force =     0.00000000    0.00000000    0.00000000
     atom   10 type  1   force =    -0.00000080    0.00000080    0.00000000
     atom   11 type  1   force =    -0.00000102    0.00000000   -0.00000102
     atom   12 type  1   force =     0.00000000    0.00000080   -0.00000080
     atom   13 type  1   force =     0.00000000    0.00000000    0.00000000
     atom   14 type  1   force =    -0.00000102    0.00000102   -0.00000000
     atom   15 type  1   force =    -0.00000102    0.00000000    0.00000102
     atom   16 type  1   force =    -0.00000000    0.00000080    0.00000080
     atom   17 type  1   force =     0.00000000    0.00000000    0.00000000
     atom   18 type  1   force =     0.00000080   -0.00000080    0.00000000
     atom   19 type  1   force =     0.00000080    0.00000000   -0.00000080
     atom   20 type  1   force =    -0.00000000   -0.00000102   -0.00000102
     atom   21 type  1   force =     0.00000000    0.00000000    0.00000000
     atom   22 type  1   force =     0.00000102   -0.00000102   -0.00000000
     atom   23 type  1   force =     0.00000080    0.00000000    0.00000080
     atom   24 type  1   force =     0.00000000   -0.00000102    0.00000102
     atom   25 type  1   force =     0.00000000    0.00000000    0.00000000
     atom   26 type  1   force =     0.00000080    0.00000080   -0.00000000
     atom   27 type  1   force =     0.00000102    0.00000000   -0.00000102
     atom   28 type  1   force =     0.00000000    0.00000102   -0.00000102
     atom   29 type  1   force =     0.00000000    0.00000000    0.00000000
     atom   30 type  1   force =     0.00000102    0.00000102    0.00000000
     atom   31 type  1   force =     0.00000102    0.00000000    0.00000102
     atom   32 type  1   force =    -0.00000000    0.00000102    0.00000102

     Total force =     0.000006     Total SCF correction =     0.000101
     SCF correction compared to forces is large: reduce conv_thr to get better values

     Computing stress (Cartesian axis) and pressure

          total   stress  (Ry/bohr**3)                   (kbar)     P=      -39.19
  -0.00026640   0.00000000   0.00000000          -39.19        0.00        0.00
   0.00000000  -0.00026640   0.00000000            0.00      -39.19        0.00
   0.00000000   0.00000000  -0.00026640            0.00        0.00      -39.19

     Writing output data file /scratch/edJNHJgaSVGKFFqM.save/

     General routines

     Parallel routines

   This run was terminated on:  13:35: 1  23Nov2021

   JOB DONE.