     Program PWSCF v.6.7MaX starts on 23Nov2021 at 13: 1:47

     R & G space division:  proc/nbgrp/npool/nimage =      72
     Reading input from /rds/homes/b/bxp912/jobs/20211014_ru_eos/wd/eos/eos_008.in
Warning: card &CELL ignored
Warning: card CELL_DYNAMICS = 'BFGS', ignored
Warning: card CELL_FACTOR = 2.0, ignored
Warning: card PRESS = 0.0, ignored
Warning: card / ignored

     Current dimensions of program PWSCF are:
     Max number of different atomic species (ntypx) = 10
     Max number of k-points (npk) =  40000
     Max angular momentum in pseudopotentials (lmaxx) =  3
     file Ru.pbe-spn-kjpaw_psl.1.0.0.UPF: wavefunction(s)  4D renormalized

     Subspace diagonalization in iterative solution of the eigenvalue problem:
     one sub-group per band group will be used

     Found symmetry operation: I + (  0.2500  0.2500  0.0000)
     This is a supercell, fractional translations are disabled
     Message from routine setup:
     using ibrav=0 with symmetry is DISCOURAGED, use correct ibrav instead

     bravais-lattice index     =            0
     lattice parameter (alat)  =      14.4007  a.u.
     unit-cell volume          =    3004.3999 (a.u.)^3
     number of atoms/cell      =           32
     number of atomic types    =            1
     number of electrons       =       512.00
     number of Kohn-Sham states=          307
     kinetic-energy cutoff     =      71.0000  Ry
     charge density cutoff     =     430.0000  Ry
     scf convergence threshold =      1.0E-06
     mixing beta               =       0.1000
     number of iterations used =           10  plain     mixing
     Exchange-correlation= SLA  PW   PBX  PBC
                           (   1   4   3   4   0   0   0)

     celldm(1)=  14.400742  celldm(2)=   0.000000  celldm(3)=   0.000000
     celldm(4)=   0.000000  celldm(5)=   0.000000  celldm(6)=   0.000000

     crystal axes: (cart. coord. in units of alat)
               a(1) = (   1.002000   0.000000   0.000000 )
               a(2) = (   0.000000   1.002000   0.000000 )
               a(3) = (   0.000000   0.000000   1.002000 )

     reciprocal axes: (cart. coord. in units 2 pi/alat)
               b(1) = (  0.998004  0.000000  0.000000 )
               b(2) = (  0.000000  0.998004  0.000000 )
               b(3) = (  0.000000  0.000000  0.998004 )

     PseudoPot. # 1 for Ru read from file:
     /rds/homes/b/bxp912/pp/Ru.pbe-spn-kjpaw_psl.1.0.0.UPF
     MD5 check sum: 0ae1f594dea09af7be8575c3a481d1ae
     Pseudo is Projector augmented-wave + core cor, Zval = 16.0
     Generated using "atomic" code by A. Dal Corso  v.5.1
     Shape of augmentation charge: PSQ
     Using radial grid of 1233 points,  6 beta functions with:
                l(1) =   0
                l(2) =   0
                l(3) =   1
                l(4) =   1
                l(5) =   2
                l(6) =   2
     Q(r) pseudized with 0 coefficients

     atomic species   valence    mass     pseudopotential
        Ru            16.00   101.07000     Ru( 1.00)

     48 Sym. Ops., with inversion, found

   Cartesian axes

     site n.     atom                  positions (alat units)
         1           Ru  tau(   1) = (   0.0000000   0.0000000   0.0000000  )
         2           Ru  tau(   2) = (   0.2505000   0.2505000   0.0000000  )
         3           Ru  tau(   3) = (   0.2505000   0.0000000   0.2504995  )
         4           Ru  tau(   4) = (   0.0000000   0.2505000   0.2504995  )
         5           Ru  tau(   5) = (   0.0000000   0.0000000   0.5010000  )
         6           Ru  tau(   6) = (   0.2504989   0.2504989   0.5010000  )
         7           Ru  tau(   7) = (   0.2505000   0.0000000   0.7514995  )
         8           Ru  tau(   8) = (   0.0000000   0.2505000   0.7514995  )
         9           Ru  tau(   9) = (   0.0000000   0.5010002   0.0000000  )
        10           Ru  tau(  10) = (   0.2505000   0.7515004   0.0000000  )
        11           Ru  tau(  11) = (   0.2504989   0.5010002   0.2504984  )
        12           Ru  tau(  12) = (   0.0000000   0.7515004   0.2504995  )
        13           Ru  tau(  13) = (   0.0000000   0.5010002   0.5010000  )
        14           Ru  tau(  14) = (   0.2504989   0.7515015   0.5010000  )
        15           Ru  tau(  15) = (   0.2504989   0.5010002   0.7515005  )
        16           Ru  tau(  16) = (   0.0000000   0.7515004   0.7514995  )
        17           Ru  tau(  17) = (   0.5010002   0.0000000   0.0000000  )
        18           Ru  tau(  18) = (   0.7515004   0.2505000   0.0000000  )
        19           Ru  tau(  19) = (   0.7515004   0.0000000   0.2504995  )
        20           Ru  tau(  20) = (   0.5010002   0.2504989   0.2504984  )
        21           Ru  tau(  21) = (   0.5010002   0.0000000   0.5010000  )
        22           Ru  tau(  22) = (   0.7515015   0.2504989   0.5010000  )
        23           Ru  tau(  23) = (   0.7515004   0.0000000   0.7514995  )
        24           Ru  tau(  24) = (   0.5010002   0.2504989   0.7515005  )
        25           Ru  tau(  25) = (   0.5010002   0.5010002   0.0000000  )
        26           Ru  tau(  26) = (   0.7515004   0.7515004   0.0000000  )
        27           Ru  tau(  27) = (   0.7515015   0.5010002   0.2504984  )
        28           Ru  tau(  28) = (   0.5010002   0.7515015   0.2504984  )
        29           Ru  tau(  29) = (   0.5010002   0.5010002   0.5010000  )
        30           Ru  tau(  30) = (   0.7515015   0.7515015   0.5010000  )
        31           Ru  tau(  31) = (   0.7515015   0.5010002   0.7515005  )
        32           Ru  tau(  32) = (   0.5010002   0.7515015   0.7515005  )

     number of k points=    35  Marzari-Vanderbilt smearing, width (Ry)=  0.0400
                       cart. coord. in units 2pi/alat
        k(    1) = (   0.0554447   0.0554447   0.0554447), wk =   0.0219479
        k(    2) = (   0.0554447   0.0554447   0.1663340), wk =   0.0658436
        k(    3) = (   0.0554447   0.0554447   0.2772233), wk =   0.0658436
        k(    4) = (   0.0554447   0.0554447   0.3881127), wk =   0.0658436
        k(    5) = (   0.0554447   0.0554447  -0.4990020), wk =   0.0329218
        k(    6) = (   0.0554447   0.1663340   0.1663340), wk =   0.0658436
        k(    7) = (   0.0554447   0.1663340   0.2772233), wk =   0.1316872
        k(    8) = (   0.0554447   0.1663340   0.3881127), wk =   0.1316872
        k(    9) = (   0.0554447   0.1663340  -0.4990020), wk =   0.0658436
        k(   10) = (   0.0554447   0.2772233   0.2772233), wk =   0.0658436
        k(   11) = (   0.0554447   0.2772233   0.3881127), wk =   0.1316872
        k(   12) = (   0.0554447   0.2772233  -0.4990020), wk =   0.0658436
        k(   13) = (   0.0554447   0.3881127   0.3881127), wk =   0.0658436
        k(   14) = (   0.0554447   0.3881127  -0.4990020), wk =   0.0658436
        k(   15) = (   0.0554447  -0.4990020  -0.4990020), wk =   0.0164609
        k(   16) = (   0.1663340   0.1663340   0.1663340), wk =   0.0219479
        k(   17) = (   0.1663340   0.1663340   0.2772233), wk =   0.0658436
        k(   18) = (   0.1663340   0.1663340   0.3881127), wk =   0.0658436
        k(   19) = (   0.1663340   0.1663340  -0.4990020), wk =   0.0329218
        k(   20) = (   0.1663340   0.2772233   0.2772233), wk =   0.0658436
        k(   21) = (   0.1663340   0.2772233   0.3881127), wk =   0.1316872
        k(   22) = (   0.1663340   0.2772233  -0.4990020), wk =   0.0658436
        k(   23) = (   0.1663340   0.3881127   0.3881127), wk =   0.0658436
        k(   24) = (   0.1663340   0.3881127  -0.4990020), wk =   0.0658436
        k(   25) = (   0.1663340  -0.4990020  -0.4990020), wk =   0.0164609
        k(   26) = (   0.2772233   0.2772233   0.2772233), wk =   0.0219479
        k(   27) = (   0.2772233   0.2772233   0.3881127), wk =   0.0658436
        k(   28) = (   0.2772233   0.2772233  -0.4990020), wk =   0.0329218
        k(   29) = (   0.2772233   0.3881127   0.3881127), wk =   0.0658436
        k(   30) = (   0.2772233   0.3881127  -0.4990020), wk =   0.0658436
        k(   31) = (   0.2772233  -0.4990020  -0.4990020), wk =   0.0164609
        k(   32) = (   0.3881127   0.3881127   0.3881127), wk =   0.0219479
        k(   33) = (   0.3881127   0.3881127  -0.4990020), wk =   0.0329218
        k(   34) = (   0.3881127  -0.4990020  -0.4990020), wk =   0.0164609
        k(   35) = (  -0.4990020  -0.4990020  -0.4990020), wk =   0.0027435

     Check: negative core charge=   -0.000002

     Initial potential from superposition of free atoms

     starting charge  511.97959, renormalised to  512.00000
     Starting wfcs are  320 randomized atomic wfcs
     Checking if some PAW data can be deallocated...

     Self-consistent Calculation

     iteration #  1     ecut=    71.00 Ry     beta= 0.10
     Davidson diagonalization with overlap
     ethr =  1.00E-02,  avg # of iterations =  3.5

     Threshold (ethr) on eigenvalues was too large:
     Diagonalizing with lowered threshold

     Davidson diagonalization with overlap
     ethr =  8.25E-05,  avg # of iterations =  5.3

     total energy              =  -13813.41113714 Ry
     estimated scf accuracy    <       0.63605961 Ry

[...]

     total energy              =  -13813.30010655 Ry
     estimated scf accuracy    <       0.00001503 Ry

     iteration # 13     ecut=    71.00 Ry     beta= 0.10
     Davidson diagonalization with overlap
     ethr =  4.38E-10,  avg # of iterations =  3.3

     End of self-consistent calculation

          k = 0.0554 0.0554 0.0554 ( 30431 PWs)   bands (ev):

   -50.0665 -49.9692 -49.9692 -49.9692 -49.9504 -49.9504 -49.9504 -49.9154
   -49.9153 -49.9153 -49.9062 -49.9052 -49.9051 -49.9051 -49.9051 -49.9051
   -49.9051 -49.9045 -49.9045 -49.9045 -49.8965 -49.8964 -49.8964 -49.8522
   -49.8522 -49.8522 -49.8517 -49.8517 -49.8517 -49.8517 -49.8516 -49.8516
   -20.4617 -20.4617 -20.4616 -20.4577 -20.4003 -20.4003 -20.4003 -20.2037
   -20.2037 -20.2037 -20.1926 -20.1926 -20.1926 -20.1926 -20.1926 -20.1926
   -20.1727 -20.1727 -20.1727 -20.1506 -20.1506 -20.1506 -20.1506 -20.1506
   -20.1506 -20.1010 -20.1010 -20.1010 -20.1010 -20.1010 -20.1010 -20.0035
   -20.0035 -20.0035 -19.9319 -19.9319 -19.9318 -19.9241 -19.9241 -19.9241
   -19.8911 -19.8911 -19.8911 -19.8911 -19.8911 -19.8911 -19.8517 -19.8517
   -19.8517 -19.8450 -19.8450 -19.8450 -19.8450 -19.8450 -19.8450 -19.8395
   -19.8395 -19.8395 -19.8351 -19.8351 -19.8351 -19.6755 -19.6755 -19.6755
   -19.6749 -19.6749 -19.6749 -19.6439 -19.6439 -19.6439 -19.6438 -19.6438
   -19.6438 -19.6293 -19.6293 -19.6293 -19.6173 -19.6173 -19.6173 -19.6162
   -19.6162 -19.6162 -19.6162 -19.6162 -19.6162 -19.6143 -19.6143 -19.6143
   -19.6116 -19.6116 -19.5981 -19.5981 -19.5981 -19.4872 -19.4804 -19.4804
    15.2087  16.7837  16.7837  16.7837  17.0551  17.0728  17.0728  17.0728
    17.2491  17.2491  17.2491  17.4562  17.4562  17.4562  17.6307  17.6307
    17.6307  18.1817  18.1817  18.1817  18.1817  18.1817  18.1817  18.4959
    18.4959  18.4959  18.7488  18.7488  18.7488  18.7668  18.7668  18.7669
    18.8585  18.8585  18.8585  18.8595  18.8595  18.8595  18.8595  18.8595
    18.8595  19.3516  19.3516  19.3516  19.3516  19.3516  19.3516  19.4950
    19.4950  19.4950  19.5271  19.5271  19.5271  19.5271  19.5271  19.5271
    19.5913  19.5913  19.5913  19.8496  19.8496  19.8496  19.8524  19.8524
    19.8524  19.8524  19.8524  19.8524  19.8528  19.8528  19.8528  19.8528
    19.8528  19.8528  20.0225  20.0225  20.0225  20.3056  20.3056  20.3056
    20.3414  20.3414  20.3564  20.3564  20.3564  20.4339  20.4650  20.4650
    21.4312  21.4312  21.4312  21.5983  21.5983  21.5983  21.6498  21.6498
    21.6498  21.7490  21.7490  21.7490  21.7490  21.7490  21.7490  21.7629
    21.7629  21.7629  22.0561  22.0562  22.0562  22.1747  22.1747  22.1747
    22.4216  22.4217  22.4217  22.4997  22.4997  22.4997  22.4997  22.4997
    22.4997  22.5175  22.5175  22.5175  22.5562  22.5562  22.5562  22.7452
    22.7453  22.7453  22.7453  22.7453  22.7453  22.8025  22.8025  22.9169
    22.9169  22.9169  23.5707  23.5707  23.5707  23.6199  23.6199  23.6199
    23.7293  23.7293  23.7293  23.8205  24.5405  24.5405  24.5405  24.5827
    24.5827  24.6173  24.6173  24.6173  24.8989  24.8989  24.8989  24.9255
    24.9255  24.9255  25.0827  25.0827  25.0827  25.0827  25.0827  25.0827
    25.0877  25.0877  25.0877  26.5204  26.5204  26.5204  26.6951  26.6951
    26.6951  27.0508  27.0508

[...]

          k = 0.3881-0.4990-0.4990 ( 30376 PWs)   bands (ev):

[...]

          k =-0.4990-0.4990-0.4990 ( 30280 PWs)   bands (ev):

   -49.9872 -49.9870 -49.9870 -49.9870 -49.9868 -49.9868 -49.9868 -49.9866
   -49.8788 -49.8787 -49.8787 -49.8786 -49.8786 -49.8786 -49.8786 -49.8786
   -49.8785 -49.8785 -49.8785 -49.8784 -49.8784 -49.8784 -49.8784 -49.8783
   -49.8783 -49.8783 -49.8782 -49.8782 -49.8782 -49.8782 -49.8781 -49.8780
   -20.2965 -20.2965 -20.2965 -20.2964 -20.2964 -20.2964 -20.2964 -20.2964
   -20.2963 -20.2963 -20.2963 -20.2963 -20.2962 -20.2962 -20.2962 -20.2962
   -20.2962 -20.2961 -20.2961 -20.2961 -20.2961 -20.2961 -20.2960 -20.2960
   -19.9825 -19.9825 -19.9825 -19.9825 -19.9824 -19.9824 -19.9824 -19.9823
   -19.8728 -19.8727 -19.8727 -19.8727 -19.8727 -19.8727 -19.8727 -19.8727
   -19.8726 -19.8726 -19.8726 -19.8726 -19.8726 -19.8726 -19.8726 -19.8726
   -19.8726 -19.8726 -19.8726 -19.8725 -19.8725 -19.8725 -19.8725 -19.8725
   -19.7258 -19.7258 -19.7258 -19.7258 -19.7257 -19.7257 -19.7257 -19.7257
   -19.7257 -19.7257 -19.7257 -19.7257 -19.7256 -19.7256 -19.7256 -19.7255
   -19.7255 -19.7255 -19.7255 -19.7255 -19.7255 -19.7255 -19.7255 -19.7255
   -19.5464 -19.5464 -19.5464 -19.5464 -19.5464 -19.5463 -19.5463 -19.5463
   -19.5462 -19.5462 -19.5462 -19.5462 -19.5462 -19.5461 -19.5461 -19.5461
    17.0039  17.0040  17.0040  17.0041  17.0042  17.0042  17.0042  17.0044
    17.8700  17.8700  17.8700  17.8700  17.8700  17.8700  17.8700  17.8700
    17.8700  17.8700  17.8700  17.8700  17.8701  17.8701  17.8701  17.8702
    17.8702  17.8702  17.8702  17.8702  17.8702  17.8702  17.8702  17.8702
    18.8915  18.8916  18.8916  18.8916  18.8916  18.8917  18.8917  18.8917
    18.8917  18.8917  18.8917  18.8917  18.8918  18.8918  18.8918  18.8918
    18.8918  18.8918  18.8918  18.8919  18.8919  18.8919  18.8919  18.8919
    20.2009  20.2010  20.2010  20.2010  20.2010  20.2010  20.2010  20.2010
    20.8398  20.8398  20.8398  20.8398  20.8398  20.8398  20.8399  20.8399
    20.8399  20.8399  20.8399  20.8399  20.8399  20.8400  20.8400  20.8400
    20.9442  20.9443  20.9443  20.9443  20.9443  20.9443  20.9443  20.9443
    20.9443  20.9443  20.9444  20.9444  20.9444  20.9444  20.9444  20.9444
    20.9444  20.9444  20.9445  20.9445  20.9445  20.9445  20.9445  20.9445
    22.1526  22.1526  22.1527  22.1527  22.1527  22.1527  22.1527  22.1528
    22.1528  22.1528  22.1528  22.1528  22.1528  22.1528  22.1528  22.1528
    22.1529  22.1529  22.1529  22.1529  22.1529  22.1529  22.1530  22.1530
    22.9766  22.9766  22.9767  22.9767  22.9767  22.9767  22.9767  22.9767
    22.9768  22.9768  22.9768  22.9768  22.9768  22.9768  22.9769  22.9769
    24.7559  24.7559  24.7559  24.7560  24.7560  24.7560  24.7560  24.7560
    24.7560  24.7560  24.7560  24.7561  24.7561  24.7561  24.7561  24.7561
    24.7561  24.7561  24.7561  24.7562  24.7562  24.7562  24.7562  24.7562
    28.1176  28.1176  28.1176  28.1177  28.1177  28.1177  28.1177  28.1177
    28.1178  28.1178  28.1178

     the Fermi energy is    22.9445 ev

!    total energy              =  -13813.30011058 Ry

     total all-electron energy =   -289989.690450 Ry
     estimated scf accuracy    <       0.00000021 Ry
     smearing contrib. (-TS)   =       0.01994425 Ry
     internal energy E=F+TS    =  -13813.32005483 Ry

     The total energy is F=E-TS. E is the sum of the following terms:
     one-electron contribution =   -1010.76076087 Ry
     hartree contribution      =     920.58627260 Ry
     xc contribution           =    -927.83713119 Ry
     ewald contribution        =   -5205.87379559 Ry
     one-center paw contrib.   =   -7589.43463978 Ry

     convergence has been achieved in  13 iterations

     Forces acting on atoms (cartesian axes, Ry/au):

     atom    1 type  1   force =     0.00000000    0.00000000    0.00000000
     atom    2 type  1   force =    -0.00000284   -0.00000284    0.00000000
     atom    3 type  1   force =    -0.00000284    0.00000000   -0.00000284
     atom    4 type  1   force =     0.00000000   -0.00000284   -0.00000284
     atom    5 type  1   force =     0.00000000    0.00000000    0.00000000
     atom    6 type  1   force =    -0.00000056   -0.00000056    0.00000000
     atom    7 type  1   force =    -0.00000284    0.00000000    0.00000284
     atom    8 type  1   force =    -0.00000000   -0.00000284    0.00000284
     atom    9 type  1   force =     0.00000000    0.00000000    0.00000000
     atom   10 type  1   force =    -0.00000284    0.00000284   -0.00000000
     atom   11 type  1   force =    -0.00000056    0.00000000   -0.00000056
     atom   12 type  1   force =     0.00000000    0.00000284   -0.00000284
     atom   13 type  1   force =     0.00000000    0.00000000    0.00000000
     atom   14 type  1   force =    -0.00000056    0.00000056   -0.00000000
     atom   15 type  1   force =    -0.00000056    0.00000000    0.00000056
     atom   16 type  1   force =     0.00000000    0.00000284    0.00000284
     atom   17 type  1   force =     0.00000000    0.00000000    0.00000000
     atom   18 type  1   force =     0.00000284   -0.00000284   -0.00000000
     atom   19 type  1   force =     0.00000284    0.00000000   -0.00000284
     atom   20 type  1   force =    -0.00000000   -0.00000056   -0.00000056
     atom   21 type  1   force =     0.00000000    0.00000000    0.00000000
     atom   22 type  1   force =     0.00000056   -0.00000056   -0.00000000
     atom   23 type  1   force =     0.00000284    0.00000000    0.00000284
     atom   24 type  1   force =     0.00000000   -0.00000056    0.00000056
     atom   25 type  1   force =     0.00000000    0.00000000    0.00000000
     atom   26 type  1   force =     0.00000284    0.00000284    0.00000000
     atom   27 type  1   force =     0.00000056    0.00000000   -0.00000056
     atom   28 type  1   force =     0.00000000    0.00000056   -0.00000056
     atom   29 type  1   force =     0.00000000    0.00000000    0.00000000
     atom   30 type  1   force =     0.00000056    0.00000056    0.00000000
     atom   31 type  1   force =     0.00000056   -0.00000000    0.00000056
     atom   32 type  1   force =    -0.00000000    0.00000056    0.00000056

     Total force =     0.000014     Total SCF correction =     0.000076
     SCF correction compared to forces is large: reduce conv_thr to get better values

     Computing stress (Cartesian axis) and pressure

          total   stress  (Ry/bohr**3)                   (kbar)     P=      -21.67
  -0.00014734   0.00000000   0.00000000          -21.67        0.00        0.00
   0.00000000  -0.00014734   0.00000000            0.00      -21.67        0.00
   0.00000000   0.00000000  -0.00014734            0.00        0.00      -21.67

     Writing output data file /scratch/fzgEdrMcYSdblclh.save/

     General routines

     Parallel routines

   This run was terminated on:  13:12:32  23Nov2021

   JOB DONE.