     Program PWSCF v.6.7MaX starts on  7Jan2022 at 14:36:32

     R & G space division:  proc/nbgrp/npool/nimage =      72
     Reading input from relax_6.in
Warning: card &CELL ignored
Warning: card CELL_DYNAMICS = 'BFGS', ignored
Warning: card CELL_FACTOR = 2.0, ignored
Warning: card PRESS = 0.0, ignored
Warning: card / ignored

     Current dimensions of program PWSCF are:
     Max number of different atomic species (ntypx) = 10
     Max number of k-points (npk) =  40000
     Max angular momentum in pseudopotentials (lmaxx) =  3
     file Pd.pbe-spn-kjpaw_psl.1.0.0.UPF: wavefunction(s)  4S 5S 4D renormalized

     Subspace diagonalization in iterative solution of the eigenvalue problem:
     one sub-group per band group will be used

     Found symmetry operation: I + (  0.2500  0.2500  0.0000)
     This is a supercell, fractional translations are disabled
     Message from routine setup:
     using ibrav=0 with symmetry is DISCOURAGED, use correct ibrav instead

     bravais-lattice index     =            0
     lattice parameter (alat)  =      14.8394  a.u.
     unit-cell volume          =    3778.3530 (a.u.)^3
     number of atoms/cell      =           32
     number of atomic types    =            1
     number of electrons       =       576.00
     number of Kohn-Sham states=          346
     kinetic-energy cutoff     =      71.0000  Ry
     charge density cutoff     =     430.0000  Ry
     scf convergence threshold =      1.0E-06
     mixing beta               =       0.1000
     number of iterations used =           10  TF        mixing
     energy convergence thresh.=      1.0E-04
     force convergence thresh. =      1.0E-03
     Exchange-correlation= SLA  PW   PBX  PBC
                           (   1   4   3   4   0   0   0)
     nstep                     =           40

     celldm(1)=  14.839420  celldm(2)=   0.000000  celldm(3)=   0.000000
     celldm(4)=   0.000000  celldm(5)=   0.000000  celldm(6)=   0.000000

     crystal axes: (cart. coord. in units of alat)
               a(1) = (   1.000000   0.000000   0.000000 )
               a(2) = (   0.000000   1.000000   0.000000 )
               a(3) = (   0.000000   0.000000   1.156250 )

     reciprocal axes: (cart. coord. in units 2 pi/alat)
               b(1) = (  1.000000  0.000000  0.000000 )
               b(2) = (  0.000000  1.000000  0.000000 )
               b(3) = (  0.000000  0.000000  0.864865 )

     PseudoPot. # 1 for Pd read from file:
     /rds/homes/b/bxp912/pp/Pd.pbe-spn-kjpaw_psl.1.0.0.UPF
     MD5 check sum: 790f2ebce206edfd9790dcb9844eca51
     Pseudo is Projector augmented-wave + core cor, Zval = 18.0
     Generated using &quot;atomic&quot; code by A. Dal Corso  v.6.3
     Shape of augmentation charge: PSQ
     Using radial grid of 1235 points,  6 beta functions with:
                l(1) =   0
                l(2) =   0
                l(3) =   1
                l(4) =   1
                l(5) =   2
                l(6) =   2
     Q(r) pseudized with 0 coefficients

     atomic species   valence    mass     pseudopotential
        Pd            18.00   106.42000     Pd( 1.00)

      8 Sym. Ops. (no inversion) found

   Cartesian axes

     site n.     atom                  positions (alat units)
         1           Pd  tau(   1) = (   0.0000000   0.0000000   0.0000000  )
         2           Pd  tau(   2) = (   0.2500000   0.2500000   0.0000000  )
         3           Pd  tau(   3) = (   0.2500000   0.0000000   0.2500000  )
         4           Pd  tau(   4) = (   0.0000000   0.2500000   0.2500000  )
         5           Pd  tau(   5) = (   0.0000000   0.0000000   0.6562500  )
         6           Pd  tau(   6) = (   0.2500000   0.2500000   0.6562500  )
         7           Pd  tau(   7) = (   0.2500000   0.0000000   0.9062500  )
         8           Pd  tau(   8) = (   0.0000000   0.2500000   0.9062500  )
         9           Pd  tau(   9) = (   0.0000000   0.5000000   0.0000000  )
        10           Pd  tau(  10) = (   0.2500000   0.7500000   0.0000000  )
        11           Pd  tau(  11) = (   0.2500000   0.5000000   0.2500000  )
        12           Pd  tau(  12) = (   0.0000000   0.7500000   0.2500000  )
        13           Pd  tau(  13) = (   0.0000000   0.5000000   0.6562500  )
        14           Pd  tau(  14) = (   0.2500000   0.7500000   0.6562500  )
        15           Pd  tau(  15) = (   0.2500000   0.5000000   0.9062500  )
        16           Pd  tau(  16) = (   0.0000000   0.7500000   0.9062500  )
        17           Pd  tau(  17) = (   0.5000000   0.0000000   0.0000000  )
        18           Pd  tau(  18) = (   0.7500000   0.2500000   0.0000000  )
        19           Pd  tau(  19) = (   0.7500000   0.0000000   0.2500000  )
        20           Pd  tau(  20) = (   0.5000000   0.2500000   0.2500000  )
        21           Pd  tau(  21) = (   0.5000000   0.0000000   0.6562500  )
        22           Pd  tau(  22) = (   0.7500000   0.2500000   0.6562500  )
        23           Pd  tau(  23) = (   0.7500000   0.0000000   0.9062500  )
        24           Pd  tau(  24) = (   0.5000000   0.2500000   0.9062500  )
        25           Pd  tau(  25) = (   0.5000000   0.5000000   0.0000000  )
        26           Pd  tau(  26) = (   0.7500000   0.7500000   0.0000000  )
        27           Pd  tau(  27) = (   0.7500000   0.5000000   0.2500000  )
        28           Pd  tau(  28) = (   0.5000000   0.7500000   0.2500000  )
        29           Pd  tau(  29) = (   0.5000000   0.5000000   0.6562500  )
        30           Pd  tau(  30) = (   0.7500000   0.7500000   0.6562500  )
        31           Pd  tau(  31) = (   0.7500000   0.5000000   0.9062500  )
        32           Pd  tau(  32) = (   0.5000000   0.7500000   0.9062500  )

     number of k points=    75  Marzari-Vanderbilt smearing, width (Ry)=  0.0400
                       cart. coord. in units 2pi/alat
        k(    1) = (   0.0555556   0.0555556   0.0480480), wk =   0.0219479
        k(    2) = (   0.0555556   0.0555556   0.1441441), wk =   0.0219479
        k(    3) = (   0.0555556   0.0555556   0.2402402), wk =   0.0219479
        k(    4) = (   0.0555556   0.0555556   0.3363363), wk =   0.0219479
        k(    5) = (   0.0555556   0.0555556  -0.4324324), wk =   0.0109739
        k(    6) = (   0.0555556   0.1666667   0.0480480), wk =   0.0438957
        k(    7) = (   0.0555556   0.1666667   0.1441441), wk =   0.0438957
        k(    8) = (   0.0555556   0.1666667   0.2402402), wk =   0.0438957
        k(    9) = (   0.0555556   0.1666667   0.3363363), wk =   0.0438957
        k(   10) = (   0.0555556   0.1666667  -0.4324324), wk =   0.0219479
        k(   11) = (   0.0555556   0.2777778   0.0480480), wk =   0.0438957
        k(   12) = (   0.0555556   0.2777778   0.1441441), wk =   0.0438957
        k(   13) = (   0.0555556   0.2777778   0.2402402), wk =   0.0438957
        k(   14) = (   0.0555556   0.2777778   0.3363363), wk =   0.0438957
        k(   15) = (   0.0555556   0.2777778  -0.4324324), wk =   0.0219479
        k(   16) = (   0.0555556   0.3888889   0.0480480), wk =   0.0438957
        k(   17) = (   0.0555556   0.3888889   0.1441441), wk =   0.0438957
        k(   18) = (   0.0555556   0.3888889   0.2402402), wk =   0.0438957
        k(   19) = (   0.0555556   0.3888889   0.3363363), wk =   0.0438957
        k(   20) = (   0.0555556   0.3888889  -0.4324324), wk =   0.0219479
        k(   21) = (   0.0555556  -0.5000000   0.0480480), wk =   0.0219479
        k(   22) = (   0.0555556  -0.5000000   0.1441441), wk =   0.0219479
        k(   23) = (   0.0555556  -0.5000000   0.2402402), wk =   0.0219479
        k(   24) = (   0.0555556  -0.5000000   0.3363363), wk =   0.0219479
        k(   25) = (   0.0555556  -0.5000000  -0.4324324), wk =   0.0109739
        k(   26) = (   0.1666667   0.1666667   0.0480480), wk =   0.0219479
        k(   27) = (   0.1666667   0.1666667   0.1441441), wk =   0.0219479
        k(   28) = (   0.1666667   0.1666667   0.2402402), wk =   0.0219479
        k(   29) = (   0.1666667   0.1666667   0.3363363), wk =   0.0219479
        k(   30) = (   0.1666667   0.1666667  -0.4324324), wk =   0.0109739
        k(   31) = (   0.1666667   0.2777778   0.0480480), wk =   0.0438957
        k(   32) = (   0.1666667   0.2777778   0.1441441), wk =   0.0438957
        k(   33) = (   0.1666667   0.2777778   0.2402402), wk =   0.0438957
        k(   34) = (   0.1666667   0.2777778   0.3363363), wk =   0.0438957
        k(   35) = (   0.1666667   0.2777778  -0.4324324), wk =   0.0219479
        k(   36) = (   0.1666667   0.3888889   0.0480480), wk =   0.0438957
        k(   37) = (   0.1666667   0.3888889   0.1441441), wk =   0.0438957
        k(   38) = (   0.1666667   0.3888889   0.2402402), wk =   0.0438957
        k(   39) = (   0.1666667   0.3888889   0.3363363), wk =   0.0438957
        k(   40) = (   0.1666667   0.3888889  -0.4324324), wk =   0.0219479
        k(   41) = (   0.1666667  -0.5000000   0.0480480), wk =   0.0219479
        k(   42) = (   0.1666667  -0.5000000   0.1441441), wk =   0.0219479
        k(   43) = (   0.1666667  -0.5000000   0.2402402), wk =   0.0219479
        k(   44) = (   0.1666667  -0.5000000   0.3363363), wk =   0.0219479
        k(   45) = (   0.1666667  -0.5000000  -0.4324324), wk =   0.0109739
        k(   46) = (   0.2777778   0.2777778   0.0480480), wk =   0.0219479
        k(   47) = (   0.2777778   0.2777778   0.1441441), wk =   0.0219479
        k(   48) = (   0.2777778   0.2777778   0.2402402), wk =   0.0219479
        k(   49) = (   0.2777778   0.2777778   0.3363363), wk =   0.0219479
        k(   50) = (   0.2777778   0.2777778  -0.4324324), wk =   0.0109739
        k(   51) = (   0.2777778   0.3888889   0.0480480), wk =   0.0438957
        k(   52) = (   0.2777778   0.3888889   0.1441441), wk =   0.0438957
        k(   53) = (   0.2777778   0.3888889   0.2402402), wk =   0.0438957
        k(   54) = (   0.2777778   0.3888889   0.3363363), wk =   0.0438957
        k(   55) = (   0.2777778   0.3888889  -0.4324324), wk =   0.0219479
        k(   56) = (   0.2777778  -0.5000000   0.0480480), wk =   0.0219479
        k(   57) = (   0.2777778  -0.5000000   0.1441441), wk =   0.0219479
        k(   58) = (   0.2777778  -0.5000000   0.2402402), wk =   0.0219479
        k(   59) = (   0.2777778  -0.5000000   0.3363363), wk =   0.0219479
        k(   60) = (   0.2777778  -0.5000000  -0.4324324), wk =   0.0109739
        k(   61) = (   0.3888889   0.3888889   0.0480480), wk =   0.0219479
        k(   62) = (   0.3888889   0.3888889   0.1441441), wk =   0.0219479
        k(   63) = (   0.3888889   0.3888889   0.2402402), wk =   0.0219479
        k(   64) = (   0.3888889   0.3888889   0.3363363), wk =   0.0219479
        k(   65) = (   0.3888889   0.3888889  -0.4324324), wk =   0.0109739
        k(   66) = (   0.3888889  -0.5000000   0.0480480), wk =   0.0219479
        k(   67) = (   0.3888889  -0.5000000   0.1441441), wk =   0.0219479
        k(   68) = (   0.3888889  -0.5000000   0.2402402), wk =   0.0219479
        k(   69) = (   0.3888889  -0.5000000   0.3363363), wk =   0.0219479
        k(   70) = (   0.3888889  -0.5000000  -0.4324324), wk =   0.0109739
[...]
Pd            0.0000000000        0.2500001432        0.2176238459
Pd            0.0000000000        0.0000000000        0.5661596149
Pd            0.2499996552        0.2499996552        0.5661596173
Pd            0.2499997882        0.0000000000        0.7835283266
Pd            0.0000000000        0.2499997882        0.7835283266
Pd            0.0000000000        0.5000000000        0.0002559380
Pd            0.2499996382        0.7500003618        0.0002557381
Pd            0.2499991216        0.5000000000        0.2176240602
Pd            0.0000000000        0.7499998568        0.2176238459
Pd            0.0000000000        0.5000000000        0.5661596433
Pd            0.2499996552        0.7500003448        0.5661596173
Pd            0.2499988693        0.5000000000        0.7835280401
Pd            0.0000000000        0.7500002118        0.7835283266
Pd            0.5000000000        0.0000000000        0.0002559380
Pd            0.7500003618        0.2499996382        0.0002557381
Pd            0.7499998568        0.0000000000        0.2176238459
Pd            0.5000000000        0.2499991216        0.2176240602
Pd            0.5000000000        0.0000000000        0.5661596433
Pd            0.7500003448        0.2499996552        0.5661596173
Pd            0.7500002118        0.0000000000        0.7835283266
Pd            0.5000000000        0.2499988693        0.7835280401
Pd            0.5000000000        0.5000000000        0.0002559751
Pd            0.7500003618        0.7500003618        0.0002557381
Pd            0.7500008784        0.5000000000        0.2176240602
Pd            0.5000000000        0.7500008784        0.2176240602
Pd            0.5000000000        0.5000000000        0.5661594714
Pd            0.7500003448        0.7500003448        0.5661596173
Pd            0.7500011307        0.5000000000        0.7835280401
Pd            0.5000000000        0.7500011307        0.7835280401

     Writing output data file /scratch/XozLMydxiEoQapuz.save/
     NEW-OLD atomic charge density approx. for the potential

[...]

     Energy error            =      9.5E-03
     Gradient error          =      2.3E-02

[...]

     energy   old            =  -16384.3514558813 Ry
     energy   new            =  -16384.3609580324 Ry

     CASE: energy  _new < energy  _old

     WARNING: bfgs curvature condition failed, Theta= 0.820
     new trust radius        =       0.0265762489 bohr
     new conv_thr            =       0.0000002336 Ry

[...]

     iteration #  1     ecut=    71.00 Ry     beta= 0.10
     Davidson diagonalization with overlap
     c_bands:  1 eigenvalues not converged
     c_bands:  2 eigenvalues not converged
     c_bands:  1 eigenvalues not converged
     c_bands:  1 eigenvalues not converged
     c_bands:  4 eigenvalues not converged
     c_bands:  1 eigenvalues not converged
     c_bands:  1 eigenvalues not converged
     c_bands:  1 eigenvalues not converged
     c_bands:  2 eigenvalues not converged
     c_bands:  2 eigenvalues not converged
     c_bands:  2 eigenvalues not converged
     c_bands:  1 eigenvalues not converged
     c_bands:  2 eigenvalues not converged
     c_bands:  2 eigenvalues not converged
     c_bands:  2 eigenvalues not converged
     ethr =  1.00E-06,  avg # of iterations = 16.5

[...]

     Total force =     0.011708     Total SCF correction =     0.003795
     SCF correction compared to forces is large: reduce conv_thr to get better values

[...]

     WARNING: bfgs curvature condition failed, Theta= 0.915
     new trust radius        =       0.0052116936 bohr
     new conv_thr            =       0.0000000171 Ry

[...]

     Total force =     0.004815     Total SCF correction =     0.000044

[...]

     number of scf cycles    =  14
     number of bfgs steps    =  13

     energy   old            =  -16384.5545303930 Ry
     energy   new            =  -16384.5546533127 Ry

     CASE: energy  _new < energy  _old

     new trust radius        =       0.0028756722 bohr
     new conv_thr            =       0.0000000100 Ry

ATOMIC_POSITIONS (crystal)
Pd            0.0000000000        0.0000000000        0.0168969752
Pd            0.2500025604        0.2500025604        0.0168944138
Pd            0.2500005253        0.0000000000        0.2668788477
Pd            0.0000000000        0.2500005253        0.2668788477
Pd            0.0000000000        0.0000000000        0.5169054177
Pd            0.2500012173        0.2500012173        0.5169058034
Pd            0.2500001598        0.0000000000        0.7668876891
Pd            0.0000000000        0.2500001598        0.7668876891
Pd            0.0000000000        0.5000000000        0.0168961780
Pd            0.2500025604        0.7499974396        0.0168944138
Pd            0.2500048539        0.5000000000        0.2668794737
Pd            0.0000000000        0.7499994747        0.2668788477
Pd            0.0000000000        0.5000000000        0.5169063684
Pd            0.2500012173        0.7499987827        0.5169058034
Pd            0.2500022115        0.5000000000        0.7668866588
Pd            0.0000000000        0.7499998402        0.7668876891
Pd            0.5000000000        0.0000000000        0.0168961780
Pd            0.7499974396        0.2500025604        0.0168944138
Pd            0.7499994747        0.0000000000        0.2668788477
Pd            0.5000000000        0.2500048539        0.2668794737
Pd            0.5000000000        0.0000000000        0.5169063684
Pd            0.7499987827        0.2500012173        0.5169058034
Pd            0.7499998402        0.0000000000        0.7668876891
Pd            0.5000000000        0.2500022115        0.7668866588
Pd            0.5000000000        0.5000000000        0.0168942720
Pd            0.7499974396        0.7499974396        0.0168944138
Pd            0.7499951461        0.5000000000        0.2668794737
Pd            0.5000000000        0.7499951461        0.2668794737
Pd            0.5000000000        0.5000000000        0.5169072372
Pd            0.7499987827        0.7499987827        0.5169058034
Pd            0.7499977885        0.5000000000        0.7668866588
Pd            0.5000000000        0.7499977885        0.7668866588

     Writing output data file /scratch/XozLMydxiEoQapuz.save/
     NEW-OLD atomic charge density approx. for the potential

     Check: negative core charge=   -0.000001

     Self-consistent Calculation

[...]

     Threshold (ethr) on eigenvalues was too large:
     Diagonalizing with lowered threshold

     Davidson diagonalization with overlap
     ethr =  2.48E-09,  avg # of iterations =  4.6

[...]

     total energy              =  -16384.55465788 Ry
     estimated scf accuracy    <       0.00000001 Ry

     iteration # 10     ecut=    71.00 Ry     beta= 0.10
     Davidson diagonalization with overlap
     ethr =  1.90E-12,  avg # of iterations =  1.6

     End of self-consistent calculation

[...]

          k = 0.3889-0.5000-0.4324 ( 38216 PWs)   bands (ev):

[...]

          k =-0.5000-0.5000-0.4324 ( 38168 PWs)   bands (ev):

   -67.9491 -67.9490 -67.9490 -67.9490 -67.9490 -67.9490 -67.9490 -67.9489
   -67.9386 -67.9385 -67.9385 -67.9385 -67.9385 -67.9384 -67.9384 -67.9384
   -67.9279 -67.9279 -67.9279 -67.9279 -67.9278 -67.9278 -67.9278 -67.9278
   -67.9278 -67.9277 -67.9277 -67.9277 -67.9277 -67.9277 -67.9277 -67.9277
   -33.7767 -33.7767 -33.7767 -33.7767 -33.7767 -33.7767 -33.7767 -33.7767
   -33.7766 -33.7766 -33.7766 -33.7766 -33.7766 -33.7766 -33.7766 -33.7766
   -33.7097 -33.7097 -33.7097 -33.7097 -33.7096 -33.7096 -33.7096 -33.7096
   -33.6782 -33.6782 -33.6782 -33.6782 -33.6781 -33.6781 -33.6781 -33.6781
   -33.6605 -33.6605 -33.6605 -33.6605 -33.6605 -33.6605 -33.6605 -33.6605
   -33.6604 -33.6604 -33.6604 -33.6604 -33.6604 -33.6604 -33.6604 -33.6604
   -33.6372 -33.6372 -33.6372 -33.6372 -33.6371 -33.6371 -33.6371 -33.6371
   -33.5875 -33.5874 -33.5874 -33.5874 -33.5874 -33.5874 -33.5874 -33.5874
   -33.5873 -33.5873 -33.5873 -33.5873 -33.5873 -33.5873 -33.5873 -33.5873
   -33.5866 -33.5866 -33.5866 -33.5866 -33.5866 -33.5866 -33.5866 -33.5866
   -33.5634 -33.5634 -33.5634 -33.5634 -33.5633 -33.5633 -33.5633 -33.5633
   -33.5594 -33.5594 -33.5594 -33.5594 -33.5594 -33.5593 -33.5593 -33.5593
    11.3405  11.3405  11.3405  11.3406  11.3406  11.3407  11.3407  11.3407
    12.0774  12.0774  12.0774  12.0774  12.0775  12.0775  12.0775  12.0775
    12.2543  12.2543  12.2543  12.2543  12.2544  12.2544  12.2544  12.2544
    12.2544  12.2544  12.2544  12.2544  12.2544  12.2544  12.2544  12.2545
    12.7807  12.7807  12.7808  12.7808  12.7808  12.7808  12.7808  12.7808
    12.7808  12.7808  12.7808  12.7808  12.7809  12.7809  12.7809  12.7809
    12.8827  12.8827  12.8828  12.8828  12.8829  12.8829  12.8829  12.8829
    13.2754  13.2755  13.2755  13.2755  13.2755  13.2755  13.2755  13.2755
    13.6054  13.6054  13.6055  13.6055  13.6055  13.6055  13.6056  13.6056
    13.6182  13.6182  13.6182  13.6182  13.6182  13.6182  13.6182  13.6182
    14.1053  14.1053  14.1054  14.1054  14.1054  14.1054  14.1054  14.1054
    14.1054  14.1054  14.1054  14.1054  14.1054  14.1054  14.1054  14.1055
    14.2818  14.2818  14.2818  14.2819  14.2819  14.2819  14.2819  14.2820
    14.3834  14.3834  14.3834  14.3834  14.3834  14.3834  14.3834  14.3834
    14.3834  14.3834  14.3835  14.3835  14.3835  14.3835  14.3835  14.3835
    14.7255  14.7256  14.7256  14.7256  14.7256  14.7257  14.7257  14.7257
    14.8020  14.8020  14.8021  14.8021  14.8021  14.8021  14.8021  14.8021
    15.0553  15.0553  15.0553  15.0553  15.0553  15.0553  15.0554  15.0554
    15.6608  15.6608  15.6608  15.6608  15.6608  15.6608  15.6608  15.6608
    15.7340  15.7340  15.7340  15.7340  15.7340  15.7340  15.7340  15.7340
    15.7340  15.7340  15.7340  15.7340  15.7340  15.7340  15.7340  15.7340
    18.3284  18.3284  18.3285  18.3285  18.3285  18.3285  18.3285  18.3285
    19.4579  19.4579  19.4579  19.4579  19.4579  19.4579  19.4579  19.4579
    19.4579  19.4580  19.4580  19.4580  19.4580  19.4580  19.4580  19.4580
    23.6243  23.6243  23.6243  23.6243  23.6243  23.6243  23.6243  23.6243
    23.6245  23.6245  23.6245  23.6245  23.6245  23.6245  23.6245  23.6245
    24.7859  24.7859  24.7859  24.7860  24.7860  24.7860  24.7860  24.7860
    26.4929  26.4930

     the Fermi energy is    15.7797 ev

!    total energy              =  -16384.55465787 Ry

     total all-electron energy =   -322945.408365 Ry
     estimated scf accuracy    <          5.6E-09 Ry
     smearing contrib. (-TS)   =       0.13991851 Ry
     internal energy E=F+TS    =  -16384.69457638 Ry

     The total energy is F=E-TS. E is the sum of the following terms:
     one-electron contribution =   -2970.32341065 Ry
     hartree contribution      =    1836.78102098 Ry
     xc contribution           =    -983.89019689 Ry
     ewald contribution        =   -6099.98806822 Ry
     one-center paw contrib.   =   -8167.27392161 Ry

     convergence has been achieved in  10 iterations

     Forces acting on atoms (cartesian axes, Ry/au):

     atom    1 type  1   force =     0.00000000    0.00000000    0.00006047
     atom    2 type  1   force =    -0.00000501   -0.00000501    0.00005996
     atom    3 type  1   force =     0.00000084    0.00000000    0.00002859
     atom    4 type  1   force =     0.00000000    0.00000084    0.00002859
     atom    5 type  1   force =     0.00000000    0.00000000   -0.00003209
     atom    6 type  1   force =    -0.00000197   -0.00000197   -0.00003069
     atom    7 type  1   force =     0.00000125    0.00000000   -0.00005740
     atom    8 type  1   force =     0.00000000    0.00000125   -0.00005740
     atom    9 type  1   force =     0.00000000    0.00000000    0.00005970
     atom   10 type  1   force =    -0.00000501    0.00000501    0.00005996
     atom   11 type  1   force =    -0.00001138    0.00000000    0.00002959
     atom   12 type  1   force =     0.00000000   -0.00000084    0.00002859
     atom   13 type  1   force =     0.00000000    0.00000000   -0.00003151
     atom   14 type  1   force =    -0.00000197    0.00000197   -0.00003069
     atom   15 type  1   force =    -0.00000473    0.00000000   -0.00005836
     atom   16 type  1   force =     0.00000000   -0.00000125   -0.00005740
     atom   17 type  1   force =     0.00000000    0.00000000    0.00005970
     atom   18 type  1   force =     0.00000501   -0.00000501    0.00005996
     atom   19 type  1   force =    -0.00000084    0.00000000    0.00002859
     atom   20 type  1   force =     0.00000000   -0.00001138    0.00002959
     atom   21 type  1   force =     0.00000000    0.00000000   -0.00003151
     atom   22 type  1   force =     0.00000197   -0.00000197   -0.00003069
     atom   23 type  1   force =    -0.00000125    0.00000000   -0.00005740
     atom   24 type  1   force =     0.00000000   -0.00000473   -0.00005836
     atom   25 type  1   force =     0.00000000    0.00000000    0.00005827
     atom   26 type  1   force =     0.00000501    0.00000501    0.00005996
     atom   27 type  1   force =     0.00001138    0.00000000    0.00002959
     atom   28 type  1   force =     0.00000000    0.00001138    0.00002959
     atom   29 type  1   force =     0.00000000    0.00000000   -0.00002980
     atom   30 type  1   force =     0.00000197    0.00000197   -0.00003069
     atom   31 type  1   force =     0.00000473    0.00000000   -0.00005836
     atom   32 type  1   force =     0.00000000    0.00000473   -0.00005836

     Total force =     0.000266     Total SCF correction =     0.000717
     SCF correction compared to forces is large: reduce conv_thr to get better values

     Computing stress (Cartesian axis) and pressure

          total   stress  (Ry/bohr**3)                   (kbar)     P=     -164.80
  -0.00093263   0.00000000   0.00000000         -137.19        0.00        0.00
   0.00000000  -0.00093263   0.00000000            0.00     -137.19        0.00
   0.00000000   0.00000000  -0.00149563            0.00        0.00     -220.01

     Energy error            =      4.6E-06
     Gradient error          =      6.0E-05

     bfgs converged in  15 scf cycles and  14 bfgs steps
     (criteria: energy <  1.0E-04 Ry, force <  1.0E-03 Ry/Bohr)

     End of BFGS Geometry Optimization

     Final energy   =  -16384.5546578697 Ry

     File /scratch/XozLMydxiEoQapuz.bfgs deleted, as requested
Begin final coordinates

ATOMIC_POSITIONS (crystal)
Pd            0.0000000000        0.0000000000        0.0168969752
Pd            0.2500025604        0.2500025604        0.0168944138
Pd            0.2500005253        0.0000000000        0.2668788477
Pd            0.0000000000        0.2500005253        0.2668788477
Pd            0.0000000000        0.0000000000        0.5169054177
Pd            0.2500012173        0.2500012173        0.5169058034
Pd            0.2500001598        0.0000000000        0.7668876891
Pd            0.0000000000        0.2500001598        0.7668876891
Pd            0.0000000000        0.5000000000        0.0168961780
Pd            0.2500025604        0.7499974396        0.0168944138
Pd            0.2500048539        0.5000000000        0.2668794737
Pd            0.0000000000        0.7499994747        0.2668788477
Pd            0.0000000000        0.5000000000        0.5169063684
Pd            0.2500012173        0.7499987827        0.5169058034
Pd            0.2500022115        0.5000000000        0.7668866588
Pd            0.0000000000        0.7499998402        0.7668876891
Pd            0.5000000000        0.0000000000        0.0168961780
Pd            0.7499974396        0.2500025604        0.0168944138
Pd            0.7499994747        0.0000000000        0.2668788477
Pd            0.5000000000        0.2500048539        0.2668794737
Pd            0.5000000000        0.0000000000        0.5169063684
Pd            0.7499987827        0.2500012173        0.5169058034
Pd            0.7499998402        0.0000000000        0.7668876891
Pd            0.5000000000        0.2500022115        0.7668866588
Pd            0.5000000000        0.5000000000        0.0168942720
Pd            0.7499974396        0.7499974396        0.0168944138
Pd            0.7499951461        0.5000000000        0.2668794737
Pd            0.5000000000        0.7499951461        0.2668794737
Pd            0.5000000000        0.5000000000        0.5169072372
Pd            0.7499987827        0.7499987827        0.5169058034
Pd            0.7499977885        0.5000000000        0.7668866588
Pd            0.5000000000        0.7499977885        0.7668866588
End final coordinates

     Writing output data file /scratch/XozLMydxiEoQapuz.save/

     General routines

     Parallel routines

   This run was terminated on:  20:14:32   7Jan2022

   JOB DONE.