     Program PWSCF v.6.7MaX starts on  8Jan2022 at 16: 5:15

     R & G space division:  proc/nbgrp/npool/nimage =      72
     Reading input from relax_14.in
Warning: card &CELL ignored
Warning: card CELL_DYNAMICS = 'BFGS', ignored
Warning: card CELL_FACTOR = 2.0, ignored
Warning: card PRESS = 0.0, ignored
Warning: card / ignored

     Current dimensions of program PWSCF are:
     Max number of different atomic species (ntypx) = 10
     Max number of k-points (npk) =  40000
     Max angular momentum in pseudopotentials (lmaxx) =  3
     file Pd.pbe-spn-kjpaw_psl.1.0.0.UPF: wavefunction(s)  4S 5S 4D renormalized

     Subspace diagonalization in iterative solution of the eigenvalue problem:
     one sub-group per band group will be used

     Found symmetry operation: I + (  0.2500  0.2500  0.0000)
     This is a supercell, fractional translations are disabled
     Message from routine setup:
     using ibrav=0 with symmetry is DISCOURAGED, use correct ibrav instead

     bravais-lattice index     =            0
     lattice parameter (alat)  =      14.8394  a.u.
     unit-cell volume          =    4595.2941 (a.u.)^3
     number of atoms/cell      =           32
     number of atomic types    =            1
     number of electrons       =       576.00
     number of Kohn-Sham states=          346
     kinetic-energy cutoff     =      71.0000  Ry
     charge density cutoff     =     430.0000  Ry
     scf convergence threshold =      1.0E-06
     mixing beta               =       0.1000
     number of iterations used =           10  TF        mixing
     energy convergence thresh.=      1.0E-04
     force convergence thresh. =      1.0E-03
     Exchange-correlation= SLA  PW   PBX  PBC
                           (   1   4   3   4   0   0   0)
     nstep                     =           40

     celldm(1)=  14.839420  celldm(2)=   0.000000  celldm(3)=   0.000000
     celldm(4)=   0.000000  celldm(5)=   0.000000  celldm(6)=   0.000000

     crystal axes: (cart. coord. in units of alat)
               a(1) = (   1.000000   0.000000   0.000000 )
               a(2) = (   0.000000   1.000000   0.000000 )
               a(3) = (   0.000000   0.000000   1.406250 )

     reciprocal axes: (cart. coord. in units 2 pi/alat)
               b(1) = (  1.000000  0.000000  0.000000 )
               b(2) = (  0.000000  1.000000  0.000000 )
               b(3) = (  0.000000  0.000000  0.711111 )

     PseudoPot. # 1 for Pd read from file:
     /rds/homes/b/bxp912/pp/Pd.pbe-spn-kjpaw_psl.1.0.0.UPF
     MD5 check sum: 790f2ebce206edfd9790dcb9844eca51
     Pseudo is Projector augmented-wave + core cor, Zval = 18.0
     Generated using &quot;atomic&quot; code by A. Dal Corso  v.6.3
     Shape of augmentation charge: PSQ
     Using radial grid of 1235 points,  6 beta functions with:
                l(1) =   0
                l(2) =   0
                l(3) =   1
                l(4) =   1
                l(5) =   2
                l(6) =   2
     Q(r) pseudized with 0 coefficients

     atomic species   valence    mass     pseudopotential
        Pd            18.00   106.42000     Pd( 1.00)

      8 Sym. Ops. (no inversion) found

   Cartesian axes

     site n.     atom                  positions (alat units)
         1           Pd  tau(   1) = (   0.0000000   0.0000000   0.0000000  )
         2           Pd  tau(   2) = (   0.2500000   0.2500000   0.0000000  )
         3           Pd  tau(   3) = (   0.2500000   0.0000000   0.2500000  )
         4           Pd  tau(   4) = (   0.0000000   0.2500000   0.2500000  )
         5           Pd  tau(   5) = (   0.0000000   0.0000000   0.9062500  )
         6           Pd  tau(   6) = (   0.2500000   0.2500000   0.9062500  )
         7           Pd  tau(   7) = (   0.2500000   0.0000000   1.1562500  )
         8           Pd  tau(   8) = (   0.0000000   0.2500000   1.1562500  )
         9           Pd  tau(   9) = (   0.0000000   0.5000000   0.0000000  )
        10           Pd  tau(  10) = (   0.2500000   0.7500000   0.0000000  )
        11           Pd  tau(  11) = (   0.2500000   0.5000000   0.2500000  )
        12           Pd  tau(  12) = (   0.0000000   0.7500000   0.2500000  )
        13           Pd  tau(  13) = (   0.0000000   0.5000000   0.9062500  )
        14           Pd  tau(  14) = (   0.2500000   0.7500000   0.9062500  )
        15           Pd  tau(  15) = (   0.2500000   0.5000000   1.1562500  )
        16           Pd  tau(  16) = (   0.0000000   0.7500000   1.1562500  )
        17           Pd  tau(  17) = (   0.5000000   0.0000000   0.0000000  )
        18           Pd  tau(  18) = (   0.7500000   0.2500000   0.0000000  )
        19           Pd  tau(  19) = (   0.7500000   0.0000000   0.2500000  )
        20           Pd  tau(  20) = (   0.5000000   0.2500000   0.2500000  )
        21           Pd  tau(  21) = (   0.5000000   0.0000000   0.9062500  )
        22           Pd  tau(  22) = (   0.7500000   0.2500000   0.9062500  )
        23           Pd  tau(  23) = (   0.7500000   0.0000000   1.1562500  )
        24           Pd  tau(  24) = (   0.5000000   0.2500000   1.1562500  )
        25           Pd  tau(  25) = (   0.5000000   0.5000000   0.0000000  )
        26           Pd  tau(  26) = (   0.7500000   0.7500000   0.0000000  )
        27           Pd  tau(  27) = (   0.7500000   0.5000000   0.2500000  )
        28           Pd  tau(  28) = (   0.5000000   0.7500000   0.2500000  )
        29           Pd  tau(  29) = (   0.5000000   0.5000000   0.9062500  )
        30           Pd  tau(  30) = (   0.7500000   0.7500000   0.9062500  )
        31           Pd  tau(  31) = (   0.7500000   0.5000000   1.1562500  )
        32           Pd  tau(  32) = (   0.5000000   0.7500000   1.1562500  )

     number of k points=    75  Marzari-Vanderbilt smearing, width (Ry)=  0.0400
                       cart. coord. in units 2pi/alat
        k(    1) = (   0.0555556   0.0555556   0.0395062), wk =   0.0219479
        k(    2) = (   0.0555556   0.0555556   0.1185185), wk =   0.0219479
        k(    3) = (   0.0555556   0.0555556   0.1975309), wk =   0.0219479
        k(    4) = (   0.0555556   0.0555556   0.2765432), wk =   0.0219479
        k(    5) = (   0.0555556   0.0555556  -0.3555556), wk =   0.0109739
        k(    6) = (   0.0555556   0.1666667   0.0395062), wk =   0.0438957
        k(    7) = (   0.0555556   0.1666667   0.1185185), wk =   0.0438957
        k(    8) = (   0.0555556   0.1666667   0.1975309), wk =   0.0438957
        k(    9) = (   0.0555556   0.1666667   0.2765432), wk =   0.0438957
        k(   10) = (   0.0555556   0.1666667  -0.3555556), wk =   0.0219479
        k(   11) = (   0.0555556   0.2777778   0.0395062), wk =   0.0438957
        k(   12) = (   0.0555556   0.2777778   0.1185185), wk =   0.0438957
        k(   13) = (   0.0555556   0.2777778   0.1975309), wk =   0.0438957
        k(   14) = (   0.0555556   0.2777778   0.2765432), wk =   0.0438957
        k(   15) = (   0.0555556   0.2777778  -0.3555556), wk =   0.0219479
        k(   16) = (   0.0555556   0.3888889   0.0395062), wk =   0.0438957
        k(   17) = (   0.0555556   0.3888889   0.1185185), wk =   0.0438957
        k(   18) = (   0.0555556   0.3888889   0.1975309), wk =   0.0438957
        k(   19) = (   0.0555556   0.3888889   0.2765432), wk =   0.0438957
        k(   20) = (   0.0555556   0.3888889  -0.3555556), wk =   0.0219479
        k(   21) = (   0.0555556  -0.5000000   0.0395062), wk =   0.0219479
        k(   22) = (   0.0555556  -0.5000000   0.1185185), wk =   0.0219479
        k(   23) = (   0.0555556  -0.5000000   0.1975309), wk =   0.0219479
        k(   24) = (   0.0555556  -0.5000000   0.2765432), wk =   0.0219479
        k(   25) = (   0.0555556  -0.5000000  -0.3555556), wk =   0.0109739
        k(   26) = (   0.1666667   0.1666667   0.0395062), wk =   0.0219479
        k(   27) = (   0.1666667   0.1666667   0.1185185), wk =   0.0219479
        k(   28) = (   0.1666667   0.1666667   0.1975309), wk =   0.0219479
        k(   29) = (   0.1666667   0.1666667   0.2765432), wk =   0.0219479
        k(   30) = (   0.1666667   0.1666667  -0.3555556), wk =   0.0109739
        k(   31) = (   0.1666667   0.2777778   0.0395062), wk =   0.0438957
        k(   32) = (   0.1666667   0.2777778   0.1185185), wk =   0.0438957
        k(   33) = (   0.1666667   0.2777778   0.1975309), wk =   0.0438957
        k(   34) = (   0.1666667   0.2777778   0.2765432), wk =   0.0438957
        k(   35) = (   0.1666667   0.2777778  -0.3555556), wk =   0.0219479
        k(   36) = (   0.1666667   0.3888889   0.0395062), wk =   0.0438957
        k(   37) = (   0.1666667   0.3888889   0.1185185), wk =   0.0438957
        k(   38) = (   0.1666667   0.3888889   0.1975309), wk =   0.0438957
        k(   39) = (   0.1666667   0.3888889   0.2765432), wk =   0.0438957
        k(   40) = (   0.1666667   0.3888889  -0.3555556), wk =   0.0219479
        k(   41) = (   0.1666667  -0.5000000   0.0395062), wk =   0.0219479
        k(   42) = (   0.1666667  -0.5000000   0.1185185), wk =   0.0219479
        k(   43) = (   0.1666667  -0.5000000   0.1975309), wk =   0.0219479
        k(   44) = (   0.1666667  -0.5000000   0.2765432), wk =   0.0219479
        k(   45) = (   0.1666667  -0.5000000  -0.3555556), wk =   0.0109739
        k(   46) = (   0.2777778   0.2777778   0.0395062), wk =   0.0219479
        k(   47) = (   0.2777778   0.2777778   0.1185185), wk =   0.0219479
        k(   48) = (   0.2777778   0.2777778   0.1975309), wk =   0.0219479
        k(   49) = (   0.2777778   0.2777778   0.2765432), wk =   0.0219479
        k(   50) = (   0.2777778   0.2777778  -0.3555556), wk =   0.0109739
        k(   51) = (   0.2777778   0.3888889   0.0395062), wk =   0.0438957
        k(   52) = (   0.2777778   0.3888889   0.1185185), wk =   0.0438957
        k(   53) = (   0.2777778   0.3888889   0.1975309), wk =   0.0438957
        k(   54) = (   0.2777778   0.3888889   0.2765432), wk =   0.0438957
        k(   55) = (   0.2777778   0.3888889  -0.3555556), wk =   0.0219479
        k(   56) = (   0.2777778  -0.5000000   0.0395062), wk =   0.0219479
        k(   57) = (   0.2777778  -0.5000000   0.1185185), wk =   0.0219479
        k(   58) = (   0.2777778  -0.5000000   0.1975309), wk =   0.0219479
        k(   59) = (   0.2777778  -0.5000000   0.2765432), wk =   0.0219479
        k(   60) = (   0.2777778  -0.5000000  -0.3555556), wk =   0.0109739
        k(   61) = (   0.3888889   0.3888889   0.0395062), wk =   0.0219479
        k(   62) = (   0.3888889   0.3888889   0.1185185), wk =   0.0219479
        k(   63) = (   0.3888889   0.3888889   0.1975309), wk =   0.0219479
        k(   64) = (   0.3888889   0.3888889   0.2765432), wk =   0.0219479
        k(   65) = (   0.3888889   0.3888889  -0.3555556), wk =   0.0109739
        k(   66) = (   0.3888889  -0.5000000   0.0395062), wk =   0.0219479
        k(   67) = (   0.3888889  -0.5000000   0.1185185), wk =   0.0219479
        k(   68) = (   0.3888889  -0.5000000   0.1975309), wk =   0.0219479
        k(   69) = (   0.3888889  -0.5000000   0.2765432), wk =   0.0219479
        k(   70) = (   0.3888889  -0.5000000  -0.3555556), wk =   0.0109739
[...]
     atom   31 type  1   force =    -0.00001701    0.00000000   -0.00329309
     atom   32 type  1   force =     0.00000000   -0.00001701   -0.00329309

     Total force =     0.019140     Total SCF correction =     0.003490
     SCF correction compared to forces is large: reduce conv_thr to get better values

     Computing stress (Cartesian axis) and pressure

          total   stress  (Ry/bohr**3)                   (kbar)     P=      -39.86
  -0.00033278   0.00000000   0.00000000          -48.95        0.00        0.00
   0.00000000  -0.00033278   0.00000000            0.00      -48.95        0.00
   0.00000000   0.00000000  -0.00014724            0.00        0.00      -21.66

     BFGS Geometry Optimization
     Energy error            =      0.0E+00
     Gradient error          =      3.5E-03

     number of scf cycles    =   1
     number of bfgs steps    =   0

     energy   new            =  -16384.0600928374 Ry

     new trust radius        =       0.0035024249 bohr
     new conv_thr            =       0.0000010000 Ry

ATOMIC_POSITIONS (crystal)
Pd            0.0000000000        0.0000000000        0.0001601016
Pd            0.2500000753        0.2500000753        0.0001586649
Pd            0.2499999947        0.0000000000        0.1776099401
Pd            0.0000000000        0.2499999947        0.1776099401
Pd            0.0000000000        0.0000000000        0.6446098099
Pd            0.2500027649        0.2500027649        0.6446107127
Pd            0.2500008623        0.0000000000        0.8220667718
Pd            0.0000000000        0.2500008623        0.8220667718
Pd            0.0000000000        0.5000000000        0.0001581311
Pd            0.2500000753        0.7499999247        0.0001586649
Pd            0.2499984673        0.5000000000        0.1776105910
Pd            0.0000000000        0.7500000053        0.1776099401
Pd            0.0000000000        0.5000000000        0.6446090335
Pd            0.2500027649        0.7499972351        0.6446107127
Pd            0.2500011463        0.5000000000        0.8220644159
Pd            0.0000000000        0.7499991377        0.8220667718
Pd            0.5000000000        0.0000000000        0.0001581311
Pd            0.7499999247        0.2500000753        0.0001586649
Pd            0.7500000053        0.0000000000        0.1776099401
Pd            0.5000000000        0.2499984673        0.1776105910
Pd            0.5000000000        0.0000000000        0.6446090335
Pd            0.7499972351        0.2500027649        0.6446107127
Pd            0.7499991377        0.0000000000        0.8220667718
Pd            0.5000000000        0.2500011463        0.8220644159
Pd            0.5000000000        0.5000000000        0.0001576129
Pd            0.7499999247        0.7499999247        0.0001586649
Pd            0.7500015327        0.5000000000        0.1776105910
Pd            0.5000000000        0.7500015327        0.1776105910
Pd            0.5000000000        0.5000000000        0.6446093158
Pd            0.7499972351        0.7499972351        0.6446107127
Pd            0.7499988537        0.5000000000        0.8220644159
Pd            0.5000000000        0.7499988537        0.8220644159

     Writing output data file /scratch/cbhXnlFeZaQCJZFN.save/
     NEW-OLD atomic charge density approx. for the potential

[...]

     Energy error            =      3.0E-04
     Gradient error          =      2.6E-03

[...]

     energy   old            =  -16384.0600928374 Ry
     energy   new            =  -16384.0603880300 Ry

     CASE: energy  _new < energy  _old

[...]

     Total force =     0.004449     Total SCF correction =     0.001269
     SCF correction compared to forces is large: reduce conv_thr to get better values

[...]

     number of scf cycles    =   4
     number of bfgs steps    =   3

     energy   old            =  -16384.0605820374 Ry
     energy   new            =  -16384.0607203788 Ry

     CASE: energy  _new < energy  _old

     new trust radius        =       0.0025165533 bohr
     new conv_thr            =       0.0000000100 Ry

ATOMIC_POSITIONS (crystal)
Pd            0.0000000000        0.0000000000        0.0004679920
Pd            0.2500003207        0.2500003207        0.0004675394
Pd            0.2500004778        0.0000000000        0.1770280210
Pd            0.0000000000        0.2500004778        0.1770280210
Pd            0.0000000000        0.0000000000        0.6451834961
Pd            0.2500007018        0.2500007018        0.6451836566
Pd            0.2499998723        0.0000000000        0.8217658424
Pd            0.0000000000        0.2499998723        0.8217658424
Pd            0.0000000000        0.5000000000        0.0004670732
Pd            0.2500003207        0.7499996793        0.0004675394
Pd            0.2499993810        0.5000000000        0.1770284436
Pd            0.0000000000        0.7499995222        0.1770280210
Pd            0.0000000000        0.5000000000        0.6451817498
Pd            0.2500007018        0.7499992982        0.6451836566
Pd            0.2499997749        0.5000000000        0.8217656290
Pd            0.0000000000        0.7500001277        0.8217658424
Pd            0.5000000000        0.0000000000        0.0004670732
Pd            0.7499996793        0.2500003207        0.0004675394
Pd            0.7499995222        0.0000000000        0.1770280210
Pd            0.5000000000        0.2499993810        0.1770284436
Pd            0.5000000000        0.0000000000        0.6451817498
Pd            0.7499992982        0.2500007018        0.6451836566
Pd            0.7500001277        0.0000000000        0.8217658424
Pd            0.5000000000        0.2499997749        0.8217656290
Pd            0.5000000000        0.5000000000        0.0004678129
Pd            0.7499996793        0.7499996793        0.0004675394
Pd            0.7500006190        0.5000000000        0.1770284436
Pd            0.5000000000        0.7500006190        0.1770284436
Pd            0.5000000000        0.5000000000        0.6451820807
Pd            0.7499992982        0.7499992982        0.6451836566
Pd            0.7500002251        0.5000000000        0.8217656290
Pd            0.5000000000        0.7500002251        0.8217656290

     Writing output data file /scratch/cbhXnlFeZaQCJZFN.save/
     NEW-OLD atomic charge density approx. for the potential

     Check: negative core charge=   -0.000001

     Self-consistent Calculation

[...]

     Threshold (ethr) on eigenvalues was too large:
     Diagonalizing with lowered threshold

     Davidson diagonalization with overlap
     ethr =  3.89E-09,  avg # of iterations =  3.9

[...]

     total energy              =  -16384.06075000 Ry
     estimated scf accuracy    <       0.00000001 Ry

     iteration #  9     ecut=    71.00 Ry     beta= 0.10
     Davidson diagonalization with overlap
     ethr =  2.51E-12,  avg # of iterations =  2.7

     End of self-consistent calculation

[...]

          k = 0.3889-0.5000-0.3556 ( 46444 PWs)   bands (ev):

[...]

          k =-0.5000-0.5000-0.3556 ( 46480 PWs)   bands (ev):

   -71.9336 -71.9336 -71.9336 -71.9336 -71.9116 -71.9116 -71.9116 -71.9116
   -71.9064 -71.9064 -71.9064 -71.9064 -71.9062 -71.9062 -71.9062 -71.9062
   -71.3595 -71.3595 -71.3595 -71.3595 -71.3593 -71.3593 -71.3593 -71.3593
   -71.3435 -71.3435 -71.3435 -71.3435 -71.3433 -71.3433 -71.3433 -71.3433
   -37.7579 -37.7579 -37.7579 -37.7579 -37.7577 -37.7577 -37.7577 -37.7577
   -37.7446 -37.7446 -37.7446 -37.7446 -37.6941 -37.6941 -37.6941 -37.6941
   -37.6355 -37.6355 -37.6355 -37.6355 -37.6353 -37.6353 -37.6353 -37.6353
   -37.5961 -37.5961 -37.5961 -37.5961 -37.5941 -37.5941 -37.5941 -37.5941
   -37.5940 -37.5940 -37.5940 -37.5940 -37.5737 -37.5737 -37.5737 -37.5737
   -37.5499 -37.5499 -37.5499 -37.5499 -37.5020 -37.5020 -37.5020 -37.5020
   -37.2331 -37.2331 -37.2331 -37.2331 -37.2330 -37.2330 -37.2330 -37.2330
   -37.1500 -37.1500 -37.1500 -37.1500 -37.1474 -37.1474 -37.1474 -37.1474
   -37.1355 -37.1355 -37.1355 -37.1355 -37.1354 -37.1354 -37.1353 -37.1353
   -37.0471 -37.0471 -37.0471 -37.0471 -37.0469 -37.0469 -37.0469 -37.0469
   -36.9619 -36.9619 -36.9619 -36.9619 -36.9611 -36.9610 -36.9610 -36.9610
   -36.9499 -36.9499 -36.9499 -36.9499 -36.9496 -36.9496 -36.9496 -36.9496
     6.9857   6.9857   6.9857   6.9857   7.6093   7.6093   7.6093   7.6093
     7.9384   7.9384   7.9384   7.9384   7.9386   7.9386   7.9386   7.9386
     8.0347   8.0347   8.0347   8.0347   8.1106   8.1106   8.1106   8.1107
     8.1108   8.1108   8.1108   8.1108   8.1886   8.1886   8.1886   8.1886
     8.4897   8.4897   8.4897   8.4897   8.7932   8.7932   8.7932   8.7932
     8.7937   8.7937   8.7937   8.7937   9.0947   9.0947   9.0947   9.0947
     9.0949   9.0949   9.0949   9.0949   9.2641   9.2641   9.2641   9.2641
     9.4985   9.4985   9.4985   9.4985   9.7401   9.7401   9.7401   9.7401
     9.8585   9.8585   9.8585   9.8585   9.8923   9.8923   9.8923   9.8923
     9.9591   9.9591   9.9591   9.9591  10.0764  10.0764  10.0764  10.0764
    10.0765  10.0765  10.0765  10.0765  10.1186  10.1186  10.1186  10.1186
    10.3940  10.3940  10.3940  10.3940  10.5378  10.5378  10.5378  10.5378
    10.6592  10.6592  10.6592  10.6592  10.6594  10.6594  10.6594  10.6594
    10.6985  10.6985  10.6985  10.6985  10.6986  10.6986  10.6986  10.6986
    10.7211  10.7211  10.7211  10.7211  10.9417  10.9417  10.9417  10.9417
    11.2612  11.2612  11.2612  11.2612  11.2612  11.2612  11.2612  11.2612
    11.2901  11.2901  11.2901  11.2901  11.3136  11.3136  11.3136  11.3136
    11.5357  11.5357  11.5357  11.5357  11.7432  11.7432  11.7432  11.7432
    11.8815  11.8815  11.8815  11.8815  11.8815  11.8815  11.8815  11.8815
    12.1608  12.1608  12.1608  12.1608  12.2164  12.2164  12.2164  12.2164
    12.2164  12.2164  12.2164  12.2164  12.2288  12.2288  12.2288  12.2288
    13.2452  13.2452  13.2452  13.2452  15.0055  15.0055  15.0055  15.0056
    15.4881  15.4881  15.4881  15.4881  15.4882  15.4882  15.4882  15.4882
    16.5475  16.5475  16.5475  16.5475  16.5476  16.5476  16.5476  16.5476
    18.4812  18.4812  18.4812  18.4813  18.7052  18.7052  18.7052  18.7052
    18.7053  18.7053  18.7053  18.7053  20.7780  20.7780  20.7780  20.7780
    20.7781  20.7781  20.7781  20.7781  20.8256  20.8256  20.8257  20.8257
    20.9667  20.9667

     the Fermi energy is    12.2291 ev

!    total energy              =  -16384.06075003 Ry

     total all-electron energy =   -322944.914457 Ry
     estimated scf accuracy    <          6.2E-09 Ry
     smearing contrib. (-TS)   =       0.12080511 Ry
     internal energy E=F+TS    =  -16384.18155514 Ry

     The total energy is F=E-TS. E is the sum of the following terms:
     one-electron contribution =   -8665.28483649 Ry
     hartree contribution      =    4606.06996967 Ry
     xc contribution           =    -985.40216458 Ry
     ewald contribution        =   -3172.23238913 Ry
     one-center paw contrib.   =   -8167.33213461 Ry

     convergence has been achieved in   9 iterations

     Forces acting on atoms (cartesian axes, Ry/au):

     atom    1 type  1   force =     0.00000000    0.00000000   -0.00085005
     atom    2 type  1   force =     0.00000009    0.00000009   -0.00085056
     atom    3 type  1   force =    -0.00000087    0.00000000   -0.00068870
     atom    4 type  1   force =     0.00000000   -0.00000087   -0.00068870
     atom    5 type  1   force =     0.00000000    0.00000000    0.00069571
     atom    6 type  1   force =     0.00000031    0.00000031    0.00069523
     atom    7 type  1   force =     0.00000178    0.00000000    0.00084255
     atom    8 type  1   force =     0.00000000    0.00000178    0.00084255
     atom    9 type  1   force =     0.00000000    0.00000000   -0.00084960
     atom   10 type  1   force =     0.00000009   -0.00000009   -0.00085056
     atom   11 type  1   force =     0.00000122    0.00000000   -0.00068945
     atom   12 type  1   force =     0.00000000    0.00000087   -0.00068870
     atom   13 type  1   force =     0.00000000    0.00000000    0.00069942
     atom   14 type  1   force =     0.00000031   -0.00000031    0.00069523
     atom   15 type  1   force =     0.00000196    0.00000000    0.00084261
     atom   16 type  1   force =     0.00000000   -0.00000178    0.00084255
     atom   17 type  1   force =     0.00000000    0.00000000   -0.00084960
     atom   18 type  1   force =    -0.00000009    0.00000009   -0.00085056
     atom   19 type  1   force =     0.00000087    0.00000000   -0.00068870
     atom   20 type  1   force =     0.00000000    0.00000122   -0.00068945
     atom   21 type  1   force =     0.00000000    0.00000000    0.00069942
     atom   22 type  1   force =    -0.00000031    0.00000031    0.00069523
     atom   23 type  1   force =    -0.00000178    0.00000000    0.00084255
     atom   24 type  1   force =     0.00000000    0.00000196    0.00084261
     atom   25 type  1   force =     0.00000000    0.00000000   -0.00085154
     atom   26 type  1   force =    -0.00000009   -0.00000009   -0.00085056
     atom   27 type  1   force =    -0.00000122    0.00000000   -0.00068945
     atom   28 type  1   force =     0.00000000   -0.00000122   -0.00068945
     atom   29 type  1   force =     0.00000000    0.00000000    0.00069951
     atom   30 type  1   force =    -0.00000031   -0.00000031    0.00069523
     atom   31 type  1   force =    -0.00000196    0.00000000    0.00084261
     atom   32 type  1   force =     0.00000000   -0.00000196    0.00084261

     Total force =     0.004376     Total SCF correction =     0.000265

     Computing stress (Cartesian axis) and pressure

          total   stress  (Ry/bohr**3)                   (kbar)     P=      -37.80
  -0.00032086   0.00000000   0.00000000          -47.20        0.00        0.00
   0.00000000  -0.00032086   0.00000000            0.00      -47.20        0.00
   0.00000000   0.00000000  -0.00012913            0.00        0.00      -19.00

     Energy error            =      3.0E-05
     Gradient error          =      8.5E-04

     bfgs converged in   5 scf cycles and   4 bfgs steps
     (criteria: energy <  1.0E-04 Ry, force <  1.0E-03 Ry/Bohr)

     End of BFGS Geometry Optimization

     Final energy   =  -16384.0607500307 Ry

     File /scratch/cbhXnlFeZaQCJZFN.bfgs deleted, as requested
Begin final coordinates

ATOMIC_POSITIONS (crystal)
Pd            0.0000000000        0.0000000000        0.0004679920
Pd            0.2500003207        0.2500003207        0.0004675394
Pd            0.2500004778        0.0000000000        0.1770280210
Pd            0.0000000000        0.2500004778        0.1770280210
Pd            0.0000000000        0.0000000000        0.6451834961
Pd            0.2500007018        0.2500007018        0.6451836566
Pd            0.2499998723        0.0000000000        0.8217658424
Pd            0.0000000000        0.2499998723        0.8217658424
Pd            0.0000000000        0.5000000000        0.0004670732
Pd            0.2500003207        0.7499996793        0.0004675394
Pd            0.2499993810        0.5000000000        0.1770284436
Pd            0.0000000000        0.7499995222        0.1770280210
Pd            0.0000000000        0.5000000000        0.6451817498
Pd            0.2500007018        0.7499992982        0.6451836566
Pd            0.2499997749        0.5000000000        0.8217656290
Pd            0.0000000000        0.7500001277        0.8217658424
Pd            0.5000000000        0.0000000000        0.0004670732
Pd            0.7499996793        0.2500003207        0.0004675394
Pd            0.7499995222        0.0000000000        0.1770280210
Pd            0.5000000000        0.2499993810        0.1770284436
Pd            0.5000000000        0.0000000000        0.6451817498
Pd            0.7499992982        0.2500007018        0.6451836566
Pd            0.7500001277        0.0000000000        0.8217658424
Pd            0.5000000000        0.2499997749        0.8217656290
Pd            0.5000000000        0.5000000000        0.0004678129
Pd            0.7499996793        0.7499996793        0.0004675394
Pd            0.7500006190        0.5000000000        0.1770284436
Pd            0.5000000000        0.7500006190        0.1770284436
Pd            0.5000000000        0.5000000000        0.6451820807
Pd            0.7499992982        0.7499992982        0.6451836566
Pd            0.7500002251        0.5000000000        0.8217656290
Pd            0.5000000000        0.7500002251        0.8217656290
End final coordinates

     Writing output data file /scratch/cbhXnlFeZaQCJZFN.save/

     General routines

     Parallel routines

   This run was terminated on:  17:54:17   8Jan2022

   JOB DONE.