     Program PWSCF v.6.7MaX starts on  7Jan2022 at  5:10:55

     R & G space division:  proc/nbgrp/npool/nimage =      72
     Reading input from relax_4.in
Warning: card &CELL ignored
Warning: card CELL_DYNAMICS = 'BFGS', ignored
Warning: card CELL_FACTOR = 2.0, ignored
Warning: card PRESS = 0.0, ignored
Warning: card / ignored

     Current dimensions of program PWSCF are:
     Max number of different atomic species (ntypx) = 10
     Max number of k-points (npk) =  40000
     Max angular momentum in pseudopotentials (lmaxx) =  3
     file Pd.pbe-spn-kjpaw_psl.1.0.0.UPF: wavefunction(s)  4S 5S 4D renormalized

     Subspace diagonalization in iterative solution of the eigenvalue problem:
     one sub-group per band group will be used

     Found symmetry operation: I + (  0.2500  0.2500  0.0000)
     This is a supercell, fractional translations are disabled
     Message from routine setup:
     using ibrav=0 with symmetry is DISCOURAGED, use correct ibrav instead

     bravais-lattice index     =            0
     lattice parameter (alat)  =      14.8394  a.u.
     unit-cell volume          =    3574.1177 (a.u.)^3
     number of atoms/cell      =           32
     number of atomic types    =            1
     number of electrons       =       576.00
     number of Kohn-Sham states=          346
     kinetic-energy cutoff     =      71.0000  Ry
     charge density cutoff     =     430.0000  Ry
     scf convergence threshold =      1.0E-06
     mixing beta               =       0.1000
     number of iterations used =           10  TF        mixing
     energy convergence thresh.=      1.0E-04
     force convergence thresh. =      1.0E-03
     Exchange-correlation= SLA  PW   PBX  PBC
                           (   1   4   3   4   0   0   0)
     nstep                     =           40

     celldm(1)=  14.839420  celldm(2)=   0.000000  celldm(3)=   0.000000
     celldm(4)=   0.000000  celldm(5)=   0.000000  celldm(6)=   0.000000

     crystal axes: (cart. coord. in units of alat)
               a(1) = (   1.000000   0.000000   0.000000 )
               a(2) = (   0.000000   1.000000   0.000000 )
               a(3) = (   0.000000   0.000000   1.093750 )

     reciprocal axes: (cart. coord. in units 2 pi/alat)
               b(1) = (  1.000000  0.000000  0.000000 )
               b(2) = (  0.000000  1.000000  0.000000 )
               b(3) = (  0.000000  0.000000  0.914286 )

     PseudoPot. # 1 for Pd read from file:
     /rds/homes/b/bxp912/pp/Pd.pbe-spn-kjpaw_psl.1.0.0.UPF
     MD5 check sum: 790f2ebce206edfd9790dcb9844eca51
     Pseudo is Projector augmented-wave + core cor, Zval = 18.0
     Generated using &quot;atomic&quot; code by A. Dal Corso  v.6.3
     Shape of augmentation charge: PSQ
     Using radial grid of 1235 points,  6 beta functions with:
                l(1) =   0
                l(2) =   0
                l(3) =   1
                l(4) =   1
                l(5) =   2
                l(6) =   2
     Q(r) pseudized with 0 coefficients

     atomic species   valence    mass     pseudopotential
        Pd            18.00   106.42000     Pd( 1.00)

      8 Sym. Ops. (no inversion) found

   Cartesian axes

     site n.     atom                  positions (alat units)
         1           Pd  tau(   1) = (   0.0000000   0.0000000   0.0000000  )
         2           Pd  tau(   2) = (   0.2500000   0.2500000   0.0000000  )
         3           Pd  tau(   3) = (   0.2500000   0.0000000   0.2500000  )
         4           Pd  tau(   4) = (   0.0000000   0.2500000   0.2500000  )
         5           Pd  tau(   5) = (   0.0000000   0.0000000   0.5937500  )
         6           Pd  tau(   6) = (   0.2500000   0.2500000   0.5937500  )
         7           Pd  tau(   7) = (   0.2500000   0.0000000   0.8437500  )
         8           Pd  tau(   8) = (   0.0000000   0.2500000   0.8437500  )
         9           Pd  tau(   9) = (   0.0000000   0.5000000   0.0000000  )
        10           Pd  tau(  10) = (   0.2500000   0.7500000   0.0000000  )
        11           Pd  tau(  11) = (   0.2500000   0.5000000   0.2500000  )
        12           Pd  tau(  12) = (   0.0000000   0.7500000   0.2500000  )
        13           Pd  tau(  13) = (   0.0000000   0.5000000   0.5937500  )
        14           Pd  tau(  14) = (   0.2500000   0.7500000   0.5937500  )
        15           Pd  tau(  15) = (   0.2500000   0.5000000   0.8437500  )
        16           Pd  tau(  16) = (   0.0000000   0.7500000   0.8437500  )
        17           Pd  tau(  17) = (   0.5000000   0.0000000   0.0000000  )
        18           Pd  tau(  18) = (   0.7500000   0.2500000   0.0000000  )
        19           Pd  tau(  19) = (   0.7500000   0.0000000   0.2500000  )
        20           Pd  tau(  20) = (   0.5000000   0.2500000   0.2500000  )
        21           Pd  tau(  21) = (   0.5000000   0.0000000   0.5937500  )
        22           Pd  tau(  22) = (   0.7500000   0.2500000   0.5937500  )
        23           Pd  tau(  23) = (   0.7500000   0.0000000   0.8437500  )
        24           Pd  tau(  24) = (   0.5000000   0.2500000   0.8437500  )
        25           Pd  tau(  25) = (   0.5000000   0.5000000   0.0000000  )
        26           Pd  tau(  26) = (   0.7500000   0.7500000   0.0000000  )
        27           Pd  tau(  27) = (   0.7500000   0.5000000   0.2500000  )
        28           Pd  tau(  28) = (   0.5000000   0.7500000   0.2500000  )
        29           Pd  tau(  29) = (   0.5000000   0.5000000   0.5937500  )
        30           Pd  tau(  30) = (   0.7500000   0.7500000   0.5937500  )
        31           Pd  tau(  31) = (   0.7500000   0.5000000   0.8437500  )
        32           Pd  tau(  32) = (   0.5000000   0.7500000   0.8437500  )

     number of k points=    75  Marzari-Vanderbilt smearing, width (Ry)=  0.0400
                       cart. coord. in units 2pi/alat
        k(    1) = (   0.0555556   0.0555556   0.0507937), wk =   0.0219479
        k(    2) = (   0.0555556   0.0555556   0.1523810), wk =   0.0219479
        k(    3) = (   0.0555556   0.0555556   0.2539683), wk =   0.0219479
        k(    4) = (   0.0555556   0.0555556   0.3555556), wk =   0.0219479
        k(    5) = (   0.0555556   0.0555556  -0.4571429), wk =   0.0109739
        k(    6) = (   0.0555556   0.1666667   0.0507937), wk =   0.0438957
        k(    7) = (   0.0555556   0.1666667   0.1523810), wk =   0.0438957
        k(    8) = (   0.0555556   0.1666667   0.2539683), wk =   0.0438957
        k(    9) = (   0.0555556   0.1666667   0.3555556), wk =   0.0438957
        k(   10) = (   0.0555556   0.1666667  -0.4571429), wk =   0.0219479
        k(   11) = (   0.0555556   0.2777778   0.0507937), wk =   0.0438957
        k(   12) = (   0.0555556   0.2777778   0.1523810), wk =   0.0438957
        k(   13) = (   0.0555556   0.2777778   0.2539683), wk =   0.0438957
        k(   14) = (   0.0555556   0.2777778   0.3555556), wk =   0.0438957
        k(   15) = (   0.0555556   0.2777778  -0.4571429), wk =   0.0219479
        k(   16) = (   0.0555556   0.3888889   0.0507937), wk =   0.0438957
        k(   17) = (   0.0555556   0.3888889   0.1523810), wk =   0.0438957
        k(   18) = (   0.0555556   0.3888889   0.2539683), wk =   0.0438957
        k(   19) = (   0.0555556   0.3888889   0.3555556), wk =   0.0438957
        k(   20) = (   0.0555556   0.3888889  -0.4571429), wk =   0.0219479
        k(   21) = (   0.0555556  -0.5000000   0.0507937), wk =   0.0219479
        k(   22) = (   0.0555556  -0.5000000   0.1523810), wk =   0.0219479
        k(   23) = (   0.0555556  -0.5000000   0.2539683), wk =   0.0219479
        k(   24) = (   0.0555556  -0.5000000   0.3555556), wk =   0.0219479
        k(   25) = (   0.0555556  -0.5000000  -0.4571429), wk =   0.0109739
        k(   26) = (   0.1666667   0.1666667   0.0507937), wk =   0.0219479
        k(   27) = (   0.1666667   0.1666667   0.1523810), wk =   0.0219479
        k(   28) = (   0.1666667   0.1666667   0.2539683), wk =   0.0219479
        k(   29) = (   0.1666667   0.1666667   0.3555556), wk =   0.0219479
        k(   30) = (   0.1666667   0.1666667  -0.4571429), wk =   0.0109739
        k(   31) = (   0.1666667   0.2777778   0.0507937), wk =   0.0438957
        k(   32) = (   0.1666667   0.2777778   0.1523810), wk =   0.0438957
        k(   33) = (   0.1666667   0.2777778   0.2539683), wk =   0.0438957
        k(   34) = (   0.1666667   0.2777778   0.3555556), wk =   0.0438957
        k(   35) = (   0.1666667   0.2777778  -0.4571429), wk =   0.0219479
        k(   36) = (   0.1666667   0.3888889   0.0507937), wk =   0.0438957
        k(   37) = (   0.1666667   0.3888889   0.1523810), wk =   0.0438957
        k(   38) = (   0.1666667   0.3888889   0.2539683), wk =   0.0438957
        k(   39) = (   0.1666667   0.3888889   0.3555556), wk =   0.0438957
        k(   40) = (   0.1666667   0.3888889  -0.4571429), wk =   0.0219479
        k(   41) = (   0.1666667  -0.5000000   0.0507937), wk =   0.0219479
        k(   42) = (   0.1666667  -0.5000000   0.1523810), wk =   0.0219479
        k(   43) = (   0.1666667  -0.5000000   0.2539683), wk =   0.0219479
        k(   44) = (   0.1666667  -0.5000000   0.3555556), wk =   0.0219479
        k(   45) = (   0.1666667  -0.5000000  -0.4571429), wk =   0.0109739
        k(   46) = (   0.2777778   0.2777778   0.0507937), wk =   0.0219479
        k(   47) = (   0.2777778   0.2777778   0.1523810), wk =   0.0219479
        k(   48) = (   0.2777778   0.2777778   0.2539683), wk =   0.0219479
        k(   49) = (   0.2777778   0.2777778   0.3555556), wk =   0.0219479
        k(   50) = (   0.2777778   0.2777778  -0.4571429), wk =   0.0109739
        k(   51) = (   0.2777778   0.3888889   0.0507937), wk =   0.0438957
        k(   52) = (   0.2777778   0.3888889   0.1523810), wk =   0.0438957
        k(   53) = (   0.2777778   0.3888889   0.2539683), wk =   0.0438957
        k(   54) = (   0.2777778   0.3888889   0.3555556), wk =   0.0438957
        k(   55) = (   0.2777778   0.3888889  -0.4571429), wk =   0.0219479
        k(   56) = (   0.2777778  -0.5000000   0.0507937), wk =   0.0219479
        k(   57) = (   0.2777778  -0.5000000   0.1523810), wk =   0.0219479
        k(   58) = (   0.2777778  -0.5000000   0.2539683), wk =   0.0219479
        k(   59) = (   0.2777778  -0.5000000   0.3555556), wk =   0.0219479
        k(   60) = (   0.2777778  -0.5000000  -0.4571429), wk =   0.0109739
        k(   61) = (   0.3888889   0.3888889   0.0507937), wk =   0.0219479
        k(   62) = (   0.3888889   0.3888889   0.1523810), wk =   0.0219479
        k(   63) = (   0.3888889   0.3888889   0.2539683), wk =   0.0219479
        k(   64) = (   0.3888889   0.3888889   0.3555556), wk =   0.0219479
        k(   65) = (   0.3888889   0.3888889  -0.4571429), wk =   0.0109739
        k(   66) = (   0.3888889  -0.5000000   0.0507937), wk =   0.0219479
        k(   67) = (   0.3888889  -0.5000000   0.1523810), wk =   0.0219479
        k(   68) = (   0.3888889  -0.5000000   0.2539683), wk =   0.0219479
        k(   69) = (   0.3888889  -0.5000000   0.3555556), wk =   0.0219479
        k(   70) = (   0.3888889  -0.5000000  -0.4571429), wk =   0.0109739
[...]
   0.00000000  -0.00036700   0.00000000            0.00      -53.99        0.00
   0.00000000   0.00000000  -0.00058231            0.00        0.00      -85.66

     BFGS Geometry Optimization
     Energy error            =      0.0E+00
     Gradient error          =      3.8E-02

     number of scf cycles    =   1
     number of bfgs steps    =   0

     energy   new            =  -16384.6101715062 Ry

     new trust radius        =       0.0382835424 bohr
     new conv_thr            =       0.0000010000 Ry

ATOMIC_POSITIONS (crystal)
Pd            0.0000000000        0.0000000000        0.0002172930
Pd            0.2500004988        0.2500004988        0.0002168922
Pd            0.2500003497        0.0000000000        0.2309198161
Pd            0.0000000000        0.2500003497        0.2309198161
Pd            0.0000000000        0.0000000000        0.5404992722
Pd            0.2500012493        0.2500012493        0.5404997116
Pd            0.2500001886        0.0000000000        0.7712218624
Pd            0.0000000000        0.2500001886        0.7712218624
Pd            0.0000000000        0.5000000000        0.0002163656
Pd            0.2500004988        0.7499995012        0.0002168922
Pd            0.2500003385        0.5000000000        0.2309202257
Pd            0.0000000000        0.7499996503        0.2309198161
Pd            0.0000000000        0.5000000000        0.5404986739
Pd            0.2500012493        0.7499987507        0.5404997116
Pd            0.2500007020        0.5000000000        0.7712203750
Pd            0.0000000000        0.7499998114        0.7712218624
Pd            0.5000000000        0.0000000000        0.0002163656
Pd            0.7499995012        0.2500004988        0.0002168922
Pd            0.7499996503        0.0000000000        0.2309198161
Pd            0.5000000000        0.2500003385        0.2309202257
Pd            0.5000000000        0.0000000000        0.5404986739
Pd            0.7499987507        0.2500012493        0.5404997116
Pd            0.7499998114        0.0000000000        0.7712218624
Pd            0.5000000000        0.2500007020        0.7712203750
Pd            0.5000000000        0.5000000000        0.0002165479
Pd            0.7499995012        0.7499995012        0.0002168922
Pd            0.7499996615        0.5000000000        0.2309202257
Pd            0.5000000000        0.7499996615        0.2309202257
Pd            0.5000000000        0.5000000000        0.5404984189
Pd            0.7499987507        0.7499987507        0.5404997116
Pd            0.7499992980        0.5000000000        0.7712203750
Pd            0.5000000000        0.7499992980        0.7712203750

     Writing output data file /scratch/qKErHctSCWIqsrGW.save/
     NEW-OLD atomic charge density approx. for the potential

[...]

     Energy error            =      2.3E-02
     Gradient error          =      3.6E-02

[...]

     energy   old            =  -16384.6101715062 Ry
     energy   new            =  -16384.6329228919 Ry

     CASE: energy  _new < energy  _old

     WARNING: bfgs curvature condition failed, Theta= 0.836
     new trust radius        =       0.0421118966 bohr
     new conv_thr            =       0.0000003633 Ry

[...]

     iteration #  1     ecut=    71.00 Ry     beta= 0.10
     Davidson diagonalization with overlap
     c_bands:  1 eigenvalues not converged
     ethr =  1.00E-06,  avg # of iterations = 10.6

[...]

     Total force =     0.009690     Total SCF correction =     0.000274

[...]

     Total force =     0.001208     Total SCF correction =     0.000419
     SCF correction compared to forces is large: reduce conv_thr to get better values

[...]

     number of scf cycles    =  12
     number of bfgs steps    =  11

     energy   old            =  -16384.8043306896 Ry
     energy   new            =  -16384.8045889072 Ry

     CASE: energy  _new < energy  _old

     new trust radius        =       0.0011404586 bohr
     new conv_thr            =       0.0000000100 Ry

ATOMIC_POSITIONS (crystal)
Pd            0.0000000000        0.0000000000        0.0107298978
Pd            0.2500008146        0.2500008146        0.0107276852
Pd            0.2500004709        0.0000000000        0.2607484791
Pd            0.0000000000        0.2500004709        0.2607484791
Pd            0.0000000000        0.0000000000        0.5106939865
Pd            0.2500012262        0.2500012262        0.5106937528
Pd            0.2499999108        0.0000000000        0.7606912230
Pd            0.0000000000        0.2499999108        0.7606912230
Pd            0.0000000000        0.5000000000        0.0107261650
Pd            0.2500008146        0.7499991854        0.0107276852
Pd            0.2500002378        0.5000000000        0.2607484134
Pd            0.0000000000        0.7499995291        0.2607484791
Pd            0.0000000000        0.5000000000        0.5106907329
Pd            0.2500012262        0.7499987738        0.5106937528
Pd            0.2500001248        0.5000000000        0.7606865405
Pd            0.0000000000        0.7500000892        0.7606912230
Pd            0.5000000000        0.0000000000        0.0107261650
Pd            0.7499991854        0.2500008146        0.0107276852
Pd            0.7499995291        0.0000000000        0.2607484791
Pd            0.5000000000        0.2500002378        0.2607484134
Pd            0.5000000000        0.0000000000        0.5106907329
Pd            0.7499987738        0.2500012262        0.5106937528
Pd            0.7500000892        0.0000000000        0.7606912230
Pd            0.5000000000        0.2500001248        0.7606865405
Pd            0.5000000000        0.5000000000        0.0107268515
Pd            0.7499991854        0.7499991854        0.0107276852
Pd            0.7499997622        0.5000000000        0.2607484134
Pd            0.5000000000        0.7499997622        0.2607484134
Pd            0.5000000000        0.5000000000        0.5106882351
Pd            0.7499987738        0.7499987738        0.5106937528
Pd            0.7499998752        0.5000000000        0.7606865405
Pd            0.5000000000        0.7499998752        0.7606865405

     Writing output data file /scratch/qKErHctSCWIqsrGW.save/
     NEW-OLD atomic charge density approx. for the potential

     Check: negative core charge=   -0.000001

     Self-consistent Calculation

[...]

     Threshold (ethr) on eigenvalues was too large:
     Diagonalizing with lowered threshold

     Davidson diagonalization with overlap
     ethr =  2.10E-09,  avg # of iterations =  5.2

[...]

     total energy              =  -16384.80459236 Ry
     estimated scf accuracy    <       0.00000004 Ry

     iteration #  7     ecut=    71.00 Ry     beta= 0.10
     Davidson diagonalization with overlap
     ethr =  7.06E-12,  avg # of iterations =  2.0

     End of self-consistent calculation

[...]

          k = 0.3889-0.5000-0.4571 ( 36136 PWs)   bands (ev):

[...]

          k =-0.5000-0.5000-0.4571 ( 36096 PWs)   bands (ev):

   -66.8207 -66.8207 -66.8207 -66.8206 -66.8202 -66.8202 -66.8202 -66.8202
   -66.8040 -66.8040 -66.8040 -66.8040 -66.8036 -66.8036 -66.8036 -66.8036
   -66.7965 -66.7965 -66.7965 -66.7965 -66.7964 -66.7964 -66.7964 -66.7963
   -66.7959 -66.7959 -66.7959 -66.7959 -66.7958 -66.7958 -66.7958 -66.7958
   -32.6456 -32.6456 -32.6456 -32.6456 -32.6455 -32.6455 -32.6455 -32.6455
   -32.6451 -32.6451 -32.6451 -32.6451 -32.6449 -32.6449 -32.6449 -32.6449
   -32.6030 -32.6030 -32.6030 -32.6030 -32.6030 -32.6030 -32.6030 -32.6030
   -32.5414 -32.5414 -32.5414 -32.5414 -32.5412 -32.5412 -32.5412 -32.5412
   -32.5164 -32.5164 -32.5164 -32.5164 -32.5163 -32.5163 -32.5163 -32.5163
   -32.5160 -32.5160 -32.5160 -32.5160 -32.5159 -32.5159 -32.5159 -32.5159
   -32.5146 -32.5145 -32.5145 -32.5145 -32.5145 -32.5145 -32.5145 -32.5145
   -32.4701 -32.4701 -32.4701 -32.4701 -32.4699 -32.4699 -32.4699 -32.4699
   -32.4695 -32.4695 -32.4695 -32.4695 -32.4694 -32.4694 -32.4694 -32.4694
   -32.4509 -32.4509 -32.4509 -32.4509 -32.4505 -32.4505 -32.4505 -32.4505
   -32.4235 -32.4235 -32.4235 -32.4235 -32.4233 -32.4233 -32.4233 -32.4233
   -32.4143 -32.4143 -32.4143 -32.4143 -32.4139 -32.4139 -32.4139 -32.4139
    12.2776  12.2777  12.2777  12.2777  12.2784  12.2784  12.2784  12.2785
    13.0813  13.0813  13.0813  13.0813  13.0821  13.0821  13.0821  13.0821
    13.1699  13.1699  13.1699  13.1699  13.1700  13.1700  13.1700  13.1700
    13.1703  13.1703  13.1703  13.1703  13.1703  13.1704  13.1704  13.1704
    13.7922  13.7922  13.7922  13.7922  13.7922  13.7922  13.7923  13.7923
    13.7926  13.7926  13.7926  13.7926  13.7926  13.7926  13.7926  13.7926
    13.8554  13.8555  13.8555  13.8555  13.8566  13.8566  13.8566  13.8566
    14.5181  14.5181  14.5181  14.5181  14.5182  14.5182  14.5182  14.5182
    14.6677  14.6677  14.6677  14.6677  14.6683  14.6683  14.6683  14.6683
    14.8178  14.8178  14.8178  14.8178  14.8180  14.8180  14.8180  14.8180
    15.1609  15.1609  15.1609  15.1610  15.1610  15.1610  15.1610  15.1610
    15.1613  15.1613  15.1613  15.1613  15.1614  15.1614  15.1614  15.1614
    15.2054  15.2054  15.2054  15.2054  15.2059  15.2059  15.2059  15.2059
    15.5729  15.5729  15.5729  15.5729  15.5729  15.5729  15.5730  15.5730
    15.5732  15.5732  15.5732  15.5732  15.5732  15.5732  15.5732  15.5732
    15.8677  15.8677  15.8677  15.8677  15.8679  15.8679  15.8679  15.8679
    15.9846  15.9846  15.9846  15.9846  15.9851  15.9851  15.9851  15.9851
    16.2031  16.2031  16.2031  16.2031  16.2033  16.2033  16.2033  16.2033
    16.9648  16.9648  16.9648  16.9648  16.9649  16.9649  16.9649  16.9649
    17.0389  17.0389  17.0389  17.0389  17.0390  17.0390  17.0390  17.0390
    17.0392  17.0392  17.0392  17.0392  17.0392  17.0392  17.0392  17.0392
    19.9592  19.9593  19.9593  19.9593  19.9594  19.9594  19.9594  19.9594
    20.6728  20.6728  20.6728  20.6728  20.6729  20.6729  20.6729  20.6729
    20.6733  20.6733  20.6733  20.6733  20.6734  20.6734  20.6734  20.6734
    25.2987  25.2987  25.2987  25.2987  25.2988  25.2988  25.2988  25.2988
    25.2997  25.2997  25.2997  25.2997  25.2999  25.2999  25.2999  25.2999
    26.0696  26.0696  26.0696  26.0696  26.0699  26.0699  26.0699  26.0699
    29.0589  29.0590

     the Fermi energy is    17.0620 ev

!    total energy              =  -16384.80459236 Ry

     total all-electron energy =   -322945.658299 Ry
     estimated scf accuracy    <          9.2E-09 Ry
     smearing contrib. (-TS)   =       0.08755641 Ry
     internal energy E=F+TS    =  -16384.89214877 Ry

     The total energy is F=E-TS. E is the sum of the following terms:
     one-electron contribution =   -2783.28142272 Ry
     hartree contribution      =    1767.37051836 Ry
     xc contribution           =    -984.73050556 Ry
     ewald contribution        =   -6216.92123062 Ry
     one-center paw contrib.   =   -8167.32950823 Ry

     convergence has been achieved in   7 iterations

     Forces acting on atoms (cartesian axes, Ry/au):

     atom    1 type  1   force =     0.00000000    0.00000000   -0.00002055
     atom    2 type  1   force =    -0.00000173   -0.00000173   -0.00001951
     atom    3 type  1   force =    -0.00000055    0.00000000   -0.00006478
     atom    4 type  1   force =     0.00000000   -0.00000055   -0.00006478
     atom    5 type  1   force =     0.00000000    0.00000000    0.00004463
     atom    6 type  1   force =    -0.00000203   -0.00000203    0.00004208
     atom    7 type  1   force =    -0.00000039    0.00000000    0.00003821
     atom    8 type  1   force =     0.00000000   -0.00000039    0.00003821
     atom    9 type  1   force =     0.00000000    0.00000000   -0.00001681
     atom   10 type  1   force =    -0.00000173    0.00000173   -0.00001951
     atom   11 type  1   force =    -0.00000050    0.00000000   -0.00006501
     atom   12 type  1   force =     0.00000000    0.00000055   -0.00006478
     atom   13 type  1   force =     0.00000000    0.00000000    0.00004595
     atom   14 type  1   force =    -0.00000203    0.00000203    0.00004208
     atom   15 type  1   force =    -0.00000049    0.00000000    0.00004121
     atom   16 type  1   force =     0.00000000    0.00000039    0.00003821
     atom   17 type  1   force =     0.00000000    0.00000000   -0.00001681
     atom   18 type  1   force =     0.00000173   -0.00000173   -0.00001951
     atom   19 type  1   force =     0.00000055    0.00000000   -0.00006478
     atom   20 type  1   force =     0.00000000   -0.00000050   -0.00006501
     atom   21 type  1   force =     0.00000000    0.00000000    0.00004595
     atom   22 type  1   force =     0.00000203   -0.00000203    0.00004208
     atom   23 type  1   force =     0.00000039    0.00000000    0.00003821
     atom   24 type  1   force =     0.00000000   -0.00000049    0.00004121
     atom   25 type  1   force =     0.00000000    0.00000000   -0.00001803
     atom   26 type  1   force =     0.00000173    0.00000173   -0.00001951
     atom   27 type  1   force =     0.00000050    0.00000000   -0.00006501
     atom   28 type  1   force =     0.00000000    0.00000050   -0.00006501
     atom   29 type  1   force =     0.00000000    0.00000000    0.00004688
     atom   30 type  1   force =     0.00000203    0.00000203    0.00004208
     atom   31 type  1   force =     0.00000049    0.00000000    0.00004121
     atom   32 type  1   force =     0.00000000    0.00000049    0.00004121

     Total force =     0.000254     Total SCF correction =     0.000202
     SCF correction compared to forces is large: reduce conv_thr to get better values

     Computing stress (Cartesian axis) and pressure

          total   stress  (Ry/bohr**3)                   (kbar)     P=     -121.17
  -0.00069056   0.00000000   0.00000000         -101.58        0.00        0.00
   0.00000000  -0.00069056   0.00000000            0.00     -101.58        0.00
   0.00000000   0.00000000  -0.00108989            0.00        0.00     -160.33

     Energy error            =      3.5E-06
     Gradient error          =      6.5E-05

     bfgs converged in  13 scf cycles and  12 bfgs steps
     (criteria: energy <  1.0E-04 Ry, force <  1.0E-03 Ry/Bohr)

     End of BFGS Geometry Optimization

     Final energy   =  -16384.8045923612 Ry

     File /scratch/qKErHctSCWIqsrGW.bfgs deleted, as requested
Begin final coordinates

ATOMIC_POSITIONS (crystal)
Pd            0.0000000000        0.0000000000        0.0107298978
Pd            0.2500008146        0.2500008146        0.0107276852
Pd            0.2500004709        0.0000000000        0.2607484791
Pd            0.0000000000        0.2500004709        0.2607484791
Pd            0.0000000000        0.0000000000        0.5106939865
Pd            0.2500012262        0.2500012262        0.5106937528
Pd            0.2499999108        0.0000000000        0.7606912230
Pd            0.0000000000        0.2499999108        0.7606912230
Pd            0.0000000000        0.5000000000        0.0107261650
Pd            0.2500008146        0.7499991854        0.0107276852
Pd            0.2500002378        0.5000000000        0.2607484134
Pd            0.0000000000        0.7499995291        0.2607484791
Pd            0.0000000000        0.5000000000        0.5106907329
Pd            0.2500012262        0.7499987738        0.5106937528
Pd            0.2500001248        0.5000000000        0.7606865405
Pd            0.0000000000        0.7500000892        0.7606912230
Pd            0.5000000000        0.0000000000        0.0107261650
Pd            0.7499991854        0.2500008146        0.0107276852
Pd            0.7499995291        0.0000000000        0.2607484791
Pd            0.5000000000        0.2500002378        0.2607484134
Pd            0.5000000000        0.0000000000        0.5106907329
Pd            0.7499987738        0.2500012262        0.5106937528
Pd            0.7500000892        0.0000000000        0.7606912230
Pd            0.5000000000        0.2500001248        0.7606865405
Pd            0.5000000000        0.5000000000        0.0107268515
Pd            0.7499991854        0.7499991854        0.0107276852
Pd            0.7499997622        0.5000000000        0.2607484134
Pd            0.5000000000        0.7499997622        0.2607484134
Pd            0.5000000000        0.5000000000        0.5106882351
Pd            0.7499987738        0.7499987738        0.5106937528
Pd            0.7499998752        0.5000000000        0.7606865405
Pd            0.5000000000        0.7499998752        0.7606865405
End final coordinates

     Writing output data file /scratch/qKErHctSCWIqsrGW.save/

     General routines

     Parallel routines

   This run was terminated on:   9:34: 8   7Jan2022

   JOB DONE.