     Program PWSCF v.6.7MaX starts on  7Jan2022 at  9:34:14

     R & G space division:  proc/nbgrp/npool/nimage =      72
     Reading input from relax_5.in
Warning: card &CELL ignored
Warning: card CELL_DYNAMICS = 'BFGS', ignored
Warning: card CELL_FACTOR = 2.0, ignored
Warning: card PRESS = 0.0, ignored
Warning: card / ignored

     Current dimensions of program PWSCF are:
     Max number of different atomic species (ntypx) = 10
     Max number of k-points (npk) =  40000
     Max angular momentum in pseudopotentials (lmaxx) =  3
     file Pd.pbe-spn-kjpaw_psl.1.0.0.UPF: wavefunction(s)  4S 5S 4D renormalized

     Subspace diagonalization in iterative solution of the eigenvalue problem:
     one sub-group per band group will be used

     Found symmetry operation: I + (  0.2500  0.2500  0.0000)
     This is a supercell, fractional translations are disabled
     Message from routine setup:
     using ibrav=0 with symmetry is DISCOURAGED, use correct ibrav instead

     bravais-lattice index     =            0
     lattice parameter (alat)  =      14.8394  a.u.
     unit-cell volume          =    3676.2353 (a.u.)^3
     number of atoms/cell      =           32
     number of atomic types    =            1
     number of electrons       =       576.00
     number of Kohn-Sham states=          346
     kinetic-energy cutoff     =      71.0000  Ry
     charge density cutoff     =     430.0000  Ry
     scf convergence threshold =      1.0E-06
     mixing beta               =       0.1000
     number of iterations used =           10  TF        mixing
     energy convergence thresh.=      1.0E-04
     force convergence thresh. =      1.0E-03
     Exchange-correlation= SLA  PW   PBX  PBC
                           (   1   4   3   4   0   0   0)
     nstep                     =           40

     celldm(1)=  14.839420  celldm(2)=   0.000000  celldm(3)=   0.000000
     celldm(4)=   0.000000  celldm(5)=   0.000000  celldm(6)=   0.000000

     crystal axes: (cart. coord. in units of alat)
               a(1) = (   1.000000   0.000000   0.000000 )
               a(2) = (   0.000000   1.000000   0.000000 )
               a(3) = (   0.000000   0.000000   1.125000 )

     reciprocal axes: (cart. coord. in units 2 pi/alat)
               b(1) = (  1.000000  0.000000  0.000000 )
               b(2) = (  0.000000  1.000000  0.000000 )
               b(3) = (  0.000000  0.000000  0.888889 )

     PseudoPot. # 1 for Pd read from file:
     /rds/homes/b/bxp912/pp/Pd.pbe-spn-kjpaw_psl.1.0.0.UPF
     MD5 check sum: 790f2ebce206edfd9790dcb9844eca51
     Pseudo is Projector augmented-wave + core cor, Zval = 18.0
     Generated using &quot;atomic&quot; code by A. Dal Corso  v.6.3
     Shape of augmentation charge: PSQ
     Using radial grid of 1235 points,  6 beta functions with:
                l(1) =   0
                l(2) =   0
                l(3) =   1
                l(4) =   1
                l(5) =   2
                l(6) =   2
     Q(r) pseudized with 0 coefficients

     atomic species   valence    mass     pseudopotential
        Pd            18.00   106.42000     Pd( 1.00)

      8 Sym. Ops. (no inversion) found

   Cartesian axes

     site n.     atom                  positions (alat units)
         1           Pd  tau(   1) = (   0.0000000   0.0000000   0.0000000  )
         2           Pd  tau(   2) = (   0.2500000   0.2500000   0.0000000  )
         3           Pd  tau(   3) = (   0.2500000   0.0000000   0.2500000  )
         4           Pd  tau(   4) = (   0.0000000   0.2500000   0.2500000  )
         5           Pd  tau(   5) = (   0.0000000   0.0000000   0.6250000  )
         6           Pd  tau(   6) = (   0.2500000   0.2500000   0.6250000  )
         7           Pd  tau(   7) = (   0.2500000   0.0000000   0.8750000  )
         8           Pd  tau(   8) = (   0.0000000   0.2500000   0.8750000  )
         9           Pd  tau(   9) = (   0.0000000   0.5000000   0.0000000  )
        10           Pd  tau(  10) = (   0.2500000   0.7500000   0.0000000  )
        11           Pd  tau(  11) = (   0.2500000   0.5000000   0.2500000  )
        12           Pd  tau(  12) = (   0.0000000   0.7500000   0.2500000  )
        13           Pd  tau(  13) = (   0.0000000   0.5000000   0.6250000  )
        14           Pd  tau(  14) = (   0.2500000   0.7500000   0.6250000  )
        15           Pd  tau(  15) = (   0.2500000   0.5000000   0.8750000  )
        16           Pd  tau(  16) = (   0.0000000   0.7500000   0.8750000  )
        17           Pd  tau(  17) = (   0.5000000   0.0000000   0.0000000  )
        18           Pd  tau(  18) = (   0.7500000   0.2500000   0.0000000  )
        19           Pd  tau(  19) = (   0.7500000   0.0000000   0.2500000  )
        20           Pd  tau(  20) = (   0.5000000   0.2500000   0.2500000  )
        21           Pd  tau(  21) = (   0.5000000   0.0000000   0.6250000  )
        22           Pd  tau(  22) = (   0.7500000   0.2500000   0.6250000  )
        23           Pd  tau(  23) = (   0.7500000   0.0000000   0.8750000  )
        24           Pd  tau(  24) = (   0.5000000   0.2500000   0.8750000  )
        25           Pd  tau(  25) = (   0.5000000   0.5000000   0.0000000  )
        26           Pd  tau(  26) = (   0.7500000   0.7500000   0.0000000  )
        27           Pd  tau(  27) = (   0.7500000   0.5000000   0.2500000  )
        28           Pd  tau(  28) = (   0.5000000   0.7500000   0.2500000  )
        29           Pd  tau(  29) = (   0.5000000   0.5000000   0.6250000  )
        30           Pd  tau(  30) = (   0.7500000   0.7500000   0.6250000  )
        31           Pd  tau(  31) = (   0.7500000   0.5000000   0.8750000  )
        32           Pd  tau(  32) = (   0.5000000   0.7500000   0.8750000  )

     number of k points=    75  Marzari-Vanderbilt smearing, width (Ry)=  0.0400
                       cart. coord. in units 2pi/alat
        k(    1) = (   0.0555556   0.0555556   0.0493827), wk =   0.0219479
        k(    2) = (   0.0555556   0.0555556   0.1481481), wk =   0.0219479
        k(    3) = (   0.0555556   0.0555556   0.2469136), wk =   0.0219479
        k(    4) = (   0.0555556   0.0555556   0.3456790), wk =   0.0219479
        k(    5) = (   0.0555556   0.0555556  -0.4444444), wk =   0.0109739
        k(    6) = (   0.0555556   0.1666667   0.0493827), wk =   0.0438957
        k(    7) = (   0.0555556   0.1666667   0.1481481), wk =   0.0438957
        k(    8) = (   0.0555556   0.1666667   0.2469136), wk =   0.0438957
        k(    9) = (   0.0555556   0.1666667   0.3456790), wk =   0.0438957
        k(   10) = (   0.0555556   0.1666667  -0.4444444), wk =   0.0219479
        k(   11) = (   0.0555556   0.2777778   0.0493827), wk =   0.0438957
        k(   12) = (   0.0555556   0.2777778   0.1481481), wk =   0.0438957
        k(   13) = (   0.0555556   0.2777778   0.2469136), wk =   0.0438957
        k(   14) = (   0.0555556   0.2777778   0.3456790), wk =   0.0438957
        k(   15) = (   0.0555556   0.2777778  -0.4444444), wk =   0.0219479
        k(   16) = (   0.0555556   0.3888889   0.0493827), wk =   0.0438957
        k(   17) = (   0.0555556   0.3888889   0.1481481), wk =   0.0438957
        k(   18) = (   0.0555556   0.3888889   0.2469136), wk =   0.0438957
        k(   19) = (   0.0555556   0.3888889   0.3456790), wk =   0.0438957
        k(   20) = (   0.0555556   0.3888889  -0.4444444), wk =   0.0219479
        k(   21) = (   0.0555556  -0.5000000   0.0493827), wk =   0.0219479
        k(   22) = (   0.0555556  -0.5000000   0.1481481), wk =   0.0219479
        k(   23) = (   0.0555556  -0.5000000   0.2469136), wk =   0.0219479
        k(   24) = (   0.0555556  -0.5000000   0.3456790), wk =   0.0219479
        k(   25) = (   0.0555556  -0.5000000  -0.4444444), wk =   0.0109739
        k(   26) = (   0.1666667   0.1666667   0.0493827), wk =   0.0219479
        k(   27) = (   0.1666667   0.1666667   0.1481481), wk =   0.0219479
        k(   28) = (   0.1666667   0.1666667   0.2469136), wk =   0.0219479
        k(   29) = (   0.1666667   0.1666667   0.3456790), wk =   0.0219479
        k(   30) = (   0.1666667   0.1666667  -0.4444444), wk =   0.0109739
        k(   31) = (   0.1666667   0.2777778   0.0493827), wk =   0.0438957
        k(   32) = (   0.1666667   0.2777778   0.1481481), wk =   0.0438957
        k(   33) = (   0.1666667   0.2777778   0.2469136), wk =   0.0438957
        k(   34) = (   0.1666667   0.2777778   0.3456790), wk =   0.0438957
        k(   35) = (   0.1666667   0.2777778  -0.4444444), wk =   0.0219479
        k(   36) = (   0.1666667   0.3888889   0.0493827), wk =   0.0438957
        k(   37) = (   0.1666667   0.3888889   0.1481481), wk =   0.0438957
        k(   38) = (   0.1666667   0.3888889   0.2469136), wk =   0.0438957
        k(   39) = (   0.1666667   0.3888889   0.3456790), wk =   0.0438957
        k(   40) = (   0.1666667   0.3888889  -0.4444444), wk =   0.0219479
        k(   41) = (   0.1666667  -0.5000000   0.0493827), wk =   0.0219479
        k(   42) = (   0.1666667  -0.5000000   0.1481481), wk =   0.0219479
        k(   43) = (   0.1666667  -0.5000000   0.2469136), wk =   0.0219479
        k(   44) = (   0.1666667  -0.5000000   0.3456790), wk =   0.0219479
        k(   45) = (   0.1666667  -0.5000000  -0.4444444), wk =   0.0109739
        k(   46) = (   0.2777778   0.2777778   0.0493827), wk =   0.0219479
        k(   47) = (   0.2777778   0.2777778   0.1481481), wk =   0.0219479
        k(   48) = (   0.2777778   0.2777778   0.2469136), wk =   0.0219479
        k(   49) = (   0.2777778   0.2777778   0.3456790), wk =   0.0219479
        k(   50) = (   0.2777778   0.2777778  -0.4444444), wk =   0.0109739
        k(   51) = (   0.2777778   0.3888889   0.0493827), wk =   0.0438957
        k(   52) = (   0.2777778   0.3888889   0.1481481), wk =   0.0438957
        k(   53) = (   0.2777778   0.3888889   0.2469136), wk =   0.0438957
        k(   54) = (   0.2777778   0.3888889   0.3456790), wk =   0.0438957
        k(   55) = (   0.2777778   0.3888889  -0.4444444), wk =   0.0219479
        k(   56) = (   0.2777778  -0.5000000   0.0493827), wk =   0.0219479
        k(   57) = (   0.2777778  -0.5000000   0.1481481), wk =   0.0219479
        k(   58) = (   0.2777778  -0.5000000   0.2469136), wk =   0.0219479
        k(   59) = (   0.2777778  -0.5000000   0.3456790), wk =   0.0219479
        k(   60) = (   0.2777778  -0.5000000  -0.4444444), wk =   0.0109739
        k(   61) = (   0.3888889   0.3888889   0.0493827), wk =   0.0219479
        k(   62) = (   0.3888889   0.3888889   0.1481481), wk =   0.0219479
        k(   63) = (   0.3888889   0.3888889   0.2469136), wk =   0.0219479
        k(   64) = (   0.3888889   0.3888889   0.3456790), wk =   0.0219479
        k(   65) = (   0.3888889   0.3888889  -0.4444444), wk =   0.0109739
        k(   66) = (   0.3888889  -0.5000000   0.0493827), wk =   0.0219479
        k(   67) = (   0.3888889  -0.5000000   0.1481481), wk =   0.0219479
        k(   68) = (   0.3888889  -0.5000000   0.2469136), wk =   0.0219479
        k(   69) = (   0.3888889  -0.5000000   0.3456790), wk =   0.0219479
        k(   70) = (   0.3888889  -0.5000000  -0.4444444), wk =   0.0109739
[...]

ATOMIC_POSITIONS (crystal)
Pd            0.0000000000        0.0000000000        0.0002466759
Pd            0.2500005475        0.2500005475        0.0002460752
Pd            0.2500001489        0.0000000000        0.2241320248
Pd            0.0000000000        0.2500001489        0.2241320248
Pd            0.0000000000        0.0000000000        0.5536491287
Pd            0.2500014549        0.2500014549        0.5536495729
Pd            0.2500002295        0.0000000000        0.7775288708
Pd            0.0000000000        0.2500002295        0.7775288708
Pd            0.0000000000        0.5000000000        0.0002456383
Pd            0.2500005475        0.7499994525        0.0002460752
Pd            0.2500004467        0.5000000000        0.2241324141
Pd            0.0000000000        0.7499998511        0.2241320248
Pd            0.0000000000        0.5000000000        0.5536489259
Pd            0.2500014549        0.7499985451        0.5536495729
Pd            0.2500010578        0.5000000000        0.7775272089
Pd            0.0000000000        0.7499997705        0.7775288708
Pd            0.5000000000        0.0000000000        0.0002456383
Pd            0.7499994525        0.2500005475        0.0002460752
Pd            0.7499998511        0.0000000000        0.2241320248
Pd            0.5000000000        0.2500004467        0.2241324141
Pd            0.5000000000        0.0000000000        0.5536489259
Pd            0.7499985451        0.2500014549        0.5536495729
Pd            0.7499997705        0.0000000000        0.7775288708
Pd            0.5000000000        0.2500010578        0.7775272089
Pd            0.5000000000        0.5000000000        0.0002456527
Pd            0.7499994525        0.7499994525        0.0002460752
Pd            0.7499995533        0.5000000000        0.2241324141
Pd            0.5000000000        0.7499995533        0.2241324141
Pd            0.5000000000        0.5000000000        0.5536491921
Pd            0.7499985451        0.7499985451        0.5536495729
Pd            0.7499989422        0.5000000000        0.7775272089
Pd            0.5000000000        0.7499989422        0.7775272089

     Writing output data file /scratch/vfiFDSRpKCHbHZhK.save/
     NEW-OLD atomic charge density approx. for the potential

[...]

     Energy error            =      1.6E-02
     Gradient error          =      3.1E-02

[...]

     energy   old            =  -16384.4689143481 Ry
     energy   new            =  -16384.4850321950 Ry

     CASE: energy  _new < energy  _old

     WARNING: bfgs curvature condition failed, Theta= 0.826
     new trust radius        =       0.0350783477 bohr
     new conv_thr            =       0.0000003059 Ry

[...]

     iteration #  1     ecut=    71.00 Ry     beta= 0.10
     Davidson diagonalization with overlap
     c_bands:  1 eigenvalues not converged
     c_bands:  1 eigenvalues not converged
     c_bands:  1 eigenvalues not converged
     c_bands:  1 eigenvalues not converged
     c_bands:  1 eigenvalues not converged
     c_bands:  1 eigenvalues not converged
     c_bands:  1 eigenvalues not converged
     c_bands:  1 eigenvalues not converged
     c_bands:  1 eigenvalues not converged
     c_bands:  2 eigenvalues not converged
     c_bands:  1 eigenvalues not converged
     c_bands:  1 eigenvalues not converged
     c_bands:  2 eigenvalues not converged
     ethr =  1.00E-06,  avg # of iterations = 16.5

[...]

     Total force =     0.010861     Total SCF correction =     0.000266

[...]

     Total force =     0.003361     Total SCF correction =     0.000432
     SCF correction compared to forces is large: reduce conv_thr to get better values

[...]

     number of scf cycles    =  13
     number of bfgs steps    =  12

     energy   old            =  -16384.6896981784 Ry
     energy   new            =  -16384.6900672949 Ry

     CASE: energy  _new < energy  _old

     new trust radius        =       0.0051976658 bohr
     new conv_thr            =       0.0000000100 Ry

ATOMIC_POSITIONS (crystal)
Pd            0.0000000000        0.0000000000        0.0140087753
Pd            0.2500019186        0.2500019186        0.0140041107
Pd            0.2500011293        0.0000000000        0.2639914056
Pd            0.0000000000        0.2500011293        0.2639914056
Pd            0.0000000000        0.0000000000        0.5138115849
Pd            0.2500011152        0.2500011152        0.5138112548
Pd            0.2500005053        0.0000000000        0.7637538332
Pd            0.0000000000        0.2500005053        0.7637538332
Pd            0.0000000000        0.5000000000        0.0140023272
Pd            0.2500019186        0.7499980814        0.0140041107
Pd            0.2500007366        0.5000000000        0.2639912072
Pd            0.0000000000        0.7499988707        0.2639914056
Pd            0.0000000000        0.5000000000        0.5138071459
Pd            0.2500011152        0.7499988848        0.5138112548
Pd            0.2500000322        0.5000000000        0.7637475070
Pd            0.0000000000        0.7499994947        0.7637538332
Pd            0.5000000000        0.0000000000        0.0140023272
Pd            0.7499980814        0.2500019186        0.0140041107
Pd            0.7499988707        0.0000000000        0.2639914056
Pd            0.5000000000        0.2500007366        0.2639912072
Pd            0.5000000000        0.0000000000        0.5138071459
Pd            0.7499988848        0.2500011152        0.5138112548
Pd            0.7499994947        0.0000000000        0.7637538332
Pd            0.5000000000        0.2500000322        0.7637475070
Pd            0.5000000000        0.5000000000        0.0140026750
Pd            0.7499980814        0.7499980814        0.0140041107
Pd            0.7499992634        0.5000000000        0.2639912072
Pd            0.5000000000        0.7499992634        0.2639912072
Pd            0.5000000000        0.5000000000        0.5138051893
Pd            0.7499988848        0.7499988848        0.5138112548
Pd            0.7499999678        0.5000000000        0.7637475070
Pd            0.5000000000        0.7499999678        0.7637475070

     Writing output data file /scratch/vfiFDSRpKCHbHZhK.save/
     NEW-OLD atomic charge density approx. for the potential

     Check: negative core charge=   -0.000001

     Self-consistent Calculation

[...]

     Threshold (ethr) on eigenvalues was too large:
     Diagonalizing with lowered threshold

     Davidson diagonalization with overlap
     ethr =  1.29E-08,  avg # of iterations =  3.7

[...]

     total energy              =  -16384.69010226 Ry
     estimated scf accuracy    <       0.00000002 Ry

     iteration # 10     ecut=    71.00 Ry     beta= 0.10
     Davidson diagonalization with overlap
     ethr =  2.77E-12,  avg # of iterations =  2.0

     End of self-consistent calculation

[...]

          k = 0.3889-0.5000-0.4444 ( 37124 PWs)   bands (ev):

[...]

          k =-0.5000-0.5000-0.4444 ( 37104 PWs)   bands (ev):

   -67.4021 -67.4021 -67.4021 -67.4020 -67.4002 -67.4002 -67.4002 -67.4002
   -67.3887 -67.3886 -67.3886 -67.3886 -67.3869 -67.3869 -67.3869 -67.3869
   -67.3799 -67.3799 -67.3799 -67.3799 -67.3796 -67.3796 -67.3796 -67.3796
   -67.3773 -67.3773 -67.3773 -67.3773 -67.3771 -67.3771 -67.3771 -67.3770
   -33.2272 -33.2272 -33.2272 -33.2272 -33.2270 -33.2270 -33.2270 -33.2270
   -33.2249 -33.2249 -33.2249 -33.2249 -33.2246 -33.2246 -33.2246 -33.2246
   -33.1700 -33.1700 -33.1700 -33.1700 -33.1698 -33.1698 -33.1698 -33.1698
   -33.1256 -33.1256 -33.1256 -33.1256 -33.1244 -33.1244 -33.1244 -33.1244
   -33.1054 -33.1054 -33.1054 -33.1054 -33.1051 -33.1051 -33.1051 -33.1051
   -33.1032 -33.1032 -33.1032 -33.1032 -33.1030 -33.1030 -33.1030 -33.1030
   -33.0947 -33.0947 -33.0947 -33.0946 -33.0939 -33.0939 -33.0939 -33.0939
   -33.0480 -33.0480 -33.0480 -33.0480 -33.0477 -33.0477 -33.0477 -33.0477
   -33.0454 -33.0454 -33.0454 -33.0454 -33.0451 -33.0451 -33.0451 -33.0451
   -33.0351 -33.0351 -33.0351 -33.0351 -33.0332 -33.0332 -33.0332 -33.0332
   -33.0103 -33.0103 -33.0103 -33.0103 -33.0090 -33.0090 -33.0090 -33.0090
   -33.0058 -33.0058 -33.0058 -33.0058 -33.0042 -33.0042 -33.0042 -33.0042
    11.7933  11.7933  11.7933  11.7934  11.7969  11.7969  11.7969  11.7969
    12.5669  12.5669  12.5669  12.5669  12.5701  12.5701  12.5701  12.5701
    12.6980  12.6980  12.6980  12.6980  12.6981  12.6981  12.6981  12.6981
    12.6997  12.6997  12.6997  12.6997  12.6998  12.6998  12.6998  12.6998
    13.2732  13.2732  13.2732  13.2732  13.2732  13.2732  13.2732  13.2732
    13.2745  13.2745  13.2745  13.2745  13.2745  13.2745  13.2745  13.2746
    13.3543  13.3543  13.3543  13.3543  13.3592  13.3592  13.3592  13.3592
    13.8793  13.8793  13.8793  13.8794  13.8799  13.8799  13.8799  13.8799
    14.1182  14.1182  14.1182  14.1182  14.1207  14.1207  14.1207  14.1207
    14.1976  14.1976  14.1976  14.1976  14.1982  14.1983  14.1983  14.1983
    14.6204  14.6204  14.6204  14.6204  14.6205  14.6205  14.6205  14.6205
    14.6219  14.6219  14.6219  14.6220  14.6220  14.6220  14.6220  14.6220
    14.7320  14.7320  14.7320  14.7320  14.7344  14.7345  14.7345  14.7345
    14.9584  14.9584  14.9584  14.9584  14.9585  14.9585  14.9585  14.9585
    14.9595  14.9595  14.9595  14.9595  14.9595  14.9595  14.9595  14.9595
    15.3221  15.3221  15.3221  15.3221  15.3229  15.3229  15.3229  15.3229
    15.3356  15.3356  15.3356  15.3356  15.3377  15.3377  15.3377  15.3377
    15.6136  15.6136  15.6136  15.6136  15.6145  15.6145  15.6145  15.6146
    16.2918  16.2918  16.2918  16.2918  16.2922  16.2922  16.2922  16.2922
    16.3686  16.3686  16.3686  16.3686  16.3687  16.3687  16.3687  16.3687
    16.3696  16.3696  16.3696  16.3696  16.3697  16.3697  16.3697  16.3697
    19.1176  19.1176  19.1176  19.1177  19.1180  19.1180  19.1180  19.1180
    20.0436  20.0436  20.0436  20.0436  20.0437  20.0438  20.0438  20.0438
    20.0459  20.0459  20.0459  20.0460  20.0461  20.0461  20.0461  20.0461
    24.4312  24.4312  24.4312  24.4312  24.4315  24.4315  24.4315  24.4315
    24.4357  24.4357  24.4357  24.4357  24.4360  24.4360  24.4360  24.4360
    25.4143  25.4143  25.4143  25.4143  25.4152  25.4152  25.4152  25.4152
    27.7281  27.7282

     the Fermi energy is    16.4019 ev

!    total energy              =  -16384.69010227 Ry

     total all-electron energy =   -322945.543809 Ry
     estimated scf accuracy    <          4.9E-09 Ry
     smearing contrib. (-TS)   =       0.11246796 Ry
     internal energy E=F+TS    =  -16384.80257023 Ry

     The total energy is F=E-TS. E is the sum of the following terms:
     one-electron contribution =   -2877.81091177 Ry
     hartree contribution      =    1802.22672868 Ry
     xc contribution           =    -984.27971953 Ry
     ewald contribution        =   -6157.63801944 Ry
     one-center paw contrib.   =   -8167.30064817 Ry

     convergence has been achieved in  10 iterations

     Forces acting on atoms (cartesian axes, Ry/au):

     atom    1 type  1   force =     0.00000000    0.00000000   -0.00015379
     atom    2 type  1   force =    -0.00000246   -0.00000246   -0.00015159
     atom    3 type  1   force =    -0.00000198    0.00000000   -0.00015816
     atom    4 type  1   force =     0.00000000   -0.00000198   -0.00015816
     atom    5 type  1   force =     0.00000000    0.00000000    0.00012803
     atom    6 type  1   force =    -0.00000283   -0.00000283    0.00012634
     atom    7 type  1   force =    -0.00000183    0.00000000    0.00018005
     atom    8 type  1   force =     0.00000000   -0.00000183    0.00018005
     atom    9 type  1   force =     0.00000000    0.00000000   -0.00014946
     atom   10 type  1   force =    -0.00000246    0.00000246   -0.00015159
     atom   11 type  1   force =    -0.00000132    0.00000000   -0.00015934
     atom   12 type  1   force =     0.00000000    0.00000198   -0.00015816
     atom   13 type  1   force =     0.00000000    0.00000000    0.00012975
     atom   14 type  1   force =    -0.00000283    0.00000283    0.00012634
     atom   15 type  1   force =     0.00000020    0.00000000    0.00018413
     atom   16 type  1   force =     0.00000000    0.00000183    0.00018005
     atom   17 type  1   force =     0.00000000    0.00000000   -0.00014946
     atom   18 type  1   force =     0.00000246   -0.00000246   -0.00015159
     atom   19 type  1   force =     0.00000198    0.00000000   -0.00015816
     atom   20 type  1   force =     0.00000000   -0.00000132   -0.00015934
     atom   21 type  1   force =     0.00000000    0.00000000    0.00012975
     atom   22 type  1   force =     0.00000283   -0.00000283    0.00012634
     atom   23 type  1   force =     0.00000183    0.00000000    0.00018005
     atom   24 type  1   force =     0.00000000    0.00000020    0.00018413
     atom   25 type  1   force =     0.00000000    0.00000000   -0.00015127
     atom   26 type  1   force =     0.00000246    0.00000246   -0.00015159
     atom   27 type  1   force =     0.00000132    0.00000000   -0.00015934
     atom   28 type  1   force =     0.00000000    0.00000132   -0.00015934
     atom   29 type  1   force =     0.00000000    0.00000000    0.00013075
     atom   30 type  1   force =     0.00000283    0.00000283    0.00012634
     atom   31 type  1   force =    -0.00000020    0.00000000    0.00018413
     atom   32 type  1   force =     0.00000000   -0.00000020    0.00018413

     Total force =     0.000884     Total SCF correction =     0.000327
     SCF correction compared to forces is large: reduce conv_thr to get better values

     Computing stress (Cartesian axis) and pressure

          total   stress  (Ry/bohr**3)                   (kbar)     P=     -145.98
  -0.00082861   0.00000000   0.00000000         -121.89        0.00        0.00
   0.00000000  -0.00082861   0.00000000            0.00     -121.89        0.00
   0.00000000   0.00000000  -0.00131992            0.00        0.00     -194.17

     Energy error            =      3.5E-05
     Gradient error          =      1.8E-04

     bfgs converged in  14 scf cycles and  13 bfgs steps
     (criteria: energy <  1.0E-04 Ry, force <  1.0E-03 Ry/Bohr)

     End of BFGS Geometry Optimization

     Final energy   =  -16384.6901022706 Ry

     File /scratch/vfiFDSRpKCHbHZhK.bfgs deleted, as requested
Begin final coordinates

ATOMIC_POSITIONS (crystal)
Pd            0.0000000000        0.0000000000        0.0140087753
Pd            0.2500019186        0.2500019186        0.0140041107
Pd            0.2500011293        0.0000000000        0.2639914056
Pd            0.0000000000        0.2500011293        0.2639914056
Pd            0.0000000000        0.0000000000        0.5138115849
Pd            0.2500011152        0.2500011152        0.5138112548
Pd            0.2500005053        0.0000000000        0.7637538332
Pd            0.0000000000        0.2500005053        0.7637538332
Pd            0.0000000000        0.5000000000        0.0140023272
Pd            0.2500019186        0.7499980814        0.0140041107
Pd            0.2500007366        0.5000000000        0.2639912072
Pd            0.0000000000        0.7499988707        0.2639914056
Pd            0.0000000000        0.5000000000        0.5138071459
Pd            0.2500011152        0.7499988848        0.5138112548
Pd            0.2500000322        0.5000000000        0.7637475070
Pd            0.0000000000        0.7499994947        0.7637538332
Pd            0.5000000000        0.0000000000        0.0140023272
Pd            0.7499980814        0.2500019186        0.0140041107
Pd            0.7499988707        0.0000000000        0.2639914056
Pd            0.5000000000        0.2500007366        0.2639912072
Pd            0.5000000000        0.0000000000        0.5138071459
Pd            0.7499988848        0.2500011152        0.5138112548
Pd            0.7499994947        0.0000000000        0.7637538332
Pd            0.5000000000        0.2500000322        0.7637475070
Pd            0.5000000000        0.5000000000        0.0140026750
Pd            0.7499980814        0.7499980814        0.0140041107
Pd            0.7499992634        0.5000000000        0.2639912072
Pd            0.5000000000        0.7499992634        0.2639912072
Pd            0.5000000000        0.5000000000        0.5138051893
Pd            0.7499988848        0.7499988848        0.5138112548
Pd            0.7499999678        0.5000000000        0.7637475070
Pd            0.5000000000        0.7499999678        0.7637475070
End final coordinates

     Writing output data file /scratch/vfiFDSRpKCHbHZhK.save/

     General routines

     Parallel routines

   This run was terminated on:  14:36:27   7Jan2022

   JOB DONE.