     Program PWSCF v.6.7MaX starts on  9Jan2022 at  3:26:31

     R & G space division:  proc/nbgrp/npool/nimage =      72
     Reading input from relax_10.in
Warning: card &CELL ignored
Warning: card CELL_DYNAMICS = 'BFGS', ignored
Warning: card CELL_FACTOR = 2.0, ignored
Warning: card PRESS = 0.0, ignored
Warning: card / ignored

     Current dimensions of program PWSCF are:
     Max number of different atomic species (ntypx) = 10
     Max number of k-points (npk) =  40000
     Max angular momentum in pseudopotentials (lmaxx) =  3
     file Pd.pbe-spn-kjpaw_psl.1.0.0.UPF: wavefunction(s)  4S 5S 4D renormalized

     Subspace diagonalization in iterative solution of the eigenvalue problem:
     one sub-group per band group will be used

     Found symmetry operation: I + (  0.2500  0.2500  0.0000)
     This is a supercell, fractional translations are disabled
     Message from routine setup:
     using ibrav=0 with symmetry is DISCOURAGED, use correct ibrav instead

     bravais-lattice index     =            0
     lattice parameter (alat)  =      14.8394  a.u.
     unit-cell volume          =    4186.8236 (a.u.)^3
     number of atoms/cell      =           32
     number of atomic types    =            1
     number of electrons       =       576.00
     number of Kohn-Sham states=          346
     kinetic-energy cutoff     =      71.0000  Ry
     charge density cutoff     =     430.0000  Ry
     scf convergence threshold =      1.0E-06
     mixing beta               =       0.1000
     number of iterations used =           10  TF        mixing
     energy convergence thresh.=      1.0E-04
     force convergence thresh. =      1.0E-03
     Exchange-correlation= SLA  PW   PBX  PBC
                           (   1   4   3   4   0   0   0)
     nstep                     =           40

     celldm(1)=  14.839420  celldm(2)=   0.000000  celldm(3)=   0.000000
     celldm(4)=   0.000000  celldm(5)=   0.000000  celldm(6)=   0.000000

     crystal axes: (cart. coord. in units of alat)
               a(1) = (   1.000000   0.000000   0.000000 )
               a(2) = (   0.000000   1.000000   0.000000 )
               a(3) = (   0.000000   0.000000   1.281250 )

     reciprocal axes: (cart. coord. in units 2 pi/alat)
               b(1) = (  1.000000  0.000000  0.000000 )
               b(2) = (  0.000000  1.000000  0.000000 )
               b(3) = (  0.000000  0.000000  0.780488 )

     PseudoPot. # 1 for Pd read from file:
     /rds/homes/b/bxp912/pp/Pd.pbe-spn-kjpaw_psl.1.0.0.UPF
     MD5 check sum: 790f2ebce206edfd9790dcb9844eca51
     Pseudo is Projector augmented-wave + core cor, Zval = 18.0
     Generated using &quot;atomic&quot; code by A. Dal Corso  v.6.3
     Shape of augmentation charge: PSQ
     Using radial grid of 1235 points,  6 beta functions with:
                l(1) =   0
                l(2) =   0
                l(3) =   1
                l(4) =   1
                l(5) =   2
                l(6) =   2
     Q(r) pseudized with 0 coefficients

     atomic species   valence    mass     pseudopotential
        Pd            18.00   106.42000     Pd( 1.00)

      8 Sym. Ops. (no inversion) found

   Cartesian axes

     site n.     atom                  positions (alat units)
         1           Pd  tau(   1) = (   0.0000000   0.0000000   0.0000000  )
         2           Pd  tau(   2) = (   0.2500000   0.2500000   0.0000000  )
         3           Pd  tau(   3) = (   0.2500000   0.0000000   0.2500000  )
         4           Pd  tau(   4) = (   0.0000000   0.2500000   0.2500000  )
         5           Pd  tau(   5) = (   0.0000000   0.0000000   0.7812500  )
         6           Pd  tau(   6) = (   0.2500000   0.2500000   0.7812500  )
         7           Pd  tau(   7) = (   0.2500000   0.0000000   1.0312500  )
         8           Pd  tau(   8) = (   0.0000000   0.2500000   1.0312500  )
         9           Pd  tau(   9) = (   0.0000000   0.5000000   0.0000000  )
        10           Pd  tau(  10) = (   0.2500000   0.7500000   0.0000000  )
        11           Pd  tau(  11) = (   0.2500000   0.5000000   0.2500000  )
        12           Pd  tau(  12) = (   0.0000000   0.7500000   0.2500000  )
        13           Pd  tau(  13) = (   0.0000000   0.5000000   0.7812500  )
        14           Pd  tau(  14) = (   0.2500000   0.7500000   0.7812500  )
        15           Pd  tau(  15) = (   0.2500000   0.5000000   1.0312500  )
        16           Pd  tau(  16) = (   0.0000000   0.7500000   1.0312500  )
        17           Pd  tau(  17) = (   0.5000000   0.0000000   0.0000000  )
        18           Pd  tau(  18) = (   0.7500000   0.2500000   0.0000000  )
        19           Pd  tau(  19) = (   0.7500000   0.0000000   0.2500000  )
        20           Pd  tau(  20) = (   0.5000000   0.2500000   0.2500000  )
        21           Pd  tau(  21) = (   0.5000000   0.0000000   0.7812500  )
        22           Pd  tau(  22) = (   0.7500000   0.2500000   0.7812500  )
        23           Pd  tau(  23) = (   0.7500000   0.0000000   1.0312500  )
        24           Pd  tau(  24) = (   0.5000000   0.2500000   1.0312500  )
        25           Pd  tau(  25) = (   0.5000000   0.5000000   0.0000000  )
        26           Pd  tau(  26) = (   0.7500000   0.7500000   0.0000000  )
        27           Pd  tau(  27) = (   0.7500000   0.5000000   0.2500000  )
        28           Pd  tau(  28) = (   0.5000000   0.7500000   0.2500000  )
        29           Pd  tau(  29) = (   0.5000000   0.5000000   0.7812500  )
        30           Pd  tau(  30) = (   0.7500000   0.7500000   0.7812500  )
        31           Pd  tau(  31) = (   0.7500000   0.5000000   1.0312500  )
        32           Pd  tau(  32) = (   0.5000000   0.7500000   1.0312500  )

     number of k points=    75  Marzari-Vanderbilt smearing, width (Ry)=  0.0400
                       cart. coord. in units 2pi/alat
        k(    1) = (   0.0555556   0.0555556   0.0433604), wk =   0.0219479
        k(    2) = (   0.0555556   0.0555556   0.1300813), wk =   0.0219479
        k(    3) = (   0.0555556   0.0555556   0.2168022), wk =   0.0219479
        k(    4) = (   0.0555556   0.0555556   0.3035230), wk =   0.0219479
        k(    5) = (   0.0555556   0.0555556  -0.3902439), wk =   0.0109739
        k(    6) = (   0.0555556   0.1666667   0.0433604), wk =   0.0438957
        k(    7) = (   0.0555556   0.1666667   0.1300813), wk =   0.0438957
        k(    8) = (   0.0555556   0.1666667   0.2168022), wk =   0.0438957
        k(    9) = (   0.0555556   0.1666667   0.3035230), wk =   0.0438957
        k(   10) = (   0.0555556   0.1666667  -0.3902439), wk =   0.0219479
        k(   11) = (   0.0555556   0.2777778   0.0433604), wk =   0.0438957
        k(   12) = (   0.0555556   0.2777778   0.1300813), wk =   0.0438957
        k(   13) = (   0.0555556   0.2777778   0.2168022), wk =   0.0438957
        k(   14) = (   0.0555556   0.2777778   0.3035230), wk =   0.0438957
        k(   15) = (   0.0555556   0.2777778  -0.3902439), wk =   0.0219479
        k(   16) = (   0.0555556   0.3888889   0.0433604), wk =   0.0438957
        k(   17) = (   0.0555556   0.3888889   0.1300813), wk =   0.0438957
        k(   18) = (   0.0555556   0.3888889   0.2168022), wk =   0.0438957
        k(   19) = (   0.0555556   0.3888889   0.3035230), wk =   0.0438957
        k(   20) = (   0.0555556   0.3888889  -0.3902439), wk =   0.0219479
        k(   21) = (   0.0555556  -0.5000000   0.0433604), wk =   0.0219479
        k(   22) = (   0.0555556  -0.5000000   0.1300813), wk =   0.0219479
        k(   23) = (   0.0555556  -0.5000000   0.2168022), wk =   0.0219479
        k(   24) = (   0.0555556  -0.5000000   0.3035230), wk =   0.0219479
        k(   25) = (   0.0555556  -0.5000000  -0.3902439), wk =   0.0109739
        k(   26) = (   0.1666667   0.1666667   0.0433604), wk =   0.0219479
        k(   27) = (   0.1666667   0.1666667   0.1300813), wk =   0.0219479
        k(   28) = (   0.1666667   0.1666667   0.2168022), wk =   0.0219479
        k(   29) = (   0.1666667   0.1666667   0.3035230), wk =   0.0219479
        k(   30) = (   0.1666667   0.1666667  -0.3902439), wk =   0.0109739
        k(   31) = (   0.1666667   0.2777778   0.0433604), wk =   0.0438957
        k(   32) = (   0.1666667   0.2777778   0.1300813), wk =   0.0438957
        k(   33) = (   0.1666667   0.2777778   0.2168022), wk =   0.0438957
        k(   34) = (   0.1666667   0.2777778   0.3035230), wk =   0.0438957
        k(   35) = (   0.1666667   0.2777778  -0.3902439), wk =   0.0219479
        k(   36) = (   0.1666667   0.3888889   0.0433604), wk =   0.0438957
        k(   37) = (   0.1666667   0.3888889   0.1300813), wk =   0.0438957
        k(   38) = (   0.1666667   0.3888889   0.2168022), wk =   0.0438957
        k(   39) = (   0.1666667   0.3888889   0.3035230), wk =   0.0438957
        k(   40) = (   0.1666667   0.3888889  -0.3902439), wk =   0.0219479
        k(   41) = (   0.1666667  -0.5000000   0.0433604), wk =   0.0219479
        k(   42) = (   0.1666667  -0.5000000   0.1300813), wk =   0.0219479
        k(   43) = (   0.1666667  -0.5000000   0.2168022), wk =   0.0219479
        k(   44) = (   0.1666667  -0.5000000   0.3035230), wk =   0.0219479
        k(   45) = (   0.1666667  -0.5000000  -0.3902439), wk =   0.0109739
        k(   46) = (   0.2777778   0.2777778   0.0433604), wk =   0.0219479
        k(   47) = (   0.2777778   0.2777778   0.1300813), wk =   0.0219479
        k(   48) = (   0.2777778   0.2777778   0.2168022), wk =   0.0219479
        k(   49) = (   0.2777778   0.2777778   0.3035230), wk =   0.0219479
        k(   50) = (   0.2777778   0.2777778  -0.3902439), wk =   0.0109739
        k(   51) = (   0.2777778   0.3888889   0.0433604), wk =   0.0438957
        k(   52) = (   0.2777778   0.3888889   0.1300813), wk =   0.0438957
        k(   53) = (   0.2777778   0.3888889   0.2168022), wk =   0.0438957
        k(   54) = (   0.2777778   0.3888889   0.3035230), wk =   0.0438957
        k(   55) = (   0.2777778   0.3888889  -0.3902439), wk =   0.0219479
        k(   56) = (   0.2777778  -0.5000000   0.0433604), wk =   0.0219479
        k(   57) = (   0.2777778  -0.5000000   0.1300813), wk =   0.0219479
        k(   58) = (   0.2777778  -0.5000000   0.2168022), wk =   0.0219479
        k(   59) = (   0.2777778  -0.5000000   0.3035230), wk =   0.0219479
        k(   60) = (   0.2777778  -0.5000000  -0.3902439), wk =   0.0109739
        k(   61) = (   0.3888889   0.3888889   0.0433604), wk =   0.0219479
        k(   62) = (   0.3888889   0.3888889   0.1300813), wk =   0.0219479
        k(   63) = (   0.3888889   0.3888889   0.2168022), wk =   0.0219479
        k(   64) = (   0.3888889   0.3888889   0.3035230), wk =   0.0219479
        k(   65) = (   0.3888889   0.3888889  -0.3902439), wk =   0.0109739
        k(   66) = (   0.3888889  -0.5000000   0.0433604), wk =   0.0219479
        k(   67) = (   0.3888889  -0.5000000   0.1300813), wk =   0.0219479
        k(   68) = (   0.3888889  -0.5000000   0.2168022), wk =   0.0219479
        k(   69) = (   0.3888889  -0.5000000   0.3035230), wk =   0.0219479
        k(   70) = (   0.3888889  -0.5000000  -0.3902439), wk =   0.0109739
[...]
   0.00000000  -0.00036351   0.00000000            0.00      -53.47        0.00
   0.00000000   0.00000000  -0.00025171            0.00        0.00      -37.03

     BFGS Geometry Optimization
     Energy error            =      0.0E+00
     Gradient error          =      3.9E-03

     number of scf cycles    =   1
     number of bfgs steps    =   0

     energy   new            =  -16384.1107629696 Ry

     new trust radius        =       0.0038922796 bohr
     new conv_thr            =       0.0000010000 Ry

ATOMIC_POSITIONS (crystal)
Pd            0.0000000000        0.0000000000        0.0001954933
Pd            0.2499998374        0.2499998374        0.0001945579
Pd            0.2499991184        0.0000000000        0.1952954235
Pd            0.0000000000        0.2499991184        0.1952954235
Pd            0.0000000000        0.0000000000        0.6095914307
Pd            0.2500002992        0.2500002992        0.6095922238
Pd            0.2500005281        0.0000000000        0.8046733325
Pd            0.0000000000        0.2500005281        0.8046733325
Pd            0.0000000000        0.5000000000        0.0001951850
Pd            0.2499998374        0.7500001626        0.0001945579
Pd            0.2500003264        0.5000000000        0.1952954837
Pd            0.0000000000        0.7500008816        0.1952954235
Pd            0.0000000000        0.5000000000        0.6095923421
Pd            0.2500002992        0.7499997008        0.6095922238
Pd            0.2500011787        0.5000000000        0.8046737690
Pd            0.0000000000        0.7499994719        0.8046733325
Pd            0.5000000000        0.0000000000        0.0001951850
Pd            0.7500001626        0.2499998374        0.0001945579
Pd            0.7500008816        0.0000000000        0.1952954235
Pd            0.5000000000        0.2500003264        0.1952954837
Pd            0.5000000000        0.0000000000        0.6095923421
Pd            0.7499997008        0.2500002992        0.6095922238
Pd            0.7499994719        0.0000000000        0.8046733325
Pd            0.5000000000        0.2500011787        0.8046737690
Pd            0.5000000000        0.5000000000        0.0001946543
Pd            0.7500001626        0.7500001626        0.0001945579
Pd            0.7499996736        0.5000000000        0.1952954837
Pd            0.5000000000        0.7499996736        0.1952954837
Pd            0.5000000000        0.5000000000        0.6095929868
Pd            0.7499997008        0.7499997008        0.6095922238
Pd            0.7499988213        0.5000000000        0.8046737690
Pd            0.5000000000        0.7499988213        0.8046737690

     Writing output data file /scratch/QiAjRvwYjgHzZYdf.save/
     NEW-OLD atomic charge density approx. for the potential

[...]

     iteration #  5     ecut=    71.00 Ry     beta= 0.10
     Davidson diagonalization with overlap
     c_bands:  2 eigenvalues not converged
     ethr =  1.49E-09,  avg # of iterations =  2.4

[...]

     Total force =     0.017033     Total SCF correction =     0.007838
     SCF correction compared to forces is large: reduce conv_thr to get better values

[...]

     Energy error            =      3.6E-04
     Gradient error          =      3.4E-03

[...]

     energy   old            =  -16384.1107629696 Ry
     energy   new            =  -16384.1111199292 Ry

     CASE: energy  _new < energy  _old

     WARNING: bfgs curvature condition failed, Theta= 0.953
     new trust radius        =       0.0042815075 bohr
     new conv_thr            =       0.0000000340 Ry

[...]

     Total force =     0.005606     Total SCF correction =     0.000265

[...]

     number of scf cycles    =   9
     number of bfgs steps    =   8

     energy   old            =  -16384.1135892078 Ry
     energy   new            =  -16384.1136541468 Ry

     CASE: energy  _new < energy  _old

     new trust radius        =       0.0040281853 bohr
     new conv_thr            =       0.0000000100 Ry

ATOMIC_POSITIONS (crystal)
Pd            0.0000000000        0.0000000000        0.0022312883
Pd            0.2499993154        0.2499993154        0.0022316230
Pd            0.2499980148        0.0000000000        0.1992307805
Pd            0.0000000000        0.2499980148        0.1992307805
Pd            0.0000000000        0.0000000000        0.6055832645
Pd            0.2500032879        0.2500032879        0.6055859727
Pd            0.2500011654        0.0000000000        0.8027062433
Pd            0.0000000000        0.2500011654        0.8027062433
Pd            0.0000000000        0.5000000000        0.0022330171
Pd            0.2499993154        0.7500006846        0.0022316230
Pd            0.2500004680        0.5000000000        0.1992316158
Pd            0.0000000000        0.7500019852        0.1992307805
Pd            0.0000000000        0.5000000000        0.6055857105
Pd            0.2500032879        0.7499967121        0.6055859727
Pd            0.2500018147        0.5000000000        0.8027084991
Pd            0.0000000000        0.7499988346        0.8027062433
Pd            0.5000000000        0.0000000000        0.0022330171
Pd            0.7500006846        0.2499993154        0.0022316230
Pd            0.7500019852        0.0000000000        0.1992307805
Pd            0.5000000000        0.2500004680        0.1992316158
Pd            0.5000000000        0.0000000000        0.6055857105
Pd            0.7499967121        0.2500032879        0.6055859727
Pd            0.7499988346        0.0000000000        0.8027062433
Pd            0.5000000000        0.2500018147        0.8027084991
Pd            0.5000000000        0.5000000000        0.0022327983
Pd            0.7500006846        0.7500006846        0.0022316230
Pd            0.7499995320        0.5000000000        0.1992316158
Pd            0.5000000000        0.7499995320        0.1992316158
Pd            0.5000000000        0.5000000000        0.6055850369
Pd            0.7499967121        0.7499967121        0.6055859727
Pd            0.7499981853        0.5000000000        0.8027084991
Pd            0.5000000000        0.7499981853        0.8027084991

     Writing output data file /scratch/QiAjRvwYjgHzZYdf.save/
     NEW-OLD atomic charge density approx. for the potential

     Check: negative core charge=   -0.000001

     Self-consistent Calculation

[...]

     Threshold (ethr) on eigenvalues was too large:
     Diagonalizing with lowered threshold

     Davidson diagonalization with overlap
     ethr =  9.45E-09,  avg # of iterations =  4.0

[...]

     total energy              =  -16384.11370917 Ry
     estimated scf accuracy    <       0.00000002 Ry

     iteration # 11     ecut=    71.00 Ry     beta= 0.10
     Davidson diagonalization with overlap
     ethr =  2.78E-12,  avg # of iterations =  2.0

     End of self-consistent calculation

[...]

          k = 0.3889-0.5000-0.3902 ( 42296 PWs)   bands (ev):

[...]

          k =-0.5000-0.5000-0.3902 ( 42256 PWs)   bands (ev):

   -70.2455 -70.2455 -70.2455 -70.2455 -70.2260 -70.2260 -70.2260 -70.2260
   -70.2200 -70.2200 -70.2200 -70.2200 -70.2190 -70.2190 -70.2190 -70.2190
   -69.7177 -69.7177 -69.7177 -69.7177 -69.7166 -69.7166 -69.7166 -69.7165
   -69.7017 -69.7017 -69.7017 -69.7017 -69.7006 -69.7006 -69.7006 -69.7006
   -36.0668 -36.0668 -36.0668 -36.0668 -36.0661 -36.0661 -36.0661 -36.0661
   -36.0434 -36.0434 -36.0434 -36.0434 -36.0011 -36.0011 -36.0011 -36.0011
   -35.9449 -35.9449 -35.9449 -35.9449 -35.9439 -35.9439 -35.9439 -35.9438
   -35.9143 -35.9143 -35.9143 -35.9143 -35.9110 -35.9110 -35.9110 -35.9110
   -35.9103 -35.9103 -35.9103 -35.9103 -35.8870 -35.8870 -35.8870 -35.8870
   -35.8627 -35.8627 -35.8627 -35.8627 -35.8202 -35.8202 -35.8202 -35.8202
   -35.5860 -35.5860 -35.5860 -35.5860 -35.5850 -35.5850 -35.5850 -35.5850
   -35.5023 -35.5023 -35.5023 -35.5023 -35.4997 -35.4997 -35.4997 -35.4997
   -35.4882 -35.4882 -35.4881 -35.4881 -35.4870 -35.4870 -35.4870 -35.4870
   -35.3997 -35.3997 -35.3997 -35.3997 -35.3985 -35.3985 -35.3985 -35.3985
   -35.3253 -35.3253 -35.3253 -35.3253 -35.3241 -35.3240 -35.3240 -35.3240
   -35.3134 -35.3134 -35.3134 -35.3134 -35.3123 -35.3122 -35.3122 -35.3122
     8.7254   8.7254   8.7254   8.7254   9.3349   9.3349   9.3349   9.3349
     9.6796   9.6796   9.6796   9.6796   9.6807   9.6807   9.6807   9.6807
     9.7393   9.7394   9.7394   9.7394   9.8503   9.8503   9.8503   9.8503
     9.8509   9.8509   9.8509   9.8509   9.9160   9.9160   9.9160   9.9160
    10.2323  10.2323  10.2323  10.2323  10.5138  10.5138  10.5138  10.5138
    10.5159  10.5159  10.5159  10.5159  10.7893  10.7894  10.7894  10.7894
    10.7905  10.7905  10.7905  10.7906  10.9500  10.9500  10.9500  10.9500
    11.1830  11.1830  11.1830  11.1830  11.3798  11.3798  11.3798  11.3798
    11.4852  11.4852  11.4852  11.4852  11.6367  11.6367  11.6367  11.6367
    11.6466  11.6466  11.6466  11.6466  11.7769  11.7769  11.7769  11.7769
    11.7772  11.7772  11.7772  11.7772  11.8665  11.8665  11.8665  11.8665
    12.0128  12.0129  12.0129  12.0129  12.1780  12.1781  12.1781  12.1781
    12.3124  12.3124  12.3125  12.3125  12.3133  12.3133  12.3133  12.3133
    12.3673  12.3673  12.3674  12.3674  12.3683  12.3683  12.3683  12.3683
    12.4280  12.4280  12.4280  12.4280  12.6414  12.6414  12.6414  12.6414
    12.7646  12.7646  12.7646  12.7646  12.8436  12.8436  12.8436  12.8436
    12.8436  12.8436  12.8436  12.8436  12.9421  12.9421  12.9421  12.9421
    13.1858  13.1858  13.1858  13.1858  13.3772  13.3772  13.3772  13.3772
    13.5570  13.5570  13.5570  13.5570  13.5573  13.5573  13.5573  13.5573
    13.7815  13.7815  13.7815  13.7815  13.8484  13.8484  13.8484  13.8484
    13.8555  13.8555  13.8555  13.8555  13.8555  13.8555  13.8555  13.8555
    15.3030  15.3030  15.3030  15.3030  16.4175  16.4175  16.4175  16.4175
    17.1826  17.1826  17.1826  17.1826  17.1830  17.1830  17.1830  17.1830
    18.0594  18.0594  18.0594  18.0594  18.0598  18.0598  18.0598  18.0598
    20.5143  20.5143  20.5143  20.5143  20.5150  20.5150  20.5150  20.5150
    20.8890  20.8891  20.8891  20.8891  22.2882  22.2882  22.2882  22.2882
    22.2891  22.2891  22.2891  22.2891  22.5696  22.5696  22.5696  22.5696
    23.7643  23.7643

     the Fermi energy is    13.8642 ev

!    total energy              =  -16384.11370918 Ry

     total all-electron energy =   -322944.967416 Ry
     estimated scf accuracy    <          7.4E-09 Ry
     smearing contrib. (-TS)   =       0.12247064 Ry
     internal energy E=F+TS    =  -16384.23617982 Ry

     The total energy is F=E-TS. E is the sum of the following terms:
     one-electron contribution =   -5613.30592296 Ry
     hartree contribution      =    3115.27918332 Ry
     xc contribution           =    -985.06066256 Ry
     ewald contribution        =   -4733.83081110 Ry
     one-center paw contrib.   =   -8167.31796652 Ry

     convergence has been achieved in  11 iterations

     Forces acting on atoms (cartesian axes, Ry/au):

     atom    1 type  1   force =     0.00000000    0.00000000   -0.00024561
     atom    2 type  1   force =    -0.00000011   -0.00000011   -0.00023961
     atom    3 type  1   force =     0.00000276    0.00000000    0.00005997
     atom    4 type  1   force =     0.00000000    0.00000276    0.00005997
     atom    5 type  1   force =     0.00000000    0.00000000   -0.00008548
     atom    6 type  1   force =    -0.00000462   -0.00000462   -0.00009129
     atom    7 type  1   force =    -0.00000401    0.00000000    0.00027212
     atom    8 type  1   force =     0.00000000   -0.00000401    0.00027212
     atom    9 type  1   force =     0.00000000    0.00000000   -0.00024225
     atom   10 type  1   force =    -0.00000011    0.00000011   -0.00023961
     atom   11 type  1   force =    -0.00000262    0.00000000    0.00005855
     atom   12 type  1   force =     0.00000000   -0.00000276    0.00005997
     atom   13 type  1   force =     0.00000000    0.00000000   -0.00009053
     atom   14 type  1   force =    -0.00000462    0.00000462   -0.00009129
     atom   15 type  1   force =    -0.00000605    0.00000000    0.00027224
     atom   16 type  1   force =     0.00000000    0.00000401    0.00027212
     atom   17 type  1   force =     0.00000000    0.00000000   -0.00024225
     atom   18 type  1   force =     0.00000011   -0.00000011   -0.00023961
     atom   19 type  1   force =    -0.00000276    0.00000000    0.00005997
     atom   20 type  1   force =     0.00000000   -0.00000262    0.00005855
     atom   21 type  1   force =     0.00000000    0.00000000   -0.00009053
     atom   22 type  1   force =     0.00000462   -0.00000462   -0.00009129
     atom   23 type  1   force =     0.00000401    0.00000000    0.00027212
     atom   24 type  1   force =     0.00000000   -0.00000605    0.00027224
     atom   25 type  1   force =     0.00000000    0.00000000   -0.00023872
     atom   26 type  1   force =     0.00000011    0.00000011   -0.00023961
     atom   27 type  1   force =     0.00000262    0.00000000    0.00005855
     atom   28 type  1   force =     0.00000000    0.00000262    0.00005855
     atom   29 type  1   force =     0.00000000    0.00000000   -0.00009257
     atom   30 type  1   force =     0.00000462    0.00000462   -0.00009129
     atom   31 type  1   force =     0.00000605    0.00000000    0.00027224
     atom   32 type  1   force =     0.00000000    0.00000605    0.00027224

     Total force =     0.001073     Total SCF correction =     0.000562
     SCF correction compared to forces is large: reduce conv_thr to get better values

     Computing stress (Cartesian axis) and pressure

          total   stress  (Ry/bohr**3)                   (kbar)     P=      -62.35
  -0.00044453   0.00000000   0.00000000          -65.39        0.00        0.00
   0.00000000  -0.00044453   0.00000000            0.00      -65.39        0.00
   0.00000000   0.00000000  -0.00038247            0.00        0.00      -56.26

     Energy error            =      5.5E-05
     Gradient error          =      2.7E-04

     bfgs converged in  10 scf cycles and   9 bfgs steps
     (criteria: energy <  1.0E-04 Ry, force <  1.0E-03 Ry/Bohr)

     End of BFGS Geometry Optimization

     Final energy   =  -16384.1137091839 Ry

     File /scratch/QiAjRvwYjgHzZYdf.bfgs deleted, as requested
Begin final coordinates

ATOMIC_POSITIONS (crystal)
Pd            0.0000000000        0.0000000000        0.0022312883
Pd            0.2499993154        0.2499993154        0.0022316230
Pd            0.2499980148        0.0000000000        0.1992307805
Pd            0.0000000000        0.2499980148        0.1992307805
Pd            0.0000000000        0.0000000000        0.6055832645
Pd            0.2500032879        0.2500032879        0.6055859727
Pd            0.2500011654        0.0000000000        0.8027062433
Pd            0.0000000000        0.2500011654        0.8027062433
Pd            0.0000000000        0.5000000000        0.0022330171
Pd            0.2499993154        0.7500006846        0.0022316230
Pd            0.2500004680        0.5000000000        0.1992316158
Pd            0.0000000000        0.7500019852        0.1992307805
Pd            0.0000000000        0.5000000000        0.6055857105
Pd            0.2500032879        0.7499967121        0.6055859727
Pd            0.2500018147        0.5000000000        0.8027084991
Pd            0.0000000000        0.7499988346        0.8027062433
Pd            0.5000000000        0.0000000000        0.0022330171
Pd            0.7500006846        0.2499993154        0.0022316230
Pd            0.7500019852        0.0000000000        0.1992307805
Pd            0.5000000000        0.2500004680        0.1992316158
Pd            0.5000000000        0.0000000000        0.6055857105
Pd            0.7499967121        0.2500032879        0.6055859727
Pd            0.7499988346        0.0000000000        0.8027062433
Pd            0.5000000000        0.2500018147        0.8027084991
Pd            0.5000000000        0.5000000000        0.0022327983
Pd            0.7500006846        0.7500006846        0.0022316230
Pd            0.7499995320        0.5000000000        0.1992316158
Pd            0.5000000000        0.7499995320        0.1992316158
Pd            0.5000000000        0.5000000000        0.6055850369
Pd            0.7499967121        0.7499967121        0.6055859727
Pd            0.7499981853        0.5000000000        0.8027084991
Pd            0.5000000000        0.7499981853        0.8027084991
End final coordinates

     Writing output data file /scratch/QiAjRvwYjgHzZYdf.save/

     General routines

     Parallel routines

   This run was terminated on:   7: 6: 9   9Jan2022

   JOB DONE.