     Program PWSCF v.6.7MaX starts on  7Jan2022 at 16: 5: 1

     R & G space division:  proc/nbgrp/npool/nimage =      72
     Reading input from relax_20.in
Warning: card &CELL ignored
Warning: card CELL_DYNAMICS = 'BFGS', ignored
Warning: card CELL_FACTOR = 2.0, ignored
Warning: card PRESS = 0.0, ignored
Warning: card / ignored

     Current dimensions of program PWSCF are:
     Max number of different atomic species (ntypx) = 10
     Max number of k-points (npk) =  40000
     Max angular momentum in pseudopotentials (lmaxx) =  3
     file Pd.pbe-spn-kjpaw_psl.1.0.0.UPF: wavefunction(s)  4S 5S 4D renormalized

     Subspace diagonalization in iterative solution of the eigenvalue problem:
     one sub-group per band group will be used

     Found symmetry operation: I + (  0.2500  0.2500  0.0000)
     This is a supercell, fractional translations are disabled
     Message from routine setup:
     using ibrav=0 with symmetry is DISCOURAGED, use correct ibrav instead

     bravais-lattice index     =            0
     lattice parameter (alat)  =      14.8394  a.u.
     unit-cell volume          =    5208.0000 (a.u.)^3
     number of atoms/cell      =           32
     number of atomic types    =            1
     number of electrons       =       576.00
     number of Kohn-Sham states=          346
     kinetic-energy cutoff     =      71.0000  Ry
     charge density cutoff     =     430.0000  Ry
     scf convergence threshold =      1.0E-06
     mixing beta               =       0.1000
     number of iterations used =           10  TF        mixing
     energy convergence thresh.=      1.0E-04
     force convergence thresh. =      1.0E-03
     Exchange-correlation= SLA  PW   PBX  PBC
                           (   1   4   3   4   0   0   0)
     nstep                     =           40

     celldm(1)=  14.839420  celldm(2)=   0.000000  celldm(3)=   0.000000
     celldm(4)=   0.000000  celldm(5)=   0.000000  celldm(6)=   0.000000

     crystal axes: (cart. coord. in units of alat)
               a(1) = (   1.000000   0.000000   0.000000 )
               a(2) = (   0.000000   1.000000   0.000000 )
               a(3) = (   0.000000   0.000000   1.593750 )

     reciprocal axes: (cart. coord. in units 2 pi/alat)
               b(1) = (  1.000000  0.000000  0.000000 )
               b(2) = (  0.000000  1.000000  0.000000 )
               b(3) = (  0.000000  0.000000  0.627451 )

     PseudoPot. # 1 for Pd read from file:
     /rds/homes/b/bxp912/pp/Pd.pbe-spn-kjpaw_psl.1.0.0.UPF
     MD5 check sum: 790f2ebce206edfd9790dcb9844eca51
     Pseudo is Projector augmented-wave + core cor, Zval = 18.0
     Generated using &quot;atomic&quot; code by A. Dal Corso  v.6.3
     Shape of augmentation charge: PSQ
     Using radial grid of 1235 points,  6 beta functions with:
                l(1) =   0
                l(2) =   0
                l(3) =   1
                l(4) =   1
                l(5) =   2
                l(6) =   2
     Q(r) pseudized with 0 coefficients

     atomic species   valence    mass     pseudopotential
        Pd            18.00   106.42000     Pd( 1.00)

      8 Sym. Ops. (no inversion) found

   Cartesian axes

     site n.     atom                  positions (alat units)
         1           Pd  tau(   1) = (   0.0000000   0.0000000   0.0000000  )
         2           Pd  tau(   2) = (   0.2500000   0.2500000   0.0000000  )
         3           Pd  tau(   3) = (   0.2500000   0.0000000   0.2500000  )
         4           Pd  tau(   4) = (   0.0000000   0.2500000   0.2500000  )
         5           Pd  tau(   5) = (   0.0000000   0.0000000   1.0937500  )
         6           Pd  tau(   6) = (   0.2500000   0.2500000   1.0937500  )
         7           Pd  tau(   7) = (   0.2500000   0.0000000   1.3437500  )
         8           Pd  tau(   8) = (   0.0000000   0.2500000   1.3437500  )
         9           Pd  tau(   9) = (   0.0000000   0.5000000   0.0000000  )
        10           Pd  tau(  10) = (   0.2500000   0.7500000   0.0000000  )
        11           Pd  tau(  11) = (   0.2500000   0.5000000   0.2500000  )
        12           Pd  tau(  12) = (   0.0000000   0.7500000   0.2500000  )
        13           Pd  tau(  13) = (   0.0000000   0.5000000   1.0937500  )
        14           Pd  tau(  14) = (   0.2500000   0.7500000   1.0937500  )
        15           Pd  tau(  15) = (   0.2500000   0.5000000   1.3437500  )
        16           Pd  tau(  16) = (   0.0000000   0.7500000   1.3437500  )
        17           Pd  tau(  17) = (   0.5000000   0.0000000   0.0000000  )
        18           Pd  tau(  18) = (   0.7500000   0.2500000   0.0000000  )
        19           Pd  tau(  19) = (   0.7500000   0.0000000   0.2500000  )
        20           Pd  tau(  20) = (   0.5000000   0.2500000   0.2500000  )
        21           Pd  tau(  21) = (   0.5000000   0.0000000   1.0937500  )
        22           Pd  tau(  22) = (   0.7500000   0.2500000   1.0937500  )
        23           Pd  tau(  23) = (   0.7500000   0.0000000   1.3437500  )
        24           Pd  tau(  24) = (   0.5000000   0.2500000   1.3437500  )
        25           Pd  tau(  25) = (   0.5000000   0.5000000   0.0000000  )
        26           Pd  tau(  26) = (   0.7500000   0.7500000   0.0000000  )
        27           Pd  tau(  27) = (   0.7500000   0.5000000   0.2500000  )
        28           Pd  tau(  28) = (   0.5000000   0.7500000   0.2500000  )
        29           Pd  tau(  29) = (   0.5000000   0.5000000   1.0937500  )
        30           Pd  tau(  30) = (   0.7500000   0.7500000   1.0937500  )
        31           Pd  tau(  31) = (   0.7500000   0.5000000   1.3437500  )
        32           Pd  tau(  32) = (   0.5000000   0.7500000   1.3437500  )

     number of k points=    75  Marzari-Vanderbilt smearing, width (Ry)=  0.0400
                       cart. coord. in units 2pi/alat
        k(    1) = (   0.0555556   0.0555556   0.0348584), wk =   0.0219479
        k(    2) = (   0.0555556   0.0555556   0.1045752), wk =   0.0219479
        k(    3) = (   0.0555556   0.0555556   0.1742919), wk =   0.0219479
        k(    4) = (   0.0555556   0.0555556   0.2440087), wk =   0.0219479
        k(    5) = (   0.0555556   0.0555556  -0.3137255), wk =   0.0109739
        k(    6) = (   0.0555556   0.1666667   0.0348584), wk =   0.0438957
        k(    7) = (   0.0555556   0.1666667   0.1045752), wk =   0.0438957
        k(    8) = (   0.0555556   0.1666667   0.1742919), wk =   0.0438957
        k(    9) = (   0.0555556   0.1666667   0.2440087), wk =   0.0438957
        k(   10) = (   0.0555556   0.1666667  -0.3137255), wk =   0.0219479
        k(   11) = (   0.0555556   0.2777778   0.0348584), wk =   0.0438957
        k(   12) = (   0.0555556   0.2777778   0.1045752), wk =   0.0438957
        k(   13) = (   0.0555556   0.2777778   0.1742919), wk =   0.0438957
        k(   14) = (   0.0555556   0.2777778   0.2440087), wk =   0.0438957
        k(   15) = (   0.0555556   0.2777778  -0.3137255), wk =   0.0219479
        k(   16) = (   0.0555556   0.3888889   0.0348584), wk =   0.0438957
        k(   17) = (   0.0555556   0.3888889   0.1045752), wk =   0.0438957
        k(   18) = (   0.0555556   0.3888889   0.1742919), wk =   0.0438957
        k(   19) = (   0.0555556   0.3888889   0.2440087), wk =   0.0438957
        k(   20) = (   0.0555556   0.3888889  -0.3137255), wk =   0.0219479
        k(   21) = (   0.0555556  -0.5000000   0.0348584), wk =   0.0219479
        k(   22) = (   0.0555556  -0.5000000   0.1045752), wk =   0.0219479
        k(   23) = (   0.0555556  -0.5000000   0.1742919), wk =   0.0219479
        k(   24) = (   0.0555556  -0.5000000   0.2440087), wk =   0.0219479
        k(   25) = (   0.0555556  -0.5000000  -0.3137255), wk =   0.0109739
        k(   26) = (   0.1666667   0.1666667   0.0348584), wk =   0.0219479
        k(   27) = (   0.1666667   0.1666667   0.1045752), wk =   0.0219479
        k(   28) = (   0.1666667   0.1666667   0.1742919), wk =   0.0219479
        k(   29) = (   0.1666667   0.1666667   0.2440087), wk =   0.0219479
        k(   30) = (   0.1666667   0.1666667  -0.3137255), wk =   0.0109739
        k(   31) = (   0.1666667   0.2777778   0.0348584), wk =   0.0438957
        k(   32) = (   0.1666667   0.2777778   0.1045752), wk =   0.0438957
        k(   33) = (   0.1666667   0.2777778   0.1742919), wk =   0.0438957
        k(   34) = (   0.1666667   0.2777778   0.2440087), wk =   0.0438957
        k(   35) = (   0.1666667   0.2777778  -0.3137255), wk =   0.0219479
        k(   36) = (   0.1666667   0.3888889   0.0348584), wk =   0.0438957
        k(   37) = (   0.1666667   0.3888889   0.1045752), wk =   0.0438957
        k(   38) = (   0.1666667   0.3888889   0.1742919), wk =   0.0438957
        k(   39) = (   0.1666667   0.3888889   0.2440087), wk =   0.0438957
        k(   40) = (   0.1666667   0.3888889  -0.3137255), wk =   0.0219479
        k(   41) = (   0.1666667  -0.5000000   0.0348584), wk =   0.0219479
        k(   42) = (   0.1666667  -0.5000000   0.1045752), wk =   0.0219479
        k(   43) = (   0.1666667  -0.5000000   0.1742919), wk =   0.0219479
        k(   44) = (   0.1666667  -0.5000000   0.2440087), wk =   0.0219479
        k(   45) = (   0.1666667  -0.5000000  -0.3137255), wk =   0.0109739
        k(   46) = (   0.2777778   0.2777778   0.0348584), wk =   0.0219479
        k(   47) = (   0.2777778   0.2777778   0.1045752), wk =   0.0219479
        k(   48) = (   0.2777778   0.2777778   0.1742919), wk =   0.0219479
        k(   49) = (   0.2777778   0.2777778   0.2440087), wk =   0.0219479
        k(   50) = (   0.2777778   0.2777778  -0.3137255), wk =   0.0109739
        k(   51) = (   0.2777778   0.3888889   0.0348584), wk =   0.0438957
        k(   52) = (   0.2777778   0.3888889   0.1045752), wk =   0.0438957
        k(   53) = (   0.2777778   0.3888889   0.1742919), wk =   0.0438957
        k(   54) = (   0.2777778   0.3888889   0.2440087), wk =   0.0438957
        k(   55) = (   0.2777778   0.3888889  -0.3137255), wk =   0.0219479
        k(   56) = (   0.2777778  -0.5000000   0.0348584), wk =   0.0219479
        k(   57) = (   0.2777778  -0.5000000   0.1045752), wk =   0.0219479
        k(   58) = (   0.2777778  -0.5000000   0.1742919), wk =   0.0219479
        k(   59) = (   0.2777778  -0.5000000   0.2440087), wk =   0.0219479
        k(   60) = (   0.2777778  -0.5000000  -0.3137255), wk =   0.0109739
        k(   61) = (   0.3888889   0.3888889   0.0348584), wk =   0.0219479
        k(   62) = (   0.3888889   0.3888889   0.1045752), wk =   0.0219479
        k(   63) = (   0.3888889   0.3888889   0.1742919), wk =   0.0219479
        k(   64) = (   0.3888889   0.3888889   0.2440087), wk =   0.0219479
        k(   65) = (   0.3888889   0.3888889  -0.3137255), wk =   0.0109739
        k(   66) = (   0.3888889  -0.5000000   0.0348584), wk =   0.0219479
        k(   67) = (   0.3888889  -0.5000000   0.1045752), wk =   0.0219479
        k(   68) = (   0.3888889  -0.5000000   0.1742919), wk =   0.0219479
        k(   69) = (   0.3888889  -0.5000000   0.2440087), wk =   0.0219479
        k(   70) = (   0.3888889  -0.5000000  -0.3137255), wk =   0.0109739
[...]

     Computing stress (Cartesian axis) and pressure

          total   stress  (Ry/bohr**3)                   (kbar)     P=      -34.49
  -0.00029417   0.00000000   0.00000000          -43.27        0.00        0.00
   0.00000000  -0.00029417   0.00000000            0.00      -43.27        0.00
   0.00000000   0.00000000  -0.00011507            0.00        0.00      -16.93

     BFGS Geometry Optimization
     Energy error            =      0.0E+00
     Gradient error          =      4.3E-03

     number of scf cycles    =   1
     number of bfgs steps    =   0

     energy   new            =  -16384.0514223116 Ry

     new trust radius        =       0.0042591591 bohr
     new conv_thr            =       0.0000010000 Ry

ATOMIC_POSITIONS (crystal)
Pd            0.0000000000        0.0000000000        0.0001338889
Pd            0.2499996027        0.2499996027        0.0001347978
Pd            0.2500001581       -0.0000000000        0.1566840307
Pd           -0.0000000000        0.2500001581        0.1566840307
Pd            0.0000000000        0.0000000000        0.6864545986
Pd            0.2499982710        0.2499982710        0.6864534961
Pd            0.2499978976        0.0000000000        0.8430019675
Pd            0.0000000000        0.2499978976        0.8430019675
Pd            0.0000000000        0.5000000000        0.0001344985
Pd            0.2499996027        0.7500003973        0.0001347978
Pd            0.2500004881        0.5000000000        0.1566840276
Pd            0.0000000000        0.7499998419        0.1566840307
Pd            0.0000000000        0.5000000000        0.6864537260
Pd            0.2499982710        0.7500017290        0.6864534961
Pd            0.2499983577        0.5000000000        0.8430023922
Pd            0.0000000000        0.7500021024        0.8430019675
Pd            0.5000000000        0.0000000000        0.0001344985
Pd            0.7500003973        0.2499996027        0.0001347978
Pd            0.7499998419       -0.0000000000        0.1566840307
Pd            0.5000000000        0.2500004881        0.1566840276
Pd            0.5000000000        0.0000000000        0.6864537260
Pd            0.7500017290        0.2499982710        0.6864534961
Pd            0.7500021024        0.0000000000        0.8430019675
Pd            0.5000000000        0.2499983577        0.8430023922
Pd            0.5000000000        0.5000000000        0.0001356839
Pd            0.7500003973        0.7500003973        0.0001347978
Pd            0.7499995119        0.5000000000        0.1566840276
Pd            0.5000000000        0.7499995119        0.1566840276
Pd            0.5000000000        0.5000000000        0.6864526108
Pd            0.7500017290        0.7500017290        0.6864534961
Pd            0.7500016423        0.5000000000        0.8430023922
Pd            0.5000000000        0.7500016423        0.8430023922

     Writing output data file /scratch/igVvMXATfaBuDAmH.save/
     NEW-OLD atomic charge density approx. for the potential

[...]

     Total force =     0.015215     Total SCF correction =     0.002898
     SCF correction compared to forces is large: reduce conv_thr to get better values

[...]

     Energy error            =      3.9E-04
     Gradient error          =      3.5E-03

[...]

     energy   old            =  -16384.0514223116 Ry
     energy   new            =  -16384.0518088460 Ry

     CASE: energy  _new < energy  _old

[...]

     WARNING: bfgs curvature condition failed, Theta= 0.869
     new trust radius        =       0.0023509363 bohr
     new conv_thr            =       0.0000000100 Ry

[...]

     Total force =     0.007048     Total SCF correction =     0.000387

[...]

     number of scf cycles    =   8
     number of bfgs steps    =   7

     energy   old            =  -16384.0526176342 Ry
     energy   new            =  -16384.0526942786 Ry

     CASE: energy  _new < energy  _old

     new trust radius        =       0.0052896066 bohr
     new conv_thr            =       0.0000000100 Ry

ATOMIC_POSITIONS (crystal)
Pd            0.0000000000        0.0000000000        0.0000034498
Pd            0.2499994123        0.2499994123        0.0000037540
Pd            0.2500001479       -0.0000000000        0.1551817872
Pd           -0.0000000000        0.2500001479        0.1551817872
Pd            0.0000000000        0.0000000000        0.6879551115
Pd            0.2499973024        0.2499973024        0.6879540590
Pd            0.2499980109        0.0000000000        0.8431347141
Pd            0.0000000000        0.2499980109        0.8431347141
Pd            0.0000000000        0.5000000000        0.0000034676
Pd            0.2499994123        0.7500005877        0.0000037540
Pd            0.2500003648        0.5000000000        0.1551818983
Pd            0.0000000000        0.7499998521        0.1551817872
Pd            0.0000000000        0.5000000000        0.6879547643
Pd            0.2499973024        0.7500026976        0.6879540590
Pd            0.2499984660        0.5000000000        0.8431346062
Pd            0.0000000000        0.7500019891        0.8431347141
Pd            0.5000000000        0.0000000000        0.0000034676
Pd            0.7500005877        0.2499994123        0.0000037540
Pd            0.7499998521       -0.0000000000        0.1551817872
Pd            0.5000000000        0.2500003648        0.1551818983
Pd            0.5000000000        0.0000000000        0.6879547643
Pd            0.7500026976        0.2499973024        0.6879540590
Pd            0.7500019891        0.0000000000        0.8431347141
Pd            0.5000000000        0.2499984660        0.8431346062
Pd            0.5000000000        0.5000000000        0.0000041058
Pd            0.7500005877        0.7500005877        0.0000037540
Pd            0.7499996352        0.5000000000        0.1551818983
Pd            0.5000000000        0.7499996352        0.1551818983
Pd            0.5000000000        0.5000000000        0.6879536721
Pd            0.7500026976        0.7500026976        0.6879540590
Pd            0.7500015340        0.5000000000        0.8431346062
Pd            0.5000000000        0.7500015340        0.8431346062

     Writing output data file /scratch/igVvMXATfaBuDAmH.save/
     NEW-OLD atomic charge density approx. for the potential

     Check: negative core charge=   -0.000001

     Self-consistent Calculation

[...]

     Threshold (ethr) on eigenvalues was too large:
     Diagonalizing with lowered threshold

     Davidson diagonalization with overlap
     ethr =  2.82E-08,  avg # of iterations =  2.0

[...]

     total energy              =  -16384.05277374 Ry
     estimated scf accuracy    <       0.00000001 Ry

     iteration # 12     ecut=    71.00 Ry     beta= 0.10
     Davidson diagonalization with overlap
     ethr =  2.29E-12,  avg # of iterations =  2.0

     End of self-consistent calculation

[...]

          k = 0.3889-0.5000-0.3137 ( 52620 PWs)   bands (ev):

[...]

          k =-0.5000-0.5000-0.3137 ( 52600 PWs)   bands (ev):

   -73.9719 -73.9719 -73.9719 -73.9719 -73.9492 -73.9492 -73.9492 -73.9492
   -73.9443 -73.9443 -73.9442 -73.9442 -73.9442 -73.9442 -73.9442 -73.9442
   -73.3869 -73.3869 -73.3869 -73.3869 -73.3868 -73.3868 -73.3868 -73.3868
   -73.3709 -73.3709 -73.3709 -73.3709 -73.3709 -73.3709 -73.3709 -73.3708
   -39.7975 -39.7975 -39.7975 -39.7974 -39.7974 -39.7974 -39.7974 -39.7974
   -39.7864 -39.7863 -39.7863 -39.7863 -39.7341 -39.7341 -39.7341 -39.7341
   -39.6743 -39.6743 -39.6743 -39.6743 -39.6743 -39.6743 -39.6743 -39.6743
   -39.6326 -39.6326 -39.6326 -39.6325 -39.6308 -39.6308 -39.6308 -39.6308
   -39.6308 -39.6308 -39.6308 -39.6308 -39.6111 -39.6110 -39.6110 -39.6110
   -39.5882 -39.5882 -39.5882 -39.5882 -39.5386 -39.5386 -39.5386 -39.5386
   -39.2611 -39.2611 -39.2611 -39.2611 -39.2611 -39.2611 -39.2611 -39.2611
   -39.1781 -39.1781 -39.1781 -39.1781 -39.1754 -39.1754 -39.1754 -39.1754
   -39.1636 -39.1636 -39.1636 -39.1636 -39.1636 -39.1636 -39.1636 -39.1636
   -39.0752 -39.0752 -39.0752 -39.0752 -39.0750 -39.0750 -39.0750 -39.0750
   -38.9886 -38.9886 -38.9886 -38.9885 -38.9878 -38.9878 -38.9878 -38.9878
   -38.9765 -38.9765 -38.9765 -38.9765 -38.9765 -38.9765 -38.9765 -38.9764
     4.9333   4.9333   4.9333   4.9334   5.5589   5.5589   5.5589   5.5589
     5.8857   5.8857   5.8857   5.8858   5.8858   5.8858   5.8858   5.8858
     5.9925   5.9925   5.9925   5.9925   6.0573   6.0573   6.0573   6.0573
     6.0574   6.0574   6.0574   6.0574   6.1409   6.1409   6.1409   6.1409
     6.4363   6.4363   6.4363   6.4363   6.7475   6.7476   6.7476   6.7476
     6.7476   6.7476   6.7476   6.7476   7.0556   7.0556   7.0556   7.0556
     7.0556   7.0556   7.0556   7.0557   7.2270   7.2270   7.2270   7.2270
     7.4612   7.4612   7.4612   7.4612   7.7161   7.7161   7.7161   7.7161
     7.8355   7.8355   7.8355   7.8356   7.8365   7.8365   7.8365   7.8365
     7.9202   7.9202   7.9202   7.9203   8.0348   8.0348   8.0348   8.0348
     8.0348   8.0348   8.0348   8.0348   8.0635   8.0635   8.0635   8.0635
     8.3743   8.3743   8.3743   8.3743   8.5068   8.5068   8.5068   8.5069
     8.6304   8.6304   8.6304   8.6304   8.6304   8.6304   8.6304   8.6304
     8.6661   8.6661   8.6661   8.6661   8.6661   8.6662   8.6662   8.6662
     8.6794   8.6794   8.6794   8.6794   8.9017   8.9017   8.9017   8.9017
     9.2461   9.2461   9.2461   9.2461   9.2461   9.2461   9.2461   9.2461
     9.2569   9.2569   9.2569   9.2569   9.3628   9.3628   9.3628   9.3628
     9.5074   9.5074   9.5074   9.5074   9.7171   9.7171   9.7171   9.7171
     9.8475   9.8475   9.8475   9.8475   9.8475   9.8475   9.8475   9.8476
    10.1406  10.1406  10.1406  10.1406  10.1911  10.1911  10.1911  10.1911
    10.1911  10.1911  10.1911  10.1911  10.2087  10.2087  10.2087  10.2088
    11.0378  11.0378  11.0378  11.0378  13.2010  13.2010  13.2010  13.2010
    13.4454  13.4454  13.4455  13.4455  13.4455  13.4455  13.4455  13.4455
    14.5648  14.5648  14.5648  14.5648  14.5648  14.5648  14.5648  14.5648
    15.9003  15.9003  15.9003  15.9003  16.6083  16.6083  16.6083  16.6083
    16.6084  16.6084  16.6084  16.6084  17.3132  17.3132  17.3132  17.3132
    18.8029  18.8029  18.8029  18.8029  18.8766  18.8766  18.8766  18.8766
    18.8766  18.8766

     the Fermi energy is    10.2053 ev

!    total energy              =  -16384.05277384 Ry

     total all-electron energy =   -322944.906481 Ry
     estimated scf accuracy    <          3.1E-09 Ry
     smearing contrib. (-TS)   =       0.12009786 Ry
     internal energy E=F+TS    =  -16384.17287170 Ry

     The total energy is F=E-TS. E is the sum of the following terms:
     one-electron contribution =  -13842.40571084 Ry
     hartree contribution      =    7151.61466313 Ry
     xc contribution           =    -985.49139568 Ry
     ewald contribution        =    -540.55420223 Ry
     one-center paw contrib.   =   -8167.33622609 Ry

     convergence has been achieved in  12 iterations

     Forces acting on atoms (cartesian axes, Ry/au):

     atom    1 type  1   force =     0.00000000    0.00000000   -0.00049839
     atom    2 type  1   force =     0.00000274    0.00000274   -0.00050337
     atom    3 type  1   force =     0.00000051    0.00000000   -0.00007803
     atom    4 type  1   force =     0.00000000    0.00000051   -0.00007803
     atom    5 type  1   force =     0.00000000    0.00000000    0.00008283
     atom    6 type  1   force =     0.00000531    0.00000531    0.00009017
     atom    7 type  1   force =     0.00000753    0.00000000    0.00049406
     atom    8 type  1   force =     0.00000000    0.00000753    0.00049406
     atom    9 type  1   force =     0.00000000    0.00000000   -0.00050250
     atom   10 type  1   force =     0.00000274   -0.00000274   -0.00050337
     atom   11 type  1   force =    -0.00000046    0.00000000   -0.00007933
     atom   12 type  1   force =     0.00000000   -0.00000051   -0.00007803
     atom   13 type  1   force =     0.00000000    0.00000000    0.00008901
     atom   14 type  1   force =     0.00000531   -0.00000531    0.00009017
     atom   15 type  1   force =     0.00000637    0.00000000    0.00049039
     atom   16 type  1   force =     0.00000000   -0.00000753    0.00049406
     atom   17 type  1   force =     0.00000000    0.00000000   -0.00050250
     atom   18 type  1   force =    -0.00000274    0.00000274   -0.00050337
     atom   19 type  1   force =    -0.00000051    0.00000000   -0.00007803
     atom   20 type  1   force =     0.00000000   -0.00000046   -0.00007933
     atom   21 type  1   force =     0.00000000    0.00000000    0.00008901
     atom   22 type  1   force =    -0.00000531    0.00000531    0.00009017
     atom   23 type  1   force =    -0.00000753    0.00000000    0.00049406
     atom   24 type  1   force =     0.00000000    0.00000637    0.00049039
     atom   25 type  1   force =     0.00000000    0.00000000   -0.00050869
     atom   26 type  1   force =    -0.00000274   -0.00000274   -0.00050337
     atom   27 type  1   force =     0.00000046    0.00000000   -0.00007933
     atom   28 type  1   force =     0.00000000    0.00000046   -0.00007933
     atom   29 type  1   force =     0.00000000    0.00000000    0.00009570
     atom   30 type  1   force =    -0.00000531   -0.00000531    0.00009017
     atom   31 type  1   force =    -0.00000637    0.00000000    0.00049039
     atom   32 type  1   force =     0.00000000   -0.00000637    0.00049039

     Total force =     0.002020     Total SCF correction =     0.000421
     SCF correction compared to forces is large: reduce conv_thr to get better values

     Computing stress (Cartesian axis) and pressure

          total   stress  (Ry/bohr**3)                   (kbar)     P=      -29.04
  -0.00026194   0.00000000   0.00000000          -38.53        0.00        0.00
   0.00000000  -0.00026194   0.00000000            0.00      -38.53        0.00
   0.00000000   0.00000000  -0.00006841            0.00        0.00      -10.06

     Energy error            =      8.0E-05
     Gradient error          =      5.1E-04

     bfgs converged in   9 scf cycles and   8 bfgs steps
     (criteria: energy <  1.0E-04 Ry, force <  1.0E-03 Ry/Bohr)

     End of BFGS Geometry Optimization

     Final energy   =  -16384.0527738383 Ry

     File /scratch/igVvMXATfaBuDAmH.bfgs deleted, as requested
Begin final coordinates

ATOMIC_POSITIONS (crystal)
Pd            0.0000000000        0.0000000000        0.0000034498
Pd            0.2499994123        0.2499994123        0.0000037540
Pd            0.2500001479       -0.0000000000        0.1551817872
Pd           -0.0000000000        0.2500001479        0.1551817872
Pd            0.0000000000        0.0000000000        0.6879551115
Pd            0.2499973024        0.2499973024        0.6879540590
Pd            0.2499980109        0.0000000000        0.8431347141
Pd            0.0000000000        0.2499980109        0.8431347141
Pd            0.0000000000        0.5000000000        0.0000034676
Pd            0.2499994123        0.7500005877        0.0000037540
Pd            0.2500003648        0.5000000000        0.1551818983
Pd            0.0000000000        0.7499998521        0.1551817872
Pd            0.0000000000        0.5000000000        0.6879547643
Pd            0.2499973024        0.7500026976        0.6879540590
Pd            0.2499984660        0.5000000000        0.8431346062
Pd            0.0000000000        0.7500019891        0.8431347141
Pd            0.5000000000        0.0000000000        0.0000034676
Pd            0.7500005877        0.2499994123        0.0000037540
Pd            0.7499998521       -0.0000000000        0.1551817872
Pd            0.5000000000        0.2500003648        0.1551818983
Pd            0.5000000000        0.0000000000        0.6879547643
Pd            0.7500026976        0.2499973024        0.6879540590
Pd            0.7500019891        0.0000000000        0.8431347141
Pd            0.5000000000        0.2499984660        0.8431346062
Pd            0.5000000000        0.5000000000        0.0000041058
Pd            0.7500005877        0.7500005877        0.0000037540
Pd            0.7499996352        0.5000000000        0.1551818983
Pd            0.5000000000        0.7499996352        0.1551818983
Pd            0.5000000000        0.5000000000        0.6879536721
Pd            0.7500026976        0.7500026976        0.6879540590
Pd            0.7500015340        0.5000000000        0.8431346062
Pd            0.5000000000        0.7500015340        0.8431346062
End final coordinates

     Writing output data file /scratch/igVvMXATfaBuDAmH.save/

     General routines

     Parallel routines

   This run was terminated on:  19:32:50   7Jan2022

   JOB DONE.