     Program PWSCF v.6.7MaX starts on  8Jan2022 at 16:52:51

     R & G space division:  proc/nbgrp/npool/nimage =      72
     Reading input from relax_24.in
Warning: card &CELL ignored
Warning: card CELL_DYNAMICS = 'BFGS', ignored
Warning: card CELL_FACTOR = 2.0, ignored
Warning: card PRESS = 0.0, ignored
Warning: card / ignored

     Current dimensions of program PWSCF are:
     Max number of different atomic species (ntypx) = 10
     Max number of k-points (npk) =  40000
     Max angular momentum in pseudopotentials (lmaxx) =  3
     file Pd.pbe-spn-kjpaw_psl.1.0.0.UPF: wavefunction(s)  4S 5S 4D renormalized

     Subspace diagonalization in iterative solution of the eigenvalue problem:
     one sub-group per band group will be used

     Found symmetry operation: I + (  0.2500  0.2500  0.0000)
     This is a supercell, fractional translations are disabled
     Message from routine setup:
     using ibrav=0 with symmetry is DISCOURAGED, use correct ibrav instead

     bravais-lattice index     =            0
     lattice parameter (alat)  =      14.8394  a.u.
     unit-cell volume          =    5616.4706 (a.u.)^3
     number of atoms/cell      =           32
     number of atomic types    =            1
     number of electrons       =       576.00
     number of Kohn-Sham states=          346
     kinetic-energy cutoff     =      71.0000  Ry
     charge density cutoff     =     430.0000  Ry
     scf convergence threshold =      1.0E-06
     mixing beta               =       0.1000
     number of iterations used =           10  TF        mixing
     energy convergence thresh.=      1.0E-04
     force convergence thresh. =      1.0E-03
     Exchange-correlation= SLA  PW   PBX  PBC
                           (   1   4   3   4   0   0   0)
     nstep                     =           40

     celldm(1)=  14.839420  celldm(2)=   0.000000  celldm(3)=   0.000000
     celldm(4)=   0.000000  celldm(5)=   0.000000  celldm(6)=   0.000000

     crystal axes: (cart. coord. in units of alat)
               a(1) = (   1.000000   0.000000   0.000000 )
               a(2) = (   0.000000   1.000000   0.000000 )
               a(3) = (   0.000000   0.000000   1.718750 )

     reciprocal axes: (cart. coord. in units 2 pi/alat)
               b(1) = (  1.000000  0.000000  0.000000 )
               b(2) = (  0.000000  1.000000  0.000000 )
               b(3) = (  0.000000  0.000000  0.581818 )

     PseudoPot. # 1 for Pd read from file:
     /rds/homes/b/bxp912/pp/Pd.pbe-spn-kjpaw_psl.1.0.0.UPF
     MD5 check sum: 790f2ebce206edfd9790dcb9844eca51
     Pseudo is Projector augmented-wave + core cor, Zval = 18.0
     Generated using &quot;atomic&quot; code by A. Dal Corso  v.6.3
     Shape of augmentation charge: PSQ
     Using radial grid of 1235 points,  6 beta functions with:
                l(1) =   0
                l(2) =   0
                l(3) =   1
                l(4) =   1
                l(5) =   2
                l(6) =   2
     Q(r) pseudized with 0 coefficients

     atomic species   valence    mass     pseudopotential
        Pd            18.00   106.42000     Pd( 1.00)

      8 Sym. Ops. (no inversion) found

   Cartesian axes

     site n.     atom                  positions (alat units)
         1           Pd  tau(   1) = (   0.0000000   0.0000000   0.0000000  )
         2           Pd  tau(   2) = (   0.2500000   0.2500000   0.0000000  )
         3           Pd  tau(   3) = (   0.2500000   0.0000000   0.2500000  )
         4           Pd  tau(   4) = (   0.0000000   0.2500000   0.2500000  )
         5           Pd  tau(   5) = (   0.0000000   0.0000000   1.2187500  )
         6           Pd  tau(   6) = (   0.2500000   0.2500000   1.2187500  )
         7           Pd  tau(   7) = (   0.2500000   0.0000000   1.4687500  )
         8           Pd  tau(   8) = (   0.0000000   0.2500000   1.4687500  )
         9           Pd  tau(   9) = (   0.0000000   0.5000000   0.0000000  )
        10           Pd  tau(  10) = (   0.2500000   0.7500000   0.0000000  )
        11           Pd  tau(  11) = (   0.2500000   0.5000000   0.2500000  )
        12           Pd  tau(  12) = (   0.0000000   0.7500000   0.2500000  )
        13           Pd  tau(  13) = (   0.0000000   0.5000000   1.2187500  )
        14           Pd  tau(  14) = (   0.2500000   0.7500000   1.2187500  )
        15           Pd  tau(  15) = (   0.2500000   0.5000000   1.4687500  )
        16           Pd  tau(  16) = (   0.0000000   0.7500000   1.4687500  )
        17           Pd  tau(  17) = (   0.5000000   0.0000000   0.0000000  )
        18           Pd  tau(  18) = (   0.7500000   0.2500000   0.0000000  )
        19           Pd  tau(  19) = (   0.7500000   0.0000000   0.2500000  )
        20           Pd  tau(  20) = (   0.5000000   0.2500000   0.2500000  )
        21           Pd  tau(  21) = (   0.5000000   0.0000000   1.2187500  )
        22           Pd  tau(  22) = (   0.7500000   0.2500000   1.2187500  )
        23           Pd  tau(  23) = (   0.7500000   0.0000000   1.4687500  )
        24           Pd  tau(  24) = (   0.5000000   0.2500000   1.4687500  )
        25           Pd  tau(  25) = (   0.5000000   0.5000000   0.0000000  )
        26           Pd  tau(  26) = (   0.7500000   0.7500000   0.0000000  )
        27           Pd  tau(  27) = (   0.7500000   0.5000000   0.2500000  )
        28           Pd  tau(  28) = (   0.5000000   0.7500000   0.2500000  )
        29           Pd  tau(  29) = (   0.5000000   0.5000000   1.2187500  )
        30           Pd  tau(  30) = (   0.7500000   0.7500000   1.2187500  )
        31           Pd  tau(  31) = (   0.7500000   0.5000000   1.4687500  )
        32           Pd  tau(  32) = (   0.5000000   0.7500000   1.4687500  )

     number of k points=    75  Marzari-Vanderbilt smearing, width (Ry)=  0.0400
                       cart. coord. in units 2pi/alat
        k(    1) = (   0.0555556   0.0555556   0.0323232), wk =   0.0219479
        k(    2) = (   0.0555556   0.0555556   0.0969697), wk =   0.0219479
        k(    3) = (   0.0555556   0.0555556   0.1616162), wk =   0.0219479
        k(    4) = (   0.0555556   0.0555556   0.2262626), wk =   0.0219479
        k(    5) = (   0.0555556   0.0555556  -0.2909091), wk =   0.0109739
        k(    6) = (   0.0555556   0.1666667   0.0323232), wk =   0.0438957
        k(    7) = (   0.0555556   0.1666667   0.0969697), wk =   0.0438957
        k(    8) = (   0.0555556   0.1666667   0.1616162), wk =   0.0438957
        k(    9) = (   0.0555556   0.1666667   0.2262626), wk =   0.0438957
        k(   10) = (   0.0555556   0.1666667  -0.2909091), wk =   0.0219479
        k(   11) = (   0.0555556   0.2777778   0.0323232), wk =   0.0438957
        k(   12) = (   0.0555556   0.2777778   0.0969697), wk =   0.0438957
        k(   13) = (   0.0555556   0.2777778   0.1616162), wk =   0.0438957
        k(   14) = (   0.0555556   0.2777778   0.2262626), wk =   0.0438957
        k(   15) = (   0.0555556   0.2777778  -0.2909091), wk =   0.0219479
        k(   16) = (   0.0555556   0.3888889   0.0323232), wk =   0.0438957
        k(   17) = (   0.0555556   0.3888889   0.0969697), wk =   0.0438957
        k(   18) = (   0.0555556   0.3888889   0.1616162), wk =   0.0438957
        k(   19) = (   0.0555556   0.3888889   0.2262626), wk =   0.0438957
        k(   20) = (   0.0555556   0.3888889  -0.2909091), wk =   0.0219479
        k(   21) = (   0.0555556  -0.5000000   0.0323232), wk =   0.0219479
        k(   22) = (   0.0555556  -0.5000000   0.0969697), wk =   0.0219479
        k(   23) = (   0.0555556  -0.5000000   0.1616162), wk =   0.0219479
        k(   24) = (   0.0555556  -0.5000000   0.2262626), wk =   0.0219479
        k(   25) = (   0.0555556  -0.5000000  -0.2909091), wk =   0.0109739
        k(   26) = (   0.1666667   0.1666667   0.0323232), wk =   0.0219479
        k(   27) = (   0.1666667   0.1666667   0.0969697), wk =   0.0219479
        k(   28) = (   0.1666667   0.1666667   0.1616162), wk =   0.0219479
        k(   29) = (   0.1666667   0.1666667   0.2262626), wk =   0.0219479
        k(   30) = (   0.1666667   0.1666667  -0.2909091), wk =   0.0109739
        k(   31) = (   0.1666667   0.2777778   0.0323232), wk =   0.0438957
        k(   32) = (   0.1666667   0.2777778   0.0969697), wk =   0.0438957
        k(   33) = (   0.1666667   0.2777778   0.1616162), wk =   0.0438957
        k(   34) = (   0.1666667   0.2777778   0.2262626), wk =   0.0438957
        k(   35) = (   0.1666667   0.2777778  -0.2909091), wk =   0.0219479
        k(   36) = (   0.1666667   0.3888889   0.0323232), wk =   0.0438957
        k(   37) = (   0.1666667   0.3888889   0.0969697), wk =   0.0438957
        k(   38) = (   0.1666667   0.3888889   0.1616162), wk =   0.0438957
        k(   39) = (   0.1666667   0.3888889   0.2262626), wk =   0.0438957
        k(   40) = (   0.1666667   0.3888889  -0.2909091), wk =   0.0219479
        k(   41) = (   0.1666667  -0.5000000   0.0323232), wk =   0.0219479
        k(   42) = (   0.1666667  -0.5000000   0.0969697), wk =   0.0219479
        k(   43) = (   0.1666667  -0.5000000   0.1616162), wk =   0.0219479
        k(   44) = (   0.1666667  -0.5000000   0.2262626), wk =   0.0219479
        k(   45) = (   0.1666667  -0.5000000  -0.2909091), wk =   0.0109739
        k(   46) = (   0.2777778   0.2777778   0.0323232), wk =   0.0219479
        k(   47) = (   0.2777778   0.2777778   0.0969697), wk =   0.0219479
        k(   48) = (   0.2777778   0.2777778   0.1616162), wk =   0.0219479
        k(   49) = (   0.2777778   0.2777778   0.2262626), wk =   0.0219479
        k(   50) = (   0.2777778   0.2777778  -0.2909091), wk =   0.0109739
        k(   51) = (   0.2777778   0.3888889   0.0323232), wk =   0.0438957
        k(   52) = (   0.2777778   0.3888889   0.0969697), wk =   0.0438957
        k(   53) = (   0.2777778   0.3888889   0.1616162), wk =   0.0438957
        k(   54) = (   0.2777778   0.3888889   0.2262626), wk =   0.0438957
        k(   55) = (   0.2777778   0.3888889  -0.2909091), wk =   0.0219479
        k(   56) = (   0.2777778  -0.5000000   0.0323232), wk =   0.0219479
        k(   57) = (   0.2777778  -0.5000000   0.0969697), wk =   0.0219479
        k(   58) = (   0.2777778  -0.5000000   0.1616162), wk =   0.0219479
        k(   59) = (   0.2777778  -0.5000000   0.2262626), wk =   0.0219479
        k(   60) = (   0.2777778  -0.5000000  -0.2909091), wk =   0.0109739
        k(   61) = (   0.3888889   0.3888889   0.0323232), wk =   0.0219479
        k(   62) = (   0.3888889   0.3888889   0.0969697), wk =   0.0219479
        k(   63) = (   0.3888889   0.3888889   0.1616162), wk =   0.0219479
        k(   64) = (   0.3888889   0.3888889   0.2262626), wk =   0.0219479
        k(   65) = (   0.3888889   0.3888889  -0.2909091), wk =   0.0109739
        k(   66) = (   0.3888889  -0.5000000   0.0323232), wk =   0.0219479
        k(   67) = (   0.3888889  -0.5000000   0.0969697), wk =   0.0219479
        k(   68) = (   0.3888889  -0.5000000   0.1616162), wk =   0.0219479
        k(   69) = (   0.3888889  -0.5000000   0.2262626), wk =   0.0219479
        k(   70) = (   0.3888889  -0.5000000  -0.2909091), wk =   0.0109739
[...]
     atom   32 type  1   force =     0.00000000   -0.00000813   -0.00317588

     Total force =     0.020409     Total SCF correction =     0.001247

     Computing stress (Cartesian axis) and pressure

          total   stress  (Ry/bohr**3)                   (kbar)     P=      -32.70
  -0.00027806   0.00000000   0.00000000          -40.90        0.00        0.00
   0.00000000  -0.00027806   0.00000000            0.00      -40.90        0.00
   0.00000000   0.00000000  -0.00011069            0.00        0.00      -16.28

     BFGS Geometry Optimization
     Energy error            =      0.0E+00
     Gradient error          =      4.0E-03

     number of scf cycles    =   1
     number of bfgs steps    =   0

     energy   new            =  -16384.0508228265 Ry

     new trust radius        =       0.0039993438 bohr
     new conv_thr            =       0.0000010000 Ry

ATOMIC_POSITIONS (crystal)
Pd            0.0000000000        0.0000000000        0.0001248710
Pd            0.2499998538        0.2499998538        0.0001248765
Pd            0.2499991925        0.0000000000        0.1452983570
Pd            0.0000000000        0.2499991925        0.1452983570
Pd            0.0000000000        0.0000000000        0.7092468436
Pd            0.2499997240        0.2499997240        0.7092469298
Pd            0.2500006579        0.0000000000        0.8544203816
Pd            0.0000000000        0.2500006579        0.8544203816
Pd            0.0000000000        0.5000000000        0.0001250685
Pd            0.2499998538        0.7500001462        0.0001248765
Pd            0.2500002532        0.5000000000        0.1452980142
Pd            0.0000000000        0.7500008075        0.1452983570
Pd            0.0000000000        0.5000000000        0.7092476192
Pd            0.2499997240        0.7500002760        0.7092469298
Pd            0.2500005481        0.5000000000        0.8544209360
Pd            0.0000000000        0.7499993421        0.8544203816
Pd            0.5000000000        0.0000000000        0.0001250685
Pd            0.7500001462        0.2499998538        0.0001248765
Pd            0.7500008075        0.0000000000        0.1452983570
Pd            0.5000000000        0.2500002532        0.1452980142
Pd            0.5000000000        0.0000000000        0.7092476192
Pd            0.7500002760        0.2499997240        0.7092469298
Pd            0.7499993421        0.0000000000        0.8544203816
Pd            0.5000000000        0.2500005481        0.8544209360
Pd            0.5000000000        0.5000000000        0.0001244884
Pd            0.7500001462        0.7500001462        0.0001248765
Pd            0.7499997468        0.5000000000        0.1452980142
Pd            0.5000000000        0.7499997468        0.1452980142
Pd            0.5000000000        0.5000000000        0.7092477138
Pd            0.7500002760        0.7500002760        0.7092469298
Pd            0.7499994519        0.5000000000        0.8544209360
Pd            0.5000000000        0.7499994519        0.8544209360

     Writing output data file /scratch/cbxsqBEZCxdpLURe.save/
     NEW-OLD atomic charge density approx. for the potential

[...]

     Total force =     0.014925     Total SCF correction =     0.003203
     SCF correction compared to forces is large: reduce conv_thr to get better values

[...]

     Energy error            =      3.8E-04
     Gradient error          =      3.5E-03

[...]

     energy   old            =  -16384.0508228265 Ry
     energy   new            =  -16384.0512021759 Ry

     CASE: energy  _new < energy  _old

[...]

     Total force =     0.007643     Total SCF correction =     0.000235

[...]

     number of scf cycles    =   8
     number of bfgs steps    =   7

     energy   old            =  -16384.0520838358 Ry
     energy   new            =  -16384.0521996916 Ry

     CASE: energy  _new < energy  _old

     new trust radius        =       0.0034266849 bohr
     new conv_thr            =       0.0000000106 Ry

ATOMIC_POSITIONS (crystal)
Pd            0.0000000000        0.0000000000       -0.0000959166
Pd            0.2499993844        0.2499993844       -0.0000957643
Pd            0.2499976802        0.0000000000        0.1437092118
Pd            0.0000000000        0.2499976802        0.1437092118
Pd            0.0000000000        0.0000000000        0.7108377945
Pd            0.2500013038        0.2500013038        0.7108384737
Pd            0.2500012392        0.0000000000        0.8546389338
Pd            0.0000000000        0.2500012392        0.8546389338
Pd            0.0000000000        0.5000000000       -0.0000946998
Pd            0.2499993844        0.7500006156       -0.0000957643
Pd            0.2499999325        0.5000000000        0.1437079986
Pd            0.0000000000        0.7500023198        0.1437092118
Pd            0.0000000000        0.5000000000        0.7108389951
Pd            0.2500013038        0.7499986962        0.7108384737
Pd            0.2500012457        0.5000000000        0.8546396212
Pd            0.0000000000        0.7499987608        0.8546389338
Pd            0.5000000000        0.0000000000       -0.0000946998
Pd            0.7500006156        0.2499993844       -0.0000957643
Pd            0.7500023198        0.0000000000        0.1437092118
Pd            0.5000000000        0.2499999325        0.1437079986
Pd            0.5000000000        0.0000000000        0.7108389951
Pd            0.7499986962        0.2500013038        0.7108384737
Pd            0.7499987608        0.0000000000        0.8546389338
Pd            0.5000000000        0.2500012457        0.8546396212
Pd            0.5000000000        0.5000000000       -0.0000960779
Pd            0.7500006156        0.7500006156       -0.0000957643
Pd            0.7500000675        0.5000000000        0.1437079986
Pd            0.5000000000        0.7500000675        0.1437079986
Pd            0.5000000000        0.5000000000        0.7108389829
Pd            0.7499986962        0.7499986962        0.7108384737
Pd            0.7499987543        0.5000000000        0.8546396212
Pd            0.5000000000        0.7499987543        0.8546396212

     Writing output data file /scratch/cbxsqBEZCxdpLURe.save/
     NEW-OLD atomic charge density approx. for the potential

     Check: negative core charge=   -0.000001

     Self-consistent Calculation

[...]

     Threshold (ethr) on eigenvalues was too large:
     Diagonalizing with lowered threshold

     Davidson diagonalization with overlap
     ethr =  6.19E-09,  avg # of iterations =  3.0

[...]

     total energy              =  -16384.05223082 Ry
     estimated scf accuracy    <       0.00000002 Ry

     iteration # 10     ecut=    71.00 Ry     beta= 0.10
     Davidson diagonalization with overlap
     ethr =  3.25E-12,  avg # of iterations =  1.8

     End of self-consistent calculation

[...]

          k = 0.3889-0.5000-0.2909 ( 56748 PWs)   bands (ev):

[...]

          k =-0.5000-0.5000-0.2909 ( 56688 PWs)   bands (ev):

   -75.0865 -75.0865 -75.0865 -75.0865 -75.0635 -75.0635 -75.0635 -75.0635
   -75.0587 -75.0587 -75.0587 -75.0587 -75.0587 -75.0587 -75.0587 -75.0587
   -74.4991 -74.4991 -74.4991 -74.4991 -74.4990 -74.4990 -74.4990 -74.4990
   -74.4831 -74.4831 -74.4831 -74.4831 -74.4831 -74.4830 -74.4830 -74.4830
   -40.9124 -40.9124 -40.9124 -40.9124 -40.9124 -40.9124 -40.9124 -40.9124
   -40.9018 -40.9017 -40.9017 -40.9017 -40.8490 -40.8490 -40.8490 -40.8490
   -40.7890 -40.7890 -40.7890 -40.7890 -40.7889 -40.7889 -40.7889 -40.7889
   -40.7466 -40.7466 -40.7466 -40.7466 -40.7450 -40.7450 -40.7450 -40.7450
   -40.7449 -40.7449 -40.7449 -40.7449 -40.7252 -40.7252 -40.7252 -40.7252
   -40.7028 -40.7028 -40.7028 -40.7028 -40.6527 -40.6527 -40.6527 -40.6527
   -40.3733 -40.3733 -40.3733 -40.3733 -40.3733 -40.3733 -40.3733 -40.3733
   -40.2903 -40.2903 -40.2903 -40.2903 -40.2875 -40.2875 -40.2875 -40.2875
   -40.2758 -40.2758 -40.2758 -40.2758 -40.2757 -40.2757 -40.2757 -40.2757
   -40.1874 -40.1874 -40.1874 -40.1874 -40.1871 -40.1871 -40.1871 -40.1871
   -40.1008 -40.1008 -40.1008 -40.1008 -40.1000 -40.1000 -40.1000 -40.1000
   -40.0888 -40.0888 -40.0888 -40.0888 -40.0887 -40.0887 -40.0887 -40.0887
     3.8159   3.8159   3.8159   3.8159   4.4413   4.4413   4.4413   4.4413
     4.7681   4.7681   4.7681   4.7681   4.7682   4.7682   4.7682   4.7682
     4.8774   4.8774   4.8774   4.8774   4.9393   4.9393   4.9393   4.9393
     4.9393   4.9393   4.9393   4.9393   5.0257   5.0257   5.0257   5.0257
     5.3183   5.3183   5.3183   5.3183   5.6324   5.6324   5.6324   5.6324
     5.6325   5.6325   5.6325   5.6325   5.9416   5.9416   5.9416   5.9416
     5.9416   5.9416   5.9416   5.9416   6.1135   6.1135   6.1135   6.1135
     6.3470   6.3470   6.3470   6.3470   6.6052   6.6052   6.6052   6.6052
     6.7169   6.7169   6.7169   6.7169   6.7249   6.7249   6.7249   6.7249
     6.8065   6.8065   6.8066   6.8066   6.9197   6.9197   6.9197   6.9197
     6.9197   6.9197   6.9197   6.9197   6.9455   6.9455   6.9455   6.9455
     7.2632   7.2632   7.2632   7.2632   7.3942   7.3942   7.3942   7.3942
     7.5181   7.5181   7.5181   7.5181   7.5181   7.5181   7.5181   7.5181
     7.5534   7.5534   7.5534   7.5534   7.5534   7.5534   7.5534   7.5534
     7.5650   7.5650   7.5650   7.5650   7.7877   7.7877   7.7877   7.7878
     8.1347   8.1347   8.1347   8.1347   8.1347   8.1347   8.1347   8.1347
     8.1442   8.1442   8.1442   8.1442   8.2614   8.2614   8.2614   8.2614
     8.3950   8.3950   8.3950   8.3950   8.6049   8.6049   8.6049   8.6049
     8.7350   8.7350   8.7350   8.7350   8.7350   8.7350   8.7350   8.7350
     9.0298   9.0298   9.0298   9.0298   9.0796   9.0796   9.0796   9.0796
     9.0796   9.0796   9.0796   9.0796   9.0981   9.0981   9.0981   9.0981
     9.8943   9.8943   9.8944   9.8944  12.1714  12.1714  12.1715  12.1715
    12.3309  12.3309  12.3309  12.3309  12.3309  12.3309  12.3309  12.3309
    13.4597  13.4597  13.4597  13.4597  13.4597  13.4597  13.4597  13.4597
    14.5837  14.5837  14.5837  14.5837  15.4823  15.4823  15.4823  15.4823
    15.4823  15.4823  15.4823  15.4823  15.6413  15.6413  15.6413  15.6413
    17.6860  17.6861  17.6861  17.6861  17.8285  17.8285  17.8285  17.8285
    17.8285  17.8285

     the Fermi energy is     9.0938 ev

!    total energy              =  -16384.05223083 Ry

     total all-electron energy =   -322944.905938 Ry
     estimated scf accuracy    <          3.6E-09 Ry
     smearing contrib. (-TS)   =       0.11996521 Ry
     internal energy E=F+TS    =  -16384.17219604 Ry

     The total energy is F=E-TS. E is the sum of the following terms:
     one-electron contribution =  -17703.79735879 Ry
     hartree contribution      =    9058.74984288 Ry
     xc contribution           =    -985.50744655 Ry
     ewald contribution        =    1413.71976581 Ry
     one-center paw contrib.   =   -8167.33699939 Ry

     convergence has been achieved in  10 iterations

     Forces acting on atoms (cartesian axes, Ry/au):

     atom    1 type  1   force =     0.00000000    0.00000000   -0.00032511
     atom    2 type  1   force =    -0.00000153   -0.00000153   -0.00031937
     atom    3 type  1   force =     0.00000279    0.00000000    0.00015907
     atom    4 type  1   force =     0.00000000    0.00000279    0.00015907
     atom    5 type  1   force =     0.00000000    0.00000000   -0.00016340
     atom    6 type  1   force =    -0.00000338   -0.00000338   -0.00016949
     atom    7 type  1   force =    -0.00000563    0.00000000    0.00032878
     atom    8 type  1   force =     0.00000000   -0.00000563    0.00032878
     atom    9 type  1   force =     0.00000000    0.00000000   -0.00032263
     atom   10 type  1   force =    -0.00000153    0.00000153   -0.00031937
     atom   11 type  1   force =    -0.00000129    0.00000000    0.00016177
     atom   12 type  1   force =     0.00000000   -0.00000279    0.00015907
     atom   13 type  1   force =     0.00000000    0.00000000   -0.00016938
     atom   14 type  1   force =    -0.00000338    0.00000338   -0.00016949
     atom   15 type  1   force =    -0.00000646    0.00000000    0.00032948
     atom   16 type  1   force =     0.00000000    0.00000563    0.00032878
     atom   17 type  1   force =     0.00000000    0.00000000   -0.00032263
     atom   18 type  1   force =     0.00000153   -0.00000153   -0.00031937
     atom   19 type  1   force =    -0.00000279    0.00000000    0.00015907
     atom   20 type  1   force =     0.00000000   -0.00000129    0.00016177
     atom   21 type  1   force =     0.00000000    0.00000000   -0.00016938
     atom   22 type  1   force =     0.00000338   -0.00000338   -0.00016949
     atom   23 type  1   force =     0.00000563    0.00000000    0.00032878
     atom   24 type  1   force =     0.00000000   -0.00000646    0.00032948
     atom   25 type  1   force =     0.00000000    0.00000000   -0.00031574
     atom   26 type  1   force =     0.00000153    0.00000153   -0.00031937
     atom   27 type  1   force =     0.00000129    0.00000000    0.00016177
     atom   28 type  1   force =     0.00000000    0.00000129    0.00016177
     atom   29 type  1   force =     0.00000000    0.00000000   -0.00017271
     atom   30 type  1   force =     0.00000338    0.00000338   -0.00016949
     atom   31 type  1   force =     0.00000646    0.00000000    0.00032948
     atom   32 type  1   force =     0.00000000    0.00000646    0.00032948

     Total force =     0.001457     Total SCF correction =     0.000299
     SCF correction compared to forces is large: reduce conv_thr to get better values

     Computing stress (Cartesian axis) and pressure

          total   stress  (Ry/bohr**3)                   (kbar)     P=      -26.24
  -0.00023905   0.00000000   0.00000000          -35.16        0.00        0.00
   0.00000000  -0.00023905   0.00000000            0.00      -35.16        0.00
   0.00000000   0.00000000  -0.00005707            0.00        0.00       -8.40

     Energy error            =      3.1E-05
     Gradient error          =      3.3E-04

     bfgs converged in   9 scf cycles and   8 bfgs steps
     (criteria: energy <  1.0E-04 Ry, force <  1.0E-03 Ry/Bohr)

     End of BFGS Geometry Optimization

     Final energy   =  -16384.0522308314 Ry

     File /scratch/cbxsqBEZCxdpLURe.bfgs deleted, as requested
Begin final coordinates

ATOMIC_POSITIONS (crystal)
Pd            0.0000000000        0.0000000000       -0.0000959166
Pd            0.2499993844        0.2499993844       -0.0000957643
Pd            0.2499976802        0.0000000000        0.1437092118
Pd            0.0000000000        0.2499976802        0.1437092118
Pd            0.0000000000        0.0000000000        0.7108377945
Pd            0.2500013038        0.2500013038        0.7108384737
Pd            0.2500012392        0.0000000000        0.8546389338
Pd            0.0000000000        0.2500012392        0.8546389338
Pd            0.0000000000        0.5000000000       -0.0000946998
Pd            0.2499993844        0.7500006156       -0.0000957643
Pd            0.2499999325        0.5000000000        0.1437079986
Pd            0.0000000000        0.7500023198        0.1437092118
Pd            0.0000000000        0.5000000000        0.7108389951
Pd            0.2500013038        0.7499986962        0.7108384737
Pd            0.2500012457        0.5000000000        0.8546396212
Pd            0.0000000000        0.7499987608        0.8546389338
Pd            0.5000000000        0.0000000000       -0.0000946998
Pd            0.7500006156        0.2499993844       -0.0000957643
Pd            0.7500023198        0.0000000000        0.1437092118
Pd            0.5000000000        0.2499999325        0.1437079986
Pd            0.5000000000        0.0000000000        0.7108389951
Pd            0.7499986962        0.2500013038        0.7108384737
Pd            0.7499987608        0.0000000000        0.8546389338
Pd            0.5000000000        0.2500012457        0.8546396212
Pd            0.5000000000        0.5000000000       -0.0000960779
Pd            0.7500006156        0.7500006156       -0.0000957643
Pd            0.7500000675        0.5000000000        0.1437079986
Pd            0.5000000000        0.7500000675        0.1437079986
Pd            0.5000000000        0.5000000000        0.7108389829
Pd            0.7499986962        0.7499986962        0.7108384737
Pd            0.7499987543        0.5000000000        0.8546396212
Pd            0.5000000000        0.7499987543        0.8546396212
End final coordinates

     Writing output data file /scratch/cbxsqBEZCxdpLURe.save/

     General routines

     Parallel routines

   This run was terminated on:  20:40:57   8Jan2022

   JOB DONE.