     Program PWSCF v.6.7MaX starts on  7Jan2022 at  6:30:58

     R & G space division:  proc/nbgrp/npool/nimage =      72
     Reading input from relax_17.in
Warning: card &CELL ignored
Warning: card CELL_DYNAMICS = 'BFGS', ignored
Warning: card CELL_FACTOR = 2.0, ignored
Warning: card PRESS = 0.0, ignored
Warning: card / ignored

     Current dimensions of program PWSCF are:
     Max number of different atomic species (ntypx) = 10
     Max number of k-points (npk) =  40000
     Max angular momentum in pseudopotentials (lmaxx) =  3
     file Pd.pbe-spn-kjpaw_psl.1.0.0.UPF: wavefunction(s)  4S 5S 4D renormalized

     Subspace diagonalization in iterative solution of the eigenvalue problem:
     one sub-group per band group will be used

     Found symmetry operation: I + (  0.2500  0.2500  0.0000)
     This is a supercell, fractional translations are disabled
     Message from routine setup:
     using ibrav=0 with symmetry is DISCOURAGED, use correct ibrav instead

     bravais-lattice index     =            0
     lattice parameter (alat)  =      14.8394  a.u.
     unit-cell volume          =    4901.6471 (a.u.)^3
     number of atoms/cell      =           32
     number of atomic types    =            1
     number of electrons       =       576.00
     number of Kohn-Sham states=          346
     kinetic-energy cutoff     =      71.0000  Ry
     charge density cutoff     =     430.0000  Ry
     scf convergence threshold =      1.0E-06
     mixing beta               =       0.1000
     number of iterations used =           10  TF        mixing
     energy convergence thresh.=      1.0E-04
     force convergence thresh. =      1.0E-03
     Exchange-correlation= SLA  PW   PBX  PBC
                           (   1   4   3   4   0   0   0)
     nstep                     =           40

     celldm(1)=  14.839420  celldm(2)=   0.000000  celldm(3)=   0.000000
     celldm(4)=   0.000000  celldm(5)=   0.000000  celldm(6)=   0.000000

     crystal axes: (cart. coord. in units of alat)
               a(1) = (   1.000000   0.000000   0.000000 )
               a(2) = (   0.000000   1.000000   0.000000 )
               a(3) = (   0.000000   0.000000   1.500000 )

     reciprocal axes: (cart. coord. in units 2 pi/alat)
               b(1) = (  1.000000  0.000000  0.000000 )
               b(2) = (  0.000000  1.000000  0.000000 )
               b(3) = (  0.000000  0.000000  0.666667 )

     PseudoPot. # 1 for Pd read from file:
     /rds/homes/b/bxp912/pp/Pd.pbe-spn-kjpaw_psl.1.0.0.UPF
     MD5 check sum: 790f2ebce206edfd9790dcb9844eca51
     Pseudo is Projector augmented-wave + core cor, Zval = 18.0
     Generated using &quot;atomic&quot; code by A. Dal Corso  v.6.3
     Shape of augmentation charge: PSQ
     Using radial grid of 1235 points,  6 beta functions with:
                l(1) =   0
                l(2) =   0
                l(3) =   1
                l(4) =   1
                l(5) =   2
                l(6) =   2
     Q(r) pseudized with 0 coefficients

     atomic species   valence    mass     pseudopotential
        Pd            18.00   106.42000     Pd( 1.00)

      8 Sym. Ops. (no inversion) found

   Cartesian axes

     site n.     atom                  positions (alat units)
         1           Pd  tau(   1) = (   0.0000000   0.0000000   0.0000000  )
         2           Pd  tau(   2) = (   0.2500000   0.2500000   0.0000000  )
         3           Pd  tau(   3) = (   0.2500000   0.0000000   0.2500000  )
         4           Pd  tau(   4) = (   0.0000000   0.2500000   0.2500000  )
         5           Pd  tau(   5) = (   0.0000000   0.0000000   1.0000000  )
         6           Pd  tau(   6) = (   0.2500000   0.2500000   1.0000000  )
         7           Pd  tau(   7) = (   0.2500000   0.0000000   1.2500000  )
         8           Pd  tau(   8) = (   0.0000000   0.2500000   1.2500000  )
         9           Pd  tau(   9) = (   0.0000000   0.5000000   0.0000000  )
        10           Pd  tau(  10) = (   0.2500000   0.7500000   0.0000000  )
        11           Pd  tau(  11) = (   0.2500000   0.5000000   0.2500000  )
        12           Pd  tau(  12) = (   0.0000000   0.7500000   0.2500000  )
        13           Pd  tau(  13) = (   0.0000000   0.5000000   1.0000000  )
        14           Pd  tau(  14) = (   0.2500000   0.7500000   1.0000000  )
        15           Pd  tau(  15) = (   0.2500000   0.5000000   1.2500000  )
        16           Pd  tau(  16) = (   0.0000000   0.7500000   1.2500000  )
        17           Pd  tau(  17) = (   0.5000000   0.0000000   0.0000000  )
        18           Pd  tau(  18) = (   0.7500000   0.2500000   0.0000000  )
        19           Pd  tau(  19) = (   0.7500000   0.0000000   0.2500000  )
        20           Pd  tau(  20) = (   0.5000000   0.2500000   0.2500000  )
        21           Pd  tau(  21) = (   0.5000000   0.0000000   1.0000000  )
        22           Pd  tau(  22) = (   0.7500000   0.2500000   1.0000000  )
        23           Pd  tau(  23) = (   0.7500000   0.0000000   1.2500000  )
        24           Pd  tau(  24) = (   0.5000000   0.2500000   1.2500000  )
        25           Pd  tau(  25) = (   0.5000000   0.5000000   0.0000000  )
        26           Pd  tau(  26) = (   0.7500000   0.7500000   0.0000000  )
        27           Pd  tau(  27) = (   0.7500000   0.5000000   0.2500000  )
        28           Pd  tau(  28) = (   0.5000000   0.7500000   0.2500000  )
        29           Pd  tau(  29) = (   0.5000000   0.5000000   1.0000000  )
        30           Pd  tau(  30) = (   0.7500000   0.7500000   1.0000000  )
        31           Pd  tau(  31) = (   0.7500000   0.5000000   1.2500000  )
        32           Pd  tau(  32) = (   0.5000000   0.7500000   1.2500000  )

     number of k points=    75  Marzari-Vanderbilt smearing, width (Ry)=  0.0400
                       cart. coord. in units 2pi/alat
        k(    1) = (   0.0555556   0.0555556   0.0370370), wk =   0.0219479
        k(    2) = (   0.0555556   0.0555556   0.1111111), wk =   0.0219479
        k(    3) = (   0.0555556   0.0555556   0.1851852), wk =   0.0219479
        k(    4) = (   0.0555556   0.0555556   0.2592593), wk =   0.0219479
        k(    5) = (   0.0555556   0.0555556  -0.3333333), wk =   0.0109739
        k(    6) = (   0.0555556   0.1666667   0.0370370), wk =   0.0438957
        k(    7) = (   0.0555556   0.1666667   0.1111111), wk =   0.0438957
        k(    8) = (   0.0555556   0.1666667   0.1851852), wk =   0.0438957
        k(    9) = (   0.0555556   0.1666667   0.2592593), wk =   0.0438957
        k(   10) = (   0.0555556   0.1666667  -0.3333333), wk =   0.0219479
        k(   11) = (   0.0555556   0.2777778   0.0370370), wk =   0.0438957
        k(   12) = (   0.0555556   0.2777778   0.1111111), wk =   0.0438957
        k(   13) = (   0.0555556   0.2777778   0.1851852), wk =   0.0438957
        k(   14) = (   0.0555556   0.2777778   0.2592593), wk =   0.0438957
        k(   15) = (   0.0555556   0.2777778  -0.3333333), wk =   0.0219479
        k(   16) = (   0.0555556   0.3888889   0.0370370), wk =   0.0438957
        k(   17) = (   0.0555556   0.3888889   0.1111111), wk =   0.0438957
        k(   18) = (   0.0555556   0.3888889   0.1851852), wk =   0.0438957
        k(   19) = (   0.0555556   0.3888889   0.2592593), wk =   0.0438957
        k(   20) = (   0.0555556   0.3888889  -0.3333333), wk =   0.0219479
        k(   21) = (   0.0555556  -0.5000000   0.0370370), wk =   0.0219479
        k(   22) = (   0.0555556  -0.5000000   0.1111111), wk =   0.0219479
        k(   23) = (   0.0555556  -0.5000000   0.1851852), wk =   0.0219479
        k(   24) = (   0.0555556  -0.5000000   0.2592593), wk =   0.0219479
        k(   25) = (   0.0555556  -0.5000000  -0.3333333), wk =   0.0109739
        k(   26) = (   0.1666667   0.1666667   0.0370370), wk =   0.0219479
        k(   27) = (   0.1666667   0.1666667   0.1111111), wk =   0.0219479
        k(   28) = (   0.1666667   0.1666667   0.1851852), wk =   0.0219479
        k(   29) = (   0.1666667   0.1666667   0.2592593), wk =   0.0219479
        k(   30) = (   0.1666667   0.1666667  -0.3333333), wk =   0.0109739
        k(   31) = (   0.1666667   0.2777778   0.0370370), wk =   0.0438957
        k(   32) = (   0.1666667   0.2777778   0.1111111), wk =   0.0438957
        k(   33) = (   0.1666667   0.2777778   0.1851852), wk =   0.0438957
        k(   34) = (   0.1666667   0.2777778   0.2592593), wk =   0.0438957
        k(   35) = (   0.1666667   0.2777778  -0.3333333), wk =   0.0219479
        k(   36) = (   0.1666667   0.3888889   0.0370370), wk =   0.0438957
        k(   37) = (   0.1666667   0.3888889   0.1111111), wk =   0.0438957
        k(   38) = (   0.1666667   0.3888889   0.1851852), wk =   0.0438957
        k(   39) = (   0.1666667   0.3888889   0.2592593), wk =   0.0438957
        k(   40) = (   0.1666667   0.3888889  -0.3333333), wk =   0.0219479
        k(   41) = (   0.1666667  -0.5000000   0.0370370), wk =   0.0219479
        k(   42) = (   0.1666667  -0.5000000   0.1111111), wk =   0.0219479
        k(   43) = (   0.1666667  -0.5000000   0.1851852), wk =   0.0219479
        k(   44) = (   0.1666667  -0.5000000   0.2592593), wk =   0.0219479
        k(   45) = (   0.1666667  -0.5000000  -0.3333333), wk =   0.0109739
        k(   46) = (   0.2777778   0.2777778   0.0370370), wk =   0.0219479
        k(   47) = (   0.2777778   0.2777778   0.1111111), wk =   0.0219479
        k(   48) = (   0.2777778   0.2777778   0.1851852), wk =   0.0219479
        k(   49) = (   0.2777778   0.2777778   0.2592593), wk =   0.0219479
        k(   50) = (   0.2777778   0.2777778  -0.3333333), wk =   0.0109739
        k(   51) = (   0.2777778   0.3888889   0.0370370), wk =   0.0438957
        k(   52) = (   0.2777778   0.3888889   0.1111111), wk =   0.0438957
        k(   53) = (   0.2777778   0.3888889   0.1851852), wk =   0.0438957
        k(   54) = (   0.2777778   0.3888889   0.2592593), wk =   0.0438957
        k(   55) = (   0.2777778   0.3888889  -0.3333333), wk =   0.0219479
        k(   56) = (   0.2777778  -0.5000000   0.0370370), wk =   0.0219479
        k(   57) = (   0.2777778  -0.5000000   0.1111111), wk =   0.0219479
        k(   58) = (   0.2777778  -0.5000000   0.1851852), wk =   0.0219479
        k(   59) = (   0.2777778  -0.5000000   0.2592593), wk =   0.0219479
        k(   60) = (   0.2777778  -0.5000000  -0.3333333), wk =   0.0109739
        k(   61) = (   0.3888889   0.3888889   0.0370370), wk =   0.0219479
        k(   62) = (   0.3888889   0.3888889   0.1111111), wk =   0.0219479
        k(   63) = (   0.3888889   0.3888889   0.1851852), wk =   0.0219479
        k(   64) = (   0.3888889   0.3888889   0.2592593), wk =   0.0219479
        k(   65) = (   0.3888889   0.3888889  -0.3333333), wk =   0.0109739
        k(   66) = (   0.3888889  -0.5000000   0.0370370), wk =   0.0219479
        k(   67) = (   0.3888889  -0.5000000   0.1111111), wk =   0.0219479
        k(   68) = (   0.3888889  -0.5000000   0.1851852), wk =   0.0219479
        k(   69) = (   0.3888889  -0.5000000   0.2592593), wk =   0.0219479
        k(   70) = (   0.3888889  -0.5000000  -0.3333333), wk =   0.0109739
[...]
     atom   32 type  1   force =     0.00000000    0.00001527   -0.00318578

     Total force =     0.021968     Total SCF correction =     0.006633
     SCF correction compared to forces is large: reduce conv_thr to get better values

     Computing stress (Cartesian axis) and pressure

          total   stress  (Ry/bohr**3)                   (kbar)     P=      -37.22
  -0.00031505   0.00000000   0.00000000          -46.35        0.00        0.00
   0.00000000  -0.00031505   0.00000000            0.00      -46.35        0.00
   0.00000000   0.00000000  -0.00012892            0.00        0.00      -18.97

     BFGS Geometry Optimization
     Energy error            =      0.0E+00
     Gradient error          =      4.5E-03

     number of scf cycles    =   1
     number of bfgs steps    =   0

     energy   new            =  -16384.0531942105 Ry

     new trust radius        =       0.0044920613 bohr
     new conv_thr            =       0.0000010000 Ry

ATOMIC_POSITIONS (crystal)
Pd            0.0000000000        0.0000000000        0.0001426352
Pd            0.2500000814        0.2500000814        0.0001429036
Pd            0.2500009851        0.0000000000        0.1664652605
Pd            0.0000000000        0.2500009851        0.1664652605
Pd            0.0000000000        0.0000000000        0.6668684743
Pd            0.2500002906        0.2500002906        0.6668682520
Pd            0.2499996898        0.0000000000        0.8331911450
Pd            0.0000000000        0.2499996898        0.8331911450
Pd            0.0000000000        0.5000000000        0.0001422967
Pd            0.2500000814        0.7499999186        0.0001429036
Pd            0.2499992200        0.5000000000        0.1664654409
Pd            0.0000000000        0.7499990149        0.1664652605
Pd            0.0000000000        0.5000000000        0.6668674752
Pd            0.2500002906        0.7499997094        0.6668682520
Pd            0.2499989707        0.5000000000        0.8331902111
Pd            0.0000000000        0.7500003102        0.8331911450
Pd            0.5000000000        0.0000000000        0.0001422967
Pd            0.7499999186        0.2500000814        0.0001429036
Pd            0.7499990149        0.0000000000        0.1664652605
Pd            0.5000000000        0.2499992200        0.1664654409
Pd            0.5000000000        0.0000000000        0.6668674752
Pd            0.7499997094        0.2500002906        0.6668682520
Pd            0.7500003102        0.0000000000        0.8331911450
Pd            0.5000000000        0.2499989707        0.8331902111
Pd            0.5000000000        0.5000000000        0.0001428379
Pd            0.7499999186        0.7499999186        0.0001429036
Pd            0.7500007800        0.5000000000        0.1664654409
Pd            0.5000000000        0.7500007800        0.1664654409
Pd            0.5000000000        0.5000000000        0.6668669894
Pd            0.7499997094        0.7499997094        0.6668682520
Pd            0.7500010293        0.5000000000        0.8331902111
Pd            0.5000000000        0.7500010293        0.8331902111

     Writing output data file /scratch/QfWGyAWcnYTdoLzF.save/
     NEW-OLD atomic charge density approx. for the potential

[...]

     Total force =     0.014111     Total SCF correction =     0.001350

[...]

     Energy error            =      3.9E-04
     Gradient error          =      3.2E-03

[...]

     energy   old            =  -16384.0531942105 Ry
     energy   new            =  -16384.0535844049 Ry

     CASE: energy  _new < energy  _old

[...]

     Total force =     0.006182     Total SCF correction =     0.000481

[...]

     number of scf cycles    =   7
     number of bfgs steps    =   6

     energy   old            =  -16384.0543046878 Ry
     energy   new            =  -16384.0543959421 Ry

     CASE: energy  _new < energy  _old

     new trust radius        =       0.0062827095 bohr
     new conv_thr            =       0.0000000100 Ry

ATOMIC_POSITIONS (crystal)
Pd            0.0000000000        0.0000000000       -0.0000532418
Pd            0.2499999479        0.2499999479       -0.0000527910
Pd            0.2500005734        0.0000000000        0.1647413252
Pd            0.0000000000        0.2500005734        0.1647413252
Pd            0.0000000000        0.0000000000        0.6685935328
Pd            0.2500000690        0.2500000690        0.6685914188
Pd            0.2499989692        0.0000000000        0.8333865901
Pd            0.0000000000        0.2499989692        0.8333865901
Pd            0.0000000000        0.5000000000       -0.0000532161
Pd            0.2499999479        0.7500000521       -0.0000527910
Pd            0.2499998237        0.5000000000        0.1647416805
Pd            0.0000000000        0.7499994266        0.1647413252
Pd            0.0000000000        0.5000000000        0.6685909283
Pd            0.2500000690        0.7499999310        0.6685914188
Pd            0.2499988935        0.5000000000        0.8333867758
Pd            0.0000000000        0.7500010308        0.8333865901
Pd            0.5000000000        0.0000000000       -0.0000532161
Pd            0.7500000521        0.2499999479       -0.0000527910
Pd            0.7499994266        0.0000000000        0.1647413252
Pd            0.5000000000        0.2499998237        0.1647416805
Pd            0.5000000000        0.0000000000        0.6685909283
Pd            0.7499999310        0.2500000690        0.6685914188
Pd            0.7500010308        0.0000000000        0.8333865901
Pd            0.5000000000        0.2499988935        0.8333867758
Pd            0.5000000000        0.5000000000       -0.0000518334
Pd            0.7500000521        0.7500000521       -0.0000527910
Pd            0.7500001763        0.5000000000        0.1647416805
Pd            0.5000000000        0.7500001763        0.1647416805
Pd            0.5000000000        0.5000000000        0.6685894533
Pd            0.7499999310        0.7499999310        0.6685914188
Pd            0.7500011065        0.5000000000        0.8333867758
Pd            0.5000000000        0.7500011065        0.8333867758

     Writing output data file /scratch/QfWGyAWcnYTdoLzF.save/
     NEW-OLD atomic charge density approx. for the potential

     Check: negative core charge=   -0.000001

     Self-consistent Calculation

[...]

     Threshold (ethr) on eigenvalues was too large:
     Diagonalizing with lowered threshold

     Davidson diagonalization with overlap
     ethr =  4.95E-08,  avg # of iterations =  2.0

[...]

     total energy              =  -16384.05447509 Ry
     estimated scf accuracy    <       0.00000001 Ry

     iteration # 13     ecut=    71.00 Ry     beta= 0.10
     Davidson diagonalization with overlap
     ethr =  2.13E-12,  avg # of iterations =  2.0

     End of self-consistent calculation

[...]

          k = 0.3889-0.5000-0.3333 ( 49528 PWs)   bands (ev):

[...]

          k =-0.5000-0.5000-0.3333 ( 49560 PWs)   bands (ev):

   -73.0194 -73.0194 -73.0194 -73.0194 -72.9965 -72.9965 -72.9965 -72.9965
   -72.9916 -72.9916 -72.9916 -72.9916 -72.9916 -72.9916 -72.9916 -72.9916
   -72.4335 -72.4335 -72.4335 -72.4335 -72.4335 -72.4335 -72.4335 -72.4335
   -72.4175 -72.4175 -72.4175 -72.4175 -72.4175 -72.4175 -72.4175 -72.4175
   -38.8452 -38.8452 -38.8452 -38.8452 -38.8452 -38.8452 -38.8452 -38.8452
   -38.8342 -38.8342 -38.8342 -38.8342 -38.7818 -38.7817 -38.7817 -38.7817
   -38.7219 -38.7219 -38.7219 -38.7219 -38.7219 -38.7219 -38.7219 -38.7219
   -38.6798 -38.6798 -38.6798 -38.6798 -38.6782 -38.6782 -38.6782 -38.6782
   -38.6782 -38.6782 -38.6782 -38.6782 -38.6583 -38.6583 -38.6583 -38.6583
   -38.6358 -38.6358 -38.6358 -38.6358 -38.5859 -38.5859 -38.5859 -38.5859
   -38.3077 -38.3077 -38.3077 -38.3077 -38.3077 -38.3077 -38.3077 -38.3077
   -38.2247 -38.2247 -38.2246 -38.2246 -38.2218 -38.2218 -38.2218 -38.2218
   -38.2102 -38.2102 -38.2102 -38.2102 -38.2102 -38.2102 -38.2102 -38.2102
   -38.1217 -38.1217 -38.1217 -38.1217 -38.1216 -38.1216 -38.1216 -38.1216
   -38.0355 -38.0355 -38.0355 -38.0355 -38.0347 -38.0347 -38.0347 -38.0347
   -38.0235 -38.0235 -38.0235 -38.0235 -38.0235 -38.0235 -38.0235 -38.0235
     5.8843   5.8843   5.8843   5.8843   6.5092   6.5092   6.5092   6.5092
     6.8363   6.8364   6.8364   6.8364   6.8364   6.8364   6.8364   6.8364
     6.9435   6.9435   6.9435   6.9435   7.0077   7.0077   7.0077   7.0077
     7.0077   7.0077   7.0077   7.0077   7.0939   7.0939   7.0939   7.0939
     7.3864   7.3864   7.3864   7.3864   7.6995   7.6995   7.6995   7.6995
     7.6995   7.6995   7.6995   7.6995   8.0079   8.0079   8.0079   8.0079
     8.0079   8.0079   8.0079   8.0079   8.1801   8.1801   8.1801   8.1801
     8.4137   8.4137   8.4137   8.4137   8.6705   8.6705   8.6705   8.6705
     8.7856   8.7857   8.7857   8.7857   8.7898   8.7898   8.7898   8.7898
     8.8764   8.8765   8.8765   8.8765   8.9867   8.9867   8.9867   8.9868
     8.9868   8.9868   8.9868   8.9868   9.0137   9.0137   9.0137   9.0137
     9.3263   9.3263   9.3264   9.3264   9.4635   9.4635   9.4635   9.4635
     9.5840   9.5840   9.5840   9.5840   9.5840   9.5840   9.5840   9.5840
     9.6206   9.6206   9.6206   9.6206   9.6206   9.6206   9.6206   9.6207
     9.6314   9.6314   9.6314   9.6314   9.8540   9.8540   9.8540   9.8540
    10.1976  10.1976  10.1976  10.1976  10.1976  10.1976  10.1976  10.1976
    10.2151  10.2151  10.2151  10.2151  10.2941  10.2941  10.2941  10.2941
    10.4611  10.4611  10.4611  10.4611  10.6710  10.6710  10.6710  10.6710
    10.8033  10.8033  10.8033  10.8033  10.8033  10.8033  10.8033  10.8033
    11.0953  11.0953  11.0953  11.0953  11.1456  11.1456  11.1456  11.1456
    11.1456  11.1456  11.1456  11.1456  11.1635  11.1635  11.1635  11.1635
    12.0517  12.0517  12.0517  12.0517  14.0707  14.0707  14.0707  14.0707
    14.4016  14.4016  14.4016  14.4016  14.4016  14.4016  14.4016  14.4016
    15.5094  15.5094  15.5094  15.5094  15.5094  15.5094  15.5094  15.5094
    17.0900  17.0900  17.0900  17.0900  17.5896  17.5896  17.5896  17.5896
    17.5896  17.5896  17.5896  17.5896  18.9337  18.9337  18.9337  18.9337
    19.7642  19.7642  19.7642  19.7642  19.7865  19.7865  19.7865  19.7865
    19.7865  19.7866

     the Fermi energy is    11.1597 ev

!    total energy              =  -16384.05447523 Ry

     total all-electron energy =   -322944.908182 Ry
     estimated scf accuracy    <          7.2E-09 Ry
     smearing contrib. (-TS)   =       0.11991399 Ry
     internal energy E=F+TS    =  -16384.17438922 Ry

     The total energy is F=E-TS. E is the sum of the following terms:
     one-electron contribution =  -11208.63201412 Ry
     hartree contribution      =    5854.90578014 Ry
     xc contribution           =    -985.49795247 Ry
     ewald contribution        =   -1877.61351071 Ry
     one-center paw contrib.   =   -8167.33669205 Ry

     convergence has been achieved in  13 iterations

     Forces acting on atoms (cartesian axes, Ry/au):

     atom    1 type  1   force =     0.00000000    0.00000000   -0.00045106
     atom    2 type  1   force =     0.00000028    0.00000028   -0.00045588
     atom    3 type  1   force =    -0.00000142    0.00000000    0.00022819
     atom    4 type  1   force =     0.00000000   -0.00000142    0.00022819
     atom    5 type  1   force =     0.00000000    0.00000000   -0.00023153
     atom    6 type  1   force =     0.00000051    0.00000051   -0.00022553
     atom    7 type  1   force =     0.00000429    0.00000000    0.00045302
     atom    8 type  1   force =     0.00000000    0.00000429    0.00045302
     atom    9 type  1   force =     0.00000000    0.00000000   -0.00045415
     atom   10 type  1   force =     0.00000028   -0.00000028   -0.00045588
     atom   11 type  1   force =    -0.00000030    0.00000000    0.00022812
     atom   12 type  1   force =     0.00000000    0.00000142    0.00022819
     atom   13 type  1   force =     0.00000000    0.00000000   -0.00022380
     atom   14 type  1   force =     0.00000051   -0.00000051   -0.00022553
     atom   15 type  1   force =     0.00000472    0.00000000    0.00045127
     atom   16 type  1   force =     0.00000000   -0.00000429    0.00045302
     atom   17 type  1   force =     0.00000000    0.00000000   -0.00045415
     atom   18 type  1   force =    -0.00000028    0.00000028   -0.00045588
     atom   19 type  1   force =     0.00000142    0.00000000    0.00022819
     atom   20 type  1   force =     0.00000000   -0.00000030    0.00022812
     atom   21 type  1   force =     0.00000000    0.00000000   -0.00022380
     atom   22 type  1   force =    -0.00000051    0.00000051   -0.00022553
     atom   23 type  1   force =    -0.00000429    0.00000000    0.00045302
     atom   24 type  1   force =     0.00000000    0.00000472    0.00045127
     atom   25 type  1   force =     0.00000000    0.00000000   -0.00046010
     atom   26 type  1   force =    -0.00000028   -0.00000028   -0.00045588
     atom   27 type  1   force =     0.00000030    0.00000000    0.00022812
     atom   28 type  1   force =     0.00000000    0.00000030    0.00022812
     atom   29 type  1   force =     0.00000000    0.00000000   -0.00021817
     atom   30 type  1   force =    -0.00000051   -0.00000051   -0.00022553
     atom   31 type  1   force =    -0.00000472    0.00000000    0.00045127
     atom   32 type  1   force =     0.00000000   -0.00000472    0.00045127

     Total force =     0.002029     Total SCF correction =     0.000839
     SCF correction compared to forces is large: reduce conv_thr to get better values

     Computing stress (Cartesian axis) and pressure

          total   stress  (Ry/bohr**3)                   (kbar)     P=      -30.50
  -0.00027519   0.00000000   0.00000000          -40.48        0.00        0.00
   0.00000000  -0.00027519   0.00000000            0.00      -40.48        0.00
   0.00000000   0.00000000  -0.00007166            0.00        0.00      -10.54

     Energy error            =      7.9E-05
     Gradient error          =      4.6E-04

     bfgs converged in   8 scf cycles and   7 bfgs steps
     (criteria: energy <  1.0E-04 Ry, force <  1.0E-03 Ry/Bohr)

     End of BFGS Geometry Optimization

     Final energy   =  -16384.0544752307 Ry

     File /scratch/QfWGyAWcnYTdoLzF.bfgs deleted, as requested
Begin final coordinates

ATOMIC_POSITIONS (crystal)
Pd            0.0000000000        0.0000000000       -0.0000532418
Pd            0.2499999479        0.2499999479       -0.0000527910
Pd            0.2500005734        0.0000000000        0.1647413252
Pd            0.0000000000        0.2500005734        0.1647413252
Pd            0.0000000000        0.0000000000        0.6685935328
Pd            0.2500000690        0.2500000690        0.6685914188
Pd            0.2499989692        0.0000000000        0.8333865901
Pd            0.0000000000        0.2499989692        0.8333865901
Pd            0.0000000000        0.5000000000       -0.0000532161
Pd            0.2499999479        0.7500000521       -0.0000527910
Pd            0.2499998237        0.5000000000        0.1647416805
Pd            0.0000000000        0.7499994266        0.1647413252
Pd            0.0000000000        0.5000000000        0.6685909283
Pd            0.2500000690        0.7499999310        0.6685914188
Pd            0.2499988935        0.5000000000        0.8333867758
Pd            0.0000000000        0.7500010308        0.8333865901
Pd            0.5000000000        0.0000000000       -0.0000532161
Pd            0.7500000521        0.2499999479       -0.0000527910
Pd            0.7499994266        0.0000000000        0.1647413252
Pd            0.5000000000        0.2499998237        0.1647416805
Pd            0.5000000000        0.0000000000        0.6685909283
Pd            0.7499999310        0.2500000690        0.6685914188
Pd            0.7500010308        0.0000000000        0.8333865901
Pd            0.5000000000        0.2499988935        0.8333867758
Pd            0.5000000000        0.5000000000       -0.0000518334
Pd            0.7500000521        0.7500000521       -0.0000527910
Pd            0.7500001763        0.5000000000        0.1647416805
Pd            0.5000000000        0.7500001763        0.1647416805
Pd            0.5000000000        0.5000000000        0.6685894533
Pd            0.7499999310        0.7499999310        0.6685914188
Pd            0.7500011065        0.5000000000        0.8333867758
Pd            0.5000000000        0.7500011065        0.8333867758
End final coordinates

     Writing output data file /scratch/QfWGyAWcnYTdoLzF.save/

     General routines

     Parallel routines

   This run was terminated on:   9:37:28   7Jan2022

   JOB DONE.