     Program PWSCF v.6.7MaX starts on  8Jan2022 at 14:36:49

     R & G space division:  proc/nbgrp/npool/nimage =      72
     Reading input from relax_13.in
Warning: card &CELL ignored
Warning: card CELL_DYNAMICS = 'BFGS', ignored
Warning: card CELL_FACTOR = 2.0, ignored
Warning: card PRESS = 0.0, ignored
Warning: card / ignored

     Current dimensions of program PWSCF are:
     Max number of different atomic species (ntypx) = 10
     Max number of k-points (npk) =  40000
     Max angular momentum in pseudopotentials (lmaxx) =  3
     file Pd.pbe-spn-kjpaw_psl.1.0.0.UPF: wavefunction(s)  4S 5S 4D renormalized

     Subspace diagonalization in iterative solution of the eigenvalue problem:
     one sub-group per band group will be used

     Found symmetry operation: I + (  0.2500  0.2500  0.0000)
     This is a supercell, fractional translations are disabled
     Message from routine setup:
     using ibrav=0 with symmetry is DISCOURAGED, use correct ibrav instead

     bravais-lattice index     =            0
     lattice parameter (alat)  =      14.8394  a.u.
     unit-cell volume          =    4493.1765 (a.u.)^3
     number of atoms/cell      =           32
     number of atomic types    =            1
     number of electrons       =       576.00
     number of Kohn-Sham states=          346
     kinetic-energy cutoff     =      71.0000  Ry
     charge density cutoff     =     430.0000  Ry
     scf convergence threshold =      1.0E-06
     mixing beta               =       0.1000
     number of iterations used =           10  TF        mixing
     energy convergence thresh.=      1.0E-04
     force convergence thresh. =      1.0E-03
     Exchange-correlation= SLA  PW   PBX  PBC
                           (   1   4   3   4   0   0   0)
     nstep                     =           40

     celldm(1)=  14.839420  celldm(2)=   0.000000  celldm(3)=   0.000000
     celldm(4)=   0.000000  celldm(5)=   0.000000  celldm(6)=   0.000000

     crystal axes: (cart. coord. in units of alat)
               a(1) = (   1.000000   0.000000   0.000000 )
               a(2) = (   0.000000   1.000000   0.000000 )
               a(3) = (   0.000000   0.000000   1.375000 )

     reciprocal axes: (cart. coord. in units 2 pi/alat)
               b(1) = (  1.000000  0.000000  0.000000 )
               b(2) = (  0.000000  1.000000  0.000000 )
               b(3) = (  0.000000  0.000000  0.727273 )

     PseudoPot. # 1 for Pd read from file:
     /rds/homes/b/bxp912/pp/Pd.pbe-spn-kjpaw_psl.1.0.0.UPF
     MD5 check sum: 790f2ebce206edfd9790dcb9844eca51
     Pseudo is Projector augmented-wave + core cor, Zval = 18.0
     Generated using &quot;atomic&quot; code by A. Dal Corso  v.6.3
     Shape of augmentation charge: PSQ
     Using radial grid of 1235 points,  6 beta functions with:
                l(1) =   0
                l(2) =   0
                l(3) =   1
                l(4) =   1
                l(5) =   2
                l(6) =   2
     Q(r) pseudized with 0 coefficients

     atomic species   valence    mass     pseudopotential
        Pd            18.00   106.42000     Pd( 1.00)

      8 Sym. Ops. (no inversion) found

   Cartesian axes

     site n.     atom                  positions (alat units)
         1           Pd  tau(   1) = (   0.0000000   0.0000000   0.0000000  )
         2           Pd  tau(   2) = (   0.2500000   0.2500000   0.0000000  )
         3           Pd  tau(   3) = (   0.2500000   0.0000000   0.2500000  )
         4           Pd  tau(   4) = (   0.0000000   0.2500000   0.2500000  )
         5           Pd  tau(   5) = (   0.0000000   0.0000000   0.8750000  )
         6           Pd  tau(   6) = (   0.2500000   0.2500000   0.8750000  )
         7           Pd  tau(   7) = (   0.2500000   0.0000000   1.1250000  )
         8           Pd  tau(   8) = (   0.0000000   0.2500000   1.1250000  )
         9           Pd  tau(   9) = (   0.0000000   0.5000000   0.0000000  )
        10           Pd  tau(  10) = (   0.2500000   0.7500000   0.0000000  )
        11           Pd  tau(  11) = (   0.2500000   0.5000000   0.2500000  )
        12           Pd  tau(  12) = (   0.0000000   0.7500000   0.2500000  )
        13           Pd  tau(  13) = (   0.0000000   0.5000000   0.8750000  )
        14           Pd  tau(  14) = (   0.2500000   0.7500000   0.8750000  )
        15           Pd  tau(  15) = (   0.2500000   0.5000000   1.1250000  )
        16           Pd  tau(  16) = (   0.0000000   0.7500000   1.1250000  )
        17           Pd  tau(  17) = (   0.5000000   0.0000000   0.0000000  )
        18           Pd  tau(  18) = (   0.7500000   0.2500000   0.0000000  )
        19           Pd  tau(  19) = (   0.7500000   0.0000000   0.2500000  )
        20           Pd  tau(  20) = (   0.5000000   0.2500000   0.2500000  )
        21           Pd  tau(  21) = (   0.5000000   0.0000000   0.8750000  )
        22           Pd  tau(  22) = (   0.7500000   0.2500000   0.8750000  )
        23           Pd  tau(  23) = (   0.7500000   0.0000000   1.1250000  )
        24           Pd  tau(  24) = (   0.5000000   0.2500000   1.1250000  )
        25           Pd  tau(  25) = (   0.5000000   0.5000000   0.0000000  )
        26           Pd  tau(  26) = (   0.7500000   0.7500000   0.0000000  )
        27           Pd  tau(  27) = (   0.7500000   0.5000000   0.2500000  )
        28           Pd  tau(  28) = (   0.5000000   0.7500000   0.2500000  )
        29           Pd  tau(  29) = (   0.5000000   0.5000000   0.8750000  )
        30           Pd  tau(  30) = (   0.7500000   0.7500000   0.8750000  )
        31           Pd  tau(  31) = (   0.7500000   0.5000000   1.1250000  )
        32           Pd  tau(  32) = (   0.5000000   0.7500000   1.1250000  )

     number of k points=    75  Marzari-Vanderbilt smearing, width (Ry)=  0.0400
                       cart. coord. in units 2pi/alat
        k(    1) = (   0.0555556   0.0555556   0.0404040), wk =   0.0219479
        k(    2) = (   0.0555556   0.0555556   0.1212121), wk =   0.0219479
        k(    3) = (   0.0555556   0.0555556   0.2020202), wk =   0.0219479
        k(    4) = (   0.0555556   0.0555556   0.2828283), wk =   0.0219479
        k(    5) = (   0.0555556   0.0555556  -0.3636364), wk =   0.0109739
        k(    6) = (   0.0555556   0.1666667   0.0404040), wk =   0.0438957
        k(    7) = (   0.0555556   0.1666667   0.1212121), wk =   0.0438957
        k(    8) = (   0.0555556   0.1666667   0.2020202), wk =   0.0438957
        k(    9) = (   0.0555556   0.1666667   0.2828283), wk =   0.0438957
        k(   10) = (   0.0555556   0.1666667  -0.3636364), wk =   0.0219479
        k(   11) = (   0.0555556   0.2777778   0.0404040), wk =   0.0438957
        k(   12) = (   0.0555556   0.2777778   0.1212121), wk =   0.0438957
        k(   13) = (   0.0555556   0.2777778   0.2020202), wk =   0.0438957
        k(   14) = (   0.0555556   0.2777778   0.2828283), wk =   0.0438957
        k(   15) = (   0.0555556   0.2777778  -0.3636364), wk =   0.0219479
        k(   16) = (   0.0555556   0.3888889   0.0404040), wk =   0.0438957
        k(   17) = (   0.0555556   0.3888889   0.1212121), wk =   0.0438957
        k(   18) = (   0.0555556   0.3888889   0.2020202), wk =   0.0438957
        k(   19) = (   0.0555556   0.3888889   0.2828283), wk =   0.0438957
        k(   20) = (   0.0555556   0.3888889  -0.3636364), wk =   0.0219479
        k(   21) = (   0.0555556  -0.5000000   0.0404040), wk =   0.0219479
        k(   22) = (   0.0555556  -0.5000000   0.1212121), wk =   0.0219479
        k(   23) = (   0.0555556  -0.5000000   0.2020202), wk =   0.0219479
        k(   24) = (   0.0555556  -0.5000000   0.2828283), wk =   0.0219479
        k(   25) = (   0.0555556  -0.5000000  -0.3636364), wk =   0.0109739
        k(   26) = (   0.1666667   0.1666667   0.0404040), wk =   0.0219479
        k(   27) = (   0.1666667   0.1666667   0.1212121), wk =   0.0219479
        k(   28) = (   0.1666667   0.1666667   0.2020202), wk =   0.0219479
        k(   29) = (   0.1666667   0.1666667   0.2828283), wk =   0.0219479
        k(   30) = (   0.1666667   0.1666667  -0.3636364), wk =   0.0109739
        k(   31) = (   0.1666667   0.2777778   0.0404040), wk =   0.0438957
        k(   32) = (   0.1666667   0.2777778   0.1212121), wk =   0.0438957
        k(   33) = (   0.1666667   0.2777778   0.2020202), wk =   0.0438957
        k(   34) = (   0.1666667   0.2777778   0.2828283), wk =   0.0438957
        k(   35) = (   0.1666667   0.2777778  -0.3636364), wk =   0.0219479
        k(   36) = (   0.1666667   0.3888889   0.0404040), wk =   0.0438957
        k(   37) = (   0.1666667   0.3888889   0.1212121), wk =   0.0438957
        k(   38) = (   0.1666667   0.3888889   0.2020202), wk =   0.0438957
        k(   39) = (   0.1666667   0.3888889   0.2828283), wk =   0.0438957
        k(   40) = (   0.1666667   0.3888889  -0.3636364), wk =   0.0219479
        k(   41) = (   0.1666667  -0.5000000   0.0404040), wk =   0.0219479
        k(   42) = (   0.1666667  -0.5000000   0.1212121), wk =   0.0219479
        k(   43) = (   0.1666667  -0.5000000   0.2020202), wk =   0.0219479
        k(   44) = (   0.1666667  -0.5000000   0.2828283), wk =   0.0219479
        k(   45) = (   0.1666667  -0.5000000  -0.3636364), wk =   0.0109739
        k(   46) = (   0.2777778   0.2777778   0.0404040), wk =   0.0219479
        k(   47) = (   0.2777778   0.2777778   0.1212121), wk =   0.0219479
        k(   48) = (   0.2777778   0.2777778   0.2020202), wk =   0.0219479
        k(   49) = (   0.2777778   0.2777778   0.2828283), wk =   0.0219479
        k(   50) = (   0.2777778   0.2777778  -0.3636364), wk =   0.0109739
        k(   51) = (   0.2777778   0.3888889   0.0404040), wk =   0.0438957
        k(   52) = (   0.2777778   0.3888889   0.1212121), wk =   0.0438957
        k(   53) = (   0.2777778   0.3888889   0.2020202), wk =   0.0438957
        k(   54) = (   0.2777778   0.3888889   0.2828283), wk =   0.0438957
        k(   55) = (   0.2777778   0.3888889  -0.3636364), wk =   0.0219479
        k(   56) = (   0.2777778  -0.5000000   0.0404040), wk =   0.0219479
        k(   57) = (   0.2777778  -0.5000000   0.1212121), wk =   0.0219479
        k(   58) = (   0.2777778  -0.5000000   0.2020202), wk =   0.0219479
        k(   59) = (   0.2777778  -0.5000000   0.2828283), wk =   0.0219479
        k(   60) = (   0.2777778  -0.5000000  -0.3636364), wk =   0.0109739
        k(   61) = (   0.3888889   0.3888889   0.0404040), wk =   0.0219479
        k(   62) = (   0.3888889   0.3888889   0.1212121), wk =   0.0219479
        k(   63) = (   0.3888889   0.3888889   0.2020202), wk =   0.0219479
        k(   64) = (   0.3888889   0.3888889   0.2828283), wk =   0.0219479
        k(   65) = (   0.3888889   0.3888889  -0.3636364), wk =   0.0109739
        k(   66) = (   0.3888889  -0.5000000   0.0404040), wk =   0.0219479
        k(   67) = (   0.3888889  -0.5000000   0.1212121), wk =   0.0219479
        k(   68) = (   0.3888889  -0.5000000   0.2020202), wk =   0.0219479
        k(   69) = (   0.3888889  -0.5000000   0.2828283), wk =   0.0219479
        k(   70) = (   0.3888889  -0.5000000  -0.3636364), wk =   0.0109739
[...]
     atom   31 type  1   force =    -0.00000761    0.00000000   -0.00331089
     atom   32 type  1   force =     0.00000000   -0.00000761   -0.00331089

     Total force =     0.017333     Total SCF correction =     0.005702
     SCF correction compared to forces is large: reduce conv_thr to get better values

     Computing stress (Cartesian axis) and pressure

          total   stress  (Ry/bohr**3)                   (kbar)     P=      -41.32
  -0.00034036   0.00000000   0.00000000          -50.07        0.00        0.00
   0.00000000  -0.00034036   0.00000000            0.00      -50.07        0.00
   0.00000000   0.00000000  -0.00016197            0.00        0.00      -23.83

     BFGS Geometry Optimization
     Energy error            =      0.0E+00
     Gradient error          =      3.4E-03

     number of scf cycles    =   1
     number of bfgs steps    =   0

     energy   new            =  -16384.0656282923 Ry

     new trust radius        =       0.0033923749 bohr
     new conv_thr            =       0.0000010000 Ry

ATOMIC_POSITIONS (crystal)
Pd            0.0000000000        0.0000000000        0.0001662586
Pd            0.2500000220        0.2500000220        0.0001652086
Pd            0.2500002558        0.0000000000        0.1816801961
Pd           -0.0000000000        0.2500002558        0.1816801961
Pd            0.0000000000        0.0000000000        0.6364973918
Pd            0.2500020849        0.2500020849        0.6364982029
Pd            0.2500007965        0.0000000000        0.8180214679
Pd            0.0000000000        0.2500007965        0.8180214679
Pd            0.0000000000        0.5000000000        0.0001647613
Pd            0.2500000220        0.7499999780        0.0001652086
Pd            0.2499984781        0.5000000000        0.1816806655
Pd            0.0000000000        0.7499997442        0.1816801961
Pd            0.0000000000        0.5000000000        0.6364968401
Pd            0.2500020849        0.7499979151        0.6364982029
Pd            0.2500005126        0.5000000000        0.8180195529
Pd            0.0000000000        0.7499992035        0.8180214679
Pd            0.5000000000        0.0000000000        0.0001647613
Pd            0.7499999780        0.2500000220        0.0001652086
Pd            0.7499997442       -0.0000000000        0.1816801961
Pd            0.5000000000        0.2499984781        0.1816806655
Pd            0.5000000000        0.0000000000        0.6364968401
Pd            0.7499979151        0.2500020849        0.6364982029
Pd            0.7499992035        0.0000000000        0.8180214679
Pd            0.5000000000        0.2500005126        0.8180195529
Pd            0.5000000000        0.5000000000        0.0001643670
Pd            0.7499999780        0.7499999780        0.0001652086
Pd            0.7500015219        0.5000000000        0.1816806655
Pd            0.5000000000        0.7500015219        0.1816806655
Pd            0.5000000000        0.5000000000        0.6364966949
Pd            0.7499979151        0.7499979151        0.6364982029
Pd            0.7499994874        0.5000000000        0.8180195529
Pd            0.5000000000        0.7499994874        0.8180195529

     Writing output data file /scratch/IXRBrJMcYqpItHry.save/
     NEW-OLD atomic charge density approx. for the potential

[...]

     Energy error            =      2.4E-04
     Gradient error          =      1.9E-03

[...]

     energy   old            =  -16384.0656282923 Ry
     energy   new            =  -16384.0658675871 Ry

     CASE: energy  _new < energy  _old

[...]

     Total force =     0.005805     Total SCF correction =     0.000544

[...]

     number of scf cycles    =   3
     number of bfgs steps    =   2

     energy   old            =  -16384.0658675871 Ry
     energy   new            =  -16384.0660371073 Ry

     CASE: energy  _new < energy  _old

     new trust radius        =       0.0046803090 bohr
     new conv_thr            =       0.0000000119 Ry

ATOMIC_POSITIONS (crystal)
Pd            0.0000000000        0.0000000000        0.0005451239
Pd            0.2500002244        0.2500002244        0.0005460904
Pd            0.2500014054        0.0000000000        0.1812755522
Pd           -0.0000000000        0.2500014054        0.1812755522
Pd            0.0000000000        0.0000000000        0.6368912416
Pd            0.2499973387        0.2499973387        0.6368901439
Pd            0.2499979465        0.0000000000        0.8176516004
Pd            0.0000000000        0.2499979465        0.8176516004
Pd            0.0000000000        0.5000000000        0.0005457277
Pd            0.2500002244        0.7499997756        0.0005460904
Pd            0.2500009151        0.5000000000        0.1812755484
Pd            0.0000000000        0.7499985946        0.1812755522
Pd            0.0000000000        0.5000000000        0.6368898195
Pd            0.2499973387        0.7500026613        0.6368901439
Pd            0.2499979387        0.5000000000        0.8176526112
Pd            0.0000000000        0.7500020535        0.8176516004
Pd            0.5000000000        0.0000000000        0.0005457277
Pd            0.7499997756        0.2500002244        0.0005460904
Pd            0.7499985946       -0.0000000000        0.1812755522
Pd            0.5000000000        0.2500009151        0.1812755484
Pd            0.5000000000        0.0000000000        0.6368898195
Pd            0.7500026613        0.2499973387        0.6368901439
Pd            0.7500020535        0.0000000000        0.8176516004
Pd            0.5000000000        0.2499979387        0.8176526112
Pd            0.5000000000        0.5000000000        0.0005479701
Pd            0.7499997756        0.7499997756        0.0005460904
Pd            0.7499990849        0.5000000000        0.1812755484
Pd            0.5000000000        0.7499990849        0.1812755484
Pd            0.5000000000        0.5000000000        0.6368874743
Pd            0.7500026613        0.7500026613        0.6368901439
Pd            0.7500020613        0.5000000000        0.8176526112
Pd            0.5000000000        0.7500020613        0.8176526112

     Writing output data file /scratch/IXRBrJMcYqpItHry.save/
     NEW-OLD atomic charge density approx. for the potential

     Check: negative core charge=   -0.000001

     Self-consistent Calculation

[...]

     Threshold (ethr) on eigenvalues was too large:
     Diagonalizing with lowered threshold

     Davidson diagonalization with overlap
     ethr =  2.49E-08,  avg # of iterations =  2.8

[...]

     total energy              =  -16384.06609250 Ry
     estimated scf accuracy    <       0.00000008 Ry

     iteration # 10     ecut=    71.00 Ry     beta= 0.10
     Davidson diagonalization with overlap
     ethr =  1.43E-11,  avg # of iterations =  2.0

     End of self-consistent calculation

[...]

          k = 0.3889-0.5000-0.3636 ( 45388 PWs)   bands (ev):

[...]

          k =-0.5000-0.5000-0.3636 ( 45352 PWs)   bands (ev):

   -71.5441 -71.5441 -71.5441 -71.5441 -71.5222 -71.5222 -71.5222 -71.5222
   -71.5170 -71.5170 -71.5170 -71.5170 -71.5168 -71.5167 -71.5167 -71.5167
   -70.9730 -70.9730 -70.9730 -70.9729 -70.9726 -70.9726 -70.9726 -70.9725
   -70.9570 -70.9570 -70.9570 -70.9570 -70.9566 -70.9566 -70.9566 -70.9565
   -37.3683 -37.3683 -37.3683 -37.3683 -37.3681 -37.3681 -37.3681 -37.3681
   -37.3544 -37.3544 -37.3544 -37.3544 -37.3045 -37.3045 -37.3045 -37.3045
   -37.2458 -37.2458 -37.2458 -37.2458 -37.2456 -37.2456 -37.2456 -37.2455
   -37.2069 -37.2069 -37.2069 -37.2069 -37.2049 -37.2049 -37.2049 -37.2049
   -37.2047 -37.2047 -37.2047 -37.2047 -37.1842 -37.1841 -37.1841 -37.1841
   -37.1605 -37.1605 -37.1605 -37.1605 -37.1127 -37.1127 -37.1127 -37.1127
   -36.8460 -36.8460 -36.8460 -36.8460 -36.8457 -36.8457 -36.8457 -36.8457
   -36.7628 -36.7628 -36.7628 -36.7628 -36.7602 -36.7602 -36.7602 -36.7602
   -36.7483 -36.7483 -36.7483 -36.7483 -36.7481 -36.7481 -36.7481 -36.7481
   -36.6599 -36.6599 -36.6599 -36.6599 -36.6596 -36.6596 -36.6596 -36.6596
   -36.5758 -36.5758 -36.5758 -36.5758 -36.5751 -36.5751 -36.5751 -36.5750
   -36.5640 -36.5639 -36.5639 -36.5639 -36.5635 -36.5635 -36.5635 -36.5634
     7.3778   7.3778   7.3778   7.3779   8.0001   8.0001   8.0001   8.0001
     8.3303   8.3303   8.3303   8.3303   8.3306   8.3306   8.3306   8.3306
     8.4244   8.4244   8.4244   8.4245   8.5023   8.5023   8.5023   8.5023
     8.5025   8.5025   8.5025   8.5026   8.5817   8.5817   8.5817   8.5817
     8.8815   8.8815   8.8815   8.8815   9.1850   9.1850   9.1850   9.1851
     9.1857   9.1857   9.1857   9.1857   9.4846   9.4846   9.4846   9.4846
     9.4848   9.4849   9.4849   9.4850   9.6540   9.6540   9.6540   9.6541
     9.8877   9.8877   9.8877   9.8877  10.1275  10.1275  10.1275  10.1275
    10.2438  10.2438  10.2438  10.2438  10.2850  10.2850  10.2850  10.2850
    10.3508  10.3508  10.3508  10.3508  10.4664  10.4664  10.4664  10.4664
    10.4665  10.4665  10.4665  10.4665  10.5110  10.5110  10.5110  10.5110
    10.7786  10.7786  10.7786  10.7786  10.9268  10.9268  10.9268  10.9269
    11.0471  11.0471  11.0471  11.0471  11.0474  11.0474  11.0474  11.0474
    11.0881  11.0881  11.0881  11.0881  11.0883  11.0884  11.0884  11.0884
    11.1117  11.1118  11.1118  11.1118  11.3321  11.3321  11.3321  11.3321
    11.6421  11.6421  11.6421  11.6421  11.6421  11.6421  11.6421  11.6421
    11.6702  11.6702  11.6702  11.6702  11.6809  11.6809  11.6809  11.6809
    11.9232  11.9232  11.9232  11.9232  12.1296  12.1296  12.1296  12.1296
    12.2728  12.2728  12.2728  12.2728  12.2729  12.2729  12.2729  12.2729
    12.5468  12.5468  12.5468  12.5468  12.6039  12.6039  12.6039  12.6039
    12.6039  12.6039  12.6039  12.6039  12.6148  12.6148  12.6148  12.6148
    13.7007  13.7007  13.7007  13.7007  15.3439  15.3439  15.3439  15.3439
    15.8808  15.8808  15.8808  15.8809  15.8809  15.8809  15.8809  15.8809
    16.9184  16.9184  16.9184  16.9184  16.9185  16.9185  16.9185  16.9185
    19.0179  19.0179  19.0179  19.0179  19.1190  19.1190  19.1190  19.1190
    19.1192  19.1192  19.1192  19.1192  21.1457  21.1457  21.1457  21.1457
    21.1460  21.1460  21.1460  21.1460  21.2427  21.2427  21.2427  21.2427
    21.7031  21.7031

     the Fermi energy is    12.6160 ev

!    total energy              =  -16384.06609259 Ry

     total all-electron energy =   -322944.919800 Ry
     estimated scf accuracy    <          9.7E-09 Ry
     smearing contrib. (-TS)   =       0.12071864 Ry
     internal energy E=F+TS    =  -16384.18681123 Ry

     The total energy is F=E-TS. E is the sum of the following terms:
     one-electron contribution =   -7906.22385863 Ry
     hartree contribution      =    4234.75306828 Ry
     xc contribution           =    -985.37875144 Ry
     ewald contribution        =   -3560.00586973 Ry
     one-center paw contrib.   =   -8167.33139971 Ry

     convergence has been achieved in  10 iterations

     Forces acting on atoms (cartesian axes, Ry/au):

     atom    1 type  1   force =     0.00000000    0.00000000   -0.00062031
     atom    2 type  1   force =    -0.00000111   -0.00000111   -0.00062839
     atom    3 type  1   force =    -0.00000305    0.00000000   -0.00038653
     atom    4 type  1   force =     0.00000000   -0.00000305   -0.00038653
     atom    5 type  1   force =     0.00000000    0.00000000    0.00037083
     atom    6 type  1   force =     0.00000471    0.00000471    0.00037810
     atom    7 type  1   force =     0.00000675    0.00000000    0.00063936
     atom    8 type  1   force =     0.00000000    0.00000675    0.00063936
     atom    9 type  1   force =     0.00000000    0.00000000   -0.00062744
     atom   10 type  1   force =    -0.00000111    0.00000111   -0.00062839
     atom   11 type  1   force =    -0.00000247    0.00000000   -0.00038453
     atom   12 type  1   force =     0.00000000    0.00000305   -0.00038653
     atom   13 type  1   force =     0.00000000    0.00000000    0.00037928
     atom   14 type  1   force =     0.00000471   -0.00000471    0.00037810
     atom   15 type  1   force =     0.00000823    0.00000000    0.00063075
     atom   16 type  1   force =     0.00000000   -0.00000675    0.00063936
     atom   17 type  1   force =     0.00000000    0.00000000   -0.00062744
     atom   18 type  1   force =     0.00000111   -0.00000111   -0.00062839
     atom   19 type  1   force =     0.00000305    0.00000000   -0.00038653
     atom   20 type  1   force =     0.00000000   -0.00000247   -0.00038453
     atom   21 type  1   force =     0.00000000    0.00000000    0.00037928
     atom   22 type  1   force =    -0.00000471    0.00000471    0.00037810
     atom   23 type  1   force =    -0.00000675    0.00000000    0.00063936
     atom   24 type  1   force =     0.00000000    0.00000823    0.00063075
     atom   25 type  1   force =     0.00000000    0.00000000   -0.00063892
     atom   26 type  1   force =     0.00000111    0.00000111   -0.00062839
     atom   27 type  1   force =     0.00000247    0.00000000   -0.00038453
     atom   28 type  1   force =     0.00000000    0.00000247   -0.00038453
     atom   29 type  1   force =     0.00000000    0.00000000    0.00038970
     atom   30 type  1   force =    -0.00000471   -0.00000471    0.00037810
     atom   31 type  1   force =    -0.00000823    0.00000000    0.00063075
     atom   32 type  1   force =     0.00000000   -0.00000823    0.00063075

     Total force =     0.002954     Total SCF correction =     0.000541
     SCF correction compared to forces is large: reduce conv_thr to get better values

     Computing stress (Cartesian axis) and pressure

          total   stress  (Ry/bohr**3)                   (kbar)     P=      -39.86
  -0.00033185   0.00000000   0.00000000          -48.82        0.00        0.00
   0.00000000  -0.00033185   0.00000000            0.00      -48.82        0.00
   0.00000000   0.00000000  -0.00014928            0.00        0.00      -21.96

     Energy error            =      5.5E-05
     Gradient error          =      6.4E-04

     bfgs converged in   4 scf cycles and   3 bfgs steps
     (criteria: energy <  1.0E-04 Ry, force <  1.0E-03 Ry/Bohr)

     End of BFGS Geometry Optimization

     Final energy   =  -16384.0660925869 Ry

     File /scratch/IXRBrJMcYqpItHry.bfgs deleted, as requested
Begin final coordinates

ATOMIC_POSITIONS (crystal)
Pd            0.0000000000        0.0000000000        0.0005451239
Pd            0.2500002244        0.2500002244        0.0005460904
Pd            0.2500014054        0.0000000000        0.1812755522
Pd           -0.0000000000        0.2500014054        0.1812755522
Pd            0.0000000000        0.0000000000        0.6368912416
Pd            0.2499973387        0.2499973387        0.6368901439
Pd            0.2499979465        0.0000000000        0.8176516004
Pd            0.0000000000        0.2499979465        0.8176516004
Pd            0.0000000000        0.5000000000        0.0005457277
Pd            0.2500002244        0.7499997756        0.0005460904
Pd            0.2500009151        0.5000000000        0.1812755484
Pd            0.0000000000        0.7499985946        0.1812755522
Pd            0.0000000000        0.5000000000        0.6368898195
Pd            0.2499973387        0.7500026613        0.6368901439
Pd            0.2499979387        0.5000000000        0.8176526112
Pd            0.0000000000        0.7500020535        0.8176516004
Pd            0.5000000000        0.0000000000        0.0005457277
Pd            0.7499997756        0.2500002244        0.0005460904
Pd            0.7499985946       -0.0000000000        0.1812755522
Pd            0.5000000000        0.2500009151        0.1812755484
Pd            0.5000000000        0.0000000000        0.6368898195
Pd            0.7500026613        0.2499973387        0.6368901439
Pd            0.7500020535        0.0000000000        0.8176516004
Pd            0.5000000000        0.2499979387        0.8176526112
Pd            0.5000000000        0.5000000000        0.0005479701
Pd            0.7499997756        0.7499997756        0.0005460904
Pd            0.7499990849        0.5000000000        0.1812755484
Pd            0.5000000000        0.7499990849        0.1812755484
Pd            0.5000000000        0.5000000000        0.6368874743
Pd            0.7500026613        0.7500026613        0.6368901439
Pd            0.7500020613        0.5000000000        0.8176526112
Pd            0.5000000000        0.7500020613        0.8176526112
End final coordinates

     Writing output data file /scratch/IXRBrJMcYqpItHry.save/

     General routines

     Parallel routines

   This run was terminated on:  16: 5:10   8Jan2022

   JOB DONE.