     Program PWSCF v.6.7MaX starts on  7Jan2022 at 19:32:56

     R & G space division:  proc/nbgrp/npool/nimage =      72
     Reading input from relax_21.in
Warning: card &CELL ignored
Warning: card CELL_DYNAMICS = 'BFGS', ignored
Warning: card CELL_FACTOR = 2.0, ignored
Warning: card PRESS = 0.0, ignored
Warning: card / ignored

     Current dimensions of program PWSCF are:
     Max number of different atomic species (ntypx) = 10
     Max number of k-points (npk) =  40000
     Max angular momentum in pseudopotentials (lmaxx) =  3
     file Pd.pbe-spn-kjpaw_psl.1.0.0.UPF: wavefunction(s)  4S 5S 4D renormalized

     Subspace diagonalization in iterative solution of the eigenvalue problem:
     one sub-group per band group will be used

     Found symmetry operation: I + (  0.2500  0.2500  0.0000)
     This is a supercell, fractional translations are disabled
     Message from routine setup:
     using ibrav=0 with symmetry is DISCOURAGED, use correct ibrav instead

     bravais-lattice index     =            0
     lattice parameter (alat)  =      14.8394  a.u.
     unit-cell volume          =    5310.1177 (a.u.)^3
     number of atoms/cell      =           32
     number of atomic types    =            1
     number of electrons       =       576.00
     number of Kohn-Sham states=          346
     kinetic-energy cutoff     =      71.0000  Ry
     charge density cutoff     =     430.0000  Ry
     scf convergence threshold =      1.0E-06
     mixing beta               =       0.1000
     number of iterations used =           10  TF        mixing
     energy convergence thresh.=      1.0E-04
     force convergence thresh. =      1.0E-03
     Exchange-correlation= SLA  PW   PBX  PBC
                           (   1   4   3   4   0   0   0)
     nstep                     =           40

     celldm(1)=  14.839420  celldm(2)=   0.000000  celldm(3)=   0.000000
     celldm(4)=   0.000000  celldm(5)=   0.000000  celldm(6)=   0.000000

     crystal axes: (cart. coord. in units of alat)
               a(1) = (   1.000000   0.000000   0.000000 )
               a(2) = (   0.000000   1.000000   0.000000 )
               a(3) = (   0.000000   0.000000   1.625000 )

     reciprocal axes: (cart. coord. in units 2 pi/alat)
               b(1) = (  1.000000  0.000000  0.000000 )
               b(2) = (  0.000000  1.000000  0.000000 )
               b(3) = (  0.000000  0.000000  0.615385 )

     PseudoPot. # 1 for Pd read from file:
     /rds/homes/b/bxp912/pp/Pd.pbe-spn-kjpaw_psl.1.0.0.UPF
     MD5 check sum: 790f2ebce206edfd9790dcb9844eca51
     Pseudo is Projector augmented-wave + core cor, Zval = 18.0
     Generated using &quot;atomic&quot; code by A. Dal Corso  v.6.3
     Shape of augmentation charge: PSQ
     Using radial grid of 1235 points,  6 beta functions with:
                l(1) =   0
                l(2) =   0
                l(3) =   1
                l(4) =   1
                l(5) =   2
                l(6) =   2
     Q(r) pseudized with 0 coefficients

     atomic species   valence    mass     pseudopotential
        Pd            18.00   106.42000     Pd( 1.00)

      8 Sym. Ops. (no inversion) found

   Cartesian axes

     site n.     atom                  positions (alat units)
         1           Pd  tau(   1) = (   0.0000000   0.0000000   0.0000000  )
         2           Pd  tau(   2) = (   0.2500000   0.2500000   0.0000000  )
         3           Pd  tau(   3) = (   0.2500000   0.0000000   0.2500000  )
         4           Pd  tau(   4) = (   0.0000000   0.2500000   0.2500000  )
         5           Pd  tau(   5) = (   0.0000000   0.0000000   1.1250000  )
         6           Pd  tau(   6) = (   0.2500000   0.2500000   1.1250000  )
         7           Pd  tau(   7) = (   0.2500000   0.0000000   1.3750000  )
         8           Pd  tau(   8) = (   0.0000000   0.2500000   1.3750000  )
         9           Pd  tau(   9) = (   0.0000000   0.5000000   0.0000000  )
        10           Pd  tau(  10) = (   0.2500000   0.7500000   0.0000000  )
        11           Pd  tau(  11) = (   0.2500000   0.5000000   0.2500000  )
        12           Pd  tau(  12) = (   0.0000000   0.7500000   0.2500000  )
        13           Pd  tau(  13) = (   0.0000000   0.5000000   1.1250000  )
        14           Pd  tau(  14) = (   0.2500000   0.7500000   1.1250000  )
        15           Pd  tau(  15) = (   0.2500000   0.5000000   1.3750000  )
        16           Pd  tau(  16) = (   0.0000000   0.7500000   1.3750000  )
        17           Pd  tau(  17) = (   0.5000000   0.0000000   0.0000000  )
        18           Pd  tau(  18) = (   0.7500000   0.2500000   0.0000000  )
        19           Pd  tau(  19) = (   0.7500000   0.0000000   0.2500000  )
        20           Pd  tau(  20) = (   0.5000000   0.2500000   0.2500000  )
        21           Pd  tau(  21) = (   0.5000000   0.0000000   1.1250000  )
        22           Pd  tau(  22) = (   0.7500000   0.2500000   1.1250000  )
        23           Pd  tau(  23) = (   0.7500000   0.0000000   1.3750000  )
        24           Pd  tau(  24) = (   0.5000000   0.2500000   1.3750000  )
        25           Pd  tau(  25) = (   0.5000000   0.5000000   0.0000000  )
        26           Pd  tau(  26) = (   0.7500000   0.7500000   0.0000000  )
        27           Pd  tau(  27) = (   0.7500000   0.5000000   0.2500000  )
        28           Pd  tau(  28) = (   0.5000000   0.7500000   0.2500000  )
        29           Pd  tau(  29) = (   0.5000000   0.5000000   1.1250000  )
        30           Pd  tau(  30) = (   0.7500000   0.7500000   1.1250000  )
        31           Pd  tau(  31) = (   0.7500000   0.5000000   1.3750000  )
        32           Pd  tau(  32) = (   0.5000000   0.7500000   1.3750000  )

     number of k points=    75  Marzari-Vanderbilt smearing, width (Ry)=  0.0400
                       cart. coord. in units 2pi/alat
        k(    1) = (   0.0555556   0.0555556   0.0341880), wk =   0.0219479
        k(    2) = (   0.0555556   0.0555556   0.1025641), wk =   0.0219479
        k(    3) = (   0.0555556   0.0555556   0.1709402), wk =   0.0219479
        k(    4) = (   0.0555556   0.0555556   0.2393162), wk =   0.0219479
        k(    5) = (   0.0555556   0.0555556  -0.3076923), wk =   0.0109739
        k(    6) = (   0.0555556   0.1666667   0.0341880), wk =   0.0438957
        k(    7) = (   0.0555556   0.1666667   0.1025641), wk =   0.0438957
        k(    8) = (   0.0555556   0.1666667   0.1709402), wk =   0.0438957
        k(    9) = (   0.0555556   0.1666667   0.2393162), wk =   0.0438957
        k(   10) = (   0.0555556   0.1666667  -0.3076923), wk =   0.0219479
        k(   11) = (   0.0555556   0.2777778   0.0341880), wk =   0.0438957
        k(   12) = (   0.0555556   0.2777778   0.1025641), wk =   0.0438957
        k(   13) = (   0.0555556   0.2777778   0.1709402), wk =   0.0438957
        k(   14) = (   0.0555556   0.2777778   0.2393162), wk =   0.0438957
        k(   15) = (   0.0555556   0.2777778  -0.3076923), wk =   0.0219479
        k(   16) = (   0.0555556   0.3888889   0.0341880), wk =   0.0438957
        k(   17) = (   0.0555556   0.3888889   0.1025641), wk =   0.0438957
        k(   18) = (   0.0555556   0.3888889   0.1709402), wk =   0.0438957
        k(   19) = (   0.0555556   0.3888889   0.2393162), wk =   0.0438957
        k(   20) = (   0.0555556   0.3888889  -0.3076923), wk =   0.0219479
        k(   21) = (   0.0555556  -0.5000000   0.0341880), wk =   0.0219479
        k(   22) = (   0.0555556  -0.5000000   0.1025641), wk =   0.0219479
        k(   23) = (   0.0555556  -0.5000000   0.1709402), wk =   0.0219479
        k(   24) = (   0.0555556  -0.5000000   0.2393162), wk =   0.0219479
        k(   25) = (   0.0555556  -0.5000000  -0.3076923), wk =   0.0109739
        k(   26) = (   0.1666667   0.1666667   0.0341880), wk =   0.0219479
        k(   27) = (   0.1666667   0.1666667   0.1025641), wk =   0.0219479
        k(   28) = (   0.1666667   0.1666667   0.1709402), wk =   0.0219479
        k(   29) = (   0.1666667   0.1666667   0.2393162), wk =   0.0219479
        k(   30) = (   0.1666667   0.1666667  -0.3076923), wk =   0.0109739
        k(   31) = (   0.1666667   0.2777778   0.0341880), wk =   0.0438957
        k(   32) = (   0.1666667   0.2777778   0.1025641), wk =   0.0438957
        k(   33) = (   0.1666667   0.2777778   0.1709402), wk =   0.0438957
        k(   34) = (   0.1666667   0.2777778   0.2393162), wk =   0.0438957
        k(   35) = (   0.1666667   0.2777778  -0.3076923), wk =   0.0219479
        k(   36) = (   0.1666667   0.3888889   0.0341880), wk =   0.0438957
        k(   37) = (   0.1666667   0.3888889   0.1025641), wk =   0.0438957
        k(   38) = (   0.1666667   0.3888889   0.1709402), wk =   0.0438957
        k(   39) = (   0.1666667   0.3888889   0.2393162), wk =   0.0438957
        k(   40) = (   0.1666667   0.3888889  -0.3076923), wk =   0.0219479
        k(   41) = (   0.1666667  -0.5000000   0.0341880), wk =   0.0219479
        k(   42) = (   0.1666667  -0.5000000   0.1025641), wk =   0.0219479
        k(   43) = (   0.1666667  -0.5000000   0.1709402), wk =   0.0219479
        k(   44) = (   0.1666667  -0.5000000   0.2393162), wk =   0.0219479
        k(   45) = (   0.1666667  -0.5000000  -0.3076923), wk =   0.0109739
        k(   46) = (   0.2777778   0.2777778   0.0341880), wk =   0.0219479
        k(   47) = (   0.2777778   0.2777778   0.1025641), wk =   0.0219479
        k(   48) = (   0.2777778   0.2777778   0.1709402), wk =   0.0219479
        k(   49) = (   0.2777778   0.2777778   0.2393162), wk =   0.0219479
        k(   50) = (   0.2777778   0.2777778  -0.3076923), wk =   0.0109739
        k(   51) = (   0.2777778   0.3888889   0.0341880), wk =   0.0438957
        k(   52) = (   0.2777778   0.3888889   0.1025641), wk =   0.0438957
        k(   53) = (   0.2777778   0.3888889   0.1709402), wk =   0.0438957
        k(   54) = (   0.2777778   0.3888889   0.2393162), wk =   0.0438957
        k(   55) = (   0.2777778   0.3888889  -0.3076923), wk =   0.0219479
        k(   56) = (   0.2777778  -0.5000000   0.0341880), wk =   0.0219479
        k(   57) = (   0.2777778  -0.5000000   0.1025641), wk =   0.0219479
        k(   58) = (   0.2777778  -0.5000000   0.1709402), wk =   0.0219479
        k(   59) = (   0.2777778  -0.5000000   0.2393162), wk =   0.0219479
        k(   60) = (   0.2777778  -0.5000000  -0.3076923), wk =   0.0109739
        k(   61) = (   0.3888889   0.3888889   0.0341880), wk =   0.0219479
        k(   62) = (   0.3888889   0.3888889   0.1025641), wk =   0.0219479
        k(   63) = (   0.3888889   0.3888889   0.1709402), wk =   0.0219479
        k(   64) = (   0.3888889   0.3888889   0.2393162), wk =   0.0219479
        k(   65) = (   0.3888889   0.3888889  -0.3076923), wk =   0.0109739
        k(   66) = (   0.3888889  -0.5000000   0.0341880), wk =   0.0219479
        k(   67) = (   0.3888889  -0.5000000   0.1025641), wk =   0.0219479
        k(   68) = (   0.3888889  -0.5000000   0.1709402), wk =   0.0219479
        k(   69) = (   0.3888889  -0.5000000   0.2393162), wk =   0.0219479
        k(   70) = (   0.3888889  -0.5000000  -0.3076923), wk =   0.0109739
[...]

     Computing stress (Cartesian axis) and pressure

          total   stress  (Ry/bohr**3)                   (kbar)     P=      -34.03
  -0.00029022   0.00000000   0.00000000          -42.69        0.00        0.00
   0.00000000  -0.00029022   0.00000000            0.00      -42.69        0.00
   0.00000000   0.00000000  -0.00011363            0.00        0.00      -16.72

     BFGS Geometry Optimization
     Energy error            =      0.0E+00
     Gradient error          =      4.2E-03

     number of scf cycles    =   1
     number of bfgs steps    =   0

     energy   new            =  -16384.0512280801 Ry

     new trust radius        =       0.0042456220 bohr
     new conv_thr            =       0.0000010000 Ry

ATOMIC_POSITIONS (crystal)
Pd            0.0000000000        0.0000000000        0.0001336223
Pd            0.2499999642        0.2499999642        0.0001336815
Pd            0.2500002032        0.0000000000        0.1536700897
Pd            0.0000000000        0.2500002032        0.1536700897
Pd            0.0000000000        0.0000000000        0.6924771751
Pd            0.2499997081        0.2499997081        0.6924768316
Pd            0.2500000502        0.0000000000        0.8460268173
Pd            0.0000000000        0.2500000502        0.8460268173
Pd            0.0000000000        0.5000000000        0.0001337728
Pd            0.2499999642        0.7500000358        0.0001336815
Pd            0.2499998414        0.5000000000        0.1536701027
Pd            0.0000000000        0.7499997968        0.1536700897
Pd            0.0000000000        0.5000000000        0.6924771903
Pd            0.2499997081        0.7500002919        0.6924768316
Pd            0.2499995934        0.5000000000        0.8460269590
Pd            0.0000000000        0.7499999498        0.8460268173
Pd            0.5000000000        0.0000000000        0.0001337728
Pd            0.7500000358        0.2499999642        0.0001336815
Pd            0.7499997968        0.0000000000        0.1536700897
Pd            0.5000000000        0.2499998414        0.1536701027
Pd            0.5000000000        0.0000000000        0.6924771903
Pd            0.7500002919        0.2499997081        0.6924768316
Pd            0.7499999498        0.0000000000        0.8460268173
Pd            0.5000000000        0.2499995934        0.8460269590
Pd            0.5000000000        0.5000000000        0.0001337779
Pd            0.7500000358        0.7500000358        0.0001336815
Pd            0.7500001586        0.5000000000        0.1536701027
Pd            0.5000000000        0.7500001586        0.1536701027
Pd            0.5000000000        0.5000000000        0.6924771099
Pd            0.7500002919        0.7500002919        0.6924768316
Pd            0.7500004066        0.5000000000        0.8460269590
Pd            0.5000000000        0.7500004066        0.8460269590

     Writing output data file /scratch/SEJdTpKtxIcygsnh.save/
     NEW-OLD atomic charge density approx. for the potential

[...]

     Total force =     0.014717     Total SCF correction =     0.003349
     SCF correction compared to forces is large: reduce conv_thr to get better values

[...]

     Energy error            =      3.8E-04
     Gradient error          =      3.5E-03

[...]

     energy   old            =  -16384.0512280801 Ry
     energy   new            =  -16384.0516101444 Ry

     CASE: energy  _new < energy  _old

[...]

     Total force =     0.007163     Total SCF correction =     0.000586

[...]

     number of scf cycles    =   8
     number of bfgs steps    =   7

     energy   old            =  -16384.0524571317 Ry
     energy   new            =  -16384.0525648880 Ry

     CASE: energy  _new < energy  _old

     new trust radius        =       0.0027422796 bohr
     new conv_thr            =       0.0000000100 Ry

ATOMIC_POSITIONS (crystal)
Pd            0.0000000000        0.0000000000       -0.0000953654
Pd            0.2499998238        0.2499998238       -0.0000952420
Pd            0.2500000838        0.0000000000        0.1520313113
Pd            0.0000000000        0.2500000838        0.1520313113
Pd            0.0000000000        0.0000000000        0.6941122057
Pd            0.2499994102        0.2499994102        0.6941118576
Pd            0.2499992810        0.0000000000        0.8462592331
Pd            0.0000000000        0.2499992810        0.8462592331
Pd            0.0000000000        0.5000000000       -0.0000949148
Pd            0.2499998238        0.7500001762       -0.0000952420
Pd            0.2500004996        0.5000000000        0.1520315071
Pd            0.0000000000        0.7499999162        0.1520313113
Pd            0.0000000000        0.5000000000        0.6941121145
Pd            0.2499994102        0.7500005898        0.6941118576
Pd            0.2499994529        0.5000000000        0.8462595691
Pd            0.0000000000        0.7500007190        0.8462592331
Pd            0.5000000000        0.0000000000       -0.0000949148
Pd            0.7500001762        0.2499998238       -0.0000952420
Pd            0.7499999162        0.0000000000        0.1520313113
Pd            0.5000000000        0.2500004996        0.1520315071
Pd            0.5000000000        0.0000000000        0.6941121145
Pd            0.7500005898        0.2499994102        0.6941118576
Pd            0.7500007190        0.0000000000        0.8462592331
Pd            0.5000000000        0.2499994529        0.8462595691
Pd            0.5000000000        0.5000000000       -0.0000946816
Pd            0.7500001762        0.7500001762       -0.0000952420
Pd            0.7499995004        0.5000000000        0.1520315071
Pd            0.5000000000        0.7499995004        0.1520315071
Pd            0.5000000000        0.5000000000        0.6941120358
Pd            0.7500005898        0.7500005898        0.6941118576
Pd            0.7500005471        0.5000000000        0.8462595691
Pd            0.5000000000        0.7500005471        0.8462595691

     Writing output data file /scratch/SEJdTpKtxIcygsnh.save/
     NEW-OLD atomic charge density approx. for the potential

     Check: negative core charge=   -0.000001

     Self-consistent Calculation

[...]

     Threshold (ethr) on eigenvalues was too large:
     Diagonalizing with lowered threshold

     Davidson diagonalization with overlap
     ethr =  2.81E-09,  avg # of iterations =  5.3

[...]

     iteration #  9     ecut=    71.00 Ry     beta= 0.10
     Davidson diagonalization with overlap
     ethr =  2.51E-12,  avg # of iterations =  1.4

     total energy              =  -16384.05258477 Ry
     estimated scf accuracy    <       0.00000001 Ry

     iteration # 10     ecut=    71.00 Ry     beta= 0.10
     Davidson diagonalization with overlap
     c_bands:  1 eigenvalues not converged
     ethr =  1.99E-12,  avg # of iterations =  2.2

     End of self-consistent calculation

[...]

          k = 0.3889-0.5000-0.3077 ( 53620 PWs)   bands (ev):

[...]

          k =-0.5000-0.5000-0.3077 ( 53544 PWs)   bands (ev):

   -74.2680 -74.2680 -74.2680 -74.2680 -74.2450 -74.2450 -74.2450 -74.2450
   -74.2403 -74.2403 -74.2403 -74.2403 -74.2401 -74.2401 -74.2401 -74.2401
   -73.6806 -73.6806 -73.6806 -73.6806 -73.6804 -73.6803 -73.6803 -73.6803
   -73.6646 -73.6646 -73.6646 -73.6646 -73.6644 -73.6644 -73.6644 -73.6644
   -40.0939 -40.0939 -40.0939 -40.0939 -40.0937 -40.0937 -40.0937 -40.0937
   -40.0830 -40.0830 -40.0830 -40.0830 -40.0304 -40.0304 -40.0304 -40.0304
   -39.9705 -39.9705 -39.9705 -39.9705 -39.9703 -39.9703 -39.9703 -39.9703
   -39.9280 -39.9280 -39.9280 -39.9280 -39.9265 -39.9265 -39.9265 -39.9265
   -39.9263 -39.9263 -39.9263 -39.9263 -39.9066 -39.9066 -39.9066 -39.9066
   -39.8843 -39.8843 -39.8843 -39.8843 -39.8342 -39.8342 -39.8342 -39.8342
   -39.5549 -39.5549 -39.5549 -39.5549 -39.5547 -39.5547 -39.5547 -39.5547
   -39.4717 -39.4717 -39.4717 -39.4717 -39.4690 -39.4690 -39.4690 -39.4690
   -39.4573 -39.4573 -39.4573 -39.4573 -39.4571 -39.4571 -39.4571 -39.4571
   -39.3688 -39.3688 -39.3688 -39.3688 -39.3686 -39.3686 -39.3686 -39.3686
   -39.2823 -39.2823 -39.2823 -39.2823 -39.2814 -39.2814 -39.2814 -39.2814
   -39.2704 -39.2704 -39.2704 -39.2704 -39.2701 -39.2701 -39.2701 -39.2701
     4.6349   4.6349   4.6349   4.6349   5.2601   5.2601   5.2601   5.2601
     5.5871   5.5871   5.5871   5.5871   5.5873   5.5873   5.5873   5.5873
     5.6965   5.6965   5.6965   5.6965   5.7582   5.7582   5.7582   5.7582
     5.7583   5.7583   5.7583   5.7583   5.8452   5.8452   5.8452   5.8452
     6.1374   6.1374   6.1374   6.1374   6.4515   6.4516   6.4516   6.4516
     6.4521   6.4521   6.4521   6.4521   6.7606   6.7606   6.7606   6.7606
     6.7608   6.7608   6.7608   6.7608   6.9327   6.9327   6.9327   6.9327
     7.1657   7.1657   7.1657   7.1657   7.4237   7.4237   7.4237   7.4237
     7.5359   7.5359   7.5359   7.5359   7.5427   7.5427   7.5427   7.5427
     7.6257   7.6257   7.6257   7.6257   7.7384   7.7384   7.7385   7.7385
     7.7385   7.7385   7.7385   7.7385   7.7646   7.7646   7.7646   7.7647
     8.0809   8.0809   8.0809   8.0809   8.2131   8.2131   8.2131   8.2131
     8.3365   8.3365   8.3365   8.3365   8.3367   8.3367   8.3367   8.3367
     8.3717   8.3717   8.3717   8.3717   8.3719   8.3719   8.3719   8.3719
     8.3842   8.3842   8.3842   8.3842   8.6070   8.6070   8.6070   8.6070
     8.9523   8.9523   8.9523   8.9523   8.9524   8.9524   8.9524   8.9524
     8.9635   8.9635   8.9636   8.9636   9.0725   9.0725   9.0725   9.0725
     9.2133   9.2133   9.2133   9.2133   9.4231   9.4231   9.4231   9.4231
     9.5537   9.5537   9.5537   9.5537   9.5537   9.5537   9.5537   9.5537
     9.8478   9.8478   9.8478   9.8478   9.8978   9.8978   9.8978   9.8978
     9.8978   9.8978   9.8978   9.8978   9.9161   9.9161   9.9161   9.9161
    10.7338  10.7338  10.7338  10.7338  12.9332  12.9332  12.9332  12.9332
    13.1501  13.1501  13.1501  13.1501  13.1502  13.1502  13.1502  13.1502
    14.2745  14.2745  14.2745  14.2745  14.2746  14.2746  14.2746  14.2746
    15.5494  15.5494  15.5494  15.5494  16.3104  16.3104  16.3104  16.3104
    16.3105  16.3105  16.3105  16.3105  16.8478  16.8478  16.8478  16.8478
    18.5069  18.5069  18.5069  18.5069  18.6030  18.6030  18.6031  18.6031
    18.6033  18.6033

     the Fermi energy is     9.9120 ev

!    total energy              =  -16384.05258478 Ry

     total all-electron energy =   -322944.906292 Ry
     estimated scf accuracy    <          2.5E-09 Ry
     smearing contrib. (-TS)   =       0.12003234 Ry
     internal energy E=F+TS    =  -16384.17261713 Ry

     The total energy is F=E-TS. E is the sum of the following terms:
     one-electron contribution =  -14795.63682734 Ry
     hartree contribution      =    7621.99354827 Ry
     xc contribution           =    -985.50412574 Ry
     ewald contribution        =     -57.68837335 Ry
     one-center paw contrib.   =   -8167.33683897 Ry

     convergence has been achieved in  10 iterations

     Forces acting on atoms (cartesian axes, Ry/au):

     atom    1 type  1   force =     0.00000000    0.00000000   -0.00034281
     atom    2 type  1   force =    -0.00000050   -0.00000050   -0.00034360
     atom    3 type  1   force =    -0.00000078    0.00000000    0.00018819
     atom    4 type  1   force =     0.00000000   -0.00000078    0.00018819
     atom    5 type  1   force =     0.00000000    0.00000000   -0.00008774
     atom    6 type  1   force =     0.00000066    0.00000066   -0.00008654
     atom    7 type  1   force =     0.00000171    0.00000000    0.00024356
     atom    8 type  1   force =     0.00000000    0.00000171    0.00024356
     atom    9 type  1   force =     0.00000000    0.00000000   -0.00034507
     atom   10 type  1   force =    -0.00000050    0.00000050   -0.00034360
     atom   11 type  1   force =    -0.00000172    0.00000000    0.00018859
     atom   12 type  1   force =     0.00000000    0.00000078    0.00018819
     atom   13 type  1   force =     0.00000000    0.00000000   -0.00008633
     atom   14 type  1   force =     0.00000066   -0.00000066   -0.00008654
     atom   15 type  1   force =     0.00000078    0.00000000    0.00024136
     atom   16 type  1   force =     0.00000000   -0.00000171    0.00024356
     atom   17 type  1   force =     0.00000000    0.00000000   -0.00034507
     atom   18 type  1   force =     0.00000050   -0.00000050   -0.00034360
     atom   19 type  1   force =     0.00000078    0.00000000    0.00018819
     atom   20 type  1   force =     0.00000000   -0.00000172    0.00018859
     atom   21 type  1   force =     0.00000000    0.00000000   -0.00008633
     atom   22 type  1   force =    -0.00000066    0.00000066   -0.00008654
     atom   23 type  1   force =    -0.00000171    0.00000000    0.00024356
     atom   24 type  1   force =     0.00000000    0.00000078    0.00024136
     atom   25 type  1   force =     0.00000000    0.00000000   -0.00034725
     atom   26 type  1   force =     0.00000050    0.00000050   -0.00034360
     atom   27 type  1   force =     0.00000172    0.00000000    0.00018859
     atom   28 type  1   force =     0.00000000    0.00000172    0.00018859
     atom   29 type  1   force =     0.00000000    0.00000000   -0.00008560
     atom   30 type  1   force =    -0.00000066   -0.00000066   -0.00008654
     atom   31 type  1   force =    -0.00000078    0.00000000    0.00024136
     atom   32 type  1   force =     0.00000000   -0.00000078    0.00024136

     Total force =     0.001328     Total SCF correction =     0.000134
     SCF correction compared to forces is large: reduce conv_thr to get better values

     Computing stress (Cartesian axis) and pressure

          total   stress  (Ry/bohr**3)                   (kbar)     P=      -27.87
  -0.00025342   0.00000000   0.00000000          -37.28        0.00        0.00
   0.00000000  -0.00025342   0.00000000            0.00      -37.28        0.00
   0.00000000   0.00000000  -0.00006161            0.00        0.00       -9.06

     Energy error            =      2.0E-05
     Gradient error          =      3.5E-04

     bfgs converged in   9 scf cycles and   8 bfgs steps
     (criteria: energy <  1.0E-04 Ry, force <  1.0E-03 Ry/Bohr)

     End of BFGS Geometry Optimization

     Final energy   =  -16384.0525847845 Ry

     File /scratch/SEJdTpKtxIcygsnh.bfgs deleted, as requested
Begin final coordinates

ATOMIC_POSITIONS (crystal)
Pd            0.0000000000        0.0000000000       -0.0000953654
Pd            0.2499998238        0.2499998238       -0.0000952420
Pd            0.2500000838        0.0000000000        0.1520313113
Pd            0.0000000000        0.2500000838        0.1520313113
Pd            0.0000000000        0.0000000000        0.6941122057
Pd            0.2499994102        0.2499994102        0.6941118576
Pd            0.2499992810        0.0000000000        0.8462592331
Pd            0.0000000000        0.2499992810        0.8462592331
Pd            0.0000000000        0.5000000000       -0.0000949148
Pd            0.2499998238        0.7500001762       -0.0000952420
Pd            0.2500004996        0.5000000000        0.1520315071
Pd            0.0000000000        0.7499999162        0.1520313113
Pd            0.0000000000        0.5000000000        0.6941121145
Pd            0.2499994102        0.7500005898        0.6941118576
Pd            0.2499994529        0.5000000000        0.8462595691
Pd            0.0000000000        0.7500007190        0.8462592331
Pd            0.5000000000        0.0000000000       -0.0000949148
Pd            0.7500001762        0.2499998238       -0.0000952420
Pd            0.7499999162        0.0000000000        0.1520313113
Pd            0.5000000000        0.2500004996        0.1520315071
Pd            0.5000000000        0.0000000000        0.6941121145
Pd            0.7500005898        0.2499994102        0.6941118576
Pd            0.7500007190        0.0000000000        0.8462592331
Pd            0.5000000000        0.2499994529        0.8462595691
Pd            0.5000000000        0.5000000000       -0.0000946816
Pd            0.7500001762        0.7500001762       -0.0000952420
Pd            0.7499995004        0.5000000000        0.1520315071
Pd            0.5000000000        0.7499995004        0.1520315071
Pd            0.5000000000        0.5000000000        0.6941120358
Pd            0.7500005898        0.7500005898        0.6941118576
Pd            0.7500005471        0.5000000000        0.8462595691
Pd            0.5000000000        0.7500005471        0.8462595691
End final coordinates

     Writing output data file /scratch/SEJdTpKtxIcygsnh.save/

     General routines

     Parallel routines

   This run was terminated on:  23: 7:18   7Jan2022

   JOB DONE.