     Program PWSCF v.6.7MaX starts on  8Jan2022 at 23:46:25

     R & G space division:  proc/nbgrp/npool/nimage =      72
     Reading input from relax_9.in
Warning: card &CELL ignored
Warning: card CELL_DYNAMICS = 'BFGS', ignored
Warning: card CELL_FACTOR = 2.0, ignored
Warning: card PRESS = 0.0, ignored
Warning: card / ignored

     Current dimensions of program PWSCF are:
     Max number of different atomic species (ntypx) = 10
     Max number of k-points (npk) =  40000
     Max angular momentum in pseudopotentials (lmaxx) =  3
     file Pd.pbe-spn-kjpaw_psl.1.0.0.UPF: wavefunction(s)  4S 5S 4D renormalized

     Subspace diagonalization in iterative solution of the eigenvalue problem:
     one sub-group per band group will be used

     Found symmetry operation: I + (  0.2500  0.2500  0.0000)
     This is a supercell, fractional translations are disabled
     Message from routine setup:
     using ibrav=0 with symmetry is DISCOURAGED, use correct ibrav instead

     bravais-lattice index     =            0
     lattice parameter (alat)  =      14.8394  a.u.
     unit-cell volume          =    4084.7059 (a.u.)^3
     number of atoms/cell      =           32
     number of atomic types    =            1
     number of electrons       =       576.00
     number of Kohn-Sham states=          346
     kinetic-energy cutoff     =      71.0000  Ry
     charge density cutoff     =     430.0000  Ry
     scf convergence threshold =      1.0E-06
     mixing beta               =       0.1000
     number of iterations used =           10  TF        mixing
     energy convergence thresh.=      1.0E-04
     force convergence thresh. =      1.0E-03
     Exchange-correlation= SLA  PW   PBX  PBC
                           (   1   4   3   4   0   0   0)
     nstep                     =           40

     celldm(1)=  14.839420  celldm(2)=   0.000000  celldm(3)=   0.000000
     celldm(4)=   0.000000  celldm(5)=   0.000000  celldm(6)=   0.000000

     crystal axes: (cart. coord. in units of alat)
               a(1) = (   1.000000   0.000000   0.000000 )
               a(2) = (   0.000000   1.000000   0.000000 )
               a(3) = (   0.000000   0.000000   1.250000 )

     reciprocal axes: (cart. coord. in units 2 pi/alat)
               b(1) = (  1.000000  0.000000  0.000000 )
               b(2) = (  0.000000  1.000000  0.000000 )
               b(3) = (  0.000000  0.000000  0.800000 )

     PseudoPot. # 1 for Pd read from file:
     /rds/homes/b/bxp912/pp/Pd.pbe-spn-kjpaw_psl.1.0.0.UPF
     MD5 check sum: 790f2ebce206edfd9790dcb9844eca51
     Pseudo is Projector augmented-wave + core cor, Zval = 18.0
     Generated using &quot;atomic&quot; code by A. Dal Corso  v.6.3
     Shape of augmentation charge: PSQ
     Using radial grid of 1235 points,  6 beta functions with:
                l(1) =   0
                l(2) =   0
                l(3) =   1
                l(4) =   1
                l(5) =   2
                l(6) =   2
     Q(r) pseudized with 0 coefficients

     atomic species   valence    mass     pseudopotential
        Pd            18.00   106.42000     Pd( 1.00)

      8 Sym. Ops. (no inversion) found

   Cartesian axes

     site n.     atom                  positions (alat units)
         1           Pd  tau(   1) = (   0.0000000   0.0000000   0.0000000  )
         2           Pd  tau(   2) = (   0.2500000   0.2500000   0.0000000  )
         3           Pd  tau(   3) = (   0.2500000   0.0000000   0.2500000  )
         4           Pd  tau(   4) = (   0.0000000   0.2500000   0.2500000  )
         5           Pd  tau(   5) = (   0.0000000   0.0000000   0.7500000  )
         6           Pd  tau(   6) = (   0.2500000   0.2500000   0.7500000  )
         7           Pd  tau(   7) = (   0.2500000   0.0000000   1.0000000  )
         8           Pd  tau(   8) = (   0.0000000   0.2500000   1.0000000  )
         9           Pd  tau(   9) = (   0.0000000   0.5000000   0.0000000  )
        10           Pd  tau(  10) = (   0.2500000   0.7500000   0.0000000  )
        11           Pd  tau(  11) = (   0.2500000   0.5000000   0.2500000  )
        12           Pd  tau(  12) = (   0.0000000   0.7500000   0.2500000  )
        13           Pd  tau(  13) = (   0.0000000   0.5000000   0.7500000  )
        14           Pd  tau(  14) = (   0.2500000   0.7500000   0.7500000  )
        15           Pd  tau(  15) = (   0.2500000   0.5000000   1.0000000  )
        16           Pd  tau(  16) = (   0.0000000   0.7500000   1.0000000  )
        17           Pd  tau(  17) = (   0.5000000   0.0000000   0.0000000  )
        18           Pd  tau(  18) = (   0.7500000   0.2500000   0.0000000  )
        19           Pd  tau(  19) = (   0.7500000   0.0000000   0.2500000  )
        20           Pd  tau(  20) = (   0.5000000   0.2500000   0.2500000  )
        21           Pd  tau(  21) = (   0.5000000   0.0000000   0.7500000  )
        22           Pd  tau(  22) = (   0.7500000   0.2500000   0.7500000  )
        23           Pd  tau(  23) = (   0.7500000   0.0000000   1.0000000  )
        24           Pd  tau(  24) = (   0.5000000   0.2500000   1.0000000  )
        25           Pd  tau(  25) = (   0.5000000   0.5000000   0.0000000  )
        26           Pd  tau(  26) = (   0.7500000   0.7500000   0.0000000  )
        27           Pd  tau(  27) = (   0.7500000   0.5000000   0.2500000  )
        28           Pd  tau(  28) = (   0.5000000   0.7500000   0.2500000  )
        29           Pd  tau(  29) = (   0.5000000   0.5000000   0.7500000  )
        30           Pd  tau(  30) = (   0.7500000   0.7500000   0.7500000  )
        31           Pd  tau(  31) = (   0.7500000   0.5000000   1.0000000  )
        32           Pd  tau(  32) = (   0.5000000   0.7500000   1.0000000  )

     number of k points=    75  Marzari-Vanderbilt smearing, width (Ry)=  0.0400
                       cart. coord. in units 2pi/alat
        k(    1) = (   0.0555556   0.0555556   0.0444444), wk =   0.0219479
        k(    2) = (   0.0555556   0.0555556   0.1333333), wk =   0.0219479
        k(    3) = (   0.0555556   0.0555556   0.2222222), wk =   0.0219479
        k(    4) = (   0.0555556   0.0555556   0.3111111), wk =   0.0219479
        k(    5) = (   0.0555556   0.0555556  -0.4000000), wk =   0.0109739
        k(    6) = (   0.0555556   0.1666667   0.0444444), wk =   0.0438957
        k(    7) = (   0.0555556   0.1666667   0.1333333), wk =   0.0438957
        k(    8) = (   0.0555556   0.1666667   0.2222222), wk =   0.0438957
        k(    9) = (   0.0555556   0.1666667   0.3111111), wk =   0.0438957
        k(   10) = (   0.0555556   0.1666667  -0.4000000), wk =   0.0219479
        k(   11) = (   0.0555556   0.2777778   0.0444444), wk =   0.0438957
        k(   12) = (   0.0555556   0.2777778   0.1333333), wk =   0.0438957
        k(   13) = (   0.0555556   0.2777778   0.2222222), wk =   0.0438957
        k(   14) = (   0.0555556   0.2777778   0.3111111), wk =   0.0438957
        k(   15) = (   0.0555556   0.2777778  -0.4000000), wk =   0.0219479
        k(   16) = (   0.0555556   0.3888889   0.0444444), wk =   0.0438957
        k(   17) = (   0.0555556   0.3888889   0.1333333), wk =   0.0438957
        k(   18) = (   0.0555556   0.3888889   0.2222222), wk =   0.0438957
        k(   19) = (   0.0555556   0.3888889   0.3111111), wk =   0.0438957
        k(   20) = (   0.0555556   0.3888889  -0.4000000), wk =   0.0219479
        k(   21) = (   0.0555556  -0.5000000   0.0444444), wk =   0.0219479
        k(   22) = (   0.0555556  -0.5000000   0.1333333), wk =   0.0219479
        k(   23) = (   0.0555556  -0.5000000   0.2222222), wk =   0.0219479
        k(   24) = (   0.0555556  -0.5000000   0.3111111), wk =   0.0219479
        k(   25) = (   0.0555556  -0.5000000  -0.4000000), wk =   0.0109739
        k(   26) = (   0.1666667   0.1666667   0.0444444), wk =   0.0219479
        k(   27) = (   0.1666667   0.1666667   0.1333333), wk =   0.0219479
        k(   28) = (   0.1666667   0.1666667   0.2222222), wk =   0.0219479
        k(   29) = (   0.1666667   0.1666667   0.3111111), wk =   0.0219479
        k(   30) = (   0.1666667   0.1666667  -0.4000000), wk =   0.0109739
        k(   31) = (   0.1666667   0.2777778   0.0444444), wk =   0.0438957
        k(   32) = (   0.1666667   0.2777778   0.1333333), wk =   0.0438957
        k(   33) = (   0.1666667   0.2777778   0.2222222), wk =   0.0438957
        k(   34) = (   0.1666667   0.2777778   0.3111111), wk =   0.0438957
        k(   35) = (   0.1666667   0.2777778  -0.4000000), wk =   0.0219479
        k(   36) = (   0.1666667   0.3888889   0.0444444), wk =   0.0438957
        k(   37) = (   0.1666667   0.3888889   0.1333333), wk =   0.0438957
        k(   38) = (   0.1666667   0.3888889   0.2222222), wk =   0.0438957
        k(   39) = (   0.1666667   0.3888889   0.3111111), wk =   0.0438957
        k(   40) = (   0.1666667   0.3888889  -0.4000000), wk =   0.0219479
        k(   41) = (   0.1666667  -0.5000000   0.0444444), wk =   0.0219479
        k(   42) = (   0.1666667  -0.5000000   0.1333333), wk =   0.0219479
        k(   43) = (   0.1666667  -0.5000000   0.2222222), wk =   0.0219479
        k(   44) = (   0.1666667  -0.5000000   0.3111111), wk =   0.0219479
        k(   45) = (   0.1666667  -0.5000000  -0.4000000), wk =   0.0109739
        k(   46) = (   0.2777778   0.2777778   0.0444444), wk =   0.0219479
        k(   47) = (   0.2777778   0.2777778   0.1333333), wk =   0.0219479
        k(   48) = (   0.2777778   0.2777778   0.2222222), wk =   0.0219479
        k(   49) = (   0.2777778   0.2777778   0.3111111), wk =   0.0219479
        k(   50) = (   0.2777778   0.2777778  -0.4000000), wk =   0.0109739
        k(   51) = (   0.2777778   0.3888889   0.0444444), wk =   0.0438957
        k(   52) = (   0.2777778   0.3888889   0.1333333), wk =   0.0438957
        k(   53) = (   0.2777778   0.3888889   0.2222222), wk =   0.0438957
        k(   54) = (   0.2777778   0.3888889   0.3111111), wk =   0.0438957
        k(   55) = (   0.2777778   0.3888889  -0.4000000), wk =   0.0219479
        k(   56) = (   0.2777778  -0.5000000   0.0444444), wk =   0.0219479
        k(   57) = (   0.2777778  -0.5000000   0.1333333), wk =   0.0219479
        k(   58) = (   0.2777778  -0.5000000   0.2222222), wk =   0.0219479
        k(   59) = (   0.2777778  -0.5000000   0.3111111), wk =   0.0219479
        k(   60) = (   0.2777778  -0.5000000  -0.4000000), wk =   0.0109739
        k(   61) = (   0.3888889   0.3888889   0.0444444), wk =   0.0219479
        k(   62) = (   0.3888889   0.3888889   0.1333333), wk =   0.0219479
        k(   63) = (   0.3888889   0.3888889   0.2222222), wk =   0.0219479
        k(   64) = (   0.3888889   0.3888889   0.3111111), wk =   0.0219479
        k(   65) = (   0.3888889   0.3888889  -0.4000000), wk =   0.0109739
        k(   66) = (   0.3888889  -0.5000000   0.0444444), wk =   0.0219479
        k(   67) = (   0.3888889  -0.5000000   0.1333333), wk =   0.0219479
        k(   68) = (   0.3888889  -0.5000000   0.2222222), wk =   0.0219479
        k(   69) = (   0.3888889  -0.5000000   0.3111111), wk =   0.0219479
        k(   70) = (   0.3888889  -0.5000000  -0.4000000), wk =   0.0109739
[...]
  -0.00036926   0.00000000   0.00000000          -54.32        0.00        0.00
   0.00000000  -0.00036926   0.00000000            0.00      -54.32        0.00
   0.00000000   0.00000000  -0.00030033            0.00        0.00      -44.18

     BFGS Geometry Optimization
     Energy error            =      0.0E+00
     Gradient error          =      6.7E-03

     number of scf cycles    =   1
     number of bfgs steps    =   0

     energy   new            =  -16384.1438254299 Ry

     new trust radius        =       0.0067184932 bohr
     new conv_thr            =       0.0000010000 Ry

ATOMIC_POSITIONS (crystal)
Pd            0.0000000000        0.0000000000        0.0002167227
Pd            0.2499999014        0.2499999014        0.0002175040
Pd            0.2499998407        0.0000000000        0.2003595842
Pd            0.0000000000        0.2499998407        0.2003595842
Pd            0.0000000000        0.0000000000        0.5996378029
Pd            0.2499983452        0.2499983452        0.5996380570
Pd            0.2500001236        0.0000000000        0.7997837728
Pd            0.0000000000        0.2500001236        0.7997837728
Pd            0.0000000000        0.5000000000        0.0002176222
Pd            0.2499999014        0.7500000986        0.0002175040
Pd            0.2500007232        0.5000000000        0.2003589994
Pd            0.0000000000        0.7500001593        0.2003595842
Pd            0.0000000000        0.5000000000        0.5996388216
Pd            0.2499983452        0.7500016548        0.5996380570
Pd            0.2499995554        0.5000000000        0.7997860508
Pd            0.0000000000        0.7499998764        0.7997837728
Pd            0.5000000000        0.0000000000        0.0002176222
Pd            0.7500000986        0.2499999014        0.0002175040
Pd            0.7500001593        0.0000000000        0.2003595842
Pd            0.5000000000        0.2500007232        0.2003589994
Pd            0.5000000000        0.0000000000        0.5996388216
Pd            0.7500016548        0.2499983452        0.5996380570
Pd            0.7499998764        0.0000000000        0.7997837728
Pd            0.5000000000        0.2499995554        0.7997860508
Pd            0.5000000000        0.5000000000        0.0002180877
Pd            0.7500000986        0.7500000986        0.0002175040
Pd            0.7499992768        0.5000000000        0.2003589994
Pd            0.5000000000        0.7499992768        0.2003589994
Pd            0.5000000000        0.5000000000        0.5996386262
Pd            0.7500016548        0.7500016548        0.5996380570
Pd            0.7500004446        0.5000000000        0.7997860508
Pd            0.5000000000        0.7500004446        0.7997860508

     Writing output data file /scratch/waOFjOavJyNzVuIx.save/
     NEW-OLD atomic charge density approx. for the potential

[...]

     Energy error            =      9.2E-04
     Gradient error          =      6.7E-03

[...]

     energy   old            =  -16384.1438254299 Ry
     energy   new            =  -16384.1447442415 Ry

     CASE: energy  _new < energy  _old

     WARNING: bfgs curvature condition failed, Theta= 0.837
     new trust radius        =       0.0073903425 bohr
     new conv_thr            =       0.0000000668 Ry

[...]

     Total force =     0.027736     Total SCF correction =     0.000669

[...]

     iteration # 11     ecut=    71.00 Ry     beta= 0.10
     Davidson diagonalization with overlap
     c_bands:  1 eigenvalues not converged
     ethr =  8.79E-11,  avg # of iterations =  1.3

[...]

     Total force =     0.004062     Total SCF correction =     0.000917
     SCF correction compared to forces is large: reduce conv_thr to get better values

[...]

     number of scf cycles    =   9
     number of bfgs steps    =   8

     energy   old            =  -16384.1545009872 Ry
     energy   new            =  -16384.1546033308 Ry

     CASE: energy  _new < energy  _old

     new trust radius        =       0.0034858546 bohr
     new conv_thr            =       0.0000000100 Ry

ATOMIC_POSITIONS (crystal)
Pd            0.0000000000        0.0000000000        0.0043407778
Pd            0.2499975128        0.2499975128        0.0043460711
Pd            0.2499992687        0.0000000000        0.2096609204
Pd            0.0000000000        0.2499992687        0.2096609204
Pd            0.0000000000        0.0000000000        0.5903234322
Pd            0.2499957069        0.2499957069        0.5903368346
Pd            0.2500028408        0.0000000000        0.7956587271
Pd            0.0000000000        0.2500028408        0.7956587271
Pd            0.0000000000        0.5000000000        0.0043471774
Pd            0.2499975128        0.7500024872        0.0043460711
Pd            0.2500016829        0.5000000000        0.2096556525
Pd            0.0000000000        0.7500007313        0.2096609204
Pd            0.0000000000        0.5000000000        0.5903327877
Pd            0.2499957069        0.7500042931        0.5903368346
Pd            0.2500011941        0.5000000000        0.7956654933
Pd            0.0000000000        0.7499971592        0.7956587271
Pd            0.5000000000        0.0000000000        0.0043471774
Pd            0.7500024872        0.2499975128        0.0043460711
Pd            0.7500007313        0.0000000000        0.2096609204
Pd            0.5000000000        0.2500016829        0.2096556525
Pd            0.5000000000        0.0000000000        0.5903327877
Pd            0.7500042931        0.2499957069        0.5903368346
Pd            0.7499971592        0.0000000000        0.7956587271
Pd            0.5000000000        0.2500011941        0.7956654933
Pd            0.5000000000        0.5000000000        0.0043446164
Pd            0.7500024872        0.7500024872        0.0043460711
Pd            0.7499983171        0.5000000000        0.2096556525
Pd            0.5000000000        0.7499983171        0.2096556525
Pd            0.5000000000        0.5000000000        0.5903364472
Pd            0.7500042931        0.7500042931        0.5903368346
Pd            0.7499988059        0.5000000000        0.7956654933
Pd            0.5000000000        0.7499988059        0.7956654933

     Writing output data file /scratch/waOFjOavJyNzVuIx.save/
     NEW-OLD atomic charge density approx. for the potential

     Check: negative core charge=   -0.000001

     Self-consistent Calculation

[...]

     Threshold (ethr) on eigenvalues was too large:
     Diagonalizing with lowered threshold

     Davidson diagonalization with overlap
     ethr =  1.06E-08,  avg # of iterations =  3.0

[...]

     total energy              =  -16384.15461791 Ry
     estimated scf accuracy    <       0.00000001 Ry

     iteration # 12     ecut=    71.00 Ry     beta= 0.10
     Davidson diagonalization with overlap
     ethr =  2.57E-12,  avg # of iterations =  2.0

     End of self-consistent calculation

[...]

          k = 0.3889-0.5000-0.4000 ( 41248 PWs)   bands (ev):

[...]

          k =-0.5000-0.5000-0.4000 ( 41160 PWs)   bands (ev):

   -69.7475 -69.7475 -69.7475 -69.7475 -69.7307 -69.7307 -69.7307 -69.7307
   -69.7230 -69.7230 -69.7230 -69.7229 -69.7228 -69.7228 -69.7228 -69.7228
   -69.2684 -69.2684 -69.2684 -69.2684 -69.2683 -69.2683 -69.2683 -69.2682
   -69.2525 -69.2524 -69.2524 -69.2524 -69.2523 -69.2523 -69.2523 -69.2523
   -35.5658 -35.5658 -35.5658 -35.5658 -35.5657 -35.5657 -35.5657 -35.5657
   -35.5321 -35.5321 -35.5321 -35.5321 -35.4986 -35.4986 -35.4986 -35.4986
   -35.4447 -35.4447 -35.4447 -35.4447 -35.4446 -35.4446 -35.4446 -35.4446
   -35.4235 -35.4235 -35.4235 -35.4235 -35.4166 -35.4166 -35.4166 -35.4166
   -35.4165 -35.4165 -35.4165 -35.4165 -35.3916 -35.3916 -35.3916 -35.3916
   -35.3659 -35.3659 -35.3659 -35.3659 -35.3291 -35.3291 -35.3291 -35.3291
   -35.1320 -35.1320 -35.1320 -35.1320 -35.1319 -35.1319 -35.1318 -35.1318
   -35.0490 -35.0490 -35.0489 -35.0489 -35.0467 -35.0467 -35.0467 -35.0467
   -35.0342 -35.0342 -35.0342 -35.0341 -35.0340 -35.0340 -35.0340 -35.0340
   -34.9457 -34.9457 -34.9457 -34.9457 -34.9456 -34.9456 -34.9456 -34.9456
   -34.8803 -34.8803 -34.8803 -34.8803 -34.8792 -34.8792 -34.8792 -34.8792
   -34.8676 -34.8675 -34.8675 -34.8675 -34.8674 -34.8674 -34.8674 -34.8674
     9.2774   9.2774   9.2774   9.2774   9.8694   9.8694   9.8694   9.8694
    10.2353  10.2353  10.2353  10.2353  10.2354  10.2354  10.2354  10.2354
    10.2519  10.2519  10.2519  10.2519  10.4031  10.4031  10.4031  10.4031
    10.4032  10.4032  10.4032  10.4033  10.4397  10.4397  10.4397  10.4397
    10.7878  10.7878  10.7878  10.7879  11.0362  11.0362  11.0362  11.0363
    11.0364  11.0365  11.0365  11.0365  11.2883  11.2883  11.2883  11.2883
    11.2884  11.2884  11.2884  11.2886  11.4372  11.4372  11.4372  11.4372
    11.6744  11.6745  11.6745  11.6745  11.8236  11.8236  11.8236  11.8236
    11.9287  11.9287  11.9287  11.9287  12.1053  12.1054  12.1054  12.1054
    12.2137  12.2137  12.2137  12.2138  12.2872  12.2872  12.2872  12.2872
    12.2872  12.2873  12.2873  12.2873  12.4229  12.4229  12.4230  12.4230
    12.4360  12.4361  12.4361  12.4361  12.6111  12.6111  12.6111  12.6111
    12.7712  12.7712  12.7713  12.7713  12.7713  12.7713  12.7713  12.7714
    12.8393  12.8393  12.8393  12.8393  12.8394  12.8394  12.8394  12.8394
    12.9398  12.9398  12.9398  12.9398  13.1313  13.1313  13.1313  13.1314
    13.1430  13.1430  13.1430  13.1431  13.2420  13.2420  13.2420  13.2420
    13.2420  13.2420  13.2420  13.2420  13.3854  13.3854  13.3854  13.3854
    13.6432  13.6432  13.6432  13.6432  13.8168  13.8168  13.8168  13.8168
    14.0286  14.0286  14.0286  14.0286  14.0286  14.0286  14.0286  14.0286
    14.2105  14.2105  14.2105  14.2105  14.2748  14.2748  14.2748  14.2749
    14.2970  14.2970  14.2970  14.2970  14.2970  14.2970  14.2970  14.2971
    15.9524  15.9524  15.9524  15.9524  16.7922  16.7923  16.7923  16.7923
    17.6729  17.6729  17.6729  17.6729  17.6729  17.6729  17.6729  17.6729
    18.4227  18.4228  18.4228  18.4228  18.4228  18.4228  18.4228  18.4228
    21.0674  21.0674  21.0674  21.0674  21.0674  21.0674  21.0674  21.0675
    21.6661  21.6661  21.6661  21.6661  22.6393  22.6393  22.6393  22.6393
    22.6394  22.6394  22.6394  22.6394  23.0696  23.0696  23.0696  23.0696
    24.1104  24.1104

     the Fermi energy is    14.3053 ev

!    total energy              =  -16384.15461792 Ry

     total all-electron energy =   -322945.008325 Ry
     estimated scf accuracy    <          2.2E-09 Ry
     smearing contrib. (-TS)   =       0.12636515 Ry
     internal energy E=F+TS    =  -16384.28098308 Ry

     The total energy is F=E-TS. E is the sum of the following terms:
     one-electron contribution =   -4778.17994598 Ry
     hartree contribution      =    2707.70003271 Ry
     xc contribution           =    -984.76162712 Ry
     ewald contribution        =   -5161.73503297 Ry
     one-center paw contrib.   =   -8167.30440972 Ry

     convergence has been achieved in  12 iterations

     Forces acting on atoms (cartesian axes, Ry/au):

     atom    1 type  1   force =     0.00000000    0.00000000   -0.00067094
     atom    2 type  1   force =     0.00000066    0.00000066   -0.00068003
     atom    3 type  1   force =    -0.00000034    0.00000000    0.00016082
     atom    4 type  1   force =     0.00000000   -0.00000034    0.00016082
     atom    5 type  1   force =     0.00000000    0.00000000   -0.00013145
     atom    6 type  1   force =     0.00000706    0.00000706   -0.00014392
     atom    7 type  1   force =    -0.00000708    0.00000000    0.00066279
     atom    8 type  1   force =     0.00000000   -0.00000708    0.00066279
     atom    9 type  1   force =     0.00000000    0.00000000   -0.00067993
     atom   10 type  1   force =     0.00000066   -0.00000066   -0.00068003
     atom   11 type  1   force =    -0.00000347    0.00000000    0.00016507
     atom   12 type  1   force =     0.00000000    0.00000034    0.00016082
     atom   13 type  1   force =     0.00000000    0.00000000   -0.00013974
     atom   14 type  1   force =     0.00000706   -0.00000706   -0.00014392
     atom   15 type  1   force =    -0.00000270    0.00000000    0.00064959
     atom   16 type  1   force =     0.00000000    0.00000708    0.00066279
     atom   17 type  1   force =     0.00000000    0.00000000   -0.00067993
     atom   18 type  1   force =    -0.00000066    0.00000066   -0.00068003
     atom   19 type  1   force =     0.00000034    0.00000000    0.00016082
     atom   20 type  1   force =     0.00000000   -0.00000347    0.00016507
     atom   21 type  1   force =     0.00000000    0.00000000   -0.00013974
     atom   22 type  1   force =    -0.00000706    0.00000706   -0.00014392
     atom   23 type  1   force =     0.00000708    0.00000000    0.00066279
     atom   24 type  1   force =     0.00000000   -0.00000270    0.00064959
     atom   25 type  1   force =     0.00000000    0.00000000   -0.00067647
     atom   26 type  1   force =    -0.00000066   -0.00000066   -0.00068003
     atom   27 type  1   force =     0.00000347    0.00000000    0.00016507
     atom   28 type  1   force =     0.00000000    0.00000347    0.00016507
     atom   29 type  1   force =     0.00000000    0.00000000   -0.00013908
     atom   30 type  1   force =    -0.00000706   -0.00000706   -0.00014392
     atom   31 type  1   force =     0.00000270    0.00000000    0.00064959
     atom   32 type  1   force =     0.00000000    0.00000270    0.00064959

     Total force =     0.002738     Total SCF correction =     0.000152

     Computing stress (Cartesian axis) and pressure

          total   stress  (Ry/bohr**3)                   (kbar)     P=      -83.49
  -0.00054906   0.00000000   0.00000000          -80.77        0.00        0.00
   0.00000000  -0.00054906   0.00000000            0.00      -80.77        0.00
   0.00000000   0.00000000  -0.00060450            0.00        0.00      -88.93

     Energy error            =      1.5E-05
     Gradient error          =      6.8E-04

     bfgs converged in  10 scf cycles and   9 bfgs steps
     (criteria: energy <  1.0E-04 Ry, force <  1.0E-03 Ry/Bohr)

     End of BFGS Geometry Optimization

     Final energy   =  -16384.1546179232 Ry

     File /scratch/waOFjOavJyNzVuIx.bfgs deleted, as requested
Begin final coordinates

ATOMIC_POSITIONS (crystal)
Pd            0.0000000000        0.0000000000        0.0043407778
Pd            0.2499975128        0.2499975128        0.0043460711
Pd            0.2499992687        0.0000000000        0.2096609204
Pd            0.0000000000        0.2499992687        0.2096609204
Pd            0.0000000000        0.0000000000        0.5903234322
Pd            0.2499957069        0.2499957069        0.5903368346
Pd            0.2500028408        0.0000000000        0.7956587271
Pd            0.0000000000        0.2500028408        0.7956587271
Pd            0.0000000000        0.5000000000        0.0043471774
Pd            0.2499975128        0.7500024872        0.0043460711
Pd            0.2500016829        0.5000000000        0.2096556525
Pd            0.0000000000        0.7500007313        0.2096609204
Pd            0.0000000000        0.5000000000        0.5903327877
Pd            0.2499957069        0.7500042931        0.5903368346
Pd            0.2500011941        0.5000000000        0.7956654933
Pd            0.0000000000        0.7499971592        0.7956587271
Pd            0.5000000000        0.0000000000        0.0043471774
Pd            0.7500024872        0.2499975128        0.0043460711
Pd            0.7500007313        0.0000000000        0.2096609204
Pd            0.5000000000        0.2500016829        0.2096556525
Pd            0.5000000000        0.0000000000        0.5903327877
Pd            0.7500042931        0.2499957069        0.5903368346
Pd            0.7499971592        0.0000000000        0.7956587271
Pd            0.5000000000        0.2500011941        0.7956654933
Pd            0.5000000000        0.5000000000        0.0043446164
Pd            0.7500024872        0.7500024872        0.0043460711
Pd            0.7499983171        0.5000000000        0.2096556525
Pd            0.5000000000        0.7499983171        0.2096556525
Pd            0.5000000000        0.5000000000        0.5903364472
Pd            0.7500042931        0.7500042931        0.5903368346
Pd            0.7499988059        0.5000000000        0.7956654933
Pd            0.5000000000        0.7499988059        0.7956654933
End final coordinates

     Writing output data file /scratch/waOFjOavJyNzVuIx.save/

     General routines

     Parallel routines

   This run was terminated on:   3:26:25   9Jan2022

   JOB DONE.