     Program PWSCF v.6.7MaX starts on  9Jan2022 at  7: 6:15

     R & G space division:  proc/nbgrp/npool/nimage =      72
     Reading input from relax_11.in
Warning: card &CELL ignored
Warning: card CELL_DYNAMICS = 'BFGS', ignored
Warning: card CELL_FACTOR = 2.0, ignored
Warning: card PRESS = 0.0, ignored
Warning: card / ignored

     Current dimensions of program PWSCF are:
     Max number of different atomic species (ntypx) = 10
     Max number of k-points (npk) =  40000
     Max angular momentum in pseudopotentials (lmaxx) =  3
     file Pd.pbe-spn-kjpaw_psl.1.0.0.UPF: wavefunction(s)  4S 5S 4D renormalized

     Subspace diagonalization in iterative solution of the eigenvalue problem:
     one sub-group per band group will be used

     Found symmetry operation: I + (  0.2500  0.2500  0.0000)
     This is a supercell, fractional translations are disabled
     Message from routine setup:
     using ibrav=0 with symmetry is DISCOURAGED, use correct ibrav instead

     bravais-lattice index     =            0
     lattice parameter (alat)  =      14.8394  a.u.
     unit-cell volume          =    4288.9412 (a.u.)^3
     number of atoms/cell      =           32
     number of atomic types    =            1
     number of electrons       =       576.00
     number of Kohn-Sham states=          346
     kinetic-energy cutoff     =      71.0000  Ry
     charge density cutoff     =     430.0000  Ry
     scf convergence threshold =      1.0E-06
     mixing beta               =       0.1000
     number of iterations used =           10  TF        mixing
     energy convergence thresh.=      1.0E-04
     force convergence thresh. =      1.0E-03
     Exchange-correlation= SLA  PW   PBX  PBC
                           (   1   4   3   4   0   0   0)
     nstep                     =           40

     celldm(1)=  14.839420  celldm(2)=   0.000000  celldm(3)=   0.000000
     celldm(4)=   0.000000  celldm(5)=   0.000000  celldm(6)=   0.000000

     crystal axes: (cart. coord. in units of alat)
               a(1) = (   1.000000   0.000000   0.000000 )
               a(2) = (   0.000000   1.000000   0.000000 )
               a(3) = (   0.000000   0.000000   1.312500 )

     reciprocal axes: (cart. coord. in units 2 pi/alat)
               b(1) = (  1.000000  0.000000  0.000000 )
               b(2) = (  0.000000  1.000000  0.000000 )
               b(3) = (  0.000000  0.000000  0.761905 )

     PseudoPot. # 1 for Pd read from file:
     /rds/homes/b/bxp912/pp/Pd.pbe-spn-kjpaw_psl.1.0.0.UPF
     MD5 check sum: 790f2ebce206edfd9790dcb9844eca51
     Pseudo is Projector augmented-wave + core cor, Zval = 18.0
     Generated using &quot;atomic&quot; code by A. Dal Corso  v.6.3
     Shape of augmentation charge: PSQ
     Using radial grid of 1235 points,  6 beta functions with:
                l(1) =   0
                l(2) =   0
                l(3) =   1
                l(4) =   1
                l(5) =   2
                l(6) =   2
     Q(r) pseudized with 0 coefficients

     atomic species   valence    mass     pseudopotential
        Pd            18.00   106.42000     Pd( 1.00)

      8 Sym. Ops. (no inversion) found

   Cartesian axes

     site n.     atom                  positions (alat units)
         1           Pd  tau(   1) = (   0.0000000   0.0000000   0.0000000  )
         2           Pd  tau(   2) = (   0.2500000   0.2500000   0.0000000  )
         3           Pd  tau(   3) = (   0.2500000   0.0000000   0.2500000  )
         4           Pd  tau(   4) = (   0.0000000   0.2500000   0.2500000  )
         5           Pd  tau(   5) = (   0.0000000   0.0000000   0.8125000  )
         6           Pd  tau(   6) = (   0.2500000   0.2500000   0.8125000  )
         7           Pd  tau(   7) = (   0.2500000   0.0000000   1.0625000  )
         8           Pd  tau(   8) = (   0.0000000   0.2500000   1.0625000  )
         9           Pd  tau(   9) = (   0.0000000   0.5000000   0.0000000  )
        10           Pd  tau(  10) = (   0.2500000   0.7500000   0.0000000  )
        11           Pd  tau(  11) = (   0.2500000   0.5000000   0.2500000  )
        12           Pd  tau(  12) = (   0.0000000   0.7500000   0.2500000  )
        13           Pd  tau(  13) = (   0.0000000   0.5000000   0.8125000  )
        14           Pd  tau(  14) = (   0.2500000   0.7500000   0.8125000  )
        15           Pd  tau(  15) = (   0.2500000   0.5000000   1.0625000  )
        16           Pd  tau(  16) = (   0.0000000   0.7500000   1.0625000  )
        17           Pd  tau(  17) = (   0.5000000   0.0000000   0.0000000  )
        18           Pd  tau(  18) = (   0.7500000   0.2500000   0.0000000  )
        19           Pd  tau(  19) = (   0.7500000   0.0000000   0.2500000  )
        20           Pd  tau(  20) = (   0.5000000   0.2500000   0.2500000  )
        21           Pd  tau(  21) = (   0.5000000   0.0000000   0.8125000  )
        22           Pd  tau(  22) = (   0.7500000   0.2500000   0.8125000  )
        23           Pd  tau(  23) = (   0.7500000   0.0000000   1.0625000  )
        24           Pd  tau(  24) = (   0.5000000   0.2500000   1.0625000  )
        25           Pd  tau(  25) = (   0.5000000   0.5000000   0.0000000  )
        26           Pd  tau(  26) = (   0.7500000   0.7500000   0.0000000  )
        27           Pd  tau(  27) = (   0.7500000   0.5000000   0.2500000  )
        28           Pd  tau(  28) = (   0.5000000   0.7500000   0.2500000  )
        29           Pd  tau(  29) = (   0.5000000   0.5000000   0.8125000  )
        30           Pd  tau(  30) = (   0.7500000   0.7500000   0.8125000  )
        31           Pd  tau(  31) = (   0.7500000   0.5000000   1.0625000  )
        32           Pd  tau(  32) = (   0.5000000   0.7500000   1.0625000  )

     number of k points=    75  Marzari-Vanderbilt smearing, width (Ry)=  0.0400
                       cart. coord. in units 2pi/alat
        k(    1) = (   0.0555556   0.0555556   0.0423280), wk =   0.0219479
        k(    2) = (   0.0555556   0.0555556   0.1269841), wk =   0.0219479
        k(    3) = (   0.0555556   0.0555556   0.2116402), wk =   0.0219479
        k(    4) = (   0.0555556   0.0555556   0.2962963), wk =   0.0219479
        k(    5) = (   0.0555556   0.0555556  -0.3809524), wk =   0.0109739
        k(    6) = (   0.0555556   0.1666667   0.0423280), wk =   0.0438957
        k(    7) = (   0.0555556   0.1666667   0.1269841), wk =   0.0438957
        k(    8) = (   0.0555556   0.1666667   0.2116402), wk =   0.0438957
        k(    9) = (   0.0555556   0.1666667   0.2962963), wk =   0.0438957
        k(   10) = (   0.0555556   0.1666667  -0.3809524), wk =   0.0219479
        k(   11) = (   0.0555556   0.2777778   0.0423280), wk =   0.0438957
        k(   12) = (   0.0555556   0.2777778   0.1269841), wk =   0.0438957
        k(   13) = (   0.0555556   0.2777778   0.2116402), wk =   0.0438957
        k(   14) = (   0.0555556   0.2777778   0.2962963), wk =   0.0438957
        k(   15) = (   0.0555556   0.2777778  -0.3809524), wk =   0.0219479
        k(   16) = (   0.0555556   0.3888889   0.0423280), wk =   0.0438957
        k(   17) = (   0.0555556   0.3888889   0.1269841), wk =   0.0438957
        k(   18) = (   0.0555556   0.3888889   0.2116402), wk =   0.0438957
        k(   19) = (   0.0555556   0.3888889   0.2962963), wk =   0.0438957
        k(   20) = (   0.0555556   0.3888889  -0.3809524), wk =   0.0219479
        k(   21) = (   0.0555556  -0.5000000   0.0423280), wk =   0.0219479
        k(   22) = (   0.0555556  -0.5000000   0.1269841), wk =   0.0219479
        k(   23) = (   0.0555556  -0.5000000   0.2116402), wk =   0.0219479
        k(   24) = (   0.0555556  -0.5000000   0.2962963), wk =   0.0219479
        k(   25) = (   0.0555556  -0.5000000  -0.3809524), wk =   0.0109739
        k(   26) = (   0.1666667   0.1666667   0.0423280), wk =   0.0219479
        k(   27) = (   0.1666667   0.1666667   0.1269841), wk =   0.0219479
        k(   28) = (   0.1666667   0.1666667   0.2116402), wk =   0.0219479
        k(   29) = (   0.1666667   0.1666667   0.2962963), wk =   0.0219479
        k(   30) = (   0.1666667   0.1666667  -0.3809524), wk =   0.0109739
        k(   31) = (   0.1666667   0.2777778   0.0423280), wk =   0.0438957
        k(   32) = (   0.1666667   0.2777778   0.1269841), wk =   0.0438957
        k(   33) = (   0.1666667   0.2777778   0.2116402), wk =   0.0438957
        k(   34) = (   0.1666667   0.2777778   0.2962963), wk =   0.0438957
        k(   35) = (   0.1666667   0.2777778  -0.3809524), wk =   0.0219479
        k(   36) = (   0.1666667   0.3888889   0.0423280), wk =   0.0438957
        k(   37) = (   0.1666667   0.3888889   0.1269841), wk =   0.0438957
        k(   38) = (   0.1666667   0.3888889   0.2116402), wk =   0.0438957
        k(   39) = (   0.1666667   0.3888889   0.2962963), wk =   0.0438957
        k(   40) = (   0.1666667   0.3888889  -0.3809524), wk =   0.0219479
        k(   41) = (   0.1666667  -0.5000000   0.0423280), wk =   0.0219479
        k(   42) = (   0.1666667  -0.5000000   0.1269841), wk =   0.0219479
        k(   43) = (   0.1666667  -0.5000000   0.2116402), wk =   0.0219479
        k(   44) = (   0.1666667  -0.5000000   0.2962963), wk =   0.0219479
        k(   45) = (   0.1666667  -0.5000000  -0.3809524), wk =   0.0109739
        k(   46) = (   0.2777778   0.2777778   0.0423280), wk =   0.0219479
        k(   47) = (   0.2777778   0.2777778   0.1269841), wk =   0.0219479
        k(   48) = (   0.2777778   0.2777778   0.2116402), wk =   0.0219479
        k(   49) = (   0.2777778   0.2777778   0.2962963), wk =   0.0219479
        k(   50) = (   0.2777778   0.2777778  -0.3809524), wk =   0.0109739
        k(   51) = (   0.2777778   0.3888889   0.0423280), wk =   0.0438957
        k(   52) = (   0.2777778   0.3888889   0.1269841), wk =   0.0438957
        k(   53) = (   0.2777778   0.3888889   0.2116402), wk =   0.0438957
        k(   54) = (   0.2777778   0.3888889   0.2962963), wk =   0.0438957
        k(   55) = (   0.2777778   0.3888889  -0.3809524), wk =   0.0219479
        k(   56) = (   0.2777778  -0.5000000   0.0423280), wk =   0.0219479
        k(   57) = (   0.2777778  -0.5000000   0.1269841), wk =   0.0219479
        k(   58) = (   0.2777778  -0.5000000   0.2116402), wk =   0.0219479
        k(   59) = (   0.2777778  -0.5000000   0.2962963), wk =   0.0219479
        k(   60) = (   0.2777778  -0.5000000  -0.3809524), wk =   0.0109739
        k(   61) = (   0.3888889   0.3888889   0.0423280), wk =   0.0219479
        k(   62) = (   0.3888889   0.3888889   0.1269841), wk =   0.0219479
        k(   63) = (   0.3888889   0.3888889   0.2116402), wk =   0.0219479
        k(   64) = (   0.3888889   0.3888889   0.2962963), wk =   0.0219479
        k(   65) = (   0.3888889   0.3888889  -0.3809524), wk =   0.0109739
        k(   66) = (   0.3888889  -0.5000000   0.0423280), wk =   0.0219479
        k(   67) = (   0.3888889  -0.5000000   0.1269841), wk =   0.0219479
        k(   68) = (   0.3888889  -0.5000000   0.2116402), wk =   0.0219479
        k(   69) = (   0.3888889  -0.5000000   0.2962963), wk =   0.0219479
        k(   70) = (   0.3888889  -0.5000000  -0.3809524), wk =   0.0109739
[...]

          total   stress  (Ry/bohr**3)                   (kbar)     P=      -45.77
  -0.00035857   0.00000000   0.00000000          -52.75        0.00        0.00
   0.00000000  -0.00035857   0.00000000            0.00      -52.75        0.00
   0.00000000   0.00000000  -0.00021622            0.00        0.00      -31.81

     BFGS Geometry Optimization
     Energy error            =      0.0E+00
     Gradient error          =      3.6E-03

     number of scf cycles    =   1
     number of bfgs steps    =   0

     energy   new            =  -16384.0887311563 Ry

     new trust radius        =       0.0035903681 bohr
     new conv_thr            =       0.0000010000 Ry

ATOMIC_POSITIONS (crystal)
Pd            0.0000000000        0.0000000000        0.0001843413
Pd            0.2499998735        0.2499998735        0.0001837532
Pd            0.2500002837        0.0000000000        0.1904928953
Pd            0.0000000000        0.2500002837        0.1904928953
Pd            0.0000000000        0.0000000000        0.6190286743
Pd            0.2500008130        0.2500008130        0.6190291805
Pd            0.2500008031        0.0000000000        0.8093422389
Pd            0.0000000000        0.2500008031        0.8093422389
Pd            0.0000000000        0.5000000000        0.0001838592
Pd            0.2499998735        0.7500001265        0.0001837532
Pd            0.2499988121        0.5000000000        0.1904930395
Pd            0.0000000000        0.7499997163        0.1904928953
Pd            0.0000000000        0.5000000000        0.6190286652
Pd            0.2500008130        0.7499991870        0.6190291805
Pd            0.2499999382        0.5000000000        0.8093416236
Pd            0.0000000000        0.7499991969        0.8093422389
Pd            0.5000000000        0.0000000000        0.0001838592
Pd            0.7500001265        0.2499998735        0.0001837532
Pd            0.7499997163        0.0000000000        0.1904928953
Pd            0.5000000000        0.2499988121        0.1904930395
Pd            0.5000000000        0.0000000000        0.6190286652
Pd            0.7499991870        0.2500008130        0.6190291805
Pd            0.7499991969        0.0000000000        0.8093422389
Pd            0.5000000000        0.2499999382        0.8093416236
Pd            0.5000000000        0.5000000000        0.0001833219
Pd            0.7500001265        0.7500001265        0.0001837532
Pd            0.7500011879        0.5000000000        0.1904930395
Pd            0.5000000000        0.7500011879        0.1904930395
Pd            0.5000000000        0.5000000000        0.6190286424
Pd            0.7499991870        0.7499991870        0.6190291805
Pd            0.7500000618        0.5000000000        0.8093416236
Pd            0.5000000000        0.7500000618        0.8093416236

     Writing output data file /scratch/hLbbnCgRoIXmKqWz.save/
     NEW-OLD atomic charge density approx. for the potential

[...]

     iteration #  2     ecut=    71.00 Ry     beta= 0.10
     Davidson diagonalization with overlap
     c_bands:  3 eigenvalues not converged
     ethr =  5.67E-09,  avg # of iterations =  1.3

[...]

     Energy error            =      1.8E-04
     Gradient error          =      1.9E-03

[...]

     energy   old            =  -16384.0887311563 Ry
     energy   new            =  -16384.0889084145 Ry

     CASE: energy  _new < energy  _old

[...]

     Total force =     0.007778     Total SCF correction =     0.000582

[...]

     WARNING: bfgs curvature condition failed, Theta= 0.886
     new trust radius        =       0.0059241073 bohr
     new conv_thr            =       0.0000000153 Ry

[...]

     number of scf cycles    =   6
     number of bfgs steps    =   5

     energy   old            =  -16384.0892554040 Ry
     energy   new            =  -16384.0893060409 Ry

     CASE: energy  _new < energy  _old

     new trust radius        =       0.0059833047 bohr
     new conv_thr            =       0.0000000100 Ry

ATOMIC_POSITIONS (crystal)
Pd            0.0000000000        0.0000000000        0.0011626483
Pd            0.2500002460        0.2500002460        0.0011620742
Pd            0.2500010320        0.0000000000        0.1913616457
Pd            0.0000000000        0.2500010320        0.1913616457
Pd            0.0000000000        0.0000000000        0.6181433456
Pd            0.2500001407        0.2500001407        0.6181430651
Pd            0.2499999027        0.0000000000        0.8083788046
Pd            0.0000000000        0.2499999027        0.8083788046
Pd            0.0000000000        0.5000000000        0.0011617426
Pd            0.2500002460        0.7499997540        0.0011620742
Pd            0.2499990468        0.5000000000        0.1913636070
Pd            0.0000000000        0.7499989680        0.1913616457
Pd            0.0000000000        0.5000000000        0.6181445494
Pd            0.2500001407        0.7499998593        0.6181430651
Pd            0.2499998847        0.5000000000        0.8083789153
Pd            0.0000000000        0.7500000973        0.8083788046
Pd            0.5000000000        0.0000000000        0.0011617426
Pd            0.7499997540        0.2500002460        0.0011620742
Pd            0.7499989680        0.0000000000        0.1913616457
Pd            0.5000000000        0.2499990468        0.1913636070
Pd            0.5000000000        0.0000000000        0.6181445494
Pd            0.7499998593        0.2500001407        0.6181430651
Pd            0.7500000973        0.0000000000        0.8083788046
Pd            0.5000000000        0.2499998847        0.8083789153
Pd            0.5000000000        0.5000000000        0.0011628014
Pd            0.7499997540        0.7499997540        0.0011620742
Pd            0.7500009532        0.5000000000        0.1913636070
Pd            0.5000000000        0.7500009532        0.1913636070
Pd            0.5000000000        0.5000000000        0.6181471253
Pd            0.7499998593        0.7499998593        0.6181430651
Pd            0.7500001153        0.5000000000        0.8083789153
Pd            0.5000000000        0.7500001153        0.8083789153

     Writing output data file /scratch/hLbbnCgRoIXmKqWz.save/
     NEW-OLD atomic charge density approx. for the potential

     Check: negative core charge=   -0.000001

     Self-consistent Calculation

[...]

     Threshold (ethr) on eigenvalues was too large:
     Diagonalizing with lowered threshold

     Davidson diagonalization with overlap
     ethr =  3.47E-08,  avg # of iterations =  4.0

[...]

     total energy              =  -16384.08936628 Ry
     estimated scf accuracy    <       0.00000002 Ry

     iteration # 14     ecut=    71.00 Ry     beta= 0.10
     Davidson diagonalization with overlap
     ethr =  2.41E-12,  avg # of iterations =  2.0

     End of self-consistent calculation

[...]

          k = 0.3889-0.5000-0.3810 ( 43328 PWs)   bands (ev):

[...]

          k =-0.5000-0.5000-0.3810 ( 43232 PWs)   bands (ev):

   -70.7069 -70.7069 -70.7069 -70.7069 -70.6860 -70.6860 -70.6860 -70.6860
   -70.6803 -70.6803 -70.6803 -70.6803 -70.6800 -70.6800 -70.6800 -70.6800
   -70.1535 -70.1535 -70.1535 -70.1535 -70.1531 -70.1531 -70.1531 -70.1531
   -70.1375 -70.1375 -70.1375 -70.1375 -70.1371 -70.1371 -70.1371 -70.1371
   -36.5300 -36.5300 -36.5300 -36.5300 -36.5299 -36.5299 -36.5299 -36.5299
   -36.5128 -36.5128 -36.5128 -36.5128 -36.4656 -36.4656 -36.4656 -36.4656
   -36.4079 -36.4079 -36.4079 -36.4079 -36.4076 -36.4076 -36.4076 -36.4076
   -36.3722 -36.3722 -36.3722 -36.3722 -36.3696 -36.3696 -36.3696 -36.3696
   -36.3694 -36.3694 -36.3694 -36.3694 -36.3478 -36.3478 -36.3478 -36.3478
   -36.3236 -36.3236 -36.3236 -36.3236 -36.2779 -36.2779 -36.2779 -36.2779
   -36.0241 -36.0241 -36.0241 -36.0241 -36.0238 -36.0238 -36.0238 -36.0238
   -35.9408 -35.9408 -35.9408 -35.9408 -35.9382 -35.9382 -35.9382 -35.9382
   -35.9265 -35.9265 -35.9265 -35.9265 -35.9262 -35.9262 -35.9262 -35.9262
   -35.8380 -35.8380 -35.8380 -35.8380 -35.8376 -35.8376 -35.8376 -35.8376
   -35.7588 -35.7588 -35.7588 -35.7588 -35.7580 -35.7580 -35.7580 -35.7580
   -35.7469 -35.7469 -35.7469 -35.7469 -35.7466 -35.7465 -35.7465 -35.7465
     8.2312   8.2312   8.2312   8.2312   8.8488   8.8488   8.8488   8.8488
     9.1839   9.1839   9.1839   9.1839   9.1842   9.1842   9.1842   9.1842
     9.2633   9.2633   9.2633   9.2633   9.3556   9.3556   9.3556   9.3556
     9.3557   9.3557   9.3557   9.3558   9.4309   9.4309   9.4309   9.4309
     9.7349   9.7349   9.7349   9.7349  10.0305  10.0305  10.0305  10.0305
    10.0311  10.0311  10.0311  10.0312  10.3209  10.3209  10.3209  10.3210
    10.3212  10.3213  10.3213  10.3213  10.4876  10.4876  10.4876  10.4876
    10.7227  10.7227  10.7227  10.7227  10.9474  10.9474  10.9474  10.9474
    11.0597  11.0597  11.0597  11.0597  11.1433  11.1433  11.1433  11.1433
    11.1881  11.1881  11.1881  11.1881  11.3063  11.3063  11.3063  11.3063
    11.3064  11.3064  11.3064  11.3064  11.3660  11.3660  11.3660  11.3660
    11.5911  11.5911  11.5911  11.5911  11.7506  11.7506  11.7506  11.7506
    11.8722  11.8722  11.8723  11.8723  11.8725  11.8725  11.8725  11.8725
    11.9208  11.9208  11.9209  11.9209  11.9211  11.9211  11.9211  11.9211
    11.9515  11.9515  11.9515  11.9515  12.1697  12.1697  12.1697  12.1697
    12.4023  12.4023  12.4023  12.4023  12.4397  12.4397  12.4397  12.4397
    12.4397  12.4397  12.4397  12.4397  12.5099  12.5099  12.5099  12.5099
    12.7477  12.7477  12.7477  12.7477  12.9492  12.9492  12.9492  12.9492
    13.1097  13.1097  13.1097  13.1097  13.1098  13.1098  13.1098  13.1098
    13.3625  13.3625  13.3625  13.3625  13.4257  13.4257  13.4257  13.4257
    13.4257  13.4257  13.4257  13.4257  13.4299  13.4299  13.4299  13.4299
    14.7216  14.7216  14.7217  14.7217  16.0585  16.0585  16.0585  16.0585
    16.7240  16.7240  16.7240  16.7240  16.7241  16.7241  16.7241  16.7241
    17.6836  17.6836  17.6836  17.6836  17.6837  17.6837  17.6837  17.6837
    20.0210  20.0210  20.0210  20.0210  20.0212  20.0212  20.0212  20.0212
    20.2169  20.2169  20.2169  20.2169  21.9200  21.9200  21.9200  21.9200
    21.9203  21.9203  21.9203  21.9203  22.1014  22.1014  22.1014  22.1014
    23.3512  23.4085

     the Fermi energy is    13.4364 ev

!    total energy              =  -16384.08936633 Ry

     total all-electron energy =   -322944.943073 Ry
     estimated scf accuracy    <          4.7E-09 Ry
     smearing contrib. (-TS)   =       0.12037889 Ry
     internal energy E=F+TS    =  -16384.20974522 Ry

     The total energy is F=E-TS. E is the sum of the following terms:
     one-electron contribution =   -6428.38899958 Ry
     hartree contribution      =    3513.34992504 Ry
     xc contribution           =    -985.26059766 Ry
     ewald contribution        =   -4316.58293922 Ry
     one-center paw contrib.   =   -8167.32713380 Ry

     convergence has been achieved in  14 iterations

     Forces acting on atoms (cartesian axes, Ry/au):

     atom    1 type  1   force =     0.00000000    0.00000000   -0.00095708
     atom    2 type  1   force =     0.00000119    0.00000119   -0.00095539
     atom    3 type  1   force =    -0.00000146    0.00000000    0.00090074
     atom    4 type  1   force =     0.00000000   -0.00000146    0.00090074
     atom    5 type  1   force =     0.00000000    0.00000000   -0.00086930
     atom    6 type  1   force =     0.00000055    0.00000055   -0.00086816
     atom    7 type  1   force =     0.00000046    0.00000000    0.00092624
     atom    8 type  1   force =     0.00000000    0.00000046    0.00092624
     atom    9 type  1   force =     0.00000000    0.00000000   -0.00095616
     atom   10 type  1   force =     0.00000119   -0.00000119   -0.00095539
     atom   11 type  1   force =     0.00000243    0.00000000    0.00089696
     atom   12 type  1   force =     0.00000000    0.00000146    0.00090074
     atom   13 type  1   force =     0.00000000    0.00000000   -0.00087110
     atom   14 type  1   force =     0.00000055   -0.00000055   -0.00086816
     atom   15 type  1   force =     0.00000045    0.00000000    0.00092753
     atom   16 type  1   force =     0.00000000   -0.00000046    0.00092624
     atom   17 type  1   force =     0.00000000    0.00000000   -0.00095616
     atom   18 type  1   force =    -0.00000119    0.00000119   -0.00095539
     atom   19 type  1   force =     0.00000146    0.00000000    0.00090074
     atom   20 type  1   force =     0.00000000    0.00000243    0.00089696
     atom   21 type  1   force =     0.00000000    0.00000000   -0.00087110
     atom   22 type  1   force =    -0.00000055    0.00000055   -0.00086816
     atom   23 type  1   force =    -0.00000046    0.00000000    0.00092624
     atom   24 type  1   force =     0.00000000    0.00000045    0.00092753
     atom   25 type  1   force =     0.00000000    0.00000000   -0.00095546
     atom   26 type  1   force =    -0.00000119   -0.00000119   -0.00095539
     atom   27 type  1   force =    -0.00000243    0.00000000    0.00089696
     atom   28 type  1   force =     0.00000000   -0.00000243    0.00089696
     atom   29 type  1   force =     0.00000000    0.00000000   -0.00087525
     atom   30 type  1   force =    -0.00000055   -0.00000055   -0.00086816
     atom   31 type  1   force =    -0.00000045    0.00000000    0.00092753
     atom   32 type  1   force =     0.00000000   -0.00000045    0.00092753

     Total force =     0.005167     Total SCF correction =     0.000685
     SCF correction compared to forces is large: reduce conv_thr to get better values

     Computing stress (Cartesian axis) and pressure

          total   stress  (Ry/bohr**3)                   (kbar)     P=      -48.62
  -0.00037474   0.00000000   0.00000000          -55.13        0.00        0.00
   0.00000000  -0.00037474   0.00000000            0.00      -55.13        0.00
   0.00000000   0.00000000  -0.00024206            0.00        0.00      -35.61

     Energy error            =      6.0E-05
     Gradient error          =      9.6E-04

     bfgs converged in   7 scf cycles and   6 bfgs steps
     (criteria: energy <  1.0E-04 Ry, force <  1.0E-03 Ry/Bohr)

     End of BFGS Geometry Optimization

     Final energy   =  -16384.0893663294 Ry

     File /scratch/hLbbnCgRoIXmKqWz.bfgs deleted, as requested
Begin final coordinates

ATOMIC_POSITIONS (crystal)
Pd            0.0000000000        0.0000000000        0.0011626483
Pd            0.2500002460        0.2500002460        0.0011620742
Pd            0.2500010320        0.0000000000        0.1913616457
Pd            0.0000000000        0.2500010320        0.1913616457
Pd            0.0000000000        0.0000000000        0.6181433456
Pd            0.2500001407        0.2500001407        0.6181430651
Pd            0.2499999027        0.0000000000        0.8083788046
Pd            0.0000000000        0.2499999027        0.8083788046
Pd            0.0000000000        0.5000000000        0.0011617426
Pd            0.2500002460        0.7499997540        0.0011620742
Pd            0.2499990468        0.5000000000        0.1913636070
Pd            0.0000000000        0.7499989680        0.1913616457
Pd            0.0000000000        0.5000000000        0.6181445494
Pd            0.2500001407        0.7499998593        0.6181430651
Pd            0.2499998847        0.5000000000        0.8083789153
Pd            0.0000000000        0.7500000973        0.8083788046
Pd            0.5000000000        0.0000000000        0.0011617426
Pd            0.7499997540        0.2500002460        0.0011620742
Pd            0.7499989680        0.0000000000        0.1913616457
Pd            0.5000000000        0.2499990468        0.1913636070
Pd            0.5000000000        0.0000000000        0.6181445494
Pd            0.7499998593        0.2500001407        0.6181430651
Pd            0.7500000973        0.0000000000        0.8083788046
Pd            0.5000000000        0.2499998847        0.8083789153
Pd            0.5000000000        0.5000000000        0.0011628014
Pd            0.7499997540        0.7499997540        0.0011620742
Pd            0.7500009532        0.5000000000        0.1913636070
Pd            0.5000000000        0.7500009532        0.1913636070
Pd            0.5000000000        0.5000000000        0.6181471253
Pd            0.7499998593        0.7499998593        0.6181430651
Pd            0.7500001153        0.5000000000        0.8083789153
Pd            0.5000000000        0.7500001153        0.8083789153
End final coordinates

     Writing output data file /scratch/hLbbnCgRoIXmKqWz.save/

     General routines

     Parallel routines

   This run was terminated on:   9:41:13   9Jan2022

   JOB DONE.