     Program PWSCF v.6.7MaX starts on  7Jan2022 at  9:37:34

     R & G space division:  proc/nbgrp/npool/nimage =      72
     Reading input from relax_18.in
Warning: card &CELL ignored
Warning: card CELL_DYNAMICS = 'BFGS', ignored
Warning: card CELL_FACTOR = 2.0, ignored
Warning: card PRESS = 0.0, ignored
Warning: card / ignored

     Current dimensions of program PWSCF are:
     Max number of different atomic species (ntypx) = 10
     Max number of k-points (npk) =  40000
     Max angular momentum in pseudopotentials (lmaxx) =  3
     file Pd.pbe-spn-kjpaw_psl.1.0.0.UPF: wavefunction(s)  4S 5S 4D renormalized

     Subspace diagonalization in iterative solution of the eigenvalue problem:
     one sub-group per band group will be used

     Found symmetry operation: I + (  0.2500  0.2500  0.0000)
     This is a supercell, fractional translations are disabled
     Message from routine setup:
     using ibrav=0 with symmetry is DISCOURAGED, use correct ibrav instead

     bravais-lattice index     =            0
     lattice parameter (alat)  =      14.8394  a.u.
     unit-cell volume          =    5003.7647 (a.u.)^3
     number of atoms/cell      =           32
     number of atomic types    =            1
     number of electrons       =       576.00
     number of Kohn-Sham states=          346
     kinetic-energy cutoff     =      71.0000  Ry
     charge density cutoff     =     430.0000  Ry
     scf convergence threshold =      1.0E-06
     mixing beta               =       0.1000
     number of iterations used =           10  TF        mixing
     energy convergence thresh.=      1.0E-04
     force convergence thresh. =      1.0E-03
     Exchange-correlation= SLA  PW   PBX  PBC
                           (   1   4   3   4   0   0   0)
     nstep                     =           40

     celldm(1)=  14.839420  celldm(2)=   0.000000  celldm(3)=   0.000000
     celldm(4)=   0.000000  celldm(5)=   0.000000  celldm(6)=   0.000000

     crystal axes: (cart. coord. in units of alat)
               a(1) = (   1.000000   0.000000   0.000000 )
               a(2) = (   0.000000   1.000000   0.000000 )
               a(3) = (   0.000000   0.000000   1.531250 )

     reciprocal axes: (cart. coord. in units 2 pi/alat)
               b(1) = (  1.000000  0.000000  0.000000 )
               b(2) = (  0.000000  1.000000  0.000000 )
               b(3) = (  0.000000  0.000000  0.653061 )

     PseudoPot. # 1 for Pd read from file:
     /rds/homes/b/bxp912/pp/Pd.pbe-spn-kjpaw_psl.1.0.0.UPF
     MD5 check sum: 790f2ebce206edfd9790dcb9844eca51
     Pseudo is Projector augmented-wave + core cor, Zval = 18.0
     Generated using &quot;atomic&quot; code by A. Dal Corso  v.6.3
     Shape of augmentation charge: PSQ
     Using radial grid of 1235 points,  6 beta functions with:
                l(1) =   0
                l(2) =   0
                l(3) =   1
                l(4) =   1
                l(5) =   2
                l(6) =   2
     Q(r) pseudized with 0 coefficients

     atomic species   valence    mass     pseudopotential
        Pd            18.00   106.42000     Pd( 1.00)

      8 Sym. Ops. (no inversion) found

   Cartesian axes

     site n.     atom                  positions (alat units)
         1           Pd  tau(   1) = (   0.0000000   0.0000000   0.0000000  )
         2           Pd  tau(   2) = (   0.2500000   0.2500000   0.0000000  )
         3           Pd  tau(   3) = (   0.2500000   0.0000000   0.2500000  )
         4           Pd  tau(   4) = (   0.0000000   0.2500000   0.2500000  )
         5           Pd  tau(   5) = (   0.0000000   0.0000000   1.0312500  )
         6           Pd  tau(   6) = (   0.2500000   0.2500000   1.0312500  )
         7           Pd  tau(   7) = (   0.2500000   0.0000000   1.2812500  )
         8           Pd  tau(   8) = (   0.0000000   0.2500000   1.2812500  )
         9           Pd  tau(   9) = (   0.0000000   0.5000000   0.0000000  )
        10           Pd  tau(  10) = (   0.2500000   0.7500000   0.0000000  )
        11           Pd  tau(  11) = (   0.2500000   0.5000000   0.2500000  )
        12           Pd  tau(  12) = (   0.0000000   0.7500000   0.2500000  )
        13           Pd  tau(  13) = (   0.0000000   0.5000000   1.0312500  )
        14           Pd  tau(  14) = (   0.2500000   0.7500000   1.0312500  )
        15           Pd  tau(  15) = (   0.2500000   0.5000000   1.2812500  )
        16           Pd  tau(  16) = (   0.0000000   0.7500000   1.2812500  )
        17           Pd  tau(  17) = (   0.5000000   0.0000000   0.0000000  )
        18           Pd  tau(  18) = (   0.7500000   0.2500000   0.0000000  )
        19           Pd  tau(  19) = (   0.7500000   0.0000000   0.2500000  )
        20           Pd  tau(  20) = (   0.5000000   0.2500000   0.2500000  )
        21           Pd  tau(  21) = (   0.5000000   0.0000000   1.0312500  )
        22           Pd  tau(  22) = (   0.7500000   0.2500000   1.0312500  )
        23           Pd  tau(  23) = (   0.7500000   0.0000000   1.2812500  )
        24           Pd  tau(  24) = (   0.5000000   0.2500000   1.2812500  )
        25           Pd  tau(  25) = (   0.5000000   0.5000000   0.0000000  )
        26           Pd  tau(  26) = (   0.7500000   0.7500000   0.0000000  )
        27           Pd  tau(  27) = (   0.7500000   0.5000000   0.2500000  )
        28           Pd  tau(  28) = (   0.5000000   0.7500000   0.2500000  )
        29           Pd  tau(  29) = (   0.5000000   0.5000000   1.0312500  )
        30           Pd  tau(  30) = (   0.7500000   0.7500000   1.0312500  )
        31           Pd  tau(  31) = (   0.7500000   0.5000000   1.2812500  )
        32           Pd  tau(  32) = (   0.5000000   0.7500000   1.2812500  )

     number of k points=    75  Marzari-Vanderbilt smearing, width (Ry)=  0.0400
                       cart. coord. in units 2pi/alat
        k(    1) = (   0.0555556   0.0555556   0.0362812), wk =   0.0219479
        k(    2) = (   0.0555556   0.0555556   0.1088435), wk =   0.0219479
        k(    3) = (   0.0555556   0.0555556   0.1814059), wk =   0.0219479
        k(    4) = (   0.0555556   0.0555556   0.2539683), wk =   0.0219479
        k(    5) = (   0.0555556   0.0555556  -0.3265306), wk =   0.0109739
        k(    6) = (   0.0555556   0.1666667   0.0362812), wk =   0.0438957
        k(    7) = (   0.0555556   0.1666667   0.1088435), wk =   0.0438957
        k(    8) = (   0.0555556   0.1666667   0.1814059), wk =   0.0438957
        k(    9) = (   0.0555556   0.1666667   0.2539683), wk =   0.0438957
        k(   10) = (   0.0555556   0.1666667  -0.3265306), wk =   0.0219479
        k(   11) = (   0.0555556   0.2777778   0.0362812), wk =   0.0438957
        k(   12) = (   0.0555556   0.2777778   0.1088435), wk =   0.0438957
        k(   13) = (   0.0555556   0.2777778   0.1814059), wk =   0.0438957
        k(   14) = (   0.0555556   0.2777778   0.2539683), wk =   0.0438957
        k(   15) = (   0.0555556   0.2777778  -0.3265306), wk =   0.0219479
        k(   16) = (   0.0555556   0.3888889   0.0362812), wk =   0.0438957
        k(   17) = (   0.0555556   0.3888889   0.1088435), wk =   0.0438957
        k(   18) = (   0.0555556   0.3888889   0.1814059), wk =   0.0438957
        k(   19) = (   0.0555556   0.3888889   0.2539683), wk =   0.0438957
        k(   20) = (   0.0555556   0.3888889  -0.3265306), wk =   0.0219479
        k(   21) = (   0.0555556  -0.5000000   0.0362812), wk =   0.0219479
        k(   22) = (   0.0555556  -0.5000000   0.1088435), wk =   0.0219479
        k(   23) = (   0.0555556  -0.5000000   0.1814059), wk =   0.0219479
        k(   24) = (   0.0555556  -0.5000000   0.2539683), wk =   0.0219479
        k(   25) = (   0.0555556  -0.5000000  -0.3265306), wk =   0.0109739
        k(   26) = (   0.1666667   0.1666667   0.0362812), wk =   0.0219479
        k(   27) = (   0.1666667   0.1666667   0.1088435), wk =   0.0219479
        k(   28) = (   0.1666667   0.1666667   0.1814059), wk =   0.0219479
        k(   29) = (   0.1666667   0.1666667   0.2539683), wk =   0.0219479
        k(   30) = (   0.1666667   0.1666667  -0.3265306), wk =   0.0109739
        k(   31) = (   0.1666667   0.2777778   0.0362812), wk =   0.0438957
        k(   32) = (   0.1666667   0.2777778   0.1088435), wk =   0.0438957
        k(   33) = (   0.1666667   0.2777778   0.1814059), wk =   0.0438957
        k(   34) = (   0.1666667   0.2777778   0.2539683), wk =   0.0438957
        k(   35) = (   0.1666667   0.2777778  -0.3265306), wk =   0.0219479
        k(   36) = (   0.1666667   0.3888889   0.0362812), wk =   0.0438957
        k(   37) = (   0.1666667   0.3888889   0.1088435), wk =   0.0438957
        k(   38) = (   0.1666667   0.3888889   0.1814059), wk =   0.0438957
        k(   39) = (   0.1666667   0.3888889   0.2539683), wk =   0.0438957
        k(   40) = (   0.1666667   0.3888889  -0.3265306), wk =   0.0219479
        k(   41) = (   0.1666667  -0.5000000   0.0362812), wk =   0.0219479
        k(   42) = (   0.1666667  -0.5000000   0.1088435), wk =   0.0219479
        k(   43) = (   0.1666667  -0.5000000   0.1814059), wk =   0.0219479
        k(   44) = (   0.1666667  -0.5000000   0.2539683), wk =   0.0219479
        k(   45) = (   0.1666667  -0.5000000  -0.3265306), wk =   0.0109739
        k(   46) = (   0.2777778   0.2777778   0.0362812), wk =   0.0219479
        k(   47) = (   0.2777778   0.2777778   0.1088435), wk =   0.0219479
        k(   48) = (   0.2777778   0.2777778   0.1814059), wk =   0.0219479
        k(   49) = (   0.2777778   0.2777778   0.2539683), wk =   0.0219479
        k(   50) = (   0.2777778   0.2777778  -0.3265306), wk =   0.0109739
        k(   51) = (   0.2777778   0.3888889   0.0362812), wk =   0.0438957
        k(   52) = (   0.2777778   0.3888889   0.1088435), wk =   0.0438957
        k(   53) = (   0.2777778   0.3888889   0.1814059), wk =   0.0438957
        k(   54) = (   0.2777778   0.3888889   0.2539683), wk =   0.0438957
        k(   55) = (   0.2777778   0.3888889  -0.3265306), wk =   0.0219479
        k(   56) = (   0.2777778  -0.5000000   0.0362812), wk =   0.0219479
        k(   57) = (   0.2777778  -0.5000000   0.1088435), wk =   0.0219479
        k(   58) = (   0.2777778  -0.5000000   0.1814059), wk =   0.0219479
        k(   59) = (   0.2777778  -0.5000000   0.2539683), wk =   0.0219479
        k(   60) = (   0.2777778  -0.5000000  -0.3265306), wk =   0.0109739
        k(   61) = (   0.3888889   0.3888889   0.0362812), wk =   0.0219479
        k(   62) = (   0.3888889   0.3888889   0.1088435), wk =   0.0219479
        k(   63) = (   0.3888889   0.3888889   0.1814059), wk =   0.0219479
        k(   64) = (   0.3888889   0.3888889   0.2539683), wk =   0.0219479
        k(   65) = (   0.3888889   0.3888889  -0.3265306), wk =   0.0109739
        k(   66) = (   0.3888889  -0.5000000   0.0362812), wk =   0.0219479
        k(   67) = (   0.3888889  -0.5000000   0.1088435), wk =   0.0219479
        k(   68) = (   0.3888889  -0.5000000   0.1814059), wk =   0.0219479
        k(   69) = (   0.3888889  -0.5000000   0.2539683), wk =   0.0219479
        k(   70) = (   0.3888889  -0.5000000  -0.3265306), wk =   0.0109739
[...]

     Computing stress (Cartesian axis) and pressure

          total   stress  (Ry/bohr**3)                   (kbar)     P=      -36.46
  -0.00030910   0.00000000   0.00000000          -45.47        0.00        0.00
   0.00000000  -0.00030910   0.00000000            0.00      -45.47        0.00
   0.00000000   0.00000000  -0.00012538            0.00        0.00      -18.44

     BFGS Geometry Optimization
     Energy error            =      0.0E+00
     Gradient error          =      4.3E-03

     number of scf cycles    =   1
     number of bfgs steps    =   0

     energy   new            =  -16384.0524157492 Ry

     new trust radius        =       0.0042518220 bohr
     new conv_thr            =       0.0000010000 Ry

ATOMIC_POSITIONS (crystal)
Pd            0.0000000000        0.0000000000        0.0001397235
Pd            0.2500000306        0.2500000306        0.0001406575
Pd            0.2500003796       -0.0000000000        0.1630795728
Pd            0.0000000000        0.2500003796        0.1630795728
Pd            0.0000000000        0.0000000000        0.6736565042
Pd            0.2499987833        0.2499987833        0.6736560503
Pd            0.2499984785        0.0000000000        0.8365930876
Pd            0.0000000000        0.2499984785        0.8365930876
Pd            0.0000000000        0.5000000000        0.0001403499
Pd            0.2500000306        0.7499999694        0.0001406575
Pd            0.2500008428        0.5000000000        0.1630796204
Pd           -0.0000000000        0.7499996204        0.1630795728
Pd            0.0000000000        0.5000000000        0.6736559189
Pd            0.2499987833        0.7500012167        0.6736560503
Pd            0.2499990418        0.5000000000        0.8365933945
Pd            0.0000000000        0.7500015215        0.8365930876
Pd            0.5000000000        0.0000000000        0.0001403499
Pd            0.7499999694        0.2500000306        0.0001406575
Pd            0.7499996204        0.0000000000        0.1630795728
Pd            0.5000000000        0.2500008428        0.1630796204
Pd            0.5000000000        0.0000000000        0.6736559189
Pd            0.7500012167        0.2499987833        0.6736560503
Pd            0.7500015215        0.0000000000        0.8365930876
Pd            0.5000000000        0.2499990418        0.8365933945
Pd            0.5000000000        0.5000000000        0.0001413126
Pd            0.7499999694        0.7499999694        0.0001406575
Pd            0.7499991572        0.5000000000        0.1630796204
Pd            0.5000000000        0.7499991572        0.1630796204
Pd            0.5000000000        0.5000000000        0.6736554915
Pd            0.7500012167        0.7500012167        0.6736560503
Pd            0.7500009582        0.5000000000        0.8365933945
Pd            0.5000000000        0.7500009582        0.8365933945

     Writing output data file /scratch/EDOrHCGgXZWkLSRr.save/
     NEW-OLD atomic charge density approx. for the potential

[...]

     Total force =     0.014599     Total SCF correction =     0.003494
     SCF correction compared to forces is large: reduce conv_thr to get better values

[...]

     Energy error            =      3.8E-04
     Gradient error          =      3.4E-03

[...]

     energy   old            =  -16384.0524157492 Ry
     energy   new            =  -16384.0527997952 Ry

     CASE: energy  _new < energy  _old

[...]

     Total force =     0.007138     Total SCF correction =     0.000928
     SCF correction compared to forces is large: reduce conv_thr to get better values

[...]

     WARNING: bfgs curvature condition failed, Theta= 0.932
     new trust radius        =       0.0039692975 bohr
     new conv_thr            =       0.0000000100 Ry

[...]

     number of scf cycles    =   7
     number of bfgs steps    =   6

     energy   old            =  -16384.0535182620 Ry
     energy   new            =  -16384.0535878185 Ry

     CASE: energy  _new < energy  _old

     new trust radius        =       0.0059539462 bohr
     new conv_thr            =       0.0000000100 Ry

ATOMIC_POSITIONS (crystal)
Pd            0.0000000000        0.0000000000        0.0000867544
Pd            0.2499992049        0.2499992049        0.0000887799
Pd            0.2500013438       -0.0000000000        0.1616263593
Pd            0.0000000000        0.2500013438        0.1616263593
Pd            0.0000000000        0.0000000000        0.6751329852
Pd            0.2499955585        0.2499955585        0.6751325344
Pd            0.2499967977        0.0000000000        0.8366206546
Pd            0.0000000000        0.2499967977        0.8366206546
Pd            0.0000000000        0.5000000000        0.0000887914
Pd            0.2499992049        0.7500007951        0.0000887799
Pd            0.2500003860        0.5000000000        0.1616269934
Pd           -0.0000000000        0.7499986562        0.1616263593
Pd            0.0000000000        0.5000000000        0.6751325778
Pd            0.2499955585        0.7500044415        0.6751325344
Pd            0.2499957631        0.5000000000        0.8366223765
Pd            0.0000000000        0.7500032023        0.8366206546
Pd            0.5000000000        0.0000000000        0.0000887914
Pd            0.7500007951        0.2499992049        0.0000887799
Pd            0.7499986562        0.0000000000        0.1616263593
Pd            0.5000000000        0.2500003860        0.1616269934
Pd            0.5000000000        0.0000000000        0.6751325778
Pd            0.7500044415        0.2499955585        0.6751325344
Pd            0.7500032023        0.0000000000        0.8366206546
Pd            0.5000000000        0.2499957631        0.8366223765
Pd            0.5000000000        0.5000000000        0.0000905257
Pd            0.7500007951        0.7500007951        0.0000887799
Pd            0.7499996140        0.5000000000        0.1616269934
Pd            0.5000000000        0.7499996140        0.1616269934
Pd            0.5000000000        0.5000000000        0.6751313057
Pd            0.7500044415        0.7500044415        0.6751325344
Pd            0.7500042369        0.5000000000        0.8366223765
Pd            0.5000000000        0.7500042369        0.8366223765

     Writing output data file /scratch/EDOrHCGgXZWkLSRr.save/
     NEW-OLD atomic charge density approx. for the potential

     Check: negative core charge=   -0.000001

     Self-consistent Calculation

[...]

     Threshold (ethr) on eigenvalues was too large:
     Diagonalizing with lowered threshold

     Davidson diagonalization with overlap
     ethr =  3.48E-08,  avg # of iterations =  2.1

[...]

     total energy              =  -16384.05368575 Ry
     estimated scf accuracy    <       0.00000001 Ry

     iteration # 12     ecut=    71.00 Ry     beta= 0.10
     Davidson diagonalization with overlap
     ethr =  2.41E-12,  avg # of iterations =  2.0

     End of self-consistent calculation

[...]

          k = 0.3889-0.5000-0.3265 ( 50572 PWs)   bands (ev):

[...]

          k =-0.5000-0.5000-0.3265 ( 50520 PWs)   bands (ev):

   -73.3472 -73.3471 -73.3471 -73.3471 -73.3246 -73.3246 -73.3246 -73.3246
   -73.3199 -73.3198 -73.3198 -73.3198 -73.3193 -73.3193 -73.3193 -73.3193
   -72.7647 -72.7647 -72.7647 -72.7646 -72.7641 -72.7641 -72.7641 -72.7641
   -72.7487 -72.7487 -72.7487 -72.7486 -72.7481 -72.7481 -72.7481 -72.7481
   -39.1725 -39.1725 -39.1725 -39.1725 -39.1723 -39.1723 -39.1723 -39.1723
   -39.1612 -39.1611 -39.1611 -39.1611 -39.1091 -39.1091 -39.1091 -39.1090
   -39.0500 -39.0499 -39.0499 -39.0499 -39.0494 -39.0494 -39.0494 -39.0494
   -39.0083 -39.0083 -39.0083 -39.0083 -39.0066 -39.0066 -39.0066 -39.0066
   -39.0063 -39.0063 -39.0063 -39.0063 -38.9868 -38.9868 -38.9868 -38.9868
   -38.9634 -38.9634 -38.9634 -38.9634 -38.9142 -38.9142 -38.9142 -38.9142
   -38.6389 -38.6389 -38.6389 -38.6389 -38.6383 -38.6383 -38.6383 -38.6383
   -38.5556 -38.5556 -38.5556 -38.5556 -38.5528 -38.5528 -38.5528 -38.5528
   -38.5414 -38.5414 -38.5414 -38.5414 -38.5408 -38.5408 -38.5408 -38.5408
   -38.4529 -38.4529 -38.4529 -38.4529 -38.4524 -38.4524 -38.4524 -38.4523
   -38.3663 -38.3663 -38.3663 -38.3662 -38.3654 -38.3654 -38.3654 -38.3654
   -38.3544 -38.3544 -38.3544 -38.3543 -38.3538 -38.3538 -38.3538 -38.3538
     5.5596   5.5597   5.5597   5.5597   6.1856   6.1856   6.1856   6.1856
     6.5118   6.5119   6.5119   6.5119   6.5123   6.5124   6.5124   6.5124
     6.6161   6.6161   6.6161   6.6161   6.6840   6.6841   6.6841   6.6842
     6.6844   6.6844   6.6844   6.6844   6.7649   6.7649   6.7649   6.7650
     7.0627   7.0627   7.0627   7.0627   7.3706   7.3706   7.3706   7.3706
     7.3717   7.3717   7.3717   7.3717   7.6782   7.6783   7.6783   7.6785
     7.6788   7.6788   7.6789   7.6789   7.8496   7.8496   7.8496   7.8497
     8.0853   8.0853   8.0853   8.0853   8.3376   8.3376   8.3376   8.3376
     8.4595   8.4595   8.4595   8.4595   8.4628   8.4628   8.4628   8.4628
     8.5449   8.5449   8.5449   8.5450   8.6593   8.6593   8.6593   8.6594
     8.6595   8.6595   8.6595   8.6595   8.6899   8.6899   8.6899   8.6899
     8.9962   8.9962   8.9962   8.9962   9.1311   9.1311   9.1311   9.1311
     9.2529   9.2529   9.2529   9.2529   9.2534   9.2534   9.2534   9.2534
     9.2898   9.2898   9.2898   9.2898   9.2902   9.2902   9.2902   9.2902
     9.3023   9.3024   9.3024   9.3024   9.5244   9.5244   9.5244   9.5244
     9.8683   9.8683   9.8683   9.8683   9.8683   9.8683   9.8683   9.8683
     9.8812   9.8812   9.8812   9.8813   9.9737   9.9737   9.9737   9.9737
    10.1306  10.1306  10.1306  10.1306  10.3406  10.3406  10.3406  10.3406
    10.4713  10.4713  10.4713  10.4713  10.4714  10.4714  10.4714  10.4714
    10.7631  10.7631  10.7631  10.7631  10.8139  10.8139  10.8139  10.8139
    10.8139  10.8139  10.8139  10.8139  10.8311  10.8311  10.8311  10.8312
    11.6943  11.6943  11.6943  11.6943  13.7681  13.7681  13.7681  13.7681
    14.0708  14.0708  14.0708  14.0709  14.0709  14.0710  14.0710  14.0710
    15.1807  15.1807  15.1807  15.1807  15.1808  15.1809  15.1809  15.1809
    16.6666  16.6666  16.6666  16.6666  17.2462  17.2462  17.2462  17.2462
    17.2465  17.2465  17.2465  17.2465  18.3559  18.3559  18.3559  18.3559
    19.4309  19.4309  19.4310  19.4310  19.4649  19.4649  19.4651  19.4653
    19.4653  19.4653

     the Fermi energy is    10.8280 ev

!    total energy              =  -16384.05368591 Ry

     total all-electron energy =   -322944.907393 Ry
     estimated scf accuracy    <          6.3E-09 Ry
     smearing contrib. (-TS)   =       0.12003676 Ry
     internal energy E=F+TS    =  -16384.17372267 Ry

     The total energy is F=E-TS. E is the sum of the following terms:
     one-electron contribution =  -12037.72150651 Ry
     hartree contribution      =    6262.47524511 Ry
     xc contribution           =    -985.48291636 Ry
     ewald contribution        =   -1456.10868487 Ry
     one-center paw contrib.   =   -8167.33586003 Ry

     convergence has been achieved in  12 iterations

     Forces acting on atoms (cartesian axes, Ry/au):

     atom    1 type  1   force =     0.00000000    0.00000000   -0.00092340
     atom    2 type  1   force =     0.00000315    0.00000315   -0.00093726
     atom    3 type  1   force =    -0.00000275    0.00000000    0.00006134
     atom    4 type  1   force =     0.00000000   -0.00000275    0.00006134
     atom    5 type  1   force =     0.00000000    0.00000000   -0.00005441
     atom    6 type  1   force =     0.00000998    0.00000998   -0.00004348
     atom    7 type  1   force =     0.00001176    0.00000000    0.00092570
     atom    8 type  1   force =     0.00000000    0.00001176    0.00092570
     atom    9 type  1   force =     0.00000000    0.00000000   -0.00093716
     atom   10 type  1   force =     0.00000315   -0.00000315   -0.00093726
     atom   11 type  1   force =    -0.00000009    0.00000000    0.00006033
     atom   12 type  1   force =     0.00000000    0.00000275    0.00006134
     atom   13 type  1   force =     0.00000000    0.00000000   -0.00004416
     atom   14 type  1   force =     0.00000998   -0.00000998   -0.00004348
     atom   15 type  1   force =     0.00001670    0.00000000    0.00091311
     atom   16 type  1   force =     0.00000000   -0.00001176    0.00092570
     atom   17 type  1   force =     0.00000000    0.00000000   -0.00093716
     atom   18 type  1   force =    -0.00000315    0.00000315   -0.00093726
     atom   19 type  1   force =     0.00000275    0.00000000    0.00006134
     atom   20 type  1   force =     0.00000000   -0.00000009    0.00006033
     atom   21 type  1   force =     0.00000000    0.00000000   -0.00004416
     atom   22 type  1   force =    -0.00000998    0.00000998   -0.00004348
     atom   23 type  1   force =    -0.00001176    0.00000000    0.00092570
     atom   24 type  1   force =     0.00000000    0.00001670    0.00091311
     atom   25 type  1   force =     0.00000000    0.00000000   -0.00094986
     atom   26 type  1   force =    -0.00000315   -0.00000315   -0.00093726
     atom   27 type  1   force =     0.00000009    0.00000000    0.00006033
     atom   28 type  1   force =     0.00000000    0.00000009    0.00006033
     atom   29 type  1   force =     0.00000000    0.00000000   -0.00002864
     atom   30 type  1   force =    -0.00000998   -0.00000998   -0.00004348
     atom   31 type  1   force =    -0.00001670    0.00000000    0.00091311
     atom   32 type  1   force =     0.00000000   -0.00001670    0.00091311

     Total force =     0.003720     Total SCF correction =     0.000353

     Computing stress (Cartesian axis) and pressure

          total   stress  (Ry/bohr**3)                   (kbar)     P=      -30.66
  -0.00027484   0.00000000   0.00000000          -40.43        0.00        0.00
   0.00000000  -0.00027484   0.00000000            0.00      -40.43        0.00
   0.00000000   0.00000000  -0.00007570            0.00        0.00      -11.14

     Energy error            =      9.8E-05
     Gradient error          =      9.5E-04

     bfgs converged in   8 scf cycles and   7 bfgs steps
     (criteria: energy <  1.0E-04 Ry, force <  1.0E-03 Ry/Bohr)

     End of BFGS Geometry Optimization

     Final energy   =  -16384.0536859099 Ry

     File /scratch/EDOrHCGgXZWkLSRr.bfgs deleted, as requested
Begin final coordinates

ATOMIC_POSITIONS (crystal)
Pd            0.0000000000        0.0000000000        0.0000867544
Pd            0.2499992049        0.2499992049        0.0000887799
Pd            0.2500013438       -0.0000000000        0.1616263593
Pd            0.0000000000        0.2500013438        0.1616263593
Pd            0.0000000000        0.0000000000        0.6751329852
Pd            0.2499955585        0.2499955585        0.6751325344
Pd            0.2499967977        0.0000000000        0.8366206546
Pd            0.0000000000        0.2499967977        0.8366206546
Pd            0.0000000000        0.5000000000        0.0000887914
Pd            0.2499992049        0.7500007951        0.0000887799
Pd            0.2500003860        0.5000000000        0.1616269934
Pd           -0.0000000000        0.7499986562        0.1616263593
Pd            0.0000000000        0.5000000000        0.6751325778
Pd            0.2499955585        0.7500044415        0.6751325344
Pd            0.2499957631        0.5000000000        0.8366223765
Pd            0.0000000000        0.7500032023        0.8366206546
Pd            0.5000000000        0.0000000000        0.0000887914
Pd            0.7500007951        0.2499992049        0.0000887799
Pd            0.7499986562        0.0000000000        0.1616263593
Pd            0.5000000000        0.2500003860        0.1616269934
Pd            0.5000000000        0.0000000000        0.6751325778
Pd            0.7500044415        0.2499955585        0.6751325344
Pd            0.7500032023        0.0000000000        0.8366206546
Pd            0.5000000000        0.2499957631        0.8366223765
Pd            0.5000000000        0.5000000000        0.0000905257
Pd            0.7500007951        0.7500007951        0.0000887799
Pd            0.7499996140        0.5000000000        0.1616269934
Pd            0.5000000000        0.7499996140        0.1616269934
Pd            0.5000000000        0.5000000000        0.6751313057
Pd            0.7500044415        0.7500044415        0.6751325344
Pd            0.7500042369        0.5000000000        0.8366223765
Pd            0.5000000000        0.7500042369        0.8366223765
End final coordinates

     Writing output data file /scratch/EDOrHCGgXZWkLSRr.save/

     General routines

     Parallel routines

   This run was terminated on:  12:36:27   7Jan2022

   JOB DONE.