     Program PWSCF v.6.7MaX starts on  7Jan2022 at  3:36:50

     R & G space division:  proc/nbgrp/npool/nimage =      72
     Reading input from relax_16.in
Warning: card &CELL ignored
Warning: card CELL_DYNAMICS = 'BFGS', ignored
Warning: card CELL_FACTOR = 2.0, ignored
Warning: card PRESS = 0.0, ignored
Warning: card / ignored

     Current dimensions of program PWSCF are:
     Max number of different atomic species (ntypx) = 10
     Max number of k-points (npk) =  40000
     Max angular momentum in pseudopotentials (lmaxx) =  3
     file Pd.pbe-spn-kjpaw_psl.1.0.0.UPF: wavefunction(s)  4S 5S 4D renormalized

     Subspace diagonalization in iterative solution of the eigenvalue problem:
     one sub-group per band group will be used

     Found symmetry operation: I + (  0.2500  0.2500  0.0000)
     This is a supercell, fractional translations are disabled
     Message from routine setup:
     using ibrav=0 with symmetry is DISCOURAGED, use correct ibrav instead

     bravais-lattice index     =            0
     lattice parameter (alat)  =      14.8394  a.u.
     unit-cell volume          =    4799.5294 (a.u.)^3
     number of atoms/cell      =           32
     number of atomic types    =            1
     number of electrons       =       576.00
     number of Kohn-Sham states=          346
     kinetic-energy cutoff     =      71.0000  Ry
     charge density cutoff     =     430.0000  Ry
     scf convergence threshold =      1.0E-06
     mixing beta               =       0.1000
     number of iterations used =           10  TF        mixing
     energy convergence thresh.=      1.0E-04
     force convergence thresh. =      1.0E-03
     Exchange-correlation= SLA  PW   PBX  PBC
                           (   1   4   3   4   0   0   0)
     nstep                     =           40

     celldm(1)=  14.839420  celldm(2)=   0.000000  celldm(3)=   0.000000
     celldm(4)=   0.000000  celldm(5)=   0.000000  celldm(6)=   0.000000

     crystal axes: (cart. coord. in units of alat)
               a(1) = (   1.000000   0.000000   0.000000 )
               a(2) = (   0.000000   1.000000   0.000000 )
               a(3) = (   0.000000   0.000000   1.468750 )

     reciprocal axes: (cart. coord. in units 2 pi/alat)
               b(1) = (  1.000000  0.000000  0.000000 )
               b(2) = (  0.000000  1.000000  0.000000 )
               b(3) = (  0.000000  0.000000  0.680851 )

     PseudoPot. # 1 for Pd read from file:
     /rds/homes/b/bxp912/pp/Pd.pbe-spn-kjpaw_psl.1.0.0.UPF
     MD5 check sum: 790f2ebce206edfd9790dcb9844eca51
     Pseudo is Projector augmented-wave + core cor, Zval = 18.0
     Generated using &quot;atomic&quot; code by A. Dal Corso  v.6.3
     Shape of augmentation charge: PSQ
     Using radial grid of 1235 points,  6 beta functions with:
                l(1) =   0
                l(2) =   0
                l(3) =   1
                l(4) =   1
                l(5) =   2
                l(6) =   2
     Q(r) pseudized with 0 coefficients

     atomic species   valence    mass     pseudopotential
        Pd            18.00   106.42000     Pd( 1.00)

      8 Sym. Ops. (no inversion) found

   Cartesian axes

     site n.     atom                  positions (alat units)
         1           Pd  tau(   1) = (   0.0000000   0.0000000   0.0000000  )
         2           Pd  tau(   2) = (   0.2500000   0.2500000   0.0000000  )
         3           Pd  tau(   3) = (   0.2500000   0.0000000   0.2500000  )
         4           Pd  tau(   4) = (   0.0000000   0.2500000   0.2500000  )
         5           Pd  tau(   5) = (   0.0000000   0.0000000   0.9687500  )
         6           Pd  tau(   6) = (   0.2500000   0.2500000   0.9687500  )
         7           Pd  tau(   7) = (   0.2500000   0.0000000   1.2187500  )
         8           Pd  tau(   8) = (   0.0000000   0.2500000   1.2187500  )
         9           Pd  tau(   9) = (   0.0000000   0.5000000   0.0000000  )
        10           Pd  tau(  10) = (   0.2500000   0.7500000   0.0000000  )
        11           Pd  tau(  11) = (   0.2500000   0.5000000   0.2500000  )
        12           Pd  tau(  12) = (   0.0000000   0.7500000   0.2500000  )
        13           Pd  tau(  13) = (   0.0000000   0.5000000   0.9687500  )
        14           Pd  tau(  14) = (   0.2500000   0.7500000   0.9687500  )
        15           Pd  tau(  15) = (   0.2500000   0.5000000   1.2187500  )
        16           Pd  tau(  16) = (   0.0000000   0.7500000   1.2187500  )
        17           Pd  tau(  17) = (   0.5000000   0.0000000   0.0000000  )
        18           Pd  tau(  18) = (   0.7500000   0.2500000   0.0000000  )
        19           Pd  tau(  19) = (   0.7500000   0.0000000   0.2500000  )
        20           Pd  tau(  20) = (   0.5000000   0.2500000   0.2500000  )
        21           Pd  tau(  21) = (   0.5000000   0.0000000   0.9687500  )
        22           Pd  tau(  22) = (   0.7500000   0.2500000   0.9687500  )
        23           Pd  tau(  23) = (   0.7500000   0.0000000   1.2187500  )
        24           Pd  tau(  24) = (   0.5000000   0.2500000   1.2187500  )
        25           Pd  tau(  25) = (   0.5000000   0.5000000   0.0000000  )
        26           Pd  tau(  26) = (   0.7500000   0.7500000   0.0000000  )
        27           Pd  tau(  27) = (   0.7500000   0.5000000   0.2500000  )
        28           Pd  tau(  28) = (   0.5000000   0.7500000   0.2500000  )
        29           Pd  tau(  29) = (   0.5000000   0.5000000   0.9687500  )
        30           Pd  tau(  30) = (   0.7500000   0.7500000   0.9687500  )
        31           Pd  tau(  31) = (   0.7500000   0.5000000   1.2187500  )
        32           Pd  tau(  32) = (   0.5000000   0.7500000   1.2187500  )

     number of k points=    75  Marzari-Vanderbilt smearing, width (Ry)=  0.0400
                       cart. coord. in units 2pi/alat
        k(    1) = (   0.0555556   0.0555556   0.0378251), wk =   0.0219479
        k(    2) = (   0.0555556   0.0555556   0.1134752), wk =   0.0219479
        k(    3) = (   0.0555556   0.0555556   0.1891253), wk =   0.0219479
        k(    4) = (   0.0555556   0.0555556   0.2647754), wk =   0.0219479
        k(    5) = (   0.0555556   0.0555556  -0.3404255), wk =   0.0109739
        k(    6) = (   0.0555556   0.1666667   0.0378251), wk =   0.0438957
        k(    7) = (   0.0555556   0.1666667   0.1134752), wk =   0.0438957
        k(    8) = (   0.0555556   0.1666667   0.1891253), wk =   0.0438957
        k(    9) = (   0.0555556   0.1666667   0.2647754), wk =   0.0438957
        k(   10) = (   0.0555556   0.1666667  -0.3404255), wk =   0.0219479
        k(   11) = (   0.0555556   0.2777778   0.0378251), wk =   0.0438957
        k(   12) = (   0.0555556   0.2777778   0.1134752), wk =   0.0438957
        k(   13) = (   0.0555556   0.2777778   0.1891253), wk =   0.0438957
        k(   14) = (   0.0555556   0.2777778   0.2647754), wk =   0.0438957
        k(   15) = (   0.0555556   0.2777778  -0.3404255), wk =   0.0219479
        k(   16) = (   0.0555556   0.3888889   0.0378251), wk =   0.0438957
        k(   17) = (   0.0555556   0.3888889   0.1134752), wk =   0.0438957
        k(   18) = (   0.0555556   0.3888889   0.1891253), wk =   0.0438957
        k(   19) = (   0.0555556   0.3888889   0.2647754), wk =   0.0438957
        k(   20) = (   0.0555556   0.3888889  -0.3404255), wk =   0.0219479
        k(   21) = (   0.0555556  -0.5000000   0.0378251), wk =   0.0219479
        k(   22) = (   0.0555556  -0.5000000   0.1134752), wk =   0.0219479
        k(   23) = (   0.0555556  -0.5000000   0.1891253), wk =   0.0219479
        k(   24) = (   0.0555556  -0.5000000   0.2647754), wk =   0.0219479
        k(   25) = (   0.0555556  -0.5000000  -0.3404255), wk =   0.0109739
        k(   26) = (   0.1666667   0.1666667   0.0378251), wk =   0.0219479
        k(   27) = (   0.1666667   0.1666667   0.1134752), wk =   0.0219479
        k(   28) = (   0.1666667   0.1666667   0.1891253), wk =   0.0219479
        k(   29) = (   0.1666667   0.1666667   0.2647754), wk =   0.0219479
        k(   30) = (   0.1666667   0.1666667  -0.3404255), wk =   0.0109739
        k(   31) = (   0.1666667   0.2777778   0.0378251), wk =   0.0438957
        k(   32) = (   0.1666667   0.2777778   0.1134752), wk =   0.0438957
        k(   33) = (   0.1666667   0.2777778   0.1891253), wk =   0.0438957
        k(   34) = (   0.1666667   0.2777778   0.2647754), wk =   0.0438957
        k(   35) = (   0.1666667   0.2777778  -0.3404255), wk =   0.0219479
        k(   36) = (   0.1666667   0.3888889   0.0378251), wk =   0.0438957
        k(   37) = (   0.1666667   0.3888889   0.1134752), wk =   0.0438957
        k(   38) = (   0.1666667   0.3888889   0.1891253), wk =   0.0438957
        k(   39) = (   0.1666667   0.3888889   0.2647754), wk =   0.0438957
        k(   40) = (   0.1666667   0.3888889  -0.3404255), wk =   0.0219479
        k(   41) = (   0.1666667  -0.5000000   0.0378251), wk =   0.0219479
        k(   42) = (   0.1666667  -0.5000000   0.1134752), wk =   0.0219479
        k(   43) = (   0.1666667  -0.5000000   0.1891253), wk =   0.0219479
        k(   44) = (   0.1666667  -0.5000000   0.2647754), wk =   0.0219479
        k(   45) = (   0.1666667  -0.5000000  -0.3404255), wk =   0.0109739
        k(   46) = (   0.2777778   0.2777778   0.0378251), wk =   0.0219479
        k(   47) = (   0.2777778   0.2777778   0.1134752), wk =   0.0219479
        k(   48) = (   0.2777778   0.2777778   0.1891253), wk =   0.0219479
        k(   49) = (   0.2777778   0.2777778   0.2647754), wk =   0.0219479
        k(   50) = (   0.2777778   0.2777778  -0.3404255), wk =   0.0109739
        k(   51) = (   0.2777778   0.3888889   0.0378251), wk =   0.0438957
        k(   52) = (   0.2777778   0.3888889   0.1134752), wk =   0.0438957
        k(   53) = (   0.2777778   0.3888889   0.1891253), wk =   0.0438957
        k(   54) = (   0.2777778   0.3888889   0.2647754), wk =   0.0438957
        k(   55) = (   0.2777778   0.3888889  -0.3404255), wk =   0.0219479
        k(   56) = (   0.2777778  -0.5000000   0.0378251), wk =   0.0219479
        k(   57) = (   0.2777778  -0.5000000   0.1134752), wk =   0.0219479
        k(   58) = (   0.2777778  -0.5000000   0.1891253), wk =   0.0219479
        k(   59) = (   0.2777778  -0.5000000   0.2647754), wk =   0.0219479
        k(   60) = (   0.2777778  -0.5000000  -0.3404255), wk =   0.0109739
        k(   61) = (   0.3888889   0.3888889   0.0378251), wk =   0.0219479
        k(   62) = (   0.3888889   0.3888889   0.1134752), wk =   0.0219479
        k(   63) = (   0.3888889   0.3888889   0.1891253), wk =   0.0219479
        k(   64) = (   0.3888889   0.3888889   0.2647754), wk =   0.0219479
        k(   65) = (   0.3888889   0.3888889  -0.3404255), wk =   0.0109739
        k(   66) = (   0.3888889  -0.5000000   0.0378251), wk =   0.0219479
        k(   67) = (   0.3888889  -0.5000000   0.1134752), wk =   0.0219479
        k(   68) = (   0.3888889  -0.5000000   0.1891253), wk =   0.0219479
        k(   69) = (   0.3888889  -0.5000000   0.2647754), wk =   0.0219479
        k(   70) = (   0.3888889  -0.5000000  -0.3404255), wk =   0.0109739
[...]
     atom   32 type  1   force =     0.00000000    0.00001167   -0.00325137

     Total force =     0.021245     Total SCF correction =     0.002018

     Computing stress (Cartesian axis) and pressure

          total   stress  (Ry/bohr**3)                   (kbar)     P=      -38.13
  -0.00032164   0.00000000   0.00000000          -47.31        0.00        0.00
   0.00000000  -0.00032164   0.00000000            0.00      -47.31        0.00
   0.00000000   0.00000000  -0.00013426            0.00        0.00      -19.75

     BFGS Geometry Optimization
     Energy error            =      0.0E+00
     Gradient error          =      4.2E-03

     number of scf cycles    =   1
     number of bfgs steps    =   0

     energy   new            =  -16384.0545909348 Ry

     new trust radius        =       0.0042136095 bohr
     new conv_thr            =       0.0000010000 Ry

ATOMIC_POSITIONS (crystal)
Pd            0.0000000000        0.0000000000        0.0001486449
Pd            0.2500002854        0.2500002854        0.0001493205
Pd            0.2500008897        0.0000000000        0.1700197378
Pd            0.0000000000        0.2500008897        0.1700197378
Pd            0.0000000000        0.0000000000        0.6597677937
Pd            0.2499999974        0.2499999974        0.6597674648
Pd            0.2499990208        0.0000000000        0.8296386102
Pd            0.0000000000        0.2499990208        0.8296386102
Pd            0.0000000000        0.5000000000        0.0001486597
Pd            0.2500002854        0.7499997146        0.0001493205
Pd            0.2500001287        0.5000000000        0.1700199478
Pd            0.0000000000        0.7499991103        0.1700197378
Pd            0.0000000000        0.5000000000        0.6597667629
Pd            0.2499999974        0.7500000026        0.6597674648
Pd            0.2499992136        0.5000000000        0.8296380571
Pd            0.0000000000        0.7500009792        0.8296386102
Pd            0.5000000000        0.0000000000        0.0001486597
Pd            0.7499997146        0.2500002854        0.0001493205
Pd            0.7499991103        0.0000000000        0.1700197378
Pd            0.5000000000        0.2500001287        0.1700199478
Pd            0.5000000000        0.0000000000        0.6597667629
Pd            0.7500000026        0.2499999974        0.6597674648
Pd            0.7500009792        0.0000000000        0.8296386102
Pd            0.5000000000        0.2499992136        0.8296380571
Pd            0.5000000000        0.5000000000        0.0001496266
Pd            0.7499997146        0.7499997146        0.0001493205
Pd            0.7499998713        0.5000000000        0.1700199478
Pd            0.5000000000        0.7499998713        0.1700199478
Pd            0.5000000000        0.5000000000        0.6597662814
Pd            0.7500000026        0.7500000026        0.6597674648
Pd            0.7500007864        0.5000000000        0.8296380571
Pd            0.5000000000        0.7500007864        0.8296380571

     Writing output data file /scratch/SMjQtDStExCajVNT.save/
     NEW-OLD atomic charge density approx. for the potential

[...]

     Total force =     0.013892     Total SCF correction =     0.003346
     SCF correction compared to forces is large: reduce conv_thr to get better values

[...]

     Energy error            =      3.7E-04
     Gradient error          =      3.2E-03

[...]

     energy   old            =  -16384.0545909348 Ry
     energy   new            =  -16384.0549571344 Ry

     CASE: energy  _new < energy  _old

[...]

     Total force =     0.005633     Total SCF correction =     0.000494

[...]

     number of scf cycles    =   7
     number of bfgs steps    =   6

     energy   old            =  -16384.0555733611 Ry
     energy   new            =  -16384.0556462845 Ry

     CASE: energy  _new < energy  _old

     new trust radius        =       0.0070646030 bohr
     new conv_thr            =       0.0000000100 Ry

ATOMIC_POSITIONS (crystal)
Pd            0.0000000000        0.0000000000        0.0000149799
Pd            0.2500005600        0.2500005600        0.0000160023
Pd            0.2500021368        0.0000000000        0.1684647981
Pd            0.0000000000        0.2500021368        0.1684647981
Pd            0.0000000000        0.0000000000        0.6613477622
Pd            0.2499987730        0.2499987730        0.6613468357
Pd            0.2499988690        0.0000000000        0.8297463932
Pd            0.0000000000        0.2499988690        0.8297463932
Pd            0.0000000000        0.5000000000        0.0000155783
Pd            0.2500005600        0.7499994400        0.0000160023
Pd            0.2500001421        0.5000000000        0.1684652123
Pd            0.0000000000        0.7499978632        0.1684647981
Pd            0.0000000000        0.5000000000        0.6613463000
Pd            0.2499987730        0.7500012270        0.6613468357
Pd            0.2499978234        0.5000000000        0.8297474565
Pd            0.0000000000        0.7500011310        0.8297463932
Pd            0.5000000000        0.0000000000        0.0000155783
Pd            0.7499994400        0.2500005600        0.0000160023
Pd            0.7499978632        0.0000000000        0.1684647981
Pd            0.5000000000        0.2500001421        0.1684652123
Pd            0.5000000000        0.0000000000        0.6613463000
Pd            0.7500012270        0.2499987730        0.6613468357
Pd            0.7500011310        0.0000000000        0.8297463932
Pd            0.5000000000        0.2499978234        0.8297474565
Pd            0.5000000000        0.5000000000        0.0000174456
Pd            0.7499994400        0.7499994400        0.0000160023
Pd            0.7499998579        0.5000000000        0.1684652123
Pd            0.5000000000        0.7499998579        0.1684652123
Pd            0.5000000000        0.5000000000        0.6613450087
Pd            0.7500012270        0.7500012270        0.6613468357
Pd            0.7500021766        0.5000000000        0.8297474565
Pd            0.5000000000        0.7500021766        0.8297474565

     Writing output data file /scratch/SMjQtDStExCajVNT.save/
     NEW-OLD atomic charge density approx. for the potential

     Check: negative core charge=   -0.000001

     Self-consistent Calculation

[...]

     Threshold (ethr) on eigenvalues was too large:
     Diagonalizing with lowered threshold

     Davidson diagonalization with overlap
     ethr =  5.84E-08,  avg # of iterations =  2.0

[...]

     total energy              =  -16384.05572381 Ry
     estimated scf accuracy    <       0.00000002 Ry

     iteration # 12     ecut=    71.00 Ry     beta= 0.10
     Davidson diagonalization with overlap
     ethr =  3.27E-12,  avg # of iterations =  2.0

     End of self-consistent calculation

[...]

          k = 0.3889-0.5000-0.3404 ( 48516 PWs)   bands (ev):

[...]

          k =-0.5000-0.5000-0.3404 ( 48440 PWs)   bands (ev):

   -72.6734 -72.6734 -72.6734 -72.6734 -72.6507 -72.6507 -72.6507 -72.6507
   -72.6461 -72.6460 -72.6460 -72.6460 -72.6455 -72.6455 -72.6455 -72.6455
   -72.0898 -72.0898 -72.0898 -72.0897 -72.0892 -72.0892 -72.0892 -72.0892
   -72.0738 -72.0738 -72.0738 -72.0738 -72.0733 -72.0733 -72.0733 -72.0732
   -38.4991 -38.4991 -38.4991 -38.4991 -38.4989 -38.4989 -38.4989 -38.4989
   -38.4877 -38.4877 -38.4877 -38.4877 -38.4355 -38.4355 -38.4355 -38.4355
   -38.3761 -38.3761 -38.3761 -38.3761 -38.3756 -38.3756 -38.3756 -38.3756
   -38.3342 -38.3342 -38.3342 -38.3342 -38.3326 -38.3326 -38.3326 -38.3326
   -38.3323 -38.3323 -38.3323 -38.3323 -38.3126 -38.3126 -38.3126 -38.3126
   -38.2897 -38.2897 -38.2897 -38.2897 -38.2402 -38.2402 -38.2402 -38.2402
   -37.9638 -37.9638 -37.9638 -37.9638 -37.9633 -37.9633 -37.9633 -37.9633
   -37.8806 -37.8806 -37.8806 -37.8806 -37.8778 -37.8778 -37.8778 -37.8778
   -37.8663 -37.8663 -37.8663 -37.8663 -37.8658 -37.8658 -37.8658 -37.8658
   -37.7778 -37.7778 -37.7778 -37.7778 -37.7773 -37.7773 -37.7773 -37.7773
   -37.6917 -37.6917 -37.6917 -37.6917 -37.6907 -37.6907 -37.6907 -37.6907
   -37.6799 -37.6798 -37.6798 -37.6798 -37.6793 -37.6793 -37.6793 -37.6792
     6.2328   6.2328   6.2328   6.2329   6.8575   6.8575   6.8575   6.8575
     7.1847   7.1847   7.1847   7.1847   7.1852   7.1852   7.1852   7.1852
     7.2902   7.2902   7.2902   7.2902   7.3563   7.3563   7.3563   7.3564
     7.3566   7.3566   7.3566   7.3566   7.4414   7.4414   7.4414   7.4414
     7.7351   7.7351   7.7352   7.7352   8.0463   8.0463   8.0463   8.0463
     8.0474   8.0474   8.0474   8.0474   8.3537   8.3537   8.3537   8.3537
     8.3542   8.3542   8.3542   8.3542   8.5258   8.5258   8.5258   8.5258
     8.7594   8.7594   8.7594   8.7594   9.0137   9.0138   9.0138   9.0138
     9.1327   9.1327   9.1327   9.1327   9.1350   9.1350   9.1351   9.1351
     9.2223   9.2223   9.2223   9.2223   9.3332   9.3332   9.3332   9.3333
     9.3334   9.3334   9.3334   9.3334   9.3628   9.3628   9.3629   9.3629
     9.6689   9.6689   9.6689   9.6689   9.8079   9.8079   9.8079   9.8079
     9.9280   9.9280   9.9280   9.9280   9.9285   9.9285   9.9285   9.9285
     9.9652   9.9652   9.9652   9.9652   9.9655   9.9655   9.9656   9.9656
     9.9779   9.9779   9.9779   9.9779  10.2002  10.2002  10.2002  10.2002
    10.5396  10.5396  10.5396  10.5396  10.5396  10.5396  10.5396  10.5396
    10.5599  10.5599  10.5599  10.5599  10.6251  10.6251  10.6251  10.6251
    10.8051  10.8051  10.8051  10.8051  11.0147  11.0147  11.0147  11.0147
    11.1482  11.1482  11.1482  11.1482  11.1484  11.1484  11.1484  11.1484
    11.4379  11.4379  11.4379  11.4379  11.4891  11.4891  11.4891  11.4891
    11.4891  11.4891  11.4891  11.4891  11.5061  11.5061  11.5061  11.5061
    12.4261  12.4261  12.4261  12.4261  14.3759  14.3759  14.3759  14.3759
    14.7481  14.7481  14.7481  14.7481  14.7483  14.7483  14.7483  14.7483
    15.8455  15.8455  15.8456  15.8456  15.8457  15.8457  15.8457  15.8457
    17.5282  17.5282  17.5283  17.5283  17.9450  17.9450  17.9450  17.9450
    17.9453  17.9453  17.9453  17.9453  19.5547  19.5547  19.5547  19.5547
    20.1086  20.1086  20.1086  20.1089  20.1090  20.1090  20.1090  20.1145
    20.1145  20.1145

     the Fermi energy is    11.5029 ev

!    total energy              =  -16384.05572399 Ry

     total all-electron energy =   -322944.909431 Ry
     estimated scf accuracy    <          9.2E-09 Ry
     smearing contrib. (-TS)   =       0.12005322 Ry
     internal energy E=F+TS    =  -16384.17577721 Ry

     The total energy is F=E-TS. E is the sum of the following terms:
     one-electron contribution =  -10351.43009989 Ry
     hartree contribution      =    5433.60363549 Ry
     xc contribution           =    -985.48185580 Ry
     ewald contribution        =   -2313.53154168 Ry
     one-center paw contrib.   =   -8167.33591533 Ry

     convergence has been achieved in  12 iterations

     Forces acting on atoms (cartesian axes, Ry/au):

     atom    1 type  1   force =     0.00000000    0.00000000   -0.00053066
     atom    2 type  1   force =    -0.00000282   -0.00000282   -0.00053896
     atom    3 type  1   force =    -0.00000580    0.00000000    0.00018989
     atom    4 type  1   force =     0.00000000   -0.00000580    0.00018989
     atom    5 type  1   force =     0.00000000    0.00000000   -0.00017221
     atom    6 type  1   force =     0.00000227    0.00000227   -0.00016688
     atom    7 type  1   force =     0.00000270    0.00000000    0.00051792
     atom    8 type  1   force =     0.00000000    0.00000270    0.00051792
     atom    9 type  1   force =     0.00000000    0.00000000   -0.00053811
     atom   10 type  1   force =    -0.00000282    0.00000282   -0.00053896
     atom   11 type  1   force =    -0.00000132    0.00000000    0.00019210
     atom   12 type  1   force =     0.00000000    0.00000580    0.00018989
     atom   13 type  1   force =     0.00000000    0.00000000   -0.00016654
     atom   14 type  1   force =     0.00000227   -0.00000227   -0.00016688
     atom   15 type  1   force =     0.00000794    0.00000000    0.00051017
     atom   16 type  1   force =     0.00000000   -0.00000270    0.00051792
     atom   17 type  1   force =     0.00000000    0.00000000   -0.00053811
     atom   18 type  1   force =     0.00000282   -0.00000282   -0.00053896
     atom   19 type  1   force =     0.00000580    0.00000000    0.00018989
     atom   20 type  1   force =     0.00000000   -0.00000132    0.00019210
     atom   21 type  1   force =     0.00000000    0.00000000   -0.00016654
     atom   22 type  1   force =    -0.00000227    0.00000227   -0.00016688
     atom   23 type  1   force =    -0.00000270    0.00000000    0.00051792
     atom   24 type  1   force =     0.00000000    0.00000794    0.00051017
     atom   25 type  1   force =     0.00000000    0.00000000   -0.00054701
     atom   26 type  1   force =     0.00000282    0.00000282   -0.00053896
     atom   27 type  1   force =     0.00000132    0.00000000    0.00019210
     atom   28 type  1   force =     0.00000000    0.00000132    0.00019210
     atom   29 type  1   force =     0.00000000    0.00000000   -0.00015783
     atom   30 type  1   force =    -0.00000227   -0.00000227   -0.00016688
     atom   31 type  1   force =    -0.00000794    0.00000000    0.00051017
     atom   32 type  1   force =     0.00000000   -0.00000794    0.00051017

     Total force =     0.002225     Total SCF correction =     0.000804
     SCF correction compared to forces is large: reduce conv_thr to get better values

     Computing stress (Cartesian axis) and pressure

          total   stress  (Ry/bohr**3)                   (kbar)     P=      -32.02
  -0.00028556   0.00000000   0.00000000          -42.01        0.00        0.00
   0.00000000  -0.00028556   0.00000000            0.00      -42.01        0.00
   0.00000000   0.00000000  -0.00008197            0.00        0.00      -12.06

     Energy error            =      7.8E-05
     Gradient error          =      5.5E-04

     bfgs converged in   8 scf cycles and   7 bfgs steps
     (criteria: energy <  1.0E-04 Ry, force <  1.0E-03 Ry/Bohr)

     End of BFGS Geometry Optimization

     Final energy   =  -16384.0557239919 Ry

     File /scratch/SMjQtDStExCajVNT.bfgs deleted, as requested
Begin final coordinates

ATOMIC_POSITIONS (crystal)
Pd            0.0000000000        0.0000000000        0.0000149799
Pd            0.2500005600        0.2500005600        0.0000160023
Pd            0.2500021368        0.0000000000        0.1684647981
Pd            0.0000000000        0.2500021368        0.1684647981
Pd            0.0000000000        0.0000000000        0.6613477622
Pd            0.2499987730        0.2499987730        0.6613468357
Pd            0.2499988690        0.0000000000        0.8297463932
Pd            0.0000000000        0.2499988690        0.8297463932
Pd            0.0000000000        0.5000000000        0.0000155783
Pd            0.2500005600        0.7499994400        0.0000160023
Pd            0.2500001421        0.5000000000        0.1684652123
Pd            0.0000000000        0.7499978632        0.1684647981
Pd            0.0000000000        0.5000000000        0.6613463000
Pd            0.2499987730        0.7500012270        0.6613468357
Pd            0.2499978234        0.5000000000        0.8297474565
Pd            0.0000000000        0.7500011310        0.8297463932
Pd            0.5000000000        0.0000000000        0.0000155783
Pd            0.7499994400        0.2500005600        0.0000160023
Pd            0.7499978632        0.0000000000        0.1684647981
Pd            0.5000000000        0.2500001421        0.1684652123
Pd            0.5000000000        0.0000000000        0.6613463000
Pd            0.7500012270        0.2499987730        0.6613468357
Pd            0.7500011310        0.0000000000        0.8297463932
Pd            0.5000000000        0.2499978234        0.8297474565
Pd            0.5000000000        0.5000000000        0.0000174456
Pd            0.7499994400        0.7499994400        0.0000160023
Pd            0.7499998579        0.5000000000        0.1684652123
Pd            0.5000000000        0.7499998579        0.1684652123
Pd            0.5000000000        0.5000000000        0.6613450087
Pd            0.7500012270        0.7500012270        0.6613468357
Pd            0.7500021766        0.5000000000        0.8297474565
Pd            0.5000000000        0.7500021766        0.8297474565
End final coordinates

     Writing output data file /scratch/SMjQtDStExCajVNT.save/

     General routines

     Parallel routines

   This run was terminated on:   6:30:53   7Jan2022

   JOB DONE.