     Program PWSCF v.6.7MaX starts on  8Jan2022 at 13: 7:55

     R & G space division:  proc/nbgrp/npool/nimage =      72
     Reading input from relax_7.in
Warning: card &CELL ignored
Warning: card CELL_DYNAMICS = 'BFGS', ignored
Warning: card CELL_FACTOR = 2.0, ignored
Warning: card PRESS = 0.0, ignored
Warning: card / ignored

     Current dimensions of program PWSCF are:
     Max number of different atomic species (ntypx) = 10
     Max number of k-points (npk) =  40000
     Max angular momentum in pseudopotentials (lmaxx) =  3
     file Pd.pbe-spn-kjpaw_psl.1.0.0.UPF: wavefunction(s)  4S 5S 4D renormalized

     Subspace diagonalization in iterative solution of the eigenvalue problem:
     one sub-group per band group will be used

     Found symmetry operation: I + (  0.2500  0.2500  0.0000)
     This is a supercell, fractional translations are disabled
     Message from routine setup:
     using ibrav=0 with symmetry is DISCOURAGED, use correct ibrav instead

     bravais-lattice index     =            0
     lattice parameter (alat)  =      14.8394  a.u.
     unit-cell volume          =    3880.4706 (a.u.)^3
     number of atoms/cell      =           32
     number of atomic types    =            1
     number of electrons       =       576.00
     number of Kohn-Sham states=          346
     kinetic-energy cutoff     =      71.0000  Ry
     charge density cutoff     =     430.0000  Ry
     scf convergence threshold =      1.0E-06
     mixing beta               =       0.1000
     number of iterations used =           10  TF        mixing
     energy convergence thresh.=      1.0E-04
     force convergence thresh. =      1.0E-03
     Exchange-correlation= SLA  PW   PBX  PBC
                           (   1   4   3   4   0   0   0)
     nstep                     =           40

     celldm(1)=  14.839420  celldm(2)=   0.000000  celldm(3)=   0.000000
     celldm(4)=   0.000000  celldm(5)=   0.000000  celldm(6)=   0.000000

     crystal axes: (cart. coord. in units of alat)
               a(1) = (   1.000000   0.000000   0.000000 )
               a(2) = (   0.000000   1.000000   0.000000 )
               a(3) = (   0.000000   0.000000   1.187500 )

     reciprocal axes: (cart. coord. in units 2 pi/alat)
               b(1) = (  1.000000  0.000000  0.000000 )
               b(2) = (  0.000000  1.000000  0.000000 )
               b(3) = (  0.000000  0.000000  0.842105 )

     PseudoPot. # 1 for Pd read from file:
     /rds/homes/b/bxp912/pp/Pd.pbe-spn-kjpaw_psl.1.0.0.UPF
     MD5 check sum: 790f2ebce206edfd9790dcb9844eca51
     Pseudo is Projector augmented-wave + core cor, Zval = 18.0
     Generated using &quot;atomic&quot; code by A. Dal Corso  v.6.3
     Shape of augmentation charge: PSQ
     Using radial grid of 1235 points,  6 beta functions with:
                l(1) =   0
                l(2) =   0
                l(3) =   1
                l(4) =   1
                l(5) =   2
                l(6) =   2
     Q(r) pseudized with 0 coefficients

     atomic species   valence    mass     pseudopotential
        Pd            18.00   106.42000     Pd( 1.00)

      8 Sym. Ops. (no inversion) found

   Cartesian axes

     site n.     atom                  positions (alat units)
         1           Pd  tau(   1) = (   0.0000000   0.0000000   0.0000000  )
         2           Pd  tau(   2) = (   0.2500000   0.2500000   0.0000000  )
         3           Pd  tau(   3) = (   0.2500000   0.0000000   0.2500000  )
         4           Pd  tau(   4) = (   0.0000000   0.2500000   0.2500000  )
         5           Pd  tau(   5) = (   0.0000000   0.0000000   0.6875000  )
         6           Pd  tau(   6) = (   0.2500000   0.2500000   0.6875000  )
         7           Pd  tau(   7) = (   0.2500000   0.0000000   0.9375000  )
         8           Pd  tau(   8) = (   0.0000000   0.2500000   0.9375000  )
         9           Pd  tau(   9) = (   0.0000000   0.5000000   0.0000000  )
        10           Pd  tau(  10) = (   0.2500000   0.7500000   0.0000000  )
        11           Pd  tau(  11) = (   0.2500000   0.5000000   0.2500000  )
        12           Pd  tau(  12) = (   0.0000000   0.7500000   0.2500000  )
        13           Pd  tau(  13) = (   0.0000000   0.5000000   0.6875000  )
        14           Pd  tau(  14) = (   0.2500000   0.7500000   0.6875000  )
        15           Pd  tau(  15) = (   0.2500000   0.5000000   0.9375000  )
        16           Pd  tau(  16) = (   0.0000000   0.7500000   0.9375000  )
        17           Pd  tau(  17) = (   0.5000000   0.0000000   0.0000000  )
        18           Pd  tau(  18) = (   0.7500000   0.2500000   0.0000000  )
        19           Pd  tau(  19) = (   0.7500000   0.0000000   0.2500000  )
        20           Pd  tau(  20) = (   0.5000000   0.2500000   0.2500000  )
        21           Pd  tau(  21) = (   0.5000000   0.0000000   0.6875000  )
        22           Pd  tau(  22) = (   0.7500000   0.2500000   0.6875000  )
        23           Pd  tau(  23) = (   0.7500000   0.0000000   0.9375000  )
        24           Pd  tau(  24) = (   0.5000000   0.2500000   0.9375000  )
        25           Pd  tau(  25) = (   0.5000000   0.5000000   0.0000000  )
        26           Pd  tau(  26) = (   0.7500000   0.7500000   0.0000000  )
        27           Pd  tau(  27) = (   0.7500000   0.5000000   0.2500000  )
        28           Pd  tau(  28) = (   0.5000000   0.7500000   0.2500000  )
        29           Pd  tau(  29) = (   0.5000000   0.5000000   0.6875000  )
        30           Pd  tau(  30) = (   0.7500000   0.7500000   0.6875000  )
        31           Pd  tau(  31) = (   0.7500000   0.5000000   0.9375000  )
        32           Pd  tau(  32) = (   0.5000000   0.7500000   0.9375000  )

     number of k points=    75  Marzari-Vanderbilt smearing, width (Ry)=  0.0400
                       cart. coord. in units 2pi/alat
        k(    1) = (   0.0555556   0.0555556   0.0467836), wk =   0.0219479
        k(    2) = (   0.0555556   0.0555556   0.1403509), wk =   0.0219479
        k(    3) = (   0.0555556   0.0555556   0.2339181), wk =   0.0219479
        k(    4) = (   0.0555556   0.0555556   0.3274854), wk =   0.0219479
        k(    5) = (   0.0555556   0.0555556  -0.4210526), wk =   0.0109739
        k(    6) = (   0.0555556   0.1666667   0.0467836), wk =   0.0438957
        k(    7) = (   0.0555556   0.1666667   0.1403509), wk =   0.0438957
        k(    8) = (   0.0555556   0.1666667   0.2339181), wk =   0.0438957
        k(    9) = (   0.0555556   0.1666667   0.3274854), wk =   0.0438957
        k(   10) = (   0.0555556   0.1666667  -0.4210526), wk =   0.0219479
        k(   11) = (   0.0555556   0.2777778   0.0467836), wk =   0.0438957
        k(   12) = (   0.0555556   0.2777778   0.1403509), wk =   0.0438957
        k(   13) = (   0.0555556   0.2777778   0.2339181), wk =   0.0438957
        k(   14) = (   0.0555556   0.2777778   0.3274854), wk =   0.0438957
        k(   15) = (   0.0555556   0.2777778  -0.4210526), wk =   0.0219479
        k(   16) = (   0.0555556   0.3888889   0.0467836), wk =   0.0438957
        k(   17) = (   0.0555556   0.3888889   0.1403509), wk =   0.0438957
        k(   18) = (   0.0555556   0.3888889   0.2339181), wk =   0.0438957
        k(   19) = (   0.0555556   0.3888889   0.3274854), wk =   0.0438957
        k(   20) = (   0.0555556   0.3888889  -0.4210526), wk =   0.0219479
        k(   21) = (   0.0555556  -0.5000000   0.0467836), wk =   0.0219479
        k(   22) = (   0.0555556  -0.5000000   0.1403509), wk =   0.0219479
        k(   23) = (   0.0555556  -0.5000000   0.2339181), wk =   0.0219479
        k(   24) = (   0.0555556  -0.5000000   0.3274854), wk =   0.0219479
        k(   25) = (   0.0555556  -0.5000000  -0.4210526), wk =   0.0109739
        k(   26) = (   0.1666667   0.1666667   0.0467836), wk =   0.0219479
        k(   27) = (   0.1666667   0.1666667   0.1403509), wk =   0.0219479
        k(   28) = (   0.1666667   0.1666667   0.2339181), wk =   0.0219479
        k(   29) = (   0.1666667   0.1666667   0.3274854), wk =   0.0219479
        k(   30) = (   0.1666667   0.1666667  -0.4210526), wk =   0.0109739
        k(   31) = (   0.1666667   0.2777778   0.0467836), wk =   0.0438957
        k(   32) = (   0.1666667   0.2777778   0.1403509), wk =   0.0438957
        k(   33) = (   0.1666667   0.2777778   0.2339181), wk =   0.0438957
        k(   34) = (   0.1666667   0.2777778   0.3274854), wk =   0.0438957
        k(   35) = (   0.1666667   0.2777778  -0.4210526), wk =   0.0219479
        k(   36) = (   0.1666667   0.3888889   0.0467836), wk =   0.0438957
        k(   37) = (   0.1666667   0.3888889   0.1403509), wk =   0.0438957
        k(   38) = (   0.1666667   0.3888889   0.2339181), wk =   0.0438957
        k(   39) = (   0.1666667   0.3888889   0.3274854), wk =   0.0438957
        k(   40) = (   0.1666667   0.3888889  -0.4210526), wk =   0.0219479
        k(   41) = (   0.1666667  -0.5000000   0.0467836), wk =   0.0219479
        k(   42) = (   0.1666667  -0.5000000   0.1403509), wk =   0.0219479
        k(   43) = (   0.1666667  -0.5000000   0.2339181), wk =   0.0219479
        k(   44) = (   0.1666667  -0.5000000   0.3274854), wk =   0.0219479
        k(   45) = (   0.1666667  -0.5000000  -0.4210526), wk =   0.0109739
        k(   46) = (   0.2777778   0.2777778   0.0467836), wk =   0.0219479
        k(   47) = (   0.2777778   0.2777778   0.1403509), wk =   0.0219479
        k(   48) = (   0.2777778   0.2777778   0.2339181), wk =   0.0219479
        k(   49) = (   0.2777778   0.2777778   0.3274854), wk =   0.0219479
        k(   50) = (   0.2777778   0.2777778  -0.4210526), wk =   0.0109739
        k(   51) = (   0.2777778   0.3888889   0.0467836), wk =   0.0438957
        k(   52) = (   0.2777778   0.3888889   0.1403509), wk =   0.0438957
        k(   53) = (   0.2777778   0.3888889   0.2339181), wk =   0.0438957
        k(   54) = (   0.2777778   0.3888889   0.3274854), wk =   0.0438957
        k(   55) = (   0.2777778   0.3888889  -0.4210526), wk =   0.0219479
        k(   56) = (   0.2777778  -0.5000000   0.0467836), wk =   0.0219479
        k(   57) = (   0.2777778  -0.5000000   0.1403509), wk =   0.0219479
        k(   58) = (   0.2777778  -0.5000000   0.2339181), wk =   0.0219479
        k(   59) = (   0.2777778  -0.5000000   0.3274854), wk =   0.0219479
        k(   60) = (   0.2777778  -0.5000000  -0.4210526), wk =   0.0109739
        k(   61) = (   0.3888889   0.3888889   0.0467836), wk =   0.0219479
        k(   62) = (   0.3888889   0.3888889   0.1403509), wk =   0.0219479
        k(   63) = (   0.3888889   0.3888889   0.2339181), wk =   0.0219479
        k(   64) = (   0.3888889   0.3888889   0.3274854), wk =   0.0219479
        k(   65) = (   0.3888889   0.3888889  -0.4210526), wk =   0.0109739
        k(   66) = (   0.3888889  -0.5000000   0.0467836), wk =   0.0219479
        k(   67) = (   0.3888889  -0.5000000   0.1403509), wk =   0.0219479
        k(   68) = (   0.3888889  -0.5000000   0.2339181), wk =   0.0219479
        k(   69) = (   0.3888889  -0.5000000   0.3274854), wk =   0.0219479
        k(   70) = (   0.3888889  -0.5000000  -0.4210526), wk =   0.0109739
[...]
     Energy error            =      0.0E+00
     Gradient error          =      1.7E-02

     number of scf cycles    =   1
     number of bfgs steps    =   0

     energy   new            =  -16384.2599787987 Ry

     new trust radius        =       0.0172479563 bohr
     new conv_thr            =       0.0000010000 Ry

ATOMIC_POSITIONS (crystal)
Pd            0.0000000000        0.0000000000        0.0002484817
Pd            0.2499991952        0.2499991952        0.0002489089
Pd            0.2500004983        0.0000000000        0.2115051002
Pd            0.0000000000        0.2500004983        0.2115051002
Pd            0.0000000000        0.0000000000        0.5779738307
Pd            0.2499982021        0.2499982021        0.5779719780
Pd            0.2500000752        0.0000000000        0.7892201369
Pd            0.0000000000        0.2500000752        0.7892201369
Pd            0.0000000000        0.5000000000        0.0002492763
Pd            0.2499991952        0.7500008048        0.0002489089
Pd            0.2499985810        0.5000000000        0.2115047531
Pd            0.0000000000        0.7499995017        0.2115051002
Pd            0.0000000000        0.5000000000        0.5779737347
Pd            0.2499982021        0.7500017979        0.5779719780
Pd            0.2499974318        0.5000000000        0.7892211819
Pd            0.0000000000        0.7499999248        0.7892201369
Pd            0.5000000000        0.0000000000        0.0002492763
Pd            0.7500008048        0.2499991952        0.0002489089
Pd            0.7499995017        0.0000000000        0.2115051002
Pd            0.5000000000        0.2499985810        0.2115047531
Pd            0.5000000000        0.0000000000        0.5779737347
Pd            0.7500017979        0.2499982021        0.5779719780
Pd            0.7499999248        0.0000000000        0.7892201369
Pd            0.5000000000        0.2499974318        0.7892211819
Pd            0.5000000000        0.5000000000        0.0002496553
Pd            0.7500008048        0.7500008048        0.0002489089
Pd            0.7500014190        0.5000000000        0.2115047531
Pd            0.5000000000        0.7500014190        0.2115047531
Pd            0.5000000000        0.5000000000        0.5779727221
Pd            0.7500017979        0.7500017979        0.5779719780
Pd            0.7500025682        0.5000000000        0.7892211819
Pd            0.5000000000        0.7500025682        0.7892211819

     Writing output data file /scratch/wGVundTcmDxcwcJS.save/
     NEW-OLD atomic charge density approx. for the potential

[...]

     Energy error            =      4.9E-03
     Gradient error          =      1.7E-02

[...]

     energy   old            =  -16384.2599787987 Ry
     energy   new            =  -16384.2649272654 Ry

     CASE: energy  _new < energy  _old

     WARNING: bfgs curvature condition failed, Theta= 0.823
     new trust radius        =       0.0189727519 bohr
     new conv_thr            =       0.0000001661 Ry

[...]

     Total force =     0.066317     Total SCF correction =     0.000340

[...]

     CASE: energy  _new > energy  _old

[...]

     iteration #  1     ecut=    71.00 Ry     beta= 0.10
     Davidson diagonalization with overlap
     c_bands:  1 eigenvalues not converged
     c_bands:  1 eigenvalues not converged
     c_bands:  1 eigenvalues not converged
     c_bands:  2 eigenvalues not converged
     c_bands:  2 eigenvalues not converged
     ethr =  1.00E-06,  avg # of iterations = 14.6

[...]

     Total force =     0.005038     Total SCF correction =     0.000746
     SCF correction compared to forces is large: reduce conv_thr to get better values

[...]

     number of scf cycles    =  13
     number of bfgs steps    =  11

     energy   old            =  -16384.4032296619 Ry
     energy   new            =  -16384.4034569279 Ry

     CASE: energy  _new < energy  _old

     new trust radius        =       0.0095205127 bohr
     new conv_thr            =       0.0000000100 Ry

ATOMIC_POSITIONS (crystal)
Pd            0.0000000000        0.0000000000        0.0200471668
Pd            0.2499969522        0.2499969522        0.0200522314
Pd            0.2500049018        0.0000000000        0.2696262126
Pd            0.0000000000        0.2500049018        0.2696262126
Pd            0.0000000000        0.0000000000        0.5198330571
Pd            0.2499877691        0.2499877691        0.5198085886
Pd            0.2500048118        0.0000000000        0.7694506363
Pd            0.0000000000        0.2500048118        0.7694506363
Pd            0.0000000000        0.5000000000        0.0200544633
Pd            0.2499969522        0.7500030478        0.0200522314
Pd            0.2499927191        0.5000000000        0.2696070299
Pd            0.0000000000        0.7499950982        0.2696262126
Pd            0.0000000000        0.5000000000        0.5198398344
Pd            0.2499877691        0.7500122309        0.5198085886
Pd            0.2499945722        0.5000000000        0.7694566982
Pd            0.0000000000        0.7499951882        0.7694506363
Pd            0.5000000000        0.0000000000        0.0200544633
Pd            0.7500030478        0.2499969522        0.0200522314
Pd            0.7499950982        0.0000000000        0.2696262126
Pd            0.5000000000        0.2499927191        0.2696070299
Pd            0.5000000000        0.0000000000        0.5198398344
Pd            0.7500122309        0.2499877691        0.5198085886
Pd            0.7499951882        0.0000000000        0.7694506363
Pd            0.5000000000        0.2499945722        0.7694566982
Pd            0.5000000000        0.5000000000        0.0200487623
Pd            0.7500030478        0.7500030478        0.0200522314
Pd            0.7500072809        0.5000000000        0.2696070299
Pd            0.5000000000        0.7500072809        0.2696070299
Pd            0.5000000000        0.5000000000        0.5198557776
Pd            0.7500122309        0.7500122309        0.5198085886
Pd            0.7500054278        0.5000000000        0.7694566982
Pd            0.5000000000        0.7500054278        0.7694566982

     Writing output data file /scratch/wGVundTcmDxcwcJS.save/
     NEW-OLD atomic charge density approx. for the potential

     Check: negative core charge=   -0.000001

     Self-consistent Calculation

[...]

     Threshold (ethr) on eigenvalues was too large:
     Diagonalizing with lowered threshold

     Davidson diagonalization with overlap
     ethr =  3.00E-08,  avg # of iterations =  2.0

[...]

     total energy              =  -16384.40348867 Ry
     estimated scf accuracy    <       0.00000002 Ry

     iteration # 11     ecut=    71.00 Ry     beta= 0.10
     Davidson diagonalization with overlap
     ethr =  4.05E-12,  avg # of iterations =  1.1

     End of self-consistent calculation

[...]

          k = 0.3889-0.5000-0.4211 ( 39164 PWs)   bands (ev):

[...]

          k =-0.5000-0.5000-0.4211 ( 39248 PWs)   bands (ev):

   -68.4678 -68.4677 -68.4677 -68.4676 -68.4663 -68.4663 -68.4663 -68.4662
   -68.4592 -68.4592 -68.4592 -68.4591 -68.4578 -68.4578 -68.4578 -68.4578
   -68.4480 -68.4479 -68.4479 -68.4479 -68.4477 -68.4476 -68.4476 -68.4475
   -68.4460 -68.4460 -68.4459 -68.4459 -68.4456 -68.4456 -68.4456 -68.4456
   -34.3006 -34.3006 -34.3006 -34.3006 -34.3004 -34.3003 -34.3003 -34.3003
   -34.2988 -34.2988 -34.2988 -34.2988 -34.2985 -34.2985 -34.2985 -34.2985
   -34.2260 -34.2260 -34.2260 -34.2260 -34.2250 -34.2250 -34.2250 -34.2250
   -34.2036 -34.2036 -34.2036 -34.2036 -34.2025 -34.2025 -34.2025 -34.2025
   -34.1882 -34.1882 -34.1882 -34.1882 -34.1879 -34.1879 -34.1879 -34.1879
   -34.1865 -34.1865 -34.1864 -34.1864 -34.1862 -34.1862 -34.1861 -34.1861
   -34.1464 -34.1464 -34.1464 -34.1463 -34.1448 -34.1448 -34.1448 -34.1448
   -34.1110 -34.1110 -34.1109 -34.1109 -34.1096 -34.1096 -34.1096 -34.1096
   -34.0976 -34.0975 -34.0975 -34.0975 -34.0973 -34.0972 -34.0972 -34.0970
   -34.0953 -34.0953 -34.0953 -34.0953 -34.0949 -34.0949 -34.0949 -34.0949
   -34.0921 -34.0920 -34.0920 -34.0920 -34.0909 -34.0909 -34.0908 -34.0908
   -34.0760 -34.0760 -34.0760 -34.0759 -34.0747 -34.0747 -34.0747 -34.0747
    10.9099  10.9100  10.9100  10.9103  10.9132  10.9132  10.9133  10.9133
    11.6058  11.6058  11.6058  11.6059  11.6081  11.6081  11.6081  11.6081
    11.8326  11.8326  11.8327  11.8327  11.8327  11.8329  11.8329  11.8329
    11.8341  11.8343  11.8343  11.8344  11.8344  11.8344  11.8345  11.8345
    12.3103  12.3104  12.3104  12.3105  12.3105  12.3105  12.3106  12.3108
    12.3112  12.3112  12.3112  12.3112  12.3113  12.3113  12.3113  12.3114
    12.4301  12.4301  12.4301  12.4303  12.4339  12.4339  12.4339  12.4340
    12.7067  12.7067  12.7067  12.7067  12.7071  12.7071  12.7071  12.7072
    13.0750  13.0750  13.0750  13.0750  13.0752  13.0752  13.0753  13.0754
    13.1180  13.1180  13.1181  13.1182  13.1200  13.1200  13.1201  13.1201
    13.6098  13.6099  13.6100  13.6100  13.6100  13.6101  13.6101  13.6101
    13.6110  13.6111  13.6111  13.6112  13.6112  13.6112  13.6113  13.6113
    13.8434  13.8435  13.8435  13.8435  13.8435  13.8435  13.8437  13.8437
    13.8443  13.8444  13.8444  13.8444  13.8445  13.8446  13.8446  13.8446
    13.8487  13.8488  13.8488  13.8488  13.8507  13.8508  13.8509  13.8509
    14.1482  14.1482  14.1483  14.1484  14.1500  14.1500  14.1502  14.1502
    14.3040  14.3041  14.3041  14.3041  14.3047  14.3048  14.3048  14.3048
    14.5244  14.5244  14.5245  14.5245  14.5248  14.5250  14.5250  14.5250
    15.0678  15.0678  15.0678  15.0678  15.0682  15.0682  15.0682  15.0682
    15.1314  15.1314  15.1315  15.1315  15.1315  15.1315  15.1315  15.1315
    15.1322  15.1322  15.1322  15.1322  15.1322  15.1323  15.1323  15.1323
    17.5863  17.5863  17.5863  17.5864  17.5866  17.5866  17.5867  17.5868
    18.9073  18.9075  18.9075  18.9076  18.9076  18.9076  18.9077  18.9078
    18.9093  18.9093  18.9094  18.9095  18.9095  18.9096  18.9096  18.9096
    22.8645  22.8646  22.8646  22.8646  22.8651  22.8651  22.8651  22.8651
    22.8682  22.8683  22.8683  22.8684  22.8688  22.8688  22.8689  22.8689
    24.1594  24.1594  24.1597  24.1597  24.1603  24.1603  24.1604  24.1606
    25.3818  25.3820

     the Fermi energy is    15.1928 ev

!    total energy              =  -16384.40348869 Ry

     total all-electron energy =   -322945.257196 Ry
     estimated scf accuracy    <          9.5E-09 Ry
     smearing contrib. (-TS)   =       0.16995631 Ry
     internal energy E=F+TS    =  -16384.57344501 Ry

     The total energy is F=E-TS. E is the sum of the following terms:
     one-electron contribution =   -3061.12950958 Ry
     hartree contribution      =    1871.11968691 Ry
     xc contribution           =    -983.55345453 Ry
     ewald contribution        =   -6043.76123165 Ry
     one-center paw contrib.   =   -8167.24893615 Ry

     convergence has been achieved in  11 iterations

     Forces acting on atoms (cartesian axes, Ry/au):

     atom    1 type  1   force =     0.00000000    0.00000000   -0.00032892
     atom    2 type  1   force =     0.00000118    0.00000118   -0.00032516
     atom    3 type  1   force =    -0.00001406    0.00000000    0.00009596
     atom    4 type  1   force =     0.00000000   -0.00001406    0.00009596
     atom    5 type  1   force =     0.00000000    0.00000000   -0.00007223
     atom    6 type  1   force =     0.00001670    0.00001670   -0.00007413
     atom    7 type  1   force =    -0.00001320    0.00000000    0.00030406
     atom    8 type  1   force =     0.00000000   -0.00001320    0.00030406
     atom    9 type  1   force =     0.00000000    0.00000000   -0.00033350
     atom   10 type  1   force =     0.00000118   -0.00000118   -0.00032516
     atom   11 type  1   force =     0.00001823    0.00000000    0.00010978
     atom   12 type  1   force =     0.00000000    0.00001406    0.00009596
     atom   13 type  1   force =     0.00000000    0.00000000   -0.00007548
     atom   14 type  1   force =     0.00001670   -0.00001670   -0.00007413
     atom   15 type  1   force =     0.00001195    0.00000000    0.00029818
     atom   16 type  1   force =     0.00000000    0.00001320    0.00030406
     atom   17 type  1   force =     0.00000000    0.00000000   -0.00033350
     atom   18 type  1   force =    -0.00000118    0.00000118   -0.00032516
     atom   19 type  1   force =     0.00001406    0.00000000    0.00009596
     atom   20 type  1   force =     0.00000000    0.00001823    0.00010978
     atom   21 type  1   force =     0.00000000    0.00000000   -0.00007548
     atom   22 type  1   force =    -0.00001670    0.00001670   -0.00007413
     atom   23 type  1   force =     0.00001320    0.00000000    0.00030406
     atom   24 type  1   force =     0.00000000    0.00001195    0.00029818
     atom   25 type  1   force =     0.00000000    0.00000000   -0.00032946
     atom   26 type  1   force =    -0.00000118   -0.00000118   -0.00032516
     atom   27 type  1   force =    -0.00001823    0.00000000    0.00010978
     atom   28 type  1   force =     0.00000000   -0.00001823    0.00010978
     atom   29 type  1   force =     0.00000000    0.00000000   -0.00008618
     atom   30 type  1   force =    -0.00001670   -0.00001670   -0.00007413
     atom   31 type  1   force =    -0.00001195    0.00000000    0.00029818
     atom   32 type  1   force =     0.00000000   -0.00001195    0.00029818

     Total force =     0.001313     Total SCF correction =     0.000349
     SCF correction compared to forces is large: reduce conv_thr to get better values

     Computing stress (Cartesian axis) and pressure

          total   stress  (Ry/bohr**3)                   (kbar)     P=     -178.87
  -0.00101113   0.00000000   0.00000000         -148.74        0.00        0.00
   0.00000000  -0.00101113   0.00000000            0.00     -148.74        0.00
   0.00000000   0.00000000  -0.00162555            0.00        0.00     -239.13

     Energy error            =      3.2E-05
     Gradient error          =      3.3E-04

     bfgs converged in  14 scf cycles and  12 bfgs steps
     (criteria: energy <  1.0E-04 Ry, force <  1.0E-03 Ry/Bohr)

     End of BFGS Geometry Optimization

     Final energy   =  -16384.4034886943 Ry

     File /scratch/wGVundTcmDxcwcJS.bfgs deleted, as requested
Begin final coordinates

ATOMIC_POSITIONS (crystal)
Pd            0.0000000000        0.0000000000        0.0200471668
Pd            0.2499969522        0.2499969522        0.0200522314
Pd            0.2500049018        0.0000000000        0.2696262126
Pd            0.0000000000        0.2500049018        0.2696262126
Pd            0.0000000000        0.0000000000        0.5198330571
Pd            0.2499877691        0.2499877691        0.5198085886
Pd            0.2500048118        0.0000000000        0.7694506363
Pd            0.0000000000        0.2500048118        0.7694506363
Pd            0.0000000000        0.5000000000        0.0200544633
Pd            0.2499969522        0.7500030478        0.0200522314
Pd            0.2499927191        0.5000000000        0.2696070299
Pd            0.0000000000        0.7499950982        0.2696262126
Pd            0.0000000000        0.5000000000        0.5198398344
Pd            0.2499877691        0.7500122309        0.5198085886
Pd            0.2499945722        0.5000000000        0.7694566982
Pd            0.0000000000        0.7499951882        0.7694506363
Pd            0.5000000000        0.0000000000        0.0200544633
Pd            0.7500030478        0.2499969522        0.0200522314
Pd            0.7499950982        0.0000000000        0.2696262126
Pd            0.5000000000        0.2499927191        0.2696070299
Pd            0.5000000000        0.0000000000        0.5198398344
Pd            0.7500122309        0.2499877691        0.5198085886
Pd            0.7499951882        0.0000000000        0.7694506363
Pd            0.5000000000        0.2499945722        0.7694566982
Pd            0.5000000000        0.5000000000        0.0200487623
Pd            0.7500030478        0.7500030478        0.0200522314
Pd            0.7500072809        0.5000000000        0.2696070299
Pd            0.5000000000        0.7500072809        0.2696070299
Pd            0.5000000000        0.5000000000        0.5198557776
Pd            0.7500122309        0.7500122309        0.5198085886
Pd            0.7500054278        0.5000000000        0.7694566982
Pd            0.5000000000        0.7500054278        0.7694566982
End final coordinates

     Writing output data file /scratch/wGVundTcmDxcwcJS.save/

     General routines

     Parallel routines

   This run was terminated on:  19: 3:17   8Jan2022

   JOB DONE.