     Program PWSCF v.6.7MaX starts on  8Jan2022 at 17:54:22

     R & G space division:  proc/nbgrp/npool/nimage =      72
     Reading input from relax_15.in
Warning: card &CELL ignored
Warning: card CELL_DYNAMICS = 'BFGS', ignored
Warning: card CELL_FACTOR = 2.0, ignored
Warning: card PRESS = 0.0, ignored
Warning: card / ignored

     Current dimensions of program PWSCF are:
     Max number of different atomic species (ntypx) = 10
     Max number of k-points (npk) =  40000
     Max angular momentum in pseudopotentials (lmaxx) =  3
     file Pd.pbe-spn-kjpaw_psl.1.0.0.UPF: wavefunction(s)  4S 5S 4D renormalized

     Subspace diagonalization in iterative solution of the eigenvalue problem:
     one sub-group per band group will be used

     Found symmetry operation: I + (  0.2500  0.2500  0.0000)
     This is a supercell, fractional translations are disabled
     Message from routine setup:
     using ibrav=0 with symmetry is DISCOURAGED, use correct ibrav instead

     bravais-lattice index     =            0
     lattice parameter (alat)  =      14.8394  a.u.
     unit-cell volume          =    4697.4118 (a.u.)^3
     number of atoms/cell      =           32
     number of atomic types    =            1
     number of electrons       =       576.00
     number of Kohn-Sham states=          346
     kinetic-energy cutoff     =      71.0000  Ry
     charge density cutoff     =     430.0000  Ry
     scf convergence threshold =      1.0E-06
     mixing beta               =       0.1000
     number of iterations used =           10  TF        mixing
     energy convergence thresh.=      1.0E-04
     force convergence thresh. =      1.0E-03
     Exchange-correlation= SLA  PW   PBX  PBC
                           (   1   4   3   4   0   0   0)
     nstep                     =           40

     celldm(1)=  14.839420  celldm(2)=   0.000000  celldm(3)=   0.000000
     celldm(4)=   0.000000  celldm(5)=   0.000000  celldm(6)=   0.000000

     crystal axes: (cart. coord. in units of alat)
               a(1) = (   1.000000   0.000000   0.000000 )
               a(2) = (   0.000000   1.000000   0.000000 )
               a(3) = (   0.000000   0.000000   1.437500 )

     reciprocal axes: (cart. coord. in units 2 pi/alat)
               b(1) = (  1.000000  0.000000  0.000000 )
               b(2) = (  0.000000  1.000000  0.000000 )
               b(3) = (  0.000000  0.000000  0.695652 )

     PseudoPot. # 1 for Pd read from file:
     /rds/homes/b/bxp912/pp/Pd.pbe-spn-kjpaw_psl.1.0.0.UPF
     MD5 check sum: 790f2ebce206edfd9790dcb9844eca51
     Pseudo is Projector augmented-wave + core cor, Zval = 18.0
     Generated using &quot;atomic&quot; code by A. Dal Corso  v.6.3
     Shape of augmentation charge: PSQ
     Using radial grid of 1235 points,  6 beta functions with:
                l(1) =   0
                l(2) =   0
                l(3) =   1
                l(4) =   1
                l(5) =   2
                l(6) =   2
     Q(r) pseudized with 0 coefficients

     atomic species   valence    mass     pseudopotential
        Pd            18.00   106.42000     Pd( 1.00)

      8 Sym. Ops. (no inversion) found

   Cartesian axes

     site n.     atom                  positions (alat units)
         1           Pd  tau(   1) = (   0.0000000   0.0000000   0.0000000  )
         2           Pd  tau(   2) = (   0.2500000   0.2500000   0.0000000  )
         3           Pd  tau(   3) = (   0.2500000   0.0000000   0.2500000  )
         4           Pd  tau(   4) = (   0.0000000   0.2500000   0.2500000  )
         5           Pd  tau(   5) = (   0.0000000   0.0000000   0.9375000  )
         6           Pd  tau(   6) = (   0.2500000   0.2500000   0.9375000  )
         7           Pd  tau(   7) = (   0.2500000   0.0000000   1.1875000  )
         8           Pd  tau(   8) = (   0.0000000   0.2500000   1.1875000  )
         9           Pd  tau(   9) = (   0.0000000   0.5000000   0.0000000  )
        10           Pd  tau(  10) = (   0.2500000   0.7500000   0.0000000  )
        11           Pd  tau(  11) = (   0.2500000   0.5000000   0.2500000  )
        12           Pd  tau(  12) = (   0.0000000   0.7500000   0.2500000  )
        13           Pd  tau(  13) = (   0.0000000   0.5000000   0.9375000  )
        14           Pd  tau(  14) = (   0.2500000   0.7500000   0.9375000  )
        15           Pd  tau(  15) = (   0.2500000   0.5000000   1.1875000  )
        16           Pd  tau(  16) = (   0.0000000   0.7500000   1.1875000  )
        17           Pd  tau(  17) = (   0.5000000   0.0000000   0.0000000  )
        18           Pd  tau(  18) = (   0.7500000   0.2500000   0.0000000  )
        19           Pd  tau(  19) = (   0.7500000   0.0000000   0.2500000  )
        20           Pd  tau(  20) = (   0.5000000   0.2500000   0.2500000  )
        21           Pd  tau(  21) = (   0.5000000   0.0000000   0.9375000  )
        22           Pd  tau(  22) = (   0.7500000   0.2500000   0.9375000  )
        23           Pd  tau(  23) = (   0.7500000   0.0000000   1.1875000  )
        24           Pd  tau(  24) = (   0.5000000   0.2500000   1.1875000  )
        25           Pd  tau(  25) = (   0.5000000   0.5000000   0.0000000  )
        26           Pd  tau(  26) = (   0.7500000   0.7500000   0.0000000  )
        27           Pd  tau(  27) = (   0.7500000   0.5000000   0.2500000  )
        28           Pd  tau(  28) = (   0.5000000   0.7500000   0.2500000  )
        29           Pd  tau(  29) = (   0.5000000   0.5000000   0.9375000  )
        30           Pd  tau(  30) = (   0.7500000   0.7500000   0.9375000  )
        31           Pd  tau(  31) = (   0.7500000   0.5000000   1.1875000  )
        32           Pd  tau(  32) = (   0.5000000   0.7500000   1.1875000  )

     number of k points=    75  Marzari-Vanderbilt smearing, width (Ry)=  0.0400
                       cart. coord. in units 2pi/alat
        k(    1) = (   0.0555556   0.0555556   0.0386473), wk =   0.0219479
        k(    2) = (   0.0555556   0.0555556   0.1159420), wk =   0.0219479
        k(    3) = (   0.0555556   0.0555556   0.1932367), wk =   0.0219479
        k(    4) = (   0.0555556   0.0555556   0.2705314), wk =   0.0219479
        k(    5) = (   0.0555556   0.0555556  -0.3478261), wk =   0.0109739
        k(    6) = (   0.0555556   0.1666667   0.0386473), wk =   0.0438957
        k(    7) = (   0.0555556   0.1666667   0.1159420), wk =   0.0438957
        k(    8) = (   0.0555556   0.1666667   0.1932367), wk =   0.0438957
        k(    9) = (   0.0555556   0.1666667   0.2705314), wk =   0.0438957
        k(   10) = (   0.0555556   0.1666667  -0.3478261), wk =   0.0219479
        k(   11) = (   0.0555556   0.2777778   0.0386473), wk =   0.0438957
        k(   12) = (   0.0555556   0.2777778   0.1159420), wk =   0.0438957
        k(   13) = (   0.0555556   0.2777778   0.1932367), wk =   0.0438957
        k(   14) = (   0.0555556   0.2777778   0.2705314), wk =   0.0438957
        k(   15) = (   0.0555556   0.2777778  -0.3478261), wk =   0.0219479
        k(   16) = (   0.0555556   0.3888889   0.0386473), wk =   0.0438957
        k(   17) = (   0.0555556   0.3888889   0.1159420), wk =   0.0438957
        k(   18) = (   0.0555556   0.3888889   0.1932367), wk =   0.0438957
        k(   19) = (   0.0555556   0.3888889   0.2705314), wk =   0.0438957
        k(   20) = (   0.0555556   0.3888889  -0.3478261), wk =   0.0219479
        k(   21) = (   0.0555556  -0.5000000   0.0386473), wk =   0.0219479
        k(   22) = (   0.0555556  -0.5000000   0.1159420), wk =   0.0219479
        k(   23) = (   0.0555556  -0.5000000   0.1932367), wk =   0.0219479
        k(   24) = (   0.0555556  -0.5000000   0.2705314), wk =   0.0219479
        k(   25) = (   0.0555556  -0.5000000  -0.3478261), wk =   0.0109739
        k(   26) = (   0.1666667   0.1666667   0.0386473), wk =   0.0219479
        k(   27) = (   0.1666667   0.1666667   0.1159420), wk =   0.0219479
        k(   28) = (   0.1666667   0.1666667   0.1932367), wk =   0.0219479
        k(   29) = (   0.1666667   0.1666667   0.2705314), wk =   0.0219479
        k(   30) = (   0.1666667   0.1666667  -0.3478261), wk =   0.0109739
        k(   31) = (   0.1666667   0.2777778   0.0386473), wk =   0.0438957
        k(   32) = (   0.1666667   0.2777778   0.1159420), wk =   0.0438957
        k(   33) = (   0.1666667   0.2777778   0.1932367), wk =   0.0438957
        k(   34) = (   0.1666667   0.2777778   0.2705314), wk =   0.0438957
        k(   35) = (   0.1666667   0.2777778  -0.3478261), wk =   0.0219479
        k(   36) = (   0.1666667   0.3888889   0.0386473), wk =   0.0438957
        k(   37) = (   0.1666667   0.3888889   0.1159420), wk =   0.0438957
        k(   38) = (   0.1666667   0.3888889   0.1932367), wk =   0.0438957
        k(   39) = (   0.1666667   0.3888889   0.2705314), wk =   0.0438957
        k(   40) = (   0.1666667   0.3888889  -0.3478261), wk =   0.0219479
        k(   41) = (   0.1666667  -0.5000000   0.0386473), wk =   0.0219479
        k(   42) = (   0.1666667  -0.5000000   0.1159420), wk =   0.0219479
        k(   43) = (   0.1666667  -0.5000000   0.1932367), wk =   0.0219479
        k(   44) = (   0.1666667  -0.5000000   0.2705314), wk =   0.0219479
        k(   45) = (   0.1666667  -0.5000000  -0.3478261), wk =   0.0109739
        k(   46) = (   0.2777778   0.2777778   0.0386473), wk =   0.0219479
        k(   47) = (   0.2777778   0.2777778   0.1159420), wk =   0.0219479
        k(   48) = (   0.2777778   0.2777778   0.1932367), wk =   0.0219479
        k(   49) = (   0.2777778   0.2777778   0.2705314), wk =   0.0219479
        k(   50) = (   0.2777778   0.2777778  -0.3478261), wk =   0.0109739
        k(   51) = (   0.2777778   0.3888889   0.0386473), wk =   0.0438957
        k(   52) = (   0.2777778   0.3888889   0.1159420), wk =   0.0438957
        k(   53) = (   0.2777778   0.3888889   0.1932367), wk =   0.0438957
        k(   54) = (   0.2777778   0.3888889   0.2705314), wk =   0.0438957
        k(   55) = (   0.2777778   0.3888889  -0.3478261), wk =   0.0219479
        k(   56) = (   0.2777778  -0.5000000   0.0386473), wk =   0.0219479
        k(   57) = (   0.2777778  -0.5000000   0.1159420), wk =   0.0219479
        k(   58) = (   0.2777778  -0.5000000   0.1932367), wk =   0.0219479
        k(   59) = (   0.2777778  -0.5000000   0.2705314), wk =   0.0219479
        k(   60) = (   0.2777778  -0.5000000  -0.3478261), wk =   0.0109739
        k(   61) = (   0.3888889   0.3888889   0.0386473), wk =   0.0219479
        k(   62) = (   0.3888889   0.3888889   0.1159420), wk =   0.0219479
        k(   63) = (   0.3888889   0.3888889   0.1932367), wk =   0.0219479
        k(   64) = (   0.3888889   0.3888889   0.2705314), wk =   0.0219479
        k(   65) = (   0.3888889   0.3888889  -0.3478261), wk =   0.0109739
        k(   66) = (   0.3888889  -0.5000000   0.0386473), wk =   0.0219479
        k(   67) = (   0.3888889  -0.5000000   0.1159420), wk =   0.0219479
        k(   68) = (   0.3888889  -0.5000000   0.1932367), wk =   0.0219479
        k(   69) = (   0.3888889  -0.5000000   0.2705314), wk =   0.0219479
        k(   70) = (   0.3888889  -0.5000000  -0.3478261), wk =   0.0109739
[...]
     atom   32 type  1   force =     0.00000000    0.00001090   -0.00329111

     Total force =     0.020720     Total SCF correction =     0.004465
     SCF correction compared to forces is large: reduce conv_thr to get better values

     Computing stress (Cartesian axis) and pressure

          total   stress  (Ry/bohr**3)                   (kbar)     P=      -39.15
  -0.00032835   0.00000000   0.00000000          -48.30        0.00        0.00
   0.00000000  -0.00032835   0.00000000            0.00      -48.30        0.00
   0.00000000   0.00000000  -0.00014163            0.00        0.00      -20.83

     BFGS Geometry Optimization
     Energy error            =      0.0E+00
     Gradient error          =      4.0E-03

     number of scf cycles    =   1
     number of bfgs steps    =   0

     energy   new            =  -16384.0566279026 Ry

     new trust radius        =       0.0040210432 bohr
     new conv_thr            =       0.0000010000 Ry

ATOMIC_POSITIONS (crystal)
Pd            0.0000000000        0.0000000000        0.0001541917
Pd            0.2500001446        0.2500001446        0.0001541390
Pd            0.2500010024        0.0000000000        0.1737247366
Pd            0.0000000000        0.2500010024        0.1737247366
Pd            0.0000000000        0.0000000000        0.6523614283
Pd            0.2500008408        0.2500008408        0.6523624124
Pd            0.2499999191       -0.0000000000        0.8259339222
Pd            0.0000000000        0.2499999191        0.8259339222
Pd            0.0000000000        0.5000000000        0.0001536216
Pd            0.2500001446        0.7499998554        0.0001541390
Pd            0.2499989297        0.5000000000        0.1737252383
Pd            0.0000000000        0.7499989976        0.1737247366
Pd            0.0000000000        0.5000000000        0.6523606347
Pd            0.2500008408        0.7499991592        0.6523624124
Pd            0.2499992656        0.5000000000        0.8259326737
Pd           -0.0000000000        0.7500000809        0.8259339222
Pd            0.5000000000        0.0000000000        0.0001536216
Pd            0.7499998554        0.2500001446        0.0001541390
Pd            0.7499989976       -0.0000000000        0.1737247366
Pd            0.5000000000        0.2499989297        0.1737252383
Pd            0.5000000000        0.0000000000        0.6523606347
Pd            0.7499991592        0.2500008408        0.6523624124
Pd            0.7500000809        0.0000000000        0.8259339222
Pd            0.5000000000        0.2499992656        0.8259326737
Pd            0.5000000000        0.5000000000        0.0001540238
Pd            0.7499998554        0.7499998554        0.0001541390
Pd            0.7500010703        0.5000000000        0.1737252383
Pd            0.5000000000        0.7500010703        0.1737252383
Pd            0.5000000000        0.5000000000        0.6523606595
Pd            0.7499991592        0.7499991592        0.6523624124
Pd            0.7500007344        0.5000000000        0.8259326737
Pd            0.5000000000        0.7500007344        0.8259326737

     Writing output data file /scratch/oWrCbuFSMbYpeDny.save/
     NEW-OLD atomic charge density approx. for the potential

[...]

     Energy error            =      3.4E-04
     Gradient error          =      2.9E-03

[...]

     energy   old            =  -16384.0566279026 Ry
     energy   new            =  -16384.0569697881 Ry

     CASE: energy  _new < energy  _old

[...]

     Total force =     0.009820     Total SCF correction =     0.000171

[...]

     Total force =     0.005141     Total SCF correction =     0.000376

[...]

     number of scf cycles    =   7
     number of bfgs steps    =   6

     energy   old            =  -16384.0575037235 Ry
     energy   new            =  -16384.0575654340 Ry

     CASE: energy  _new < energy  _old

     new trust radius        =       0.0063101937 bohr
     new conv_thr            =       0.0000000100 Ry

ATOMIC_POSITIONS (crystal)
Pd            0.0000000000        0.0000000000        0.0000971356
Pd            0.2500001773        0.2500001773        0.0000969207
Pd            0.2500005147        0.0000000000        0.1722723419
Pd            0.0000000000        0.2500005147        0.1722723419
Pd            0.0000000000        0.0000000000        0.6538133279
Pd            0.2500000936        0.2500000936        0.6538136368
Pd            0.2499992207       -0.0000000000        0.8259915848
Pd            0.0000000000        0.2499992207        0.8259915848
Pd            0.0000000000        0.5000000000        0.0000966027
Pd            0.2500001773        0.7499998227        0.0000969207
Pd            0.2499996834        0.5000000000        0.1722729266
Pd            0.0000000000        0.7499994853        0.1722723419
Pd            0.0000000000        0.5000000000        0.6538119490
Pd            0.2500000936        0.7499999064        0.6538136368
Pd            0.2499994978        0.5000000000        0.8259912652
Pd           -0.0000000000        0.7500007793        0.8259915848
Pd            0.5000000000        0.0000000000        0.0000966027
Pd            0.7499998227        0.2500001773        0.0000969207
Pd            0.7499994853       -0.0000000000        0.1722723419
Pd            0.5000000000        0.2499996834        0.1722729266
Pd            0.5000000000        0.0000000000        0.6538119490
Pd            0.7499999064        0.2500000936        0.6538136368
Pd            0.7500007793        0.0000000000        0.8259915848
Pd            0.5000000000        0.2499994978        0.8259912652
Pd            0.5000000000        0.5000000000        0.0000975405
Pd            0.7499998227        0.7499998227        0.0000969207
Pd            0.7500003166        0.5000000000        0.1722729266
Pd            0.5000000000        0.7500003166        0.1722729266
Pd            0.5000000000        0.5000000000        0.6538114932
Pd            0.7499999064        0.7499999064        0.6538136368
Pd            0.7500005022        0.5000000000        0.8259912652
Pd            0.5000000000        0.7500005022        0.8259912652

     Writing output data file /scratch/oWrCbuFSMbYpeDny.save/
     NEW-OLD atomic charge density approx. for the potential

     Check: negative core charge=   -0.000001

     Self-consistent Calculation

[...]

     Threshold (ethr) on eigenvalues was too large:
     Diagonalizing with lowered threshold

     Davidson diagonalization with overlap
     ethr =  4.78E-08,  avg # of iterations =  2.0

[...]

     total energy              =  -16384.05763587 Ry
     estimated scf accuracy    <       0.00000002 Ry

     iteration # 13     ecut=    71.00 Ry     beta= 0.10
     Davidson diagonalization with overlap
     ethr =  2.85E-12,  avg # of iterations =  1.6

     End of self-consistent calculation

[...]

          k = 0.3889-0.5000-0.3478 ( 47444 PWs)   bands (ev):

[...]

          k =-0.5000-0.5000-0.3478 ( 47384 PWs)   bands (ev):

   -72.3139 -72.3139 -72.3139 -72.3139 -72.2913 -72.2913 -72.2913 -72.2913
   -72.2863 -72.2863 -72.2863 -72.2863 -72.2863 -72.2863 -72.2863 -72.2863
   -71.7318 -71.7318 -71.7318 -71.7318 -71.7318 -71.7318 -71.7318 -71.7318
   -71.7159 -71.7159 -71.7159 -71.7159 -71.7158 -71.7158 -71.7158 -71.7158
   -38.1393 -38.1393 -38.1393 -38.1393 -38.1393 -38.1393 -38.1393 -38.1393
   -38.1275 -38.1275 -38.1275 -38.1275 -38.0757 -38.0757 -38.0757 -38.0757
   -38.0162 -38.0162 -38.0162 -38.0162 -38.0162 -38.0162 -38.0162 -38.0162
   -37.9749 -37.9749 -37.9749 -37.9749 -37.9732 -37.9732 -37.9732 -37.9732
   -37.9732 -37.9732 -37.9732 -37.9732 -37.9531 -37.9531 -37.9531 -37.9531
   -37.9302 -37.9302 -37.9302 -37.9302 -37.8810 -37.8810 -37.8810 -37.8810
   -37.6058 -37.6058 -37.6058 -37.6058 -37.6058 -37.6058 -37.6058 -37.6058
   -37.5227 -37.5227 -37.5227 -37.5227 -37.5199 -37.5199 -37.5199 -37.5199
   -37.5082 -37.5082 -37.5082 -37.5082 -37.5082 -37.5082 -37.5082 -37.5082
   -37.4198 -37.4198 -37.4198 -37.4198 -37.4197 -37.4197 -37.4197 -37.4197
   -37.3340 -37.3340 -37.3340 -37.3340 -37.3333 -37.3332 -37.3332 -37.3332
   -37.3221 -37.3221 -37.3221 -37.3221 -37.3221 -37.3221 -37.3221 -37.3221
     6.5944   6.5944   6.5944   6.5944   7.2186   7.2186   7.2186   7.2186
     7.5465   7.5465   7.5465   7.5465   7.5465   7.5465   7.5465   7.5465
     7.6499   7.6499   7.6499   7.6499   7.7181   7.7181   7.7181   7.7181
     7.7181   7.7181   7.7181   7.7181   7.8025   7.8025   7.8025   7.8025
     8.0967   8.0967   8.0967   8.0967   8.4073   8.4073   8.4073   8.4073
     8.4074   8.4074   8.4074   8.4074   8.7134   8.7134   8.7134   8.7134
     8.7134   8.7134   8.7134   8.7134   8.8851   8.8851   8.8851   8.8851
     9.1187   9.1187   9.1187   9.1187   9.3711   9.3711   9.3711   9.3711
     9.4896   9.4896   9.4896   9.4896   9.4972   9.4972   9.4972   9.4972
     9.5827   9.5827   9.5827   9.5827   9.6932   9.6932   9.6932   9.6932
     9.6932   9.6932   9.6932   9.6933   9.7247   9.7247   9.7247   9.7247
    10.0253  10.0253  10.0253  10.0253  10.1669  10.1669  10.1670  10.1670
    10.2863  10.2863  10.2864  10.2864  10.2864  10.2864  10.2864  10.2864
    10.3243  10.3243  10.3243  10.3243  10.3244  10.3244  10.3244  10.3244
    10.3377  10.3377  10.3377  10.3377  10.5597  10.5597  10.5597  10.5598
    10.8947  10.8947  10.8947  10.8947  10.8947  10.8947  10.8947  10.8947
    10.9196  10.9196  10.9196  10.9196  10.9658  10.9658  10.9658  10.9658
    11.1632  11.1632  11.1632  11.1632  11.3723  11.3723  11.3723  11.3723
    11.5079  11.5079  11.5079  11.5079  11.5079  11.5079  11.5079  11.5079
    11.7949  11.7949  11.7949  11.7949  11.8468  11.8468  11.8468  11.8468
    11.8468  11.8468  11.8468  11.8468  11.8629  11.8629  11.8629  11.8629
    12.8243  12.8243  12.8243  12.8243  14.6921  14.6921  14.6921  14.6921
    15.1092  15.1092  15.1092  15.1092  15.1092  15.1092  15.1092  15.1092
    16.1941  16.1942  16.1942  16.1942  16.1942  16.1942  16.1942  16.1942
    17.9960  17.9960  17.9960  17.9961  18.3188  18.3188  18.3188  18.3188
    18.3188  18.3188  18.3188  18.3188  20.2131  20.2131  20.2131  20.2132
    20.4463  20.4463  20.4463  20.4463  20.4463  20.4463  20.4463  20.4463
    20.4852  20.4852

     the Fermi energy is    11.8603 ev

!    total energy              =  -16384.05763600 Ry

     total all-electron energy =   -322944.911343 Ry
     estimated scf accuracy    <          9.6E-09 Ry
     smearing contrib. (-TS)   =       0.12008974 Ry
     internal energy E=F+TS    =  -16384.17772574 Ry

     The total energy is F=E-TS. E is the sum of the following terms:
     one-electron contribution =   -9528.80715316 Ry
     hartree contribution      =    5029.87823328 Ry
     xc contribution           =    -985.46725506 Ry
     ewald contribution        =   -2732.44621942 Ry
     one-center paw contrib.   =   -8167.33533138 Ry

     convergence has been achieved in  13 iterations

     Forces acting on atoms (cartesian axes, Ry/au):

     atom    1 type  1   force =     0.00000000    0.00000000   -0.00055388
     atom    2 type  1   force =    -0.00000043   -0.00000043   -0.00055505
     atom    3 type  1   force =    -0.00000148    0.00000000    0.00011626
     atom    4 type  1   force =     0.00000000   -0.00000148    0.00011626
     atom    5 type  1   force =     0.00000000    0.00000000   -0.00010592
     atom    6 type  1   force =    -0.00000061   -0.00000061   -0.00010558
     atom    7 type  1   force =     0.00000224    0.00000000    0.00054321
     atom    8 type  1   force =     0.00000000    0.00000224    0.00054321
     atom    9 type  1   force =     0.00000000    0.00000000   -0.00055466
     atom   10 type  1   force =    -0.00000043    0.00000043   -0.00055505
     atom   11 type  1   force =    -0.00000019    0.00000000    0.00011572
     atom   12 type  1   force =     0.00000000    0.00000148    0.00011626
     atom   13 type  1   force =     0.00000000    0.00000000   -0.00010213
     atom   14 type  1   force =    -0.00000061    0.00000061   -0.00010558
     atom   15 type  1   force =     0.00000127    0.00000000    0.00054335
     atom   16 type  1   force =     0.00000000   -0.00000224    0.00054321
     atom   17 type  1   force =     0.00000000    0.00000000   -0.00055466
     atom   18 type  1   force =     0.00000043   -0.00000043   -0.00055505
     atom   19 type  1   force =     0.00000148    0.00000000    0.00011626
     atom   20 type  1   force =     0.00000000   -0.00000019    0.00011572
     atom   21 type  1   force =     0.00000000    0.00000000   -0.00010213
     atom   22 type  1   force =     0.00000061   -0.00000061   -0.00010558
     atom   23 type  1   force =    -0.00000224    0.00000000    0.00054321
     atom   24 type  1   force =     0.00000000    0.00000127    0.00054335
     atom   25 type  1   force =     0.00000000    0.00000000   -0.00055730
     atom   26 type  1   force =     0.00000043    0.00000043   -0.00055505
     atom   27 type  1   force =     0.00000019    0.00000000    0.00011572
     atom   28 type  1   force =     0.00000000    0.00000019    0.00011572
     atom   29 type  1   force =     0.00000000    0.00000000   -0.00010097
     atom   30 type  1   force =     0.00000061    0.00000061   -0.00010558
     atom   31 type  1   force =    -0.00000127    0.00000000    0.00054335
     atom   32 type  1   force =     0.00000000   -0.00000127    0.00054335

     Total force =     0.002241     Total SCF correction =     0.000801
     SCF correction compared to forces is large: reduce conv_thr to get better values

     Computing stress (Cartesian axis) and pressure

          total   stress  (Ry/bohr**3)                   (kbar)     P=      -33.47
  -0.00029487   0.00000000   0.00000000          -43.38        0.00        0.00
   0.00000000  -0.00029487   0.00000000            0.00      -43.38        0.00
   0.00000000   0.00000000  -0.00009283            0.00        0.00      -13.66

     Energy error            =      7.1E-05
     Gradient error          =      5.6E-04

     bfgs converged in   8 scf cycles and   7 bfgs steps
     (criteria: energy <  1.0E-04 Ry, force <  1.0E-03 Ry/Bohr)

     End of BFGS Geometry Optimization

     Final energy   =  -16384.0576359959 Ry

     File /scratch/oWrCbuFSMbYpeDny.bfgs deleted, as requested
Begin final coordinates

ATOMIC_POSITIONS (crystal)
Pd            0.0000000000        0.0000000000        0.0000971356
Pd            0.2500001773        0.2500001773        0.0000969207
Pd            0.2500005147        0.0000000000        0.1722723419
Pd            0.0000000000        0.2500005147        0.1722723419
Pd            0.0000000000        0.0000000000        0.6538133279
Pd            0.2500000936        0.2500000936        0.6538136368
Pd            0.2499992207       -0.0000000000        0.8259915848
Pd            0.0000000000        0.2499992207        0.8259915848
Pd            0.0000000000        0.5000000000        0.0000966027
Pd            0.2500001773        0.7499998227        0.0000969207
Pd            0.2499996834        0.5000000000        0.1722729266
Pd            0.0000000000        0.7499994853        0.1722723419
Pd            0.0000000000        0.5000000000        0.6538119490
Pd            0.2500000936        0.7499999064        0.6538136368
Pd            0.2499994978        0.5000000000        0.8259912652
Pd           -0.0000000000        0.7500007793        0.8259915848
Pd            0.5000000000        0.0000000000        0.0000966027
Pd            0.7499998227        0.2500001773        0.0000969207
Pd            0.7499994853       -0.0000000000        0.1722723419
Pd            0.5000000000        0.2499996834        0.1722729266
Pd            0.5000000000        0.0000000000        0.6538119490
Pd            0.7499999064        0.2500000936        0.6538136368
Pd            0.7500007793        0.0000000000        0.8259915848
Pd            0.5000000000        0.2499994978        0.8259912652
Pd            0.5000000000        0.5000000000        0.0000975405
Pd            0.7499998227        0.7499998227        0.0000969207
Pd            0.7500003166        0.5000000000        0.1722729266
Pd            0.5000000000        0.7500003166        0.1722729266
Pd            0.5000000000        0.5000000000        0.6538114932
Pd            0.7499999064        0.7499999064        0.6538136368
Pd            0.7500005022        0.5000000000        0.8259912652
Pd            0.5000000000        0.7500005022        0.8259912652
End final coordinates

     Writing output data file /scratch/oWrCbuFSMbYpeDny.save/

     General routines

     Parallel routines

   This run was terminated on:  20:46:27   8Jan2022

   JOB DONE.