     Program PWSCF v.6.7MaX starts on  6Jan2022 at 22:55: 3

     R & G space division:  proc/nbgrp/npool/nimage =      72
     Reading input from relax_2.in
Warning: card &CELL ignored
Warning: card CELL_DYNAMICS = 'BFGS', ignored
Warning: card CELL_FACTOR = 2.0, ignored
Warning: card PRESS = 0.0, ignored
Warning: card / ignored

     Current dimensions of program PWSCF are:
     Max number of different atomic species (ntypx) = 10
     Max number of k-points (npk) =  40000
     Max angular momentum in pseudopotentials (lmaxx) =  3
     file Pd.pbe-spn-kjpaw_psl.1.0.0.UPF: wavefunction(s)  4S 5S 4D renormalized

     Subspace diagonalization in iterative solution of the eigenvalue problem:
     one sub-group per band group will be used

     Found symmetry operation: I + (  0.2500  0.2500  0.0000)
     This is a supercell, fractional translations are disabled
     Message from routine setup:
     using ibrav=0 with symmetry is DISCOURAGED, use correct ibrav instead

     bravais-lattice index     =            0
     lattice parameter (alat)  =      14.8394  a.u.
     unit-cell volume          =    3369.8824 (a.u.)^3
     number of atoms/cell      =           32
     number of atomic types    =            1
     number of electrons       =       576.00
     number of Kohn-Sham states=          346
     kinetic-energy cutoff     =      71.0000  Ry
     charge density cutoff     =     430.0000  Ry
     scf convergence threshold =      1.0E-06
     mixing beta               =       0.1000
     number of iterations used =           10  TF        mixing
     energy convergence thresh.=      1.0E-04
     force convergence thresh. =      1.0E-03
     Exchange-correlation= SLA  PW   PBX  PBC
                           (   1   4   3   4   0   0   0)
     nstep                     =           40

     celldm(1)=  14.839420  celldm(2)=   0.000000  celldm(3)=   0.000000
     celldm(4)=   0.000000  celldm(5)=   0.000000  celldm(6)=   0.000000

     crystal axes: (cart. coord. in units of alat)
               a(1) = (   1.000000   0.000000   0.000000 )
               a(2) = (   0.000000   1.000000   0.000000 )
               a(3) = (   0.000000   0.000000   1.031250 )

     reciprocal axes: (cart. coord. in units 2 pi/alat)
               b(1) = (  1.000000  0.000000  0.000000 )
               b(2) = (  0.000000  1.000000  0.000000 )
               b(3) = (  0.000000  0.000000  0.969697 )

     PseudoPot. # 1 for Pd read from file:
     /rds/homes/b/bxp912/pp/Pd.pbe-spn-kjpaw_psl.1.0.0.UPF
     MD5 check sum: 790f2ebce206edfd9790dcb9844eca51
     Pseudo is Projector augmented-wave + core cor, Zval = 18.0
     Generated using &quot;atomic&quot; code by A. Dal Corso  v.6.3
     Shape of augmentation charge: PSQ
     Using radial grid of 1235 points,  6 beta functions with:
                l(1) =   0
                l(2) =   0
                l(3) =   1
                l(4) =   1
                l(5) =   2
                l(6) =   2
     Q(r) pseudized with 0 coefficients

     atomic species   valence    mass     pseudopotential
        Pd            18.00   106.42000     Pd( 1.00)

      8 Sym. Ops. (no inversion) found

   Cartesian axes

     site n.     atom                  positions (alat units)
         1           Pd  tau(   1) = (   0.0000000   0.0000000   0.0000000  )
         2           Pd  tau(   2) = (   0.2500000   0.2500000   0.0000000  )
         3           Pd  tau(   3) = (   0.2500000   0.0000000   0.2500000  )
         4           Pd  tau(   4) = (   0.0000000   0.2500000   0.2500000  )
         5           Pd  tau(   5) = (   0.0000000   0.0000000   0.5312500  )
         6           Pd  tau(   6) = (   0.2500000   0.2500000   0.5312500  )
         7           Pd  tau(   7) = (   0.2500000   0.0000000   0.7812500  )
         8           Pd  tau(   8) = (   0.0000000   0.2500000   0.7812500  )
         9           Pd  tau(   9) = (   0.0000000   0.5000000   0.0000000  )
        10           Pd  tau(  10) = (   0.2500000   0.7500000   0.0000000  )
        11           Pd  tau(  11) = (   0.2500000   0.5000000   0.2500000  )
        12           Pd  tau(  12) = (   0.0000000   0.7500000   0.2500000  )
        13           Pd  tau(  13) = (   0.0000000   0.5000000   0.5312500  )
        14           Pd  tau(  14) = (   0.2500000   0.7500000   0.5312500  )
        15           Pd  tau(  15) = (   0.2500000   0.5000000   0.7812500  )
        16           Pd  tau(  16) = (   0.0000000   0.7500000   0.7812500  )
        17           Pd  tau(  17) = (   0.5000000   0.0000000   0.0000000  )
        18           Pd  tau(  18) = (   0.7500000   0.2500000   0.0000000  )
        19           Pd  tau(  19) = (   0.7500000   0.0000000   0.2500000  )
        20           Pd  tau(  20) = (   0.5000000   0.2500000   0.2500000  )
        21           Pd  tau(  21) = (   0.5000000   0.0000000   0.5312500  )
        22           Pd  tau(  22) = (   0.7500000   0.2500000   0.5312500  )
        23           Pd  tau(  23) = (   0.7500000   0.0000000   0.7812500  )
        24           Pd  tau(  24) = (   0.5000000   0.2500000   0.7812500  )
        25           Pd  tau(  25) = (   0.5000000   0.5000000   0.0000000  )
        26           Pd  tau(  26) = (   0.7500000   0.7500000   0.0000000  )
        27           Pd  tau(  27) = (   0.7500000   0.5000000   0.2500000  )
        28           Pd  tau(  28) = (   0.5000000   0.7500000   0.2500000  )
        29           Pd  tau(  29) = (   0.5000000   0.5000000   0.5312500  )
        30           Pd  tau(  30) = (   0.7500000   0.7500000   0.5312500  )
        31           Pd  tau(  31) = (   0.7500000   0.5000000   0.7812500  )
        32           Pd  tau(  32) = (   0.5000000   0.7500000   0.7812500  )

     number of k points=    75  Marzari-Vanderbilt smearing, width (Ry)=  0.0400
                       cart. coord. in units 2pi/alat
        k(    1) = (   0.0555556   0.0555556   0.0538721), wk =   0.0219479
        k(    2) = (   0.0555556   0.0555556   0.1616162), wk =   0.0219479
        k(    3) = (   0.0555556   0.0555556   0.2693603), wk =   0.0219479
        k(    4) = (   0.0555556   0.0555556   0.3771044), wk =   0.0219479
        k(    5) = (   0.0555556   0.0555556  -0.4848485), wk =   0.0109739
        k(    6) = (   0.0555556   0.1666667   0.0538721), wk =   0.0438957
        k(    7) = (   0.0555556   0.1666667   0.1616162), wk =   0.0438957
        k(    8) = (   0.0555556   0.1666667   0.2693603), wk =   0.0438957
        k(    9) = (   0.0555556   0.1666667   0.3771044), wk =   0.0438957
        k(   10) = (   0.0555556   0.1666667  -0.4848485), wk =   0.0219479
        k(   11) = (   0.0555556   0.2777778   0.0538721), wk =   0.0438957
        k(   12) = (   0.0555556   0.2777778   0.1616162), wk =   0.0438957
        k(   13) = (   0.0555556   0.2777778   0.2693603), wk =   0.0438957
        k(   14) = (   0.0555556   0.2777778   0.3771044), wk =   0.0438957
        k(   15) = (   0.0555556   0.2777778  -0.4848485), wk =   0.0219479
        k(   16) = (   0.0555556   0.3888889   0.0538721), wk =   0.0438957
        k(   17) = (   0.0555556   0.3888889   0.1616162), wk =   0.0438957
        k(   18) = (   0.0555556   0.3888889   0.2693603), wk =   0.0438957
        k(   19) = (   0.0555556   0.3888889   0.3771044), wk =   0.0438957
        k(   20) = (   0.0555556   0.3888889  -0.4848485), wk =   0.0219479
        k(   21) = (   0.0555556  -0.5000000   0.0538721), wk =   0.0219479
        k(   22) = (   0.0555556  -0.5000000   0.1616162), wk =   0.0219479
        k(   23) = (   0.0555556  -0.5000000   0.2693603), wk =   0.0219479
        k(   24) = (   0.0555556  -0.5000000   0.3771044), wk =   0.0219479
        k(   25) = (   0.0555556  -0.5000000  -0.4848485), wk =   0.0109739
        k(   26) = (   0.1666667   0.1666667   0.0538721), wk =   0.0219479
        k(   27) = (   0.1666667   0.1666667   0.1616162), wk =   0.0219479
        k(   28) = (   0.1666667   0.1666667   0.2693603), wk =   0.0219479
        k(   29) = (   0.1666667   0.1666667   0.3771044), wk =   0.0219479
        k(   30) = (   0.1666667   0.1666667  -0.4848485), wk =   0.0109739
        k(   31) = (   0.1666667   0.2777778   0.0538721), wk =   0.0438957
        k(   32) = (   0.1666667   0.2777778   0.1616162), wk =   0.0438957
        k(   33) = (   0.1666667   0.2777778   0.2693603), wk =   0.0438957
        k(   34) = (   0.1666667   0.2777778   0.3771044), wk =   0.0438957
        k(   35) = (   0.1666667   0.2777778  -0.4848485), wk =   0.0219479
        k(   36) = (   0.1666667   0.3888889   0.0538721), wk =   0.0438957
        k(   37) = (   0.1666667   0.3888889   0.1616162), wk =   0.0438957
        k(   38) = (   0.1666667   0.3888889   0.2693603), wk =   0.0438957
        k(   39) = (   0.1666667   0.3888889   0.3771044), wk =   0.0438957
        k(   40) = (   0.1666667   0.3888889  -0.4848485), wk =   0.0219479
        k(   41) = (   0.1666667  -0.5000000   0.0538721), wk =   0.0219479
        k(   42) = (   0.1666667  -0.5000000   0.1616162), wk =   0.0219479
        k(   43) = (   0.1666667  -0.5000000   0.2693603), wk =   0.0219479
        k(   44) = (   0.1666667  -0.5000000   0.3771044), wk =   0.0219479
        k(   45) = (   0.1666667  -0.5000000  -0.4848485), wk =   0.0109739
        k(   46) = (   0.2777778   0.2777778   0.0538721), wk =   0.0219479
        k(   47) = (   0.2777778   0.2777778   0.1616162), wk =   0.0219479
        k(   48) = (   0.2777778   0.2777778   0.2693603), wk =   0.0219479
        k(   49) = (   0.2777778   0.2777778   0.3771044), wk =   0.0219479
        k(   50) = (   0.2777778   0.2777778  -0.4848485), wk =   0.0109739
        k(   51) = (   0.2777778   0.3888889   0.0538721), wk =   0.0438957
        k(   52) = (   0.2777778   0.3888889   0.1616162), wk =   0.0438957
        k(   53) = (   0.2777778   0.3888889   0.2693603), wk =   0.0438957
        k(   54) = (   0.2777778   0.3888889   0.3771044), wk =   0.0438957
        k(   55) = (   0.2777778   0.3888889  -0.4848485), wk =   0.0219479
        k(   56) = (   0.2777778  -0.5000000   0.0538721), wk =   0.0219479
        k(   57) = (   0.2777778  -0.5000000   0.1616162), wk =   0.0219479
        k(   58) = (   0.2777778  -0.5000000   0.2693603), wk =   0.0219479
        k(   59) = (   0.2777778  -0.5000000   0.3771044), wk =   0.0219479
        k(   60) = (   0.2777778  -0.5000000  -0.4848485), wk =   0.0109739
        k(   61) = (   0.3888889   0.3888889   0.0538721), wk =   0.0219479
        k(   62) = (   0.3888889   0.3888889   0.1616162), wk =   0.0219479
        k(   63) = (   0.3888889   0.3888889   0.2693603), wk =   0.0219479
        k(   64) = (   0.3888889   0.3888889   0.3771044), wk =   0.0219479
        k(   65) = (   0.3888889   0.3888889  -0.4848485), wk =   0.0109739
        k(   66) = (   0.3888889  -0.5000000   0.0538721), wk =   0.0219479
        k(   67) = (   0.3888889  -0.5000000   0.1616162), wk =   0.0219479
        k(   68) = (   0.3888889  -0.5000000   0.2693603), wk =   0.0219479
        k(   69) = (   0.3888889  -0.5000000   0.3771044), wk =   0.0219479
        k(   70) = (   0.3888889  -0.5000000  -0.4848485), wk =   0.0109739
[...]

     new trust radius        =       0.0305004738 bohr
     new conv_thr            =       0.0000010000 Ry

ATOMIC_POSITIONS (crystal)
Pd            0.0000000000        0.0000000000        0.0000835217
Pd            0.2500005383        0.2500005383        0.0000830029
Pd            0.2500017781        0.0000000000        0.2444127713
Pd            0.0000000000        0.2500017781        0.2444127713
Pd            0.0000000000        0.0000000000        0.5131609379
Pd            0.2500022239        0.2500022239        0.5131622276
Pd            0.2500006116        0.0000000000        0.7574966841
Pd            0.0000000000        0.2500006116        0.7574966841
Pd            0.0000000000        0.5000000000        0.0000813309
Pd            0.2500005383        0.7499994617        0.0000830029
Pd            0.2499984400        0.5000000000        0.2444143697
Pd            0.0000000000        0.7499982219        0.2444127713
Pd            0.0000000000        0.5000000000        0.5131585324
Pd            0.2500022239        0.7499977761        0.5131622276
Pd            0.2499993860        0.5000000000        0.7574928378
Pd            0.0000000000        0.7499993884        0.7574966841
Pd            0.5000000000        0.0000000000        0.0000813309
Pd            0.7499994617        0.2500005383        0.0000830029
Pd            0.7499982219        0.0000000000        0.2444127713
Pd            0.5000000000        0.2499984400        0.2444143697
Pd            0.5000000000        0.0000000000        0.5131585324
Pd            0.7499977761        0.2500022239        0.5131622276
Pd            0.7499993884        0.0000000000        0.7574966841
Pd            0.5000000000        0.2499993860        0.7574928378
Pd            0.5000000000        0.5000000000        0.0000819308
Pd            0.7499994617        0.7499994617        0.0000830029
Pd            0.7500015600        0.5000000000        0.2444143697
Pd            0.5000000000        0.7500015600        0.2444143697
Pd            0.5000000000        0.5000000000        0.5131584307
Pd            0.7499977761        0.7499977761        0.5131622276
Pd            0.7500006140        0.5000000000        0.7574928378
Pd            0.5000000000        0.7500006140        0.7574928378

     Writing output data file /scratch/DjsgXxiGAwITrxVz.save/
     NEW-OLD atomic charge density approx. for the potential

[...]

     Energy error            =      1.4E-02
     Gradient error          =      2.6E-02

[...]

     energy   old            =  -16384.9000681651 Ry
     energy   new            =  -16384.9137402335 Ry

     CASE: energy  _new < energy  _old

     WARNING: bfgs curvature condition failed, Theta= 0.922
     new trust radius        =       0.0335505211 bohr
     new conv_thr            =       0.0000002635 Ry

[...]

     iteration #  1     ecut=    71.00 Ry     beta= 0.10
     Davidson diagonalization with overlap
     c_bands:  1 eigenvalues not converged
     c_bands:  3 eigenvalues not converged
     ethr =  1.00E-06,  avg # of iterations =  9.6

[...]

     iteration #  1     ecut=    71.00 Ry     beta= 0.10
     Davidson diagonalization with overlap
     c_bands:  2 eigenvalues not converged
     ethr =  1.00E-06,  avg # of iterations =  9.9

[...]

     Total force =     0.022259     Total SCF correction =     0.003156
     SCF correction compared to forces is large: reduce conv_thr to get better values

[...]

     WARNING: bfgs curvature condition failed, Theta= 0.988
     new trust radius        =       0.0057723385 bohr
     new conv_thr            =       0.0000000402 Ry

[...]

     Total force =     0.012451     Total SCF correction =     0.000672

[...]

     number of scf cycles    =   8
     number of bfgs steps    =   7

     energy   old            =  -16384.9458057835 Ry
     energy   new            =  -16384.9460427896 Ry

     CASE: energy  _new < energy  _old

     new trust radius        =       0.0034445810 bohr
     new conv_thr            =       0.0000000100 Ry

ATOMIC_POSITIONS (crystal)
Pd            0.0000000000        0.0000000000        0.0038426216
Pd            0.2500008656        0.2500008656        0.0038415160
Pd            0.2500002248        0.0000000000        0.2537924357
Pd            0.0000000000        0.2500002248        0.2537924357
Pd            0.0000000000        0.0000000000        0.5037833088
Pd            0.2500005348        0.2500005348        0.5037834802
Pd            0.2499999698        0.0000000000        0.7537367152
Pd            0.0000000000        0.2499999698        0.7537367152
Pd            0.0000000000        0.5000000000        0.0038400071
Pd            0.2500008656        0.7499991344        0.0038415160
Pd            0.2499994680        0.5000000000        0.2537922687
Pd            0.0000000000        0.7499997752        0.2537924357
Pd            0.0000000000        0.5000000000        0.5037815201
Pd            0.2500005348        0.7499994652        0.5037834802
Pd            0.2499998626        0.5000000000        0.7537342116
Pd            0.0000000000        0.7500000302        0.7537367152
Pd            0.5000000000        0.0000000000        0.0038400071
Pd            0.7499991344        0.2500008656        0.0038415160
Pd            0.7499997752        0.0000000000        0.2537924357
Pd            0.5000000000        0.2499994680        0.2537922687
Pd            0.5000000000        0.0000000000        0.5037815201
Pd            0.7499994652        0.2500005348        0.5037834802
Pd            0.7500000302        0.0000000000        0.7537367152
Pd            0.5000000000        0.2499998626        0.7537342116
Pd            0.5000000000        0.5000000000        0.0038401984
Pd            0.7499991344        0.7499991344        0.0038415160
Pd            0.7500005320        0.5000000000        0.2537922687
Pd            0.5000000000        0.7500005320        0.2537922687
Pd            0.5000000000        0.5000000000        0.5037804289
Pd            0.7499994652        0.7499994652        0.5037834802
Pd            0.7500001374        0.5000000000        0.7537342116
Pd            0.5000000000        0.7500001374        0.7537342116

     Writing output data file /scratch/DjsgXxiGAwITrxVz.save/
     NEW-OLD atomic charge density approx. for the potential

     Check: negative core charge=   -0.000002

     Self-consistent Calculation

[...]

     Threshold (ethr) on eigenvalues was too large:
     Diagonalizing with lowered threshold

     Davidson diagonalization with overlap
     ethr =  4.56E-09,  avg # of iterations =  4.0

[...]

     total energy              =  -16384.94606087 Ry
     estimated scf accuracy    <       0.00000002 Ry

     iteration #  9     ecut=    71.00 Ry     beta= 0.10
     Davidson diagonalization with overlap
     ethr =  4.28E-12,  avg # of iterations =  1.5

     End of self-consistent calculation

[...]

          k = 0.3889-0.5000-0.4848 ( 34048 PWs)   bands (ev):

[...]

          k =-0.5000-0.5000-0.4848 ( 34000 PWs)   bands (ev):

   -65.5471 -65.5471 -65.5471 -65.5471 -65.5465 -65.5465 -65.5465 -65.5465
   -65.5212 -65.5212 -65.5212 -65.5211 -65.5207 -65.5207 -65.5207 -65.5206
   -65.5182 -65.5182 -65.5182 -65.5182 -65.5182 -65.5182 -65.5182 -65.5182
   -65.5174 -65.5174 -65.5174 -65.5174 -65.5174 -65.5174 -65.5174 -65.5174
   -31.3825 -31.3825 -31.3825 -31.3825 -31.3825 -31.3825 -31.3825 -31.3825
   -31.3818 -31.3818 -31.3818 -31.3818 -31.3818 -31.3818 -31.3818 -31.3818
   -31.3689 -31.3689 -31.3689 -31.3689 -31.3687 -31.3687 -31.3687 -31.3687
   -31.2678 -31.2678 -31.2678 -31.2678 -31.2676 -31.2676 -31.2676 -31.2676
   -31.2364 -31.2364 -31.2364 -31.2364 -31.2362 -31.2362 -31.2362 -31.2362
   -31.2343 -31.2343 -31.2343 -31.2343 -31.2343 -31.2343 -31.2343 -31.2343
   -31.2339 -31.2339 -31.2339 -31.2339 -31.2339 -31.2339 -31.2339 -31.2339
   -31.1901 -31.1901 -31.1901 -31.1901 -31.1901 -31.1901 -31.1901 -31.1900
   -31.1897 -31.1897 -31.1897 -31.1897 -31.1897 -31.1897 -31.1897 -31.1897
   -31.1766 -31.1766 -31.1766 -31.1766 -31.1761 -31.1761 -31.1761 -31.1761
   -31.1262 -31.1262 -31.1262 -31.1262 -31.1260 -31.1260 -31.1260 -31.1260
   -31.1198 -31.1198 -31.1198 -31.1198 -31.1193 -31.1193 -31.1193 -31.1193
    13.3412  13.3412  13.3412  13.3412  13.3421  13.3421  13.3421  13.3421
    14.1830  14.1830  14.1830  14.1830  14.1841  14.1841  14.1841  14.1842
    14.2055  14.2055  14.2055  14.2055  14.2055  14.2055  14.2055  14.2055
    14.2058  14.2058  14.2058  14.2058  14.2058  14.2058  14.2058  14.2058
    14.9185  14.9185  14.9185  14.9185  14.9185  14.9185  14.9185  14.9185
    14.9191  14.9191  14.9191  14.9191  14.9191  14.9191  14.9191  14.9191
    14.9408  14.9408  14.9408  14.9408  14.9423  14.9423  14.9423  14.9423
    15.8087  15.8087  15.8087  15.8087  15.8091  15.8091  15.8091  15.8091
    15.9889  15.9889  15.9889  15.9889  15.9894  15.9894  15.9894  15.9895
    16.1946  16.1946  16.1946  16.1946  16.1950  16.1950  16.1950  16.1950
    16.2231  16.2231  16.2231  16.2231  16.2237  16.2237  16.2237  16.2237
    16.3266  16.3266  16.3266  16.3266  16.3266  16.3266  16.3266  16.3266
    16.3271  16.3271  16.3271  16.3271  16.3271  16.3271  16.3271  16.3271
    16.9290  16.9290  16.9290  16.9290  16.9290  16.9290  16.9290  16.9290
    16.9294  16.9294  16.9294  16.9294  16.9294  16.9294  16.9294  16.9294
    17.0430  17.0430  17.0430  17.0430  17.0432  17.0432  17.0432  17.0432
    17.4053  17.4054  17.4054  17.4054  17.4059  17.4059  17.4059  17.4059
    17.4848  17.4848  17.4848  17.4848  17.4851  17.4852  17.4852  17.4852
    18.4530  18.4530  18.4530  18.4530  18.4532  18.4532  18.4532  18.4532
    18.4911  18.4911  18.4911  18.4911  18.4911  18.4911  18.4911  18.4911
    18.4915  18.4915  18.4915  18.4915  18.4915  18.4915  18.4915  18.4915
    21.8209  21.8209  21.8209  21.8209  21.8213  21.8213  21.8213  21.8213
    22.0720  22.0720  22.0720  22.0720  22.0720  22.0720  22.0720  22.0720
    22.0727  22.0727  22.0727  22.0727  22.0727  22.0727  22.0727  22.0727
    27.2245  27.2245  27.2245  27.2245  27.2245  27.2245  27.2245  27.2245
    27.2259  27.2259  27.2259  27.2259  27.2259  27.2259  27.2259  27.2259
    27.5038  27.5038  27.5038  27.5039  27.5043  27.5043  27.5043  27.5043
    32.0296  32.0297

     the Fermi energy is    18.5076 ev

!    total energy              =  -16384.94606085 Ry

     total all-electron energy =   -322945.799768 Ry
     estimated scf accuracy    <          3.7E-09 Ry
     smearing contrib. (-TS)   =       0.04639947 Ry
     internal energy E=F+TS    =  -16384.99246032 Ry

     The total energy is F=E-TS. E is the sum of the following terms:
     one-electron contribution =   -2586.97393426 Ry
     hartree contribution      =    1696.42945860 Ry
     xc contribution           =    -985.84582892 Ry
     ewald contribution        =   -6341.20948013 Ry
     one-center paw contrib.   =   -8167.39267561 Ry

     convergence has been achieved in   9 iterations

     Forces acting on atoms (cartesian axes, Ry/au):

     atom    1 type  1   force =     0.00000000    0.00000000   -0.00008331
     atom    2 type  1   force =    -0.00000133   -0.00000133   -0.00008296
     atom    3 type  1   force =    -0.00000152    0.00000000    0.00000750
     atom    4 type  1   force =     0.00000000   -0.00000152    0.00000750
     atom    5 type  1   force =     0.00000000    0.00000000   -0.00000470
     atom    6 type  1   force =    -0.00000203   -0.00000203   -0.00000689
     atom    7 type  1   force =    -0.00000095    0.00000000    0.00007771
     atom    8 type  1   force =     0.00000000   -0.00000095    0.00007771
     atom    9 type  1   force =     0.00000000    0.00000000   -0.00007928
     atom   10 type  1   force =    -0.00000133    0.00000133   -0.00008296
     atom   11 type  1   force =     0.00000184    0.00000000    0.00000668
     atom   12 type  1   force =     0.00000000    0.00000152    0.00000750
     atom   13 type  1   force =     0.00000000    0.00000000   -0.00000212
     atom   14 type  1   force =    -0.00000203    0.00000203   -0.00000689
     atom   15 type  1   force =     0.00000097    0.00000000    0.00008130
     atom   16 type  1   force =     0.00000000    0.00000095    0.00007771
     atom   17 type  1   force =     0.00000000    0.00000000   -0.00007928
     atom   18 type  1   force =     0.00000133   -0.00000133   -0.00008296
     atom   19 type  1   force =     0.00000152    0.00000000    0.00000750
     atom   20 type  1   force =     0.00000000    0.00000184    0.00000668
     atom   21 type  1   force =     0.00000000    0.00000000   -0.00000212
     atom   22 type  1   force =     0.00000203   -0.00000203   -0.00000689
     atom   23 type  1   force =     0.00000095    0.00000000    0.00007771
     atom   24 type  1   force =     0.00000000    0.00000097    0.00008130
     atom   25 type  1   force =     0.00000000    0.00000000   -0.00008059
     atom   26 type  1   force =     0.00000133    0.00000133   -0.00008296
     atom   27 type  1   force =    -0.00000184    0.00000000    0.00000668
     atom   28 type  1   force =     0.00000000   -0.00000184    0.00000668
     atom   29 type  1   force =     0.00000000    0.00000000   -0.00000194
     atom   30 type  1   force =     0.00000203    0.00000203   -0.00000689
     atom   31 type  1   force =    -0.00000097    0.00000000    0.00008130
     atom   32 type  1   force =     0.00000000   -0.00000097    0.00008130

     Total force =     0.000324     Total SCF correction =     0.000564
     SCF correction compared to forces is large: reduce conv_thr to get better values

     Computing stress (Cartesian axis) and pressure

          total   stress  (Ry/bohr**3)                   (kbar)     P=      -48.85
  -0.00028234   0.00000000   0.00000000          -41.53        0.00        0.00
   0.00000000  -0.00028234   0.00000000            0.00      -41.53        0.00
   0.00000000   0.00000000  -0.00043147            0.00        0.00      -63.47

     Energy error            =      1.8E-05
     Gradient error          =      8.3E-05

     bfgs converged in   9 scf cycles and   8 bfgs steps
     (criteria: energy <  1.0E-04 Ry, force <  1.0E-03 Ry/Bohr)

     End of BFGS Geometry Optimization

     Final energy   =  -16384.9460608518 Ry

     File /scratch/DjsgXxiGAwITrxVz.bfgs deleted, as requested
Begin final coordinates

ATOMIC_POSITIONS (crystal)
Pd            0.0000000000        0.0000000000        0.0038426216
Pd            0.2500008656        0.2500008656        0.0038415160
Pd            0.2500002248        0.0000000000        0.2537924357
Pd            0.0000000000        0.2500002248        0.2537924357
Pd            0.0000000000        0.0000000000        0.5037833088
Pd            0.2500005348        0.2500005348        0.5037834802
Pd            0.2499999698        0.0000000000        0.7537367152
Pd            0.0000000000        0.2499999698        0.7537367152
Pd            0.0000000000        0.5000000000        0.0038400071
Pd            0.2500008656        0.7499991344        0.0038415160
Pd            0.2499994680        0.5000000000        0.2537922687
Pd            0.0000000000        0.7499997752        0.2537924357
Pd            0.0000000000        0.5000000000        0.5037815201
Pd            0.2500005348        0.7499994652        0.5037834802
Pd            0.2499998626        0.5000000000        0.7537342116
Pd            0.0000000000        0.7500000302        0.7537367152
Pd            0.5000000000        0.0000000000        0.0038400071
Pd            0.7499991344        0.2500008656        0.0038415160
Pd            0.7499997752        0.0000000000        0.2537924357
Pd            0.5000000000        0.2499994680        0.2537922687
Pd            0.5000000000        0.0000000000        0.5037815201
Pd            0.7499994652        0.2500005348        0.5037834802
Pd            0.7500000302        0.0000000000        0.7537367152
Pd            0.5000000000        0.2499998626        0.7537342116
Pd            0.5000000000        0.5000000000        0.0038401984
Pd            0.7499991344        0.7499991344        0.0038415160
Pd            0.7500005320        0.5000000000        0.2537922687
Pd            0.5000000000        0.7500005320        0.2537922687
Pd            0.5000000000        0.5000000000        0.5037804289
Pd            0.7499994652        0.7499994652        0.5037834802
Pd            0.7500001374        0.5000000000        0.7537342116
Pd            0.5000000000        0.7500001374        0.7537342116
End final coordinates

     Writing output data file /scratch/DjsgXxiGAwITrxVz.save/

     General routines

     Parallel routines

   This run was terminated on:   1:30:38   7Jan2022

   JOB DONE.