     Program PWSCF v.6.7MaX starts on  7Jan2022 at  1:30:43

     R & G space division:  proc/nbgrp/npool/nimage =      72
     Reading input from relax_3.in
Warning: card &CELL ignored
Warning: card CELL_DYNAMICS = 'BFGS', ignored
Warning: card CELL_FACTOR = 2.0, ignored
Warning: card PRESS = 0.0, ignored
Warning: card / ignored

     Current dimensions of program PWSCF are:
     Max number of different atomic species (ntypx) = 10
     Max number of k-points (npk) =  40000
     Max angular momentum in pseudopotentials (lmaxx) =  3
     file Pd.pbe-spn-kjpaw_psl.1.0.0.UPF: wavefunction(s)  4S 5S 4D renormalized

     Subspace diagonalization in iterative solution of the eigenvalue problem:
     one sub-group per band group will be used

     Found symmetry operation: I + (  0.2500  0.2500  0.0000)
     This is a supercell, fractional translations are disabled
     Message from routine setup:
     using ibrav=0 with symmetry is DISCOURAGED, use correct ibrav instead

     bravais-lattice index     =            0
     lattice parameter (alat)  =      14.8394  a.u.
     unit-cell volume          =    3472.0000 (a.u.)^3
     number of atoms/cell      =           32
     number of atomic types    =            1
     number of electrons       =       576.00
     number of Kohn-Sham states=          346
     kinetic-energy cutoff     =      71.0000  Ry
     charge density cutoff     =     430.0000  Ry
     scf convergence threshold =      1.0E-06
     mixing beta               =       0.1000
     number of iterations used =           10  TF        mixing
     energy convergence thresh.=      1.0E-04
     force convergence thresh. =      1.0E-03
     Exchange-correlation= SLA  PW   PBX  PBC
                           (   1   4   3   4   0   0   0)
     nstep                     =           40

     celldm(1)=  14.839420  celldm(2)=   0.000000  celldm(3)=   0.000000
     celldm(4)=   0.000000  celldm(5)=   0.000000  celldm(6)=   0.000000

     crystal axes: (cart. coord. in units of alat)
               a(1) = (   1.000000   0.000000   0.000000 )
               a(2) = (   0.000000   1.000000   0.000000 )
               a(3) = (   0.000000   0.000000   1.062500 )

     reciprocal axes: (cart. coord. in units 2 pi/alat)
               b(1) = (  1.000000  0.000000  0.000000 )
               b(2) = (  0.000000  1.000000  0.000000 )
               b(3) = (  0.000000  0.000000  0.941176 )

     PseudoPot. # 1 for Pd read from file:
     /rds/homes/b/bxp912/pp/Pd.pbe-spn-kjpaw_psl.1.0.0.UPF
     MD5 check sum: 790f2ebce206edfd9790dcb9844eca51
     Pseudo is Projector augmented-wave + core cor, Zval = 18.0
     Generated using &quot;atomic&quot; code by A. Dal Corso  v.6.3
     Shape of augmentation charge: PSQ
     Using radial grid of 1235 points,  6 beta functions with:
                l(1) =   0
                l(2) =   0
                l(3) =   1
                l(4) =   1
                l(5) =   2
                l(6) =   2
     Q(r) pseudized with 0 coefficients

     atomic species   valence    mass     pseudopotential
        Pd            18.00   106.42000     Pd( 1.00)

      8 Sym. Ops. (no inversion) found

   Cartesian axes

     site n.     atom                  positions (alat units)
         1           Pd  tau(   1) = (   0.0000000   0.0000000   0.0000000  )
         2           Pd  tau(   2) = (   0.2500000   0.2500000   0.0000000  )
         3           Pd  tau(   3) = (   0.2500000   0.0000000   0.2500000  )
         4           Pd  tau(   4) = (   0.0000000   0.2500000   0.2500000  )
         5           Pd  tau(   5) = (   0.0000000   0.0000000   0.5625000  )
         6           Pd  tau(   6) = (   0.2500000   0.2500000   0.5625000  )
         7           Pd  tau(   7) = (   0.2500000   0.0000000   0.8125000  )
         8           Pd  tau(   8) = (   0.0000000   0.2500000   0.8125000  )
         9           Pd  tau(   9) = (   0.0000000   0.5000000   0.0000000  )
        10           Pd  tau(  10) = (   0.2500000   0.7500000   0.0000000  )
        11           Pd  tau(  11) = (   0.2500000   0.5000000   0.2500000  )
        12           Pd  tau(  12) = (   0.0000000   0.7500000   0.2500000  )
        13           Pd  tau(  13) = (   0.0000000   0.5000000   0.5625000  )
        14           Pd  tau(  14) = (   0.2500000   0.7500000   0.5625000  )
        15           Pd  tau(  15) = (   0.2500000   0.5000000   0.8125000  )
        16           Pd  tau(  16) = (   0.0000000   0.7500000   0.8125000  )
        17           Pd  tau(  17) = (   0.5000000   0.0000000   0.0000000  )
        18           Pd  tau(  18) = (   0.7500000   0.2500000   0.0000000  )
        19           Pd  tau(  19) = (   0.7500000   0.0000000   0.2500000  )
        20           Pd  tau(  20) = (   0.5000000   0.2500000   0.2500000  )
        21           Pd  tau(  21) = (   0.5000000   0.0000000   0.5625000  )
        22           Pd  tau(  22) = (   0.7500000   0.2500000   0.5625000  )
        23           Pd  tau(  23) = (   0.7500000   0.0000000   0.8125000  )
        24           Pd  tau(  24) = (   0.5000000   0.2500000   0.8125000  )
        25           Pd  tau(  25) = (   0.5000000   0.5000000   0.0000000  )
        26           Pd  tau(  26) = (   0.7500000   0.7500000   0.0000000  )
        27           Pd  tau(  27) = (   0.7500000   0.5000000   0.2500000  )
        28           Pd  tau(  28) = (   0.5000000   0.7500000   0.2500000  )
        29           Pd  tau(  29) = (   0.5000000   0.5000000   0.5625000  )
        30           Pd  tau(  30) = (   0.7500000   0.7500000   0.5625000  )
        31           Pd  tau(  31) = (   0.7500000   0.5000000   0.8125000  )
        32           Pd  tau(  32) = (   0.5000000   0.7500000   0.8125000  )

     number of k points=    75  Marzari-Vanderbilt smearing, width (Ry)=  0.0400
                       cart. coord. in units 2pi/alat
        k(    1) = (   0.0555556   0.0555556   0.0522876), wk =   0.0219479
        k(    2) = (   0.0555556   0.0555556   0.1568627), wk =   0.0219479
        k(    3) = (   0.0555556   0.0555556   0.2614379), wk =   0.0219479
        k(    4) = (   0.0555556   0.0555556   0.3660131), wk =   0.0219479
        k(    5) = (   0.0555556   0.0555556  -0.4705882), wk =   0.0109739
        k(    6) = (   0.0555556   0.1666667   0.0522876), wk =   0.0438957
        k(    7) = (   0.0555556   0.1666667   0.1568627), wk =   0.0438957
        k(    8) = (   0.0555556   0.1666667   0.2614379), wk =   0.0438957
        k(    9) = (   0.0555556   0.1666667   0.3660131), wk =   0.0438957
        k(   10) = (   0.0555556   0.1666667  -0.4705882), wk =   0.0219479
        k(   11) = (   0.0555556   0.2777778   0.0522876), wk =   0.0438957
        k(   12) = (   0.0555556   0.2777778   0.1568627), wk =   0.0438957
        k(   13) = (   0.0555556   0.2777778   0.2614379), wk =   0.0438957
        k(   14) = (   0.0555556   0.2777778   0.3660131), wk =   0.0438957
        k(   15) = (   0.0555556   0.2777778  -0.4705882), wk =   0.0219479
        k(   16) = (   0.0555556   0.3888889   0.0522876), wk =   0.0438957
        k(   17) = (   0.0555556   0.3888889   0.1568627), wk =   0.0438957
        k(   18) = (   0.0555556   0.3888889   0.2614379), wk =   0.0438957
        k(   19) = (   0.0555556   0.3888889   0.3660131), wk =   0.0438957
        k(   20) = (   0.0555556   0.3888889  -0.4705882), wk =   0.0219479
        k(   21) = (   0.0555556  -0.5000000   0.0522876), wk =   0.0219479
        k(   22) = (   0.0555556  -0.5000000   0.1568627), wk =   0.0219479
        k(   23) = (   0.0555556  -0.5000000   0.2614379), wk =   0.0219479
        k(   24) = (   0.0555556  -0.5000000   0.3660131), wk =   0.0219479
        k(   25) = (   0.0555556  -0.5000000  -0.4705882), wk =   0.0109739
        k(   26) = (   0.1666667   0.1666667   0.0522876), wk =   0.0219479
        k(   27) = (   0.1666667   0.1666667   0.1568627), wk =   0.0219479
        k(   28) = (   0.1666667   0.1666667   0.2614379), wk =   0.0219479
        k(   29) = (   0.1666667   0.1666667   0.3660131), wk =   0.0219479
        k(   30) = (   0.1666667   0.1666667  -0.4705882), wk =   0.0109739
        k(   31) = (   0.1666667   0.2777778   0.0522876), wk =   0.0438957
        k(   32) = (   0.1666667   0.2777778   0.1568627), wk =   0.0438957
        k(   33) = (   0.1666667   0.2777778   0.2614379), wk =   0.0438957
        k(   34) = (   0.1666667   0.2777778   0.3660131), wk =   0.0438957
        k(   35) = (   0.1666667   0.2777778  -0.4705882), wk =   0.0219479
        k(   36) = (   0.1666667   0.3888889   0.0522876), wk =   0.0438957
        k(   37) = (   0.1666667   0.3888889   0.1568627), wk =   0.0438957
        k(   38) = (   0.1666667   0.3888889   0.2614379), wk =   0.0438957
        k(   39) = (   0.1666667   0.3888889   0.3660131), wk =   0.0438957
        k(   40) = (   0.1666667   0.3888889  -0.4705882), wk =   0.0219479
        k(   41) = (   0.1666667  -0.5000000   0.0522876), wk =   0.0219479
        k(   42) = (   0.1666667  -0.5000000   0.1568627), wk =   0.0219479
        k(   43) = (   0.1666667  -0.5000000   0.2614379), wk =   0.0219479
        k(   44) = (   0.1666667  -0.5000000   0.3660131), wk =   0.0219479
        k(   45) = (   0.1666667  -0.5000000  -0.4705882), wk =   0.0109739
        k(   46) = (   0.2777778   0.2777778   0.0522876), wk =   0.0219479
        k(   47) = (   0.2777778   0.2777778   0.1568627), wk =   0.0219479
        k(   48) = (   0.2777778   0.2777778   0.2614379), wk =   0.0219479
        k(   49) = (   0.2777778   0.2777778   0.3660131), wk =   0.0219479
        k(   50) = (   0.2777778   0.2777778  -0.4705882), wk =   0.0109739
        k(   51) = (   0.2777778   0.3888889   0.0522876), wk =   0.0438957
        k(   52) = (   0.2777778   0.3888889   0.1568627), wk =   0.0438957
        k(   53) = (   0.2777778   0.3888889   0.2614379), wk =   0.0438957
        k(   54) = (   0.2777778   0.3888889   0.3660131), wk =   0.0438957
        k(   55) = (   0.2777778   0.3888889  -0.4705882), wk =   0.0219479
        k(   56) = (   0.2777778  -0.5000000   0.0522876), wk =   0.0219479
        k(   57) = (   0.2777778  -0.5000000   0.1568627), wk =   0.0219479
        k(   58) = (   0.2777778  -0.5000000   0.2614379), wk =   0.0219479
        k(   59) = (   0.2777778  -0.5000000   0.3660131), wk =   0.0219479
        k(   60) = (   0.2777778  -0.5000000  -0.4705882), wk =   0.0109739
        k(   61) = (   0.3888889   0.3888889   0.0522876), wk =   0.0219479
        k(   62) = (   0.3888889   0.3888889   0.1568627), wk =   0.0219479
        k(   63) = (   0.3888889   0.3888889   0.2614379), wk =   0.0219479
        k(   64) = (   0.3888889   0.3888889   0.3660131), wk =   0.0219479
        k(   65) = (   0.3888889   0.3888889  -0.4705882), wk =   0.0109739
        k(   66) = (   0.3888889  -0.5000000   0.0522876), wk =   0.0219479
        k(   67) = (   0.3888889  -0.5000000   0.1568627), wk =   0.0219479
        k(   68) = (   0.3888889  -0.5000000   0.2614379), wk =   0.0219479
        k(   69) = (   0.3888889  -0.5000000   0.3660131), wk =   0.0219479
        k(   70) = (   0.3888889  -0.5000000  -0.4705882), wk =   0.0109739
[...]

     number of scf cycles    =   1
     number of bfgs steps    =   0

     energy   new            =  -16384.7637761504 Ry

     new trust radius        =       0.0402030694 bohr
     new conv_thr            =       0.0000010000 Ry

ATOMIC_POSITIONS (crystal)
Pd            0.0000000000        0.0000000000        0.0001603129
Pd            0.2499998622        0.2499998622        0.0001603249
Pd            0.2499996291        0.0000000000        0.2378439290
Pd            0.0000000000        0.2499996291        0.2378439290
Pd            0.0000000000        0.0000000000        0.5268662148
Pd            0.2500003669        0.2500003669        0.5268659136
Pd            0.2499997633        0.0000000000        0.7645417927
Pd            0.0000000000        0.2499997633        0.7645417927
Pd            0.0000000000        0.5000000000        0.0001602901
Pd            0.2499998622        0.7500001378        0.0001603249
Pd            0.2500003597        0.5000000000        0.2378439601
Pd            0.0000000000        0.7500003709        0.2378439290
Pd            0.0000000000        0.5000000000        0.5268662452
Pd            0.2500003669        0.7499996331        0.5268659136
Pd            0.2500004948        0.5000000000        0.7645411781
Pd            0.0000000000        0.7500002367        0.7645417927
Pd            0.5000000000        0.0000000000        0.0001602901
Pd            0.7500001378        0.2499998622        0.0001603249
Pd            0.7500003709        0.0000000000        0.2378439290
Pd            0.5000000000        0.2500003597        0.2378439601
Pd            0.5000000000        0.0000000000        0.5268662452
Pd            0.7499996331        0.2500003669        0.5268659136
Pd            0.7500002367        0.0000000000        0.7645417927
Pd            0.5000000000        0.2500004948        0.7645411781
Pd            0.5000000000        0.5000000000        0.0001602394
Pd            0.7500001378        0.7500001378        0.0001603249
Pd            0.7499996403        0.5000000000        0.2378439601
Pd            0.5000000000        0.7499996403        0.2378439601
Pd            0.5000000000        0.5000000000        0.5268658868
Pd            0.7499996331        0.7499996331        0.5268659136
Pd            0.7499995052        0.5000000000        0.7645411781
Pd            0.5000000000        0.7499995052        0.7645411781

     Writing output data file /scratch/UlIymGAMopeMfmiY.save/
     NEW-OLD atomic charge density approx. for the potential

[...]

     Energy error            =      2.4E-02
     Gradient error          =      3.7E-02

[...]

     energy   old            =  -16384.7637761504 Ry
     energy   new            =  -16384.7882648309 Ry

     CASE: energy  _new < energy  _old

     WARNING: bfgs curvature condition failed, Theta= 0.871
     new trust radius        =       0.0442233764 bohr
     new conv_thr            =       0.0000003674 Ry

[...]

     iteration #  1     ecut=    71.00 Ry     beta= 0.10
     Davidson diagonalization with overlap
     c_bands:  1 eigenvalues not converged
     ethr =  1.00E-06,  avg # of iterations =  9.9

[...]

     iteration #  1     ecut=    71.00 Ry     beta= 0.10
     Davidson diagonalization with overlap
     c_bands:  1 eigenvalues not converged
     c_bands:  1 eigenvalues not converged
     c_bands:  1 eigenvalues not converged
     ethr =  1.00E-06,  avg # of iterations = 12.9

[...]

     Total force =     0.017571     Total SCF correction =     0.001809
     SCF correction compared to forces is large: reduce conv_thr to get better values

[...]

     Total force =     0.008933     Total SCF correction =     0.000303

[...]

     number of scf cycles    =  10
     number of bfgs steps    =   9

     energy   old            =  -16384.8920121547 Ry
     energy   new            =  -16384.8922477887 Ry

     CASE: energy  _new < energy  _old

     new trust radius        =       0.0014338141 bohr
     new conv_thr            =       0.0000000100 Ry

ATOMIC_POSITIONS (crystal)
Pd            0.0000000000        0.0000000000        0.0073590956
Pd            0.2499995260        0.2499995260        0.0073587477
Pd            0.2499994193        0.0000000000        0.2573495284
Pd            0.0000000000        0.2499994193        0.2573495284
Pd            0.0000000000        0.0000000000        0.5073529072
Pd            0.2500003033        0.2500003033        0.5073516363
Pd            0.2499997825        0.0000000000        0.7573518463
Pd            0.0000000000        0.2499997825        0.7573518463
Pd            0.0000000000        0.5000000000        0.0073588515
Pd            0.2499995260        0.7500004740        0.0073587477
Pd            0.2499997918        0.5000000000        0.2573492831
Pd            0.0000000000        0.7500005807        0.2573495284
Pd            0.0000000000        0.5000000000        0.5073523611
Pd            0.2500003033        0.7499996967        0.5073516363
Pd            0.2500003595        0.5000000000        0.7573513036
Pd            0.0000000000        0.7500002175        0.7573518463
Pd            0.5000000000        0.0000000000        0.0073588515
Pd            0.7500004740        0.2499995260        0.0073587477
Pd            0.7500005807        0.0000000000        0.2573495284
Pd            0.5000000000        0.2499997918        0.2573492831
Pd            0.5000000000        0.0000000000        0.5073523611
Pd            0.7499996967        0.2500003033        0.5073516363
Pd            0.7500002175        0.0000000000        0.7573518463
Pd            0.5000000000        0.2500003595        0.7573513036
Pd            0.5000000000        0.5000000000        0.0073590197
Pd            0.7500004740        0.7500004740        0.0073587477
Pd            0.7500002082        0.5000000000        0.2573492831
Pd            0.5000000000        0.7500002082        0.2573492831
Pd            0.5000000000        0.5000000000        0.5073512886
Pd            0.7499996967        0.7499996967        0.5073516363
Pd            0.7499996405        0.5000000000        0.7573513036
Pd            0.5000000000        0.7499996405        0.7573513036

     Writing output data file /scratch/UlIymGAMopeMfmiY.save/
     NEW-OLD atomic charge density approx. for the potential

     Check: negative core charge=   -0.000002

     Self-consistent Calculation

[...]

     Threshold (ethr) on eigenvalues was too large:
     Diagonalizing with lowered threshold

     Davidson diagonalization with overlap
     ethr =  1.38E-09,  avg # of iterations =  5.5

[...]

     total energy              =  -16384.89225140 Ry
     estimated scf accuracy    <       0.00000005 Ry

     iteration # 10     ecut=    71.00 Ry     beta= 0.10
     Davidson diagonalization with overlap
     ethr =  4.99E-12,  avg # of iterations =  2.0

     End of self-consistent calculation

[...]

          k = 0.3889-0.5000-0.4706 ( 35068 PWs)   bands (ev):

[...]

          k =-0.5000-0.5000-0.4706 ( 35088 PWs)   bands (ev):

   -66.2036 -66.2036 -66.2036 -66.2036 -66.2035 -66.2035 -66.2035 -66.2035
   -66.1828 -66.1828 -66.1828 -66.1828 -66.1828 -66.1828 -66.1828 -66.1828
   -66.1772 -66.1772 -66.1772 -66.1772 -66.1772 -66.1772 -66.1772 -66.1772
   -66.1771 -66.1771 -66.1771 -66.1771 -66.1771 -66.1771 -66.1771 -66.1771
   -32.0317 -32.0317 -32.0317 -32.0317 -32.0317 -32.0317 -32.0317 -32.0317
   -32.0317 -32.0317 -32.0317 -32.0317 -32.0317 -32.0317 -32.0317 -32.0317
   -32.0043 -32.0043 -32.0043 -32.0043 -32.0043 -32.0043 -32.0043 -32.0043
   -31.9234 -31.9234 -31.9234 -31.9234 -31.9234 -31.9234 -31.9234 -31.9234
   -31.8960 -31.8960 -31.8960 -31.8960 -31.8960 -31.8960 -31.8960 -31.8960
   -31.8938 -31.8938 -31.8938 -31.8938 -31.8938 -31.8938 -31.8938 -31.8938
   -31.8937 -31.8937 -31.8937 -31.8937 -31.8937 -31.8937 -31.8937 -31.8937
   -31.8524 -31.8524 -31.8524 -31.8524 -31.8524 -31.8524 -31.8524 -31.8524
   -31.8524 -31.8524 -31.8524 -31.8524 -31.8524 -31.8524 -31.8524 -31.8524
   -31.8325 -31.8325 -31.8325 -31.8325 -31.8325 -31.8325 -31.8325 -31.8325
   -31.7967 -31.7967 -31.7967 -31.7967 -31.7967 -31.7967 -31.7967 -31.7967
   -31.7869 -31.7869 -31.7869 -31.7869 -31.7868 -31.7868 -31.7868 -31.7868
    12.7924  12.7924  12.7924  12.7924  12.7925  12.7925  12.7925  12.7925
    13.6192  13.6192  13.6192  13.6192  13.6193  13.6193  13.6193  13.6193
    13.6712  13.6712  13.6712  13.6712  13.6712  13.6712  13.6712  13.6712
    13.6712  13.6712  13.6712  13.6712  13.6713  13.6713  13.6713  13.6713
    14.3396  14.3396  14.3396  14.3396  14.3396  14.3396  14.3396  14.3396
    14.3396  14.3396  14.3396  14.3396  14.3396  14.3396  14.3397  14.3397
    14.3833  14.3833  14.3833  14.3833  14.3834  14.3834  14.3834  14.3834
    15.1718  15.1718  15.1718  15.1718  15.1718  15.1718  15.1718  15.1718
    15.2780  15.2780  15.2780  15.2780  15.2780  15.2780  15.2781  15.2781
    15.4821  15.4821  15.4821  15.4821  15.4822  15.4822  15.4822  15.4822
    15.7015  15.7015  15.7015  15.7015  15.7016  15.7016  15.7016  15.7016
    15.7285  15.7285  15.7285  15.7285  15.7285  15.7285  15.7285  15.7285
    15.7286  15.7286  15.7286  15.7286  15.7286  15.7286  15.7286  15.7286
    16.2286  16.2286  16.2286  16.2286  16.2286  16.2286  16.2286  16.2286
    16.2286  16.2286  16.2286  16.2286  16.2286  16.2286  16.2286  16.2286
    16.4404  16.4404  16.4404  16.4404  16.4404  16.4404  16.4404  16.4404
    16.6735  16.6735  16.6735  16.6735  16.6735  16.6735  16.6735  16.6735
    16.8257  16.8257  16.8257  16.8257  16.8257  16.8257  16.8257  16.8257
    17.6838  17.6838  17.6838  17.6838  17.6838  17.6838  17.6838  17.6838
    17.7458  17.7458  17.7458  17.7458  17.7459  17.7459  17.7459  17.7459
    17.7459  17.7459  17.7459  17.7459  17.7459  17.7459  17.7459  17.7459
    20.8584  20.8584  20.8584  20.8584  20.8584  20.8584  20.8584  20.8584
    21.3472  21.3472  21.3472  21.3472  21.3472  21.3472  21.3472  21.3472
    21.3473  21.3473  21.3473  21.3473  21.3473  21.3473  21.3473  21.3473
    26.2275  26.2275  26.2275  26.2275  26.2275  26.2275  26.2275  26.2275
    26.2276  26.2276  26.2276  26.2276  26.2276  26.2276  26.2276  26.2276
    26.7632  26.7632  26.7632  26.7632  26.7632  26.7632  26.7633  26.7633
    30.4924  30.4924

     the Fermi energy is    17.7630 ev

!    total energy              =  -16384.89225140 Ry

     total all-electron energy =   -322945.745959 Ry
     estimated scf accuracy    <          9.5E-09 Ry
     smearing contrib. (-TS)   =       0.06520979 Ry
     internal energy E=F+TS    =  -16384.95746119 Ry

     The total energy is F=E-TS. E is the sum of the following terms:
     one-electron contribution =   -2686.44608086 Ry
     hartree contribution      =    1732.13261620 Ry
     xc contribution           =    -985.24927351 Ry
     ewald contribution        =   -6278.03456456 Ry
     one-center paw contrib.   =   -8167.36015845 Ry

     convergence has been achieved in  10 iterations

     Forces acting on atoms (cartesian axes, Ry/au):

     atom    1 type  1   force =     0.00000000    0.00000000    0.00006507
     atom    2 type  1   force =     0.00000162    0.00000162    0.00006613
     atom    3 type  1   force =     0.00000201    0.00000000    0.00008270
     atom    4 type  1   force =     0.00000000    0.00000201    0.00008270
     atom    5 type  1   force =     0.00000000    0.00000000   -0.00007223
     atom    6 type  1   force =    -0.00000146   -0.00000146   -0.00007033
     atom    7 type  1   force =     0.00000178    0.00000000   -0.00007771
     atom    8 type  1   force =     0.00000000    0.00000178   -0.00007771
     atom    9 type  1   force =     0.00000000    0.00000000    0.00006578
     atom   10 type  1   force =     0.00000162   -0.00000162    0.00006613
     atom   11 type  1   force =    -0.00000114    0.00000000    0.00008084
     atom   12 type  1   force =     0.00000000   -0.00000201    0.00008270
     atom   13 type  1   force =     0.00000000    0.00000000   -0.00007214
     atom   14 type  1   force =    -0.00000146    0.00000146   -0.00007033
     atom   15 type  1   force =    -0.00000181    0.00000000   -0.00007518
     atom   16 type  1   force =     0.00000000   -0.00000178   -0.00007771
     atom   17 type  1   force =     0.00000000    0.00000000    0.00006578
     atom   18 type  1   force =    -0.00000162    0.00000162    0.00006613
     atom   19 type  1   force =    -0.00000201    0.00000000    0.00008270
     atom   20 type  1   force =     0.00000000   -0.00000114    0.00008084
     atom   21 type  1   force =     0.00000000    0.00000000   -0.00007214
     atom   22 type  1   force =     0.00000146   -0.00000146   -0.00007033
     atom   23 type  1   force =    -0.00000178    0.00000000   -0.00007771
     atom   24 type  1   force =     0.00000000   -0.00000181   -0.00007518
     atom   25 type  1   force =     0.00000000    0.00000000    0.00006533
     atom   26 type  1   force =    -0.00000162   -0.00000162    0.00006613
     atom   27 type  1   force =     0.00000114    0.00000000    0.00008084
     atom   28 type  1   force =     0.00000000    0.00000114    0.00008084
     atom   29 type  1   force =     0.00000000    0.00000000   -0.00007128
     atom   30 type  1   force =     0.00000146    0.00000146   -0.00007033
     atom   31 type  1   force =     0.00000181    0.00000000   -0.00007518
     atom   32 type  1   force =     0.00000000    0.00000181   -0.00007518

     Total force =     0.000419     Total SCF correction =     0.001172
     SCF correction compared to forces is large: reduce conv_thr to get better values

     Computing stress (Cartesian axis) and pressure

          total   stress  (Ry/bohr**3)                   (kbar)     P=      -89.35
  -0.00051245   0.00000000   0.00000000          -75.38        0.00        0.00
   0.00000000  -0.00051245   0.00000000            0.00      -75.38        0.00
   0.00000000   0.00000000  -0.00079721            0.00        0.00     -117.27

     Energy error            =      3.6E-06
     Gradient error          =      8.3E-05

     bfgs converged in  11 scf cycles and  10 bfgs steps
     (criteria: energy <  1.0E-04 Ry, force <  1.0E-03 Ry/Bohr)

     End of BFGS Geometry Optimization

     Final energy   =  -16384.8922513969 Ry

     File /scratch/UlIymGAMopeMfmiY.bfgs deleted, as requested
Begin final coordinates

ATOMIC_POSITIONS (crystal)
Pd            0.0000000000        0.0000000000        0.0073590956
Pd            0.2499995260        0.2499995260        0.0073587477
Pd            0.2499994193        0.0000000000        0.2573495284
Pd            0.0000000000        0.2499994193        0.2573495284
Pd            0.0000000000        0.0000000000        0.5073529072
Pd            0.2500003033        0.2500003033        0.5073516363
Pd            0.2499997825        0.0000000000        0.7573518463
Pd            0.0000000000        0.2499997825        0.7573518463
Pd            0.0000000000        0.5000000000        0.0073588515
Pd            0.2499995260        0.7500004740        0.0073587477
Pd            0.2499997918        0.5000000000        0.2573492831
Pd            0.0000000000        0.7500005807        0.2573495284
Pd            0.0000000000        0.5000000000        0.5073523611
Pd            0.2500003033        0.7499996967        0.5073516363
Pd            0.2500003595        0.5000000000        0.7573513036
Pd            0.0000000000        0.7500002175        0.7573518463
Pd            0.5000000000        0.0000000000        0.0073588515
Pd            0.7500004740        0.2499995260        0.0073587477
Pd            0.7500005807        0.0000000000        0.2573495284
Pd            0.5000000000        0.2499997918        0.2573492831
Pd            0.5000000000        0.0000000000        0.5073523611
Pd            0.7499996967        0.2500003033        0.5073516363
Pd            0.7500002175        0.0000000000        0.7573518463
Pd            0.5000000000        0.2500003595        0.7573513036
Pd            0.5000000000        0.5000000000        0.0073590197
Pd            0.7500004740        0.7500004740        0.0073587477
Pd            0.7500002082        0.5000000000        0.2573492831
Pd            0.5000000000        0.7500002082        0.2573492831
Pd            0.5000000000        0.5000000000        0.5073512886
Pd            0.7499996967        0.7499996967        0.5073516363
Pd            0.7499996405        0.5000000000        0.7573513036
Pd            0.5000000000        0.7499996405        0.7573513036
End final coordinates

     Writing output data file /scratch/UlIymGAMopeMfmiY.save/

     General routines

     Parallel routines

   This run was terminated on:   5:10:50   7Jan2022

   JOB DONE.