     Program PWSCF v.6.7MaX starts on  8Jan2022 at 13: 7:58

     R & G space division:  proc/nbgrp/npool/nimage =      72
     Reading input from relax_23.in
Warning: card &CELL ignored
Warning: card CELL_DYNAMICS = 'BFGS', ignored
Warning: card CELL_FACTOR = 2.0, ignored
Warning: card PRESS = 0.0, ignored
Warning: card / ignored

     Current dimensions of program PWSCF are:
     Max number of different atomic species (ntypx) = 10
     Max number of k-points (npk) =  40000
     Max angular momentum in pseudopotentials (lmaxx) =  3
     file Pd.pbe-spn-kjpaw_psl.1.0.0.UPF: wavefunction(s)  4S 5S 4D renormalized

     Subspace diagonalization in iterative solution of the eigenvalue problem:
     one sub-group per band group will be used

     Found symmetry operation: I + (  0.2500  0.2500  0.0000)
     This is a supercell, fractional translations are disabled
     Message from routine setup:
     using ibrav=0 with symmetry is DISCOURAGED, use correct ibrav instead

     bravais-lattice index     =            0
     lattice parameter (alat)  =      14.8394  a.u.
     unit-cell volume          =    5514.3530 (a.u.)^3
     number of atoms/cell      =           32
     number of atomic types    =            1
     number of electrons       =       576.00
     number of Kohn-Sham states=          346
     kinetic-energy cutoff     =      71.0000  Ry
     charge density cutoff     =     430.0000  Ry
     scf convergence threshold =      1.0E-06
     mixing beta               =       0.1000
     number of iterations used =           10  TF        mixing
     energy convergence thresh.=      1.0E-04
     force convergence thresh. =      1.0E-03
     Exchange-correlation= SLA  PW   PBX  PBC
                           (   1   4   3   4   0   0   0)
     nstep                     =           40

     celldm(1)=  14.839420  celldm(2)=   0.000000  celldm(3)=   0.000000
     celldm(4)=   0.000000  celldm(5)=   0.000000  celldm(6)=   0.000000

     crystal axes: (cart. coord. in units of alat)
               a(1) = (   1.000000   0.000000   0.000000 )
               a(2) = (   0.000000   1.000000   0.000000 )
               a(3) = (   0.000000   0.000000   1.687500 )

     reciprocal axes: (cart. coord. in units 2 pi/alat)
               b(1) = (  1.000000  0.000000  0.000000 )
               b(2) = (  0.000000  1.000000  0.000000 )
               b(3) = (  0.000000  0.000000  0.592593 )

     PseudoPot. # 1 for Pd read from file:
     /rds/homes/b/bxp912/pp/Pd.pbe-spn-kjpaw_psl.1.0.0.UPF
     MD5 check sum: 790f2ebce206edfd9790dcb9844eca51
     Pseudo is Projector augmented-wave + core cor, Zval = 18.0
     Generated using &quot;atomic&quot; code by A. Dal Corso  v.6.3
     Shape of augmentation charge: PSQ
     Using radial grid of 1235 points,  6 beta functions with:
                l(1) =   0
                l(2) =   0
                l(3) =   1
                l(4) =   1
                l(5) =   2
                l(6) =   2
     Q(r) pseudized with 0 coefficients

     atomic species   valence    mass     pseudopotential
        Pd            18.00   106.42000     Pd( 1.00)

      8 Sym. Ops. (no inversion) found

   Cartesian axes

     site n.     atom                  positions (alat units)
         1           Pd  tau(   1) = (   0.0000000   0.0000000   0.0000000  )
         2           Pd  tau(   2) = (   0.2500000   0.2500000   0.0000000  )
         3           Pd  tau(   3) = (   0.2500000   0.0000000   0.2500000  )
         4           Pd  tau(   4) = (   0.0000000   0.2500000   0.2500000  )
         5           Pd  tau(   5) = (   0.0000000   0.0000000   1.1875000  )
         6           Pd  tau(   6) = (   0.2500000   0.2500000   1.1875000  )
         7           Pd  tau(   7) = (   0.2500000   0.0000000   1.4375000  )
         8           Pd  tau(   8) = (   0.0000000   0.2500000   1.4375000  )
         9           Pd  tau(   9) = (   0.0000000   0.5000000   0.0000000  )
        10           Pd  tau(  10) = (   0.2500000   0.7500000   0.0000000  )
        11           Pd  tau(  11) = (   0.2500000   0.5000000   0.2500000  )
        12           Pd  tau(  12) = (   0.0000000   0.7500000   0.2500000  )
        13           Pd  tau(  13) = (   0.0000000   0.5000000   1.1875000  )
        14           Pd  tau(  14) = (   0.2500000   0.7500000   1.1875000  )
        15           Pd  tau(  15) = (   0.2500000   0.5000000   1.4375000  )
        16           Pd  tau(  16) = (   0.0000000   0.7500000   1.4375000  )
        17           Pd  tau(  17) = (   0.5000000   0.0000000   0.0000000  )
        18           Pd  tau(  18) = (   0.7500000   0.2500000   0.0000000  )
        19           Pd  tau(  19) = (   0.7500000   0.0000000   0.2500000  )
        20           Pd  tau(  20) = (   0.5000000   0.2500000   0.2500000  )
        21           Pd  tau(  21) = (   0.5000000   0.0000000   1.1875000  )
        22           Pd  tau(  22) = (   0.7500000   0.2500000   1.1875000  )
        23           Pd  tau(  23) = (   0.7500000   0.0000000   1.4375000  )
        24           Pd  tau(  24) = (   0.5000000   0.2500000   1.4375000  )
        25           Pd  tau(  25) = (   0.5000000   0.5000000   0.0000000  )
        26           Pd  tau(  26) = (   0.7500000   0.7500000   0.0000000  )
        27           Pd  tau(  27) = (   0.7500000   0.5000000   0.2500000  )
        28           Pd  tau(  28) = (   0.5000000   0.7500000   0.2500000  )
        29           Pd  tau(  29) = (   0.5000000   0.5000000   1.1875000  )
        30           Pd  tau(  30) = (   0.7500000   0.7500000   1.1875000  )
        31           Pd  tau(  31) = (   0.7500000   0.5000000   1.4375000  )
        32           Pd  tau(  32) = (   0.5000000   0.7500000   1.4375000  )

     number of k points=    75  Marzari-Vanderbilt smearing, width (Ry)=  0.0400
                       cart. coord. in units 2pi/alat
        k(    1) = (   0.0555556   0.0555556   0.0329218), wk =   0.0219479
        k(    2) = (   0.0555556   0.0555556   0.0987654), wk =   0.0219479
        k(    3) = (   0.0555556   0.0555556   0.1646091), wk =   0.0219479
        k(    4) = (   0.0555556   0.0555556   0.2304527), wk =   0.0219479
        k(    5) = (   0.0555556   0.0555556  -0.2962963), wk =   0.0109739
        k(    6) = (   0.0555556   0.1666667   0.0329218), wk =   0.0438957
        k(    7) = (   0.0555556   0.1666667   0.0987654), wk =   0.0438957
        k(    8) = (   0.0555556   0.1666667   0.1646091), wk =   0.0438957
        k(    9) = (   0.0555556   0.1666667   0.2304527), wk =   0.0438957
        k(   10) = (   0.0555556   0.1666667  -0.2962963), wk =   0.0219479
        k(   11) = (   0.0555556   0.2777778   0.0329218), wk =   0.0438957
        k(   12) = (   0.0555556   0.2777778   0.0987654), wk =   0.0438957
        k(   13) = (   0.0555556   0.2777778   0.1646091), wk =   0.0438957
        k(   14) = (   0.0555556   0.2777778   0.2304527), wk =   0.0438957
        k(   15) = (   0.0555556   0.2777778  -0.2962963), wk =   0.0219479
        k(   16) = (   0.0555556   0.3888889   0.0329218), wk =   0.0438957
        k(   17) = (   0.0555556   0.3888889   0.0987654), wk =   0.0438957
        k(   18) = (   0.0555556   0.3888889   0.1646091), wk =   0.0438957
        k(   19) = (   0.0555556   0.3888889   0.2304527), wk =   0.0438957
        k(   20) = (   0.0555556   0.3888889  -0.2962963), wk =   0.0219479
        k(   21) = (   0.0555556  -0.5000000   0.0329218), wk =   0.0219479
        k(   22) = (   0.0555556  -0.5000000   0.0987654), wk =   0.0219479
        k(   23) = (   0.0555556  -0.5000000   0.1646091), wk =   0.0219479
        k(   24) = (   0.0555556  -0.5000000   0.2304527), wk =   0.0219479
        k(   25) = (   0.0555556  -0.5000000  -0.2962963), wk =   0.0109739
        k(   26) = (   0.1666667   0.1666667   0.0329218), wk =   0.0219479
        k(   27) = (   0.1666667   0.1666667   0.0987654), wk =   0.0219479
        k(   28) = (   0.1666667   0.1666667   0.1646091), wk =   0.0219479
        k(   29) = (   0.1666667   0.1666667   0.2304527), wk =   0.0219479
        k(   30) = (   0.1666667   0.1666667  -0.2962963), wk =   0.0109739
        k(   31) = (   0.1666667   0.2777778   0.0329218), wk =   0.0438957
        k(   32) = (   0.1666667   0.2777778   0.0987654), wk =   0.0438957
        k(   33) = (   0.1666667   0.2777778   0.1646091), wk =   0.0438957
        k(   34) = (   0.1666667   0.2777778   0.2304527), wk =   0.0438957
        k(   35) = (   0.1666667   0.2777778  -0.2962963), wk =   0.0219479
        k(   36) = (   0.1666667   0.3888889   0.0329218), wk =   0.0438957
        k(   37) = (   0.1666667   0.3888889   0.0987654), wk =   0.0438957
        k(   38) = (   0.1666667   0.3888889   0.1646091), wk =   0.0438957
        k(   39) = (   0.1666667   0.3888889   0.2304527), wk =   0.0438957
        k(   40) = (   0.1666667   0.3888889  -0.2962963), wk =   0.0219479
        k(   41) = (   0.1666667  -0.5000000   0.0329218), wk =   0.0219479
        k(   42) = (   0.1666667  -0.5000000   0.0987654), wk =   0.0219479
        k(   43) = (   0.1666667  -0.5000000   0.1646091), wk =   0.0219479
        k(   44) = (   0.1666667  -0.5000000   0.2304527), wk =   0.0219479
        k(   45) = (   0.1666667  -0.5000000  -0.2962963), wk =   0.0109739
        k(   46) = (   0.2777778   0.2777778   0.0329218), wk =   0.0219479
        k(   47) = (   0.2777778   0.2777778   0.0987654), wk =   0.0219479
        k(   48) = (   0.2777778   0.2777778   0.1646091), wk =   0.0219479
        k(   49) = (   0.2777778   0.2777778   0.2304527), wk =   0.0219479
        k(   50) = (   0.2777778   0.2777778  -0.2962963), wk =   0.0109739
        k(   51) = (   0.2777778   0.3888889   0.0329218), wk =   0.0438957
        k(   52) = (   0.2777778   0.3888889   0.0987654), wk =   0.0438957
        k(   53) = (   0.2777778   0.3888889   0.1646091), wk =   0.0438957
        k(   54) = (   0.2777778   0.3888889   0.2304527), wk =   0.0438957
        k(   55) = (   0.2777778   0.3888889  -0.2962963), wk =   0.0219479
        k(   56) = (   0.2777778  -0.5000000   0.0329218), wk =   0.0219479
        k(   57) = (   0.2777778  -0.5000000   0.0987654), wk =   0.0219479
        k(   58) = (   0.2777778  -0.5000000   0.1646091), wk =   0.0219479
        k(   59) = (   0.2777778  -0.5000000   0.2304527), wk =   0.0219479
        k(   60) = (   0.2777778  -0.5000000  -0.2962963), wk =   0.0109739
        k(   61) = (   0.3888889   0.3888889   0.0329218), wk =   0.0219479
        k(   62) = (   0.3888889   0.3888889   0.0987654), wk =   0.0219479
        k(   63) = (   0.3888889   0.3888889   0.1646091), wk =   0.0219479
        k(   64) = (   0.3888889   0.3888889   0.2304527), wk =   0.0219479
        k(   65) = (   0.3888889   0.3888889  -0.2962963), wk =   0.0109739
        k(   66) = (   0.3888889  -0.5000000   0.0329218), wk =   0.0219479
        k(   67) = (   0.3888889  -0.5000000   0.0987654), wk =   0.0219479
        k(   68) = (   0.3888889  -0.5000000   0.1646091), wk =   0.0219479
        k(   69) = (   0.3888889  -0.5000000   0.2304527), wk =   0.0219479
        k(   70) = (   0.3888889  -0.5000000  -0.2962963), wk =   0.0109739
[...]
     atom   32 type  1   force =     0.00000000   -0.00000343   -0.00318141

     Total force =     0.020210     Total SCF correction =     0.001790

     Computing stress (Cartesian axis) and pressure

          total   stress  (Ry/bohr**3)                   (kbar)     P=      -32.79
  -0.00027968   0.00000000   0.00000000          -41.14        0.00        0.00
   0.00000000  -0.00027968   0.00000000            0.00      -41.14        0.00
   0.00000000   0.00000000  -0.00010942            0.00        0.00      -16.10

     BFGS Geometry Optimization
     Energy error            =      0.0E+00
     Gradient error          =      4.0E-03

     number of scf cycles    =   1
     number of bfgs steps    =   0

     energy   new            =  -16384.0509066432 Ry

     new trust radius        =       0.0039816024 bohr
     new conv_thr            =       0.0000010000 Ry

ATOMIC_POSITIONS (crystal)
Pd            0.0000000000        0.0000000000        0.0001252859
Pd            0.2499999769        0.2499999769        0.0001253420
Pd            0.2499995533        0.0000000000        0.1479920945
Pd            0.0000000000        0.2499995533        0.1479920945
Pd            0.0000000000        0.0000000000        0.7038615701
Pd            0.2499993903        0.2499993903        0.7038615184
Pd            0.2500006457        0.0000000000        0.8517240003
Pd            0.0000000000        0.2500006457        0.8517240003
Pd            0.0000000000        0.5000000000        0.0001257446
Pd            0.2499999769        0.7500000231        0.0001253420
Pd            0.2500003672        0.5000000000        0.1479917794
Pd            0.0000000000        0.7500004467        0.1479920945
Pd            0.0000000000        0.5000000000        0.7038626115
Pd            0.2499993903        0.7500006097        0.7038615184
Pd            0.2500002312        0.5000000000        0.8517248064
Pd            0.0000000000        0.7499993543        0.8517240003
Pd            0.5000000000        0.0000000000        0.0001257446
Pd            0.7500000231        0.2499999769        0.0001253420
Pd            0.7500004467        0.0000000000        0.1479920945
Pd            0.5000000000        0.2500003672        0.1479917794
Pd            0.5000000000        0.0000000000        0.7038626115
Pd            0.7500006097        0.2499993903        0.7038615184
Pd            0.7499993543        0.0000000000        0.8517240003
Pd            0.5000000000        0.2500002312        0.8517248064
Pd            0.5000000000        0.5000000000        0.0001251938
Pd            0.7500000231        0.7500000231        0.0001253420
Pd            0.7499996328        0.5000000000        0.1479917794
Pd            0.5000000000        0.7499996328        0.1479917794
Pd            0.5000000000        0.5000000000        0.7038627037
Pd            0.7500006097        0.7500006097        0.7038615184
Pd            0.7499997688        0.5000000000        0.8517248064
Pd            0.5000000000        0.7499997688        0.8517248064

     Writing output data file /scratch/AMHQTOVVqaEOzRDq.save/
     NEW-OLD atomic charge density approx. for the potential

[...]

     Total force =     0.014925     Total SCF correction =     0.002299
     SCF correction compared to forces is large: reduce conv_thr to get better values

[...]

     Energy error            =      3.8E-04
     Gradient error          =      3.4E-03

[...]

     energy   old            =  -16384.0509066432 Ry
     energy   new            =  -16384.0512832209 Ry

     CASE: energy  _new < energy  _old

[...]

     Total force =     0.007494     Total SCF correction =     0.000567

[...]

     number of scf cycles    =   8
     number of bfgs steps    =   7

     energy   old            =  -16384.0521659985 Ry
     energy   new            =  -16384.0522865403 Ry

     CASE: energy  _new < energy  _old

     new trust radius        =       0.0033448361 bohr
     new conv_thr            =       0.0000000104 Ry

ATOMIC_POSITIONS (crystal)
Pd            0.0000000000        0.0000000000       -0.0000912896
Pd            0.2500002577        0.2500002577       -0.0000902870
Pd            0.2499990961        0.0000000000        0.1463803579
Pd            0.0000000000        0.2499990961        0.1463803579
Pd            0.0000000000        0.0000000000        0.7054788026
Pd            0.2499999110        0.2499999110        0.7054787476
Pd            0.2500014639        0.0000000000        0.8519339937
Pd            0.0000000000        0.2500014639        0.8519339937
Pd            0.0000000000        0.5000000000       -0.0000897995
Pd            0.2500002577        0.7499997423       -0.0000902870
Pd            0.2500013308        0.5000000000        0.1463793721
Pd            0.0000000000        0.7500009039        0.1463803579
Pd            0.0000000000        0.5000000000        0.7054812842
Pd            0.2499999110        0.7500000890        0.7054787476
Pd            0.2500012705        0.5000000000        0.8519348782
Pd            0.0000000000        0.7499985361        0.8519339937
Pd            0.5000000000        0.0000000000       -0.0000897995
Pd            0.7499997423        0.2500002577       -0.0000902870
Pd            0.7500009039        0.0000000000        0.1463803579
Pd            0.5000000000        0.2500013308        0.1463793721
Pd            0.5000000000        0.0000000000        0.7054812842
Pd            0.7500000890        0.2499999110        0.7054787476
Pd            0.7499985361        0.0000000000        0.8519339937
Pd            0.5000000000        0.2500012705        0.8519348782
Pd            0.5000000000        0.5000000000       -0.0000911136
Pd            0.7499997423        0.7499997423       -0.0000902870
Pd            0.7499986692        0.5000000000        0.1463793721
Pd            0.5000000000        0.7499986692        0.1463793721
Pd            0.5000000000        0.5000000000        0.7054820106
Pd            0.7500000890        0.7500000890        0.7054787476
Pd            0.7499987295        0.5000000000        0.8519348782
Pd            0.5000000000        0.7499987295        0.8519348782

     Writing output data file /scratch/AMHQTOVVqaEOzRDq.save/
     NEW-OLD atomic charge density approx. for the potential

     Check: negative core charge=   -0.000001

     Self-consistent Calculation

[...]

     Threshold (ethr) on eigenvalues was too large:
     Diagonalizing with lowered threshold

     Davidson diagonalization with overlap
     ethr =  5.85E-09,  avg # of iterations =  3.2

[...]

     total energy              =  -16384.05231624 Ry
     estimated scf accuracy    <       0.00000002 Ry

     iteration # 10     ecut=    71.00 Ry     beta= 0.10
     Davidson diagonalization with overlap
     ethr =  2.96E-12,  avg # of iterations =  2.0

     End of self-consistent calculation

[...]

          k = 0.3889-0.5000-0.2963 ( 55680 PWs)   bands (ev):

[...]

          k =-0.5000-0.5000-0.2963 ( 55624 PWs)   bands (ev):

   -74.8236 -74.8236 -74.8236 -74.8236 -74.8007 -74.8007 -74.8007 -74.8006
   -74.7959 -74.7959 -74.7959 -74.7959 -74.7958 -74.7957 -74.7957 -74.7957
   -74.2365 -74.2365 -74.2365 -74.2364 -74.2362 -74.2362 -74.2362 -74.2362
   -74.2205 -74.2205 -74.2205 -74.2205 -74.2202 -74.2202 -74.2202 -74.2202
   -40.6495 -40.6494 -40.6494 -40.6494 -40.6494 -40.6494 -40.6494 -40.6493
   -40.6386 -40.6386 -40.6386 -40.6386 -40.5860 -40.5860 -40.5860 -40.5860
   -40.5261 -40.5261 -40.5261 -40.5261 -40.5260 -40.5260 -40.5260 -40.5260
   -40.4837 -40.4837 -40.4837 -40.4837 -40.4822 -40.4822 -40.4822 -40.4821
   -40.4821 -40.4821 -40.4821 -40.4820 -40.4623 -40.4623 -40.4623 -40.4623
   -40.4398 -40.4398 -40.4398 -40.4398 -40.3898 -40.3898 -40.3898 -40.3898
   -40.1107 -40.1107 -40.1107 -40.1107 -40.1105 -40.1105 -40.1105 -40.1105
   -40.0276 -40.0276 -40.0276 -40.0276 -40.0248 -40.0248 -40.0248 -40.0248
   -40.0132 -40.0132 -40.0132 -40.0132 -40.0130 -40.0130 -40.0130 -40.0130
   -39.9247 -39.9247 -39.9247 -39.9247 -39.9244 -39.9244 -39.9244 -39.9244
   -39.8381 -39.8381 -39.8381 -39.8380 -39.8373 -39.8373 -39.8373 -39.8373
   -39.8262 -39.8262 -39.8262 -39.8262 -39.8260 -39.8260 -39.8260 -39.8260
     4.0789   4.0790   4.0790   4.0790   4.7044   4.7044   4.7044   4.7044
     5.0311   5.0311   5.0311   5.0311   5.0313   5.0313   5.0313   5.0313
     5.1402   5.1402   5.1402   5.1402   5.2024   5.2024   5.2024   5.2024
     5.2025   5.2025   5.2025   5.2025   5.2885   5.2885   5.2885   5.2885
     5.5814   5.5814   5.5814   5.5814   5.8949   5.8950   5.8950   5.8950
     5.8953   5.8953   5.8953   5.8954   6.2042   6.2042   6.2042   6.2042
     6.2043   6.2044   6.2044   6.2044   6.3762   6.3762   6.3762   6.3762
     6.6099   6.6099   6.6099   6.6099   6.8678   6.8678   6.8678   6.8678
     6.9801   6.9801   6.9801   6.9801   6.9877   6.9877   6.9877   6.9877
     7.0694   7.0695   7.0695   7.0695   7.1825   7.1825   7.1825   7.1825
     7.1826   7.1826   7.1826   7.1826   7.2085   7.2085   7.2085   7.2085
     7.5258   7.5258   7.5259   7.5259   7.6571   7.6571   7.6572   7.6572
     7.7807   7.7807   7.7807   7.7807   7.7808   7.7808   7.7809   7.7809
     7.8161   7.8161   7.8161   7.8161   7.8163   7.8163   7.8163   7.8163
     7.8276   7.8276   7.8276   7.8277   8.0504   8.0504   8.0504   8.0504
     8.3974   8.3974   8.3974   8.3974   8.3974   8.3974   8.3974   8.3974
     8.4072   8.4072   8.4072   8.4072   8.5225   8.5225   8.5225   8.5225
     8.6577   8.6577   8.6577   8.6577   8.8677   8.8677   8.8677   8.8677
     8.9978   8.9978   8.9978   8.9978   8.9978   8.9978   8.9978   8.9979
     9.2925   9.2925   9.2925   9.2925   9.3423   9.3423   9.3423   9.3423
     9.3423   9.3423   9.3423   9.3423   9.3608   9.3608   9.3608   9.3608
    10.1624  10.1624  10.1624  10.1624  12.4179  12.4179  12.4179  12.4179
    12.5939  12.5939  12.5939  12.5939  12.5939  12.5940  12.5940  12.5940
    13.7215  13.7215  13.7215  13.7215  13.7216  13.7216  13.7216  13.7216
    14.8903  14.8903  14.8903  14.8903  15.7477  15.7477  15.7477  15.7477
    15.7478  15.7478  15.7478  15.7478  16.0164  16.0164  16.0164  16.0164
    17.9495  17.9495  17.9495  17.9495  18.0776  18.0776  18.0777  18.0778
    18.0778  18.0778

     the Fermi energy is     9.3566 ev

!    total energy              =  -16384.05231629 Ry

     total all-electron energy =   -322944.906023 Ry
     estimated scf accuracy    <          2.2E-09 Ry
     smearing contrib. (-TS)   =       0.11995223 Ry
     internal energy E=F+TS    =  -16384.17226852 Ry

     The total energy is F=E-TS. E is the sum of the following terms:
     one-electron contribution =  -16716.21453040 Ry
     hartree contribution      =    8570.51902706 Ry
     xc contribution           =    -985.50672647 Ry
     ewald contribution        =     914.36693425 Ry
     one-center paw contrib.   =   -8167.33697296 Ry

     convergence has been achieved in  10 iterations

     Forces acting on atoms (cartesian axes, Ry/au):

     atom    1 type  1   force =     0.00000000    0.00000000   -0.00031439
     atom    2 type  1   force =    -0.00000411   -0.00000411   -0.00031440
     atom    3 type  1   force =     0.00000027    0.00000000    0.00014847
     atom    4 type  1   force =     0.00000000    0.00000027    0.00014847
     atom    5 type  1   force =     0.00000000    0.00000000   -0.00017947
     atom    6 type  1   force =    -0.00000091   -0.00000091   -0.00018159
     atom    7 type  1   force =    -0.00000668    0.00000000    0.00034933
     atom    8 type  1   force =     0.00000000   -0.00000668    0.00034933
     atom    9 type  1   force =     0.00000000    0.00000000   -0.00031476
     atom   10 type  1   force =    -0.00000411    0.00000411   -0.00031440
     atom   11 type  1   force =    -0.00000364    0.00000000    0.00015296
     atom   12 type  1   force =     0.00000000   -0.00000027    0.00014847
     atom   13 type  1   force =     0.00000000    0.00000000   -0.00018870
     atom   14 type  1   force =    -0.00000091    0.00000091   -0.00018159
     atom   15 type  1   force =    -0.00000644    0.00000000    0.00034626
     atom   16 type  1   force =     0.00000000    0.00000668    0.00034933
     atom   17 type  1   force =     0.00000000    0.00000000   -0.00031476
     atom   18 type  1   force =     0.00000411   -0.00000411   -0.00031440
     atom   19 type  1   force =    -0.00000027    0.00000000    0.00014847
     atom   20 type  1   force =     0.00000000   -0.00000364    0.00015296
     atom   21 type  1   force =     0.00000000    0.00000000   -0.00018870
     atom   22 type  1   force =     0.00000091   -0.00000091   -0.00018159
     atom   23 type  1   force =     0.00000668    0.00000000    0.00034933
     atom   24 type  1   force =     0.00000000   -0.00000644    0.00034626
     atom   25 type  1   force =     0.00000000    0.00000000   -0.00031038
     atom   26 type  1   force =     0.00000411    0.00000411   -0.00031440
     atom   27 type  1   force =     0.00000364    0.00000000    0.00015296
     atom   28 type  1   force =     0.00000000    0.00000364    0.00015296
     atom   29 type  1   force =     0.00000000    0.00000000   -0.00019294
     atom   30 type  1   force =     0.00000091    0.00000091   -0.00018159
     atom   31 type  1   force =     0.00000644    0.00000000    0.00034626
     atom   32 type  1   force =     0.00000000    0.00000644    0.00034626

     Total force =     0.001487     Total SCF correction =     0.000281
     SCF correction compared to forces is large: reduce conv_thr to get better values

     Computing stress (Cartesian axis) and pressure

          total   stress  (Ry/bohr**3)                   (kbar)     P=      -26.74
  -0.00024362   0.00000000   0.00000000          -35.84        0.00        0.00
   0.00000000  -0.00024362   0.00000000            0.00      -35.84        0.00
   0.00000000   0.00000000  -0.00005815            0.00        0.00       -8.55

     Energy error            =      3.0E-05
     Gradient error          =      3.5E-04

     bfgs converged in   9 scf cycles and   8 bfgs steps
     (criteria: energy <  1.0E-04 Ry, force <  1.0E-03 Ry/Bohr)

     End of BFGS Geometry Optimization

     Final energy   =  -16384.0523162914 Ry

     File /scratch/AMHQTOVVqaEOzRDq.bfgs deleted, as requested
Begin final coordinates

ATOMIC_POSITIONS (crystal)
Pd            0.0000000000        0.0000000000       -0.0000912896
Pd            0.2500002577        0.2500002577       -0.0000902870
Pd            0.2499990961        0.0000000000        0.1463803579
Pd            0.0000000000        0.2499990961        0.1463803579
Pd            0.0000000000        0.0000000000        0.7054788026
Pd            0.2499999110        0.2499999110        0.7054787476
Pd            0.2500014639        0.0000000000        0.8519339937
Pd            0.0000000000        0.2500014639        0.8519339937
Pd            0.0000000000        0.5000000000       -0.0000897995
Pd            0.2500002577        0.7499997423       -0.0000902870
Pd            0.2500013308        0.5000000000        0.1463793721
Pd            0.0000000000        0.7500009039        0.1463803579
Pd            0.0000000000        0.5000000000        0.7054812842
Pd            0.2499999110        0.7500000890        0.7054787476
Pd            0.2500012705        0.5000000000        0.8519348782
Pd            0.0000000000        0.7499985361        0.8519339937
Pd            0.5000000000        0.0000000000       -0.0000897995
Pd            0.7499997423        0.2500002577       -0.0000902870
Pd            0.7500009039        0.0000000000        0.1463803579
Pd            0.5000000000        0.2500013308        0.1463793721
Pd            0.5000000000        0.0000000000        0.7054812842
Pd            0.7500000890        0.2499999110        0.7054787476
Pd            0.7499985361        0.0000000000        0.8519339937
Pd            0.5000000000        0.2500012705        0.8519348782
Pd            0.5000000000        0.5000000000       -0.0000911136
Pd            0.7499997423        0.7499997423       -0.0000902870
Pd            0.7499986692        0.5000000000        0.1463793721
Pd            0.5000000000        0.7499986692        0.1463793721
Pd            0.5000000000        0.5000000000        0.7054820106
Pd            0.7500000890        0.7500000890        0.7054787476
Pd            0.7499987295        0.5000000000        0.8519348782
Pd            0.5000000000        0.7499987295        0.8519348782
End final coordinates

     Writing output data file /scratch/AMHQTOVVqaEOzRDq.save/

     General routines

     Parallel routines

   This run was terminated on:  16:52:45   8Jan2022

   JOB DONE.