     Program PWSCF v.6.7MaX starts on  7Jan2022 at 23: 7:24

     R & G space division:  proc/nbgrp/npool/nimage =      72
     Reading input from relax_22.in
Warning: card &CELL ignored
Warning: card CELL_DYNAMICS = 'BFGS', ignored
Warning: card CELL_FACTOR = 2.0, ignored
Warning: card PRESS = 0.0, ignored
Warning: card / ignored

     Current dimensions of program PWSCF are:
     Max number of different atomic species (ntypx) = 10
     Max number of k-points (npk) =  40000
     Max angular momentum in pseudopotentials (lmaxx) =  3
     file Pd.pbe-spn-kjpaw_psl.1.0.0.UPF: wavefunction(s)  4S 5S 4D renormalized

     Subspace diagonalization in iterative solution of the eigenvalue problem:
     one sub-group per band group will be used

     Found symmetry operation: I + (  0.2500  0.2500  0.0000)
     This is a supercell, fractional translations are disabled
     Message from routine setup:
     using ibrav=0 with symmetry is DISCOURAGED, use correct ibrav instead

     bravais-lattice index     =            0
     lattice parameter (alat)  =      14.8394  a.u.
     unit-cell volume          =    5412.2353 (a.u.)^3
     number of atoms/cell      =           32
     number of atomic types    =            1
     number of electrons       =       576.00
     number of Kohn-Sham states=          346
     kinetic-energy cutoff     =      71.0000  Ry
     charge density cutoff     =     430.0000  Ry
     scf convergence threshold =      1.0E-06
     mixing beta               =       0.1000
     number of iterations used =           10  TF        mixing
     energy convergence thresh.=      1.0E-04
     force convergence thresh. =      1.0E-03
     Exchange-correlation= SLA  PW   PBX  PBC
                           (   1   4   3   4   0   0   0)
     nstep                     =           40

     celldm(1)=  14.839420  celldm(2)=   0.000000  celldm(3)=   0.000000
     celldm(4)=   0.000000  celldm(5)=   0.000000  celldm(6)=   0.000000

     crystal axes: (cart. coord. in units of alat)
               a(1) = (   1.000000   0.000000   0.000000 )
               a(2) = (   0.000000   1.000000   0.000000 )
               a(3) = (   0.000000   0.000000   1.656250 )

     reciprocal axes: (cart. coord. in units 2 pi/alat)
               b(1) = (  1.000000  0.000000  0.000000 )
               b(2) = (  0.000000  1.000000  0.000000 )
               b(3) = (  0.000000  0.000000  0.603774 )

     PseudoPot. # 1 for Pd read from file:
     /rds/homes/b/bxp912/pp/Pd.pbe-spn-kjpaw_psl.1.0.0.UPF
     MD5 check sum: 790f2ebce206edfd9790dcb9844eca51
     Pseudo is Projector augmented-wave + core cor, Zval = 18.0
     Generated using &quot;atomic&quot; code by A. Dal Corso  v.6.3
     Shape of augmentation charge: PSQ
     Using radial grid of 1235 points,  6 beta functions with:
                l(1) =   0
                l(2) =   0
                l(3) =   1
                l(4) =   1
                l(5) =   2
                l(6) =   2
     Q(r) pseudized with 0 coefficients

     atomic species   valence    mass     pseudopotential
        Pd            18.00   106.42000     Pd( 1.00)

      8 Sym. Ops. (no inversion) found

   Cartesian axes

     site n.     atom                  positions (alat units)
         1           Pd  tau(   1) = (   0.0000000   0.0000000   0.0000000  )
         2           Pd  tau(   2) = (   0.2500000   0.2500000   0.0000000  )
         3           Pd  tau(   3) = (   0.2500000   0.0000000   0.2500000  )
         4           Pd  tau(   4) = (   0.0000000   0.2500000   0.2500000  )
         5           Pd  tau(   5) = (   0.0000000   0.0000000   1.1562500  )
         6           Pd  tau(   6) = (   0.2500000   0.2500000   1.1562500  )
         7           Pd  tau(   7) = (   0.2500000   0.0000000   1.4062500  )
         8           Pd  tau(   8) = (   0.0000000   0.2500000   1.4062500  )
         9           Pd  tau(   9) = (   0.0000000   0.5000000   0.0000000  )
        10           Pd  tau(  10) = (   0.2500000   0.7500000   0.0000000  )
        11           Pd  tau(  11) = (   0.2500000   0.5000000   0.2500000  )
        12           Pd  tau(  12) = (   0.0000000   0.7500000   0.2500000  )
        13           Pd  tau(  13) = (   0.0000000   0.5000000   1.1562500  )
        14           Pd  tau(  14) = (   0.2500000   0.7500000   1.1562500  )
        15           Pd  tau(  15) = (   0.2500000   0.5000000   1.4062500  )
        16           Pd  tau(  16) = (   0.0000000   0.7500000   1.4062500  )
        17           Pd  tau(  17) = (   0.5000000   0.0000000   0.0000000  )
        18           Pd  tau(  18) = (   0.7500000   0.2500000   0.0000000  )
        19           Pd  tau(  19) = (   0.7500000   0.0000000   0.2500000  )
        20           Pd  tau(  20) = (   0.5000000   0.2500000   0.2500000  )
        21           Pd  tau(  21) = (   0.5000000   0.0000000   1.1562500  )
        22           Pd  tau(  22) = (   0.7500000   0.2500000   1.1562500  )
        23           Pd  tau(  23) = (   0.7500000   0.0000000   1.4062500  )
        24           Pd  tau(  24) = (   0.5000000   0.2500000   1.4062500  )
        25           Pd  tau(  25) = (   0.5000000   0.5000000   0.0000000  )
        26           Pd  tau(  26) = (   0.7500000   0.7500000   0.0000000  )
        27           Pd  tau(  27) = (   0.7500000   0.5000000   0.2500000  )
        28           Pd  tau(  28) = (   0.5000000   0.7500000   0.2500000  )
        29           Pd  tau(  29) = (   0.5000000   0.5000000   1.1562500  )
        30           Pd  tau(  30) = (   0.7500000   0.7500000   1.1562500  )
        31           Pd  tau(  31) = (   0.7500000   0.5000000   1.4062500  )
        32           Pd  tau(  32) = (   0.5000000   0.7500000   1.4062500  )

     number of k points=    75  Marzari-Vanderbilt smearing, width (Ry)=  0.0400
                       cart. coord. in units 2pi/alat
        k(    1) = (   0.0555556   0.0555556   0.0335430), wk =   0.0219479
        k(    2) = (   0.0555556   0.0555556   0.1006289), wk =   0.0219479
        k(    3) = (   0.0555556   0.0555556   0.1677149), wk =   0.0219479
        k(    4) = (   0.0555556   0.0555556   0.2348008), wk =   0.0219479
        k(    5) = (   0.0555556   0.0555556  -0.3018868), wk =   0.0109739
        k(    6) = (   0.0555556   0.1666667   0.0335430), wk =   0.0438957
        k(    7) = (   0.0555556   0.1666667   0.1006289), wk =   0.0438957
        k(    8) = (   0.0555556   0.1666667   0.1677149), wk =   0.0438957
        k(    9) = (   0.0555556   0.1666667   0.2348008), wk =   0.0438957
        k(   10) = (   0.0555556   0.1666667  -0.3018868), wk =   0.0219479
        k(   11) = (   0.0555556   0.2777778   0.0335430), wk =   0.0438957
        k(   12) = (   0.0555556   0.2777778   0.1006289), wk =   0.0438957
        k(   13) = (   0.0555556   0.2777778   0.1677149), wk =   0.0438957
        k(   14) = (   0.0555556   0.2777778   0.2348008), wk =   0.0438957
        k(   15) = (   0.0555556   0.2777778  -0.3018868), wk =   0.0219479
        k(   16) = (   0.0555556   0.3888889   0.0335430), wk =   0.0438957
        k(   17) = (   0.0555556   0.3888889   0.1006289), wk =   0.0438957
        k(   18) = (   0.0555556   0.3888889   0.1677149), wk =   0.0438957
        k(   19) = (   0.0555556   0.3888889   0.2348008), wk =   0.0438957
        k(   20) = (   0.0555556   0.3888889  -0.3018868), wk =   0.0219479
        k(   21) = (   0.0555556  -0.5000000   0.0335430), wk =   0.0219479
        k(   22) = (   0.0555556  -0.5000000   0.1006289), wk =   0.0219479
        k(   23) = (   0.0555556  -0.5000000   0.1677149), wk =   0.0219479
        k(   24) = (   0.0555556  -0.5000000   0.2348008), wk =   0.0219479
        k(   25) = (   0.0555556  -0.5000000  -0.3018868), wk =   0.0109739
        k(   26) = (   0.1666667   0.1666667   0.0335430), wk =   0.0219479
        k(   27) = (   0.1666667   0.1666667   0.1006289), wk =   0.0219479
        k(   28) = (   0.1666667   0.1666667   0.1677149), wk =   0.0219479
        k(   29) = (   0.1666667   0.1666667   0.2348008), wk =   0.0219479
        k(   30) = (   0.1666667   0.1666667  -0.3018868), wk =   0.0109739
        k(   31) = (   0.1666667   0.2777778   0.0335430), wk =   0.0438957
        k(   32) = (   0.1666667   0.2777778   0.1006289), wk =   0.0438957
        k(   33) = (   0.1666667   0.2777778   0.1677149), wk =   0.0438957
        k(   34) = (   0.1666667   0.2777778   0.2348008), wk =   0.0438957
        k(   35) = (   0.1666667   0.2777778  -0.3018868), wk =   0.0219479
        k(   36) = (   0.1666667   0.3888889   0.0335430), wk =   0.0438957
        k(   37) = (   0.1666667   0.3888889   0.1006289), wk =   0.0438957
        k(   38) = (   0.1666667   0.3888889   0.1677149), wk =   0.0438957
        k(   39) = (   0.1666667   0.3888889   0.2348008), wk =   0.0438957
        k(   40) = (   0.1666667   0.3888889  -0.3018868), wk =   0.0219479
        k(   41) = (   0.1666667  -0.5000000   0.0335430), wk =   0.0219479
        k(   42) = (   0.1666667  -0.5000000   0.1006289), wk =   0.0219479
        k(   43) = (   0.1666667  -0.5000000   0.1677149), wk =   0.0219479
        k(   44) = (   0.1666667  -0.5000000   0.2348008), wk =   0.0219479
        k(   45) = (   0.1666667  -0.5000000  -0.3018868), wk =   0.0109739
        k(   46) = (   0.2777778   0.2777778   0.0335430), wk =   0.0219479
        k(   47) = (   0.2777778   0.2777778   0.1006289), wk =   0.0219479
        k(   48) = (   0.2777778   0.2777778   0.1677149), wk =   0.0219479
        k(   49) = (   0.2777778   0.2777778   0.2348008), wk =   0.0219479
        k(   50) = (   0.2777778   0.2777778  -0.3018868), wk =   0.0109739
        k(   51) = (   0.2777778   0.3888889   0.0335430), wk =   0.0438957
        k(   52) = (   0.2777778   0.3888889   0.1006289), wk =   0.0438957
        k(   53) = (   0.2777778   0.3888889   0.1677149), wk =   0.0438957
        k(   54) = (   0.2777778   0.3888889   0.2348008), wk =   0.0438957
        k(   55) = (   0.2777778   0.3888889  -0.3018868), wk =   0.0219479
        k(   56) = (   0.2777778  -0.5000000   0.0335430), wk =   0.0219479
        k(   57) = (   0.2777778  -0.5000000   0.1006289), wk =   0.0219479
        k(   58) = (   0.2777778  -0.5000000   0.1677149), wk =   0.0219479
        k(   59) = (   0.2777778  -0.5000000   0.2348008), wk =   0.0219479
        k(   60) = (   0.2777778  -0.5000000  -0.3018868), wk =   0.0109739
        k(   61) = (   0.3888889   0.3888889   0.0335430), wk =   0.0219479
        k(   62) = (   0.3888889   0.3888889   0.1006289), wk =   0.0219479
        k(   63) = (   0.3888889   0.3888889   0.1677149), wk =   0.0219479
        k(   64) = (   0.3888889   0.3888889   0.2348008), wk =   0.0219479
        k(   65) = (   0.3888889   0.3888889  -0.3018868), wk =   0.0109739
        k(   66) = (   0.3888889  -0.5000000   0.0335430), wk =   0.0219479
        k(   67) = (   0.3888889  -0.5000000   0.1006289), wk =   0.0219479
        k(   68) = (   0.3888889  -0.5000000   0.1677149), wk =   0.0219479
        k(   69) = (   0.3888889  -0.5000000   0.2348008), wk =   0.0219479
        k(   70) = (   0.3888889  -0.5000000  -0.3018868), wk =   0.0109739
[...]
     SCF correction compared to forces is large: reduce conv_thr to get better values

     Computing stress (Cartesian axis) and pressure

          total   stress  (Ry/bohr**3)                   (kbar)     P=      -33.46
  -0.00028489   0.00000000   0.00000000          -41.91        0.00        0.00
   0.00000000  -0.00028489   0.00000000            0.00      -41.91        0.00
   0.00000000   0.00000000  -0.00011258            0.00        0.00      -16.56

     BFGS Geometry Optimization
     Energy error            =      0.0E+00
     Gradient error          =      3.9E-03

     number of scf cycles    =   1
     number of bfgs steps    =   0

     energy   new            =  -16384.0510635677 Ry

     new trust radius        =       0.0038702670 bohr
     new conv_thr            =       0.0000010000 Ry

ATOMIC_POSITIONS (crystal)
Pd            0.0000000000        0.0000000000        0.0001278637
Pd            0.2500000041        0.2500000041        0.0001271961
Pd            0.2499989174        0.0000000000        0.1507862697
Pd            0.0000000000        0.2499989174        0.1507862697
Pd            0.0000000000        0.0000000000        0.6982688798
Pd            0.2500006395        0.2500006395        0.6982693687
Pd            0.2500007700        0.0000000000        0.8489300414
Pd            0.0000000000        0.2500007700        0.8489300414
Pd            0.0000000000        0.5000000000        0.0001275092
Pd            0.2500000041        0.7499999959        0.0001271961
Pd            0.2500002406        0.5000000000        0.1507861963
Pd            0.0000000000        0.7500010826        0.1507862697
Pd            0.0000000000        0.5000000000        0.6982698323
Pd            0.2500006395        0.7499993605        0.6982693687
Pd            0.2500013791        0.5000000000        0.8489301350
Pd            0.0000000000        0.7499992300        0.8489300414
Pd            0.5000000000        0.0000000000        0.0001275092
Pd            0.7499999959        0.2500000041        0.0001271961
Pd            0.7500010826        0.0000000000        0.1507862697
Pd            0.5000000000        0.2500002406        0.1507861963
Pd            0.5000000000        0.0000000000        0.6982698323
Pd            0.7499993605        0.2500006395        0.6982693687
Pd            0.7499992300        0.0000000000        0.8489300414
Pd            0.5000000000        0.2500013791        0.8489301350
Pd            0.5000000000        0.5000000000        0.0001267282
Pd            0.7499999959        0.7499999959        0.0001271961
Pd            0.7499997594        0.5000000000        0.1507861963
Pd            0.5000000000        0.7499997594        0.1507861963
Pd            0.5000000000        0.5000000000        0.6982706777
Pd            0.7499993605        0.7499993605        0.6982693687
Pd            0.7499986209        0.5000000000        0.8489301350
Pd            0.5000000000        0.7499986209        0.8489301350

     Writing output data file /scratch/EkXGkfVrBBpDrfNJ.save/
     NEW-OLD atomic charge density approx. for the potential

[...]

     Energy error            =      3.7E-04
     Gradient error          =      3.5E-03

[...]

     energy   old            =  -16384.0510635677 Ry
     energy   new            =  -16384.0514333781 Ry

     CASE: energy  _new < energy  _old

[...]

     Total force =     0.012688     Total SCF correction =     0.000773

[...]

     WARNING: bfgs curvature condition failed, Theta= 0.959
     new trust radius        =       0.0040906439 bohr
     new conv_thr            =       0.0000000100 Ry

[...]

     Total force =     0.004969     Total SCF correction =     0.000359

[...]

     number of scf cycles    =   8
     number of bfgs steps    =   7

     energy   old            =  -16384.0522964499 Ry
     energy   new            =  -16384.0524133124 Ry

     CASE: energy  _new < energy  _old

     new trust radius        =       0.0054744802 bohr
     new conv_thr            =       0.0000000117 Ry

ATOMIC_POSITIONS (crystal)
Pd            0.0000000000        0.0000000000       -0.0000843928
Pd            0.2500002089        0.2500002089       -0.0000845959
Pd            0.2499970087        0.0000000000        0.1491947129
Pd            0.0000000000        0.2499970087        0.1491947129
Pd            0.0000000000        0.0000000000        0.6998659098
Pd            0.2500058187        0.2500058187        0.6998648470
Pd            0.2500030484        0.0000000000        0.8491379497
Pd            0.0000000000        0.2500030484        0.8491379497
Pd            0.0000000000        0.5000000000       -0.0000844746
Pd            0.2500002089        0.7499997911       -0.0000845959
Pd            0.2499991012        0.5000000000        0.1491939204
Pd            0.0000000000        0.7500029913        0.1491947129
Pd            0.0000000000        0.5000000000        0.6998663786
Pd            0.2500058187        0.7499941813        0.6998648470
Pd            0.2500031314        0.5000000000        0.8491381796
Pd            0.0000000000        0.7499969516        0.8491379497
Pd            0.5000000000        0.0000000000       -0.0000844746
Pd            0.7499997911        0.2500002089       -0.0000845959
Pd            0.7500029913        0.0000000000        0.1491947129
Pd            0.5000000000        0.2499991012        0.1491939204
Pd            0.5000000000        0.0000000000        0.6998663786
Pd            0.7499941813        0.2500058187        0.6998648470
Pd            0.7499969516        0.0000000000        0.8491379497
Pd            0.5000000000        0.2500031314        0.8491381796
Pd            0.5000000000        0.5000000000       -0.0000861986
Pd            0.7499997911        0.7499997911       -0.0000845959
Pd            0.7500008988        0.5000000000        0.1491939204
Pd            0.5000000000        0.7500008988        0.1491939204
Pd            0.5000000000        0.5000000000        0.6998664792
Pd            0.7499941813        0.7499941813        0.6998648470
Pd            0.7499968686        0.5000000000        0.8491381796
Pd            0.5000000000        0.7499968686        0.8491381796

     Writing output data file /scratch/EkXGkfVrBBpDrfNJ.save/
     NEW-OLD atomic charge density approx. for the potential

     Check: negative core charge=   -0.000001

     Self-consistent Calculation

[...]

     Threshold (ethr) on eigenvalues was too large:
     Diagonalizing with lowered threshold

     Davidson diagonalization with overlap
     ethr =  3.81E-08,  avg # of iterations =  2.1

[...]

     total energy              =  -16384.05247502 Ry
     estimated scf accuracy    <       0.00000002 Ry

     iteration # 11     ecut=    71.00 Ry     beta= 0.10
     Davidson diagonalization with overlap
     ethr =  2.99E-12,  avg # of iterations =  2.0

     End of self-consistent calculation

[...]

          k = 0.3889-0.5000-0.3019 ( 54716 PWs)   bands (ev):

[...]

          k =-0.5000-0.5000-0.3019 ( 54728 PWs)   bands (ev):

   -74.5507 -74.5507 -74.5507 -74.5506 -74.5278 -74.5277 -74.5277 -74.5277
   -74.5230 -74.5229 -74.5229 -74.5229 -74.5229 -74.5229 -74.5229 -74.5229
   -73.9636 -73.9636 -73.9636 -73.9635 -73.9635 -73.9635 -73.9635 -73.9634
   -73.9476 -73.9476 -73.9476 -73.9475 -73.9475 -73.9475 -73.9475 -73.9475
   -40.3765 -40.3765 -40.3765 -40.3765 -40.3765 -40.3765 -40.3765 -40.3765
   -40.3658 -40.3657 -40.3657 -40.3657 -40.3131 -40.3131 -40.3131 -40.3131
   -40.2532 -40.2532 -40.2532 -40.2531 -40.2531 -40.2531 -40.2531 -40.2531
   -40.2108 -40.2108 -40.2108 -40.2108 -40.2093 -40.2093 -40.2093 -40.2092
   -40.2092 -40.2092 -40.2092 -40.2092 -40.1894 -40.1894 -40.1894 -40.1894
   -40.1669 -40.1669 -40.1669 -40.1669 -40.1169 -40.1169 -40.1169 -40.1169
   -39.8379 -39.8379 -39.8379 -39.8379 -39.8379 -39.8378 -39.8378 -39.8378
   -39.7548 -39.7548 -39.7548 -39.7548 -39.7520 -39.7520 -39.7520 -39.7520
   -39.7403 -39.7403 -39.7403 -39.7403 -39.7402 -39.7402 -39.7402 -39.7402
   -39.6518 -39.6518 -39.6518 -39.6518 -39.6517 -39.6517 -39.6517 -39.6517
   -39.5654 -39.5654 -39.5654 -39.5653 -39.5645 -39.5645 -39.5645 -39.5645
   -39.5534 -39.5534 -39.5534 -39.5533 -39.5533 -39.5533 -39.5533 -39.5533
     4.3525   4.3526   4.3526   4.3526   4.9779   4.9779   4.9779   4.9779
     5.3048   5.3048   5.3048   5.3048   5.3049   5.3049   5.3049   5.3049
     5.4138   5.4139   5.4139   5.4139   5.4759   5.4760   5.4760   5.4760
     5.4761   5.4761   5.4761   5.4761   5.5623   5.5623   5.5623   5.5623
     5.8551   5.8551   5.8551   5.8551   6.1689   6.1690   6.1690   6.1690
     6.1691   6.1691   6.1691   6.1691   6.4777   6.4778   6.4778   6.4779
     6.4779   6.4779   6.4779   6.4780   6.6496   6.6497   6.6497   6.6497
     6.8829   6.8830   6.8830   6.8830   7.1405   7.1405   7.1405   7.1405
     7.2538   7.2538   7.2538   7.2538   7.2598   7.2598   7.2598   7.2598
     7.3423   7.3424   7.3424   7.3424   7.4558   7.4558   7.4558   7.4558
     7.4559   7.4559   7.4559   7.4559   7.4824   7.4824   7.4824   7.4824
     7.7981   7.7981   7.7981   7.7981   7.9296   7.9296   7.9296   7.9296
     8.0535   8.0535   8.0535   8.0535   8.0536   8.0536   8.0536   8.0536
     8.0887   8.0887   8.0887   8.0887   8.0888   8.0888   8.0888   8.0888
     8.1014   8.1014   8.1014   8.1014   8.3241   8.3241   8.3241   8.3241
     8.6696   8.6696   8.6696   8.6696   8.6696   8.6696   8.6696   8.6696
     8.6798   8.6798   8.6798   8.6798   8.7926   8.7926   8.7926   8.7926
     8.9303   8.9303   8.9303   8.9303   9.1401   9.1401   9.1401   9.1401
     9.2704   9.2704   9.2704   9.2704   9.2704   9.2704   9.2704   9.2704
     9.5646   9.5646   9.5646   9.5646   9.6147   9.6147   9.6147   9.6147
     9.6147   9.6147   9.6147   9.6147   9.6329   9.6329   9.6329   9.6329
    10.4415  10.4415  10.4415  10.4415  12.6708  12.6708  12.6708  12.6708
    12.8669  12.8669  12.8669  12.8669  12.8669  12.8669  12.8669  12.8669
    13.9927  13.9927  13.9927  13.9927  13.9927  13.9927  13.9927  13.9927
    15.2108  15.2108  15.2108  15.2108  16.0230  16.0230  16.0230  16.0230
    16.0230  16.0230  16.0230  16.0230  16.4164  16.4164  16.4164  16.4164
    18.2229  18.2230  18.2230  18.2230  18.3343  18.3343  18.3344  18.3344
    18.3344  18.3345

     the Fermi energy is     9.6289 ev

!    total energy              =  -16384.05247506 Ry

     total all-electron energy =   -322944.906182 Ry
     estimated scf accuracy    <       0.00000001 Ry
     smearing contrib. (-TS)   =       0.12004736 Ry
     internal energy E=F+TS    =  -16384.17252242 Ry

     The total energy is F=E-TS. E is the sum of the following terms:
     one-electron contribution =  -15740.51816008 Ry
     hartree contribution      =    8088.44949358 Ry
     xc contribution           =    -985.50278322 Ry
     ewald contribution        =     420.73567215 Ry
     one-center paw contrib.   =   -8167.33674486 Ry

     convergence has been achieved in  11 iterations

     Forces acting on atoms (cartesian axes, Ry/au):

     atom    1 type  1   force =     0.00000000    0.00000000   -0.00024745
     atom    2 type  1   force =     0.00000030    0.00000030   -0.00023662
     atom    3 type  1   force =     0.00000698    0.00000000    0.00009476
     atom    4 type  1   force =     0.00000000    0.00000698    0.00009476
     atom    5 type  1   force =     0.00000000    0.00000000   -0.00010702
     atom    6 type  1   force =    -0.00000854   -0.00000854   -0.00011038
     atom    7 type  1   force =    -0.00000824    0.00000000    0.00024994
     atom    8 type  1   force =     0.00000000   -0.00000824    0.00024994
     atom    9 type  1   force =     0.00000000    0.00000000   -0.00023563
     atom   10 type  1   force =     0.00000030   -0.00000030   -0.00023662
     atom   11 type  1   force =     0.00000264    0.00000000    0.00009436
     atom   12 type  1   force =     0.00000000   -0.00000698    0.00009476
     atom   13 type  1   force =     0.00000000    0.00000000   -0.00011483
     atom   14 type  1   force =    -0.00000854    0.00000854   -0.00011038
     atom   15 type  1   force =    -0.00000934    0.00000000    0.00025804
     atom   16 type  1   force =     0.00000000    0.00000824    0.00024994
     atom   17 type  1   force =     0.00000000    0.00000000   -0.00023563
     atom   18 type  1   force =    -0.00000030    0.00000030   -0.00023662
     atom   19 type  1   force =    -0.00000698    0.00000000    0.00009476
     atom   20 type  1   force =     0.00000000    0.00000264    0.00009436
     atom   21 type  1   force =     0.00000000    0.00000000   -0.00011483
     atom   22 type  1   force =     0.00000854   -0.00000854   -0.00011038
     atom   23 type  1   force =     0.00000824    0.00000000    0.00024994
     atom   24 type  1   force =     0.00000000   -0.00000934    0.00025804
     atom   25 type  1   force =     0.00000000    0.00000000   -0.00022297
     atom   26 type  1   force =    -0.00000030   -0.00000030   -0.00023662
     atom   27 type  1   force =    -0.00000264    0.00000000    0.00009436
     atom   28 type  1   force =     0.00000000   -0.00000264    0.00009436
     atom   29 type  1   force =     0.00000000    0.00000000   -0.00012203
     atom   30 type  1   force =     0.00000854    0.00000854   -0.00011038
     atom   31 type  1   force =     0.00000934    0.00000000    0.00025804
     atom   32 type  1   force =     0.00000000    0.00000934    0.00025804

     Total force =     0.001066     Total SCF correction =     0.000629
     SCF correction compared to forces is large: reduce conv_thr to get better values

     Computing stress (Cartesian axis) and pressure

          total   stress  (Ry/bohr**3)                   (kbar)     P=      -27.45
  -0.00024932   0.00000000   0.00000000          -36.68        0.00        0.00
   0.00000000  -0.00024932   0.00000000            0.00      -36.68        0.00
   0.00000000   0.00000000  -0.00006108            0.00        0.00       -8.99

     Energy error            =      6.2E-05
     Gradient error          =      2.6E-04

     bfgs converged in   9 scf cycles and   8 bfgs steps
     (criteria: energy <  1.0E-04 Ry, force <  1.0E-03 Ry/Bohr)

     End of BFGS Geometry Optimization

     Final energy   =  -16384.0524750564 Ry

     File /scratch/EkXGkfVrBBpDrfNJ.bfgs deleted, as requested
Begin final coordinates

ATOMIC_POSITIONS (crystal)
Pd            0.0000000000        0.0000000000       -0.0000843928
Pd            0.2500002089        0.2500002089       -0.0000845959
Pd            0.2499970087        0.0000000000        0.1491947129
Pd            0.0000000000        0.2499970087        0.1491947129
Pd            0.0000000000        0.0000000000        0.6998659098
Pd            0.2500058187        0.2500058187        0.6998648470
Pd            0.2500030484        0.0000000000        0.8491379497
Pd            0.0000000000        0.2500030484        0.8491379497
Pd            0.0000000000        0.5000000000       -0.0000844746
Pd            0.2500002089        0.7499997911       -0.0000845959
Pd            0.2499991012        0.5000000000        0.1491939204
Pd            0.0000000000        0.7500029913        0.1491947129
Pd            0.0000000000        0.5000000000        0.6998663786
Pd            0.2500058187        0.7499941813        0.6998648470
Pd            0.2500031314        0.5000000000        0.8491381796
Pd            0.0000000000        0.7499969516        0.8491379497
Pd            0.5000000000        0.0000000000       -0.0000844746
Pd            0.7499997911        0.2500002089       -0.0000845959
Pd            0.7500029913        0.0000000000        0.1491947129
Pd            0.5000000000        0.2499991012        0.1491939204
Pd            0.5000000000        0.0000000000        0.6998663786
Pd            0.7499941813        0.2500058187        0.6998648470
Pd            0.7499969516        0.0000000000        0.8491379497
Pd            0.5000000000        0.2500031314        0.8491381796
Pd            0.5000000000        0.5000000000       -0.0000861986
Pd            0.7499997911        0.7499997911       -0.0000845959
Pd            0.7500008988        0.5000000000        0.1491939204
Pd            0.5000000000        0.7500008988        0.1491939204
Pd            0.5000000000        0.5000000000        0.6998664792
Pd            0.7499941813        0.7499941813        0.6998648470
Pd            0.7499968686        0.5000000000        0.8491381796
Pd            0.5000000000        0.7499968686        0.8491381796
End final coordinates

     Writing output data file /scratch/EkXGkfVrBBpDrfNJ.save/

     General routines

     Parallel routines

   This run was terminated on:   2:40:59   8Jan2022

   JOB DONE.