     Program PWSCF v.6.7MaX starts on  8Jan2022 at 20:41: 3

     R & G space division:  proc/nbgrp/npool/nimage =      72
     Reading input from relax_25.in
Warning: card &CELL ignored
Warning: card CELL_DYNAMICS = 'BFGS', ignored
Warning: card CELL_FACTOR = 2.0, ignored
Warning: card PRESS = 0.0, ignored
Warning: card / ignored

     Current dimensions of program PWSCF are:
     Max number of different atomic species (ntypx) = 10
     Max number of k-points (npk) =  40000
     Max angular momentum in pseudopotentials (lmaxx) =  3
     file Pd.pbe-spn-kjpaw_psl.1.0.0.UPF: wavefunction(s)  4S 5S 4D renormalized

     Subspace diagonalization in iterative solution of the eigenvalue problem:
     one sub-group per band group will be used

     Found symmetry operation: I + (  0.2500  0.2500  0.0000)
     This is a supercell, fractional translations are disabled
     Message from routine setup:
     using ibrav=0 with symmetry is DISCOURAGED, use correct ibrav instead

     bravais-lattice index     =            0
     lattice parameter (alat)  =      14.8394  a.u.
     unit-cell volume          =    5718.5883 (a.u.)^3
     number of atoms/cell      =           32
     number of atomic types    =            1
     number of electrons       =       576.00
     number of Kohn-Sham states=          346
     kinetic-energy cutoff     =      71.0000  Ry
     charge density cutoff     =     430.0000  Ry
     scf convergence threshold =      1.0E-06
     mixing beta               =       0.1000
     number of iterations used =           10  TF        mixing
     energy convergence thresh.=      1.0E-04
     force convergence thresh. =      1.0E-03
     Exchange-correlation= SLA  PW   PBX  PBC
                           (   1   4   3   4   0   0   0)
     nstep                     =           40

     celldm(1)=  14.839420  celldm(2)=   0.000000  celldm(3)=   0.000000
     celldm(4)=   0.000000  celldm(5)=   0.000000  celldm(6)=   0.000000

     crystal axes: (cart. coord. in units of alat)
               a(1) = (   1.000000   0.000000   0.000000 )
               a(2) = (   0.000000   1.000000   0.000000 )
               a(3) = (   0.000000   0.000000   1.750000 )

     reciprocal axes: (cart. coord. in units 2 pi/alat)
               b(1) = (  1.000000  0.000000  0.000000 )
               b(2) = (  0.000000  1.000000  0.000000 )
               b(3) = (  0.000000  0.000000  0.571429 )

     PseudoPot. # 1 for Pd read from file:
     /rds/homes/b/bxp912/pp/Pd.pbe-spn-kjpaw_psl.1.0.0.UPF
     MD5 check sum: 790f2ebce206edfd9790dcb9844eca51
     Pseudo is Projector augmented-wave + core cor, Zval = 18.0
     Generated using &quot;atomic&quot; code by A. Dal Corso  v.6.3
     Shape of augmentation charge: PSQ
     Using radial grid of 1235 points,  6 beta functions with:
                l(1) =   0
                l(2) =   0
                l(3) =   1
                l(4) =   1
                l(5) =   2
                l(6) =   2
     Q(r) pseudized with 0 coefficients

     atomic species   valence    mass     pseudopotential
        Pd            18.00   106.42000     Pd( 1.00)

      8 Sym. Ops. (no inversion) found

   Cartesian axes

     site n.     atom                  positions (alat units)
         1           Pd  tau(   1) = (   0.0000000   0.0000000   0.0000000  )
         2           Pd  tau(   2) = (   0.2500000   0.2500000   0.0000000  )
         3           Pd  tau(   3) = (   0.2500000   0.0000000   0.2500000  )
         4           Pd  tau(   4) = (   0.0000000   0.2500000   0.2500000  )
         5           Pd  tau(   5) = (   0.0000000   0.0000000   1.2500000  )
         6           Pd  tau(   6) = (   0.2500000   0.2500000   1.2500000  )
         7           Pd  tau(   7) = (   0.2500000   0.0000000   1.5000000  )
         8           Pd  tau(   8) = (   0.0000000   0.2500000   1.5000000  )
         9           Pd  tau(   9) = (   0.0000000   0.5000000   0.0000000  )
        10           Pd  tau(  10) = (   0.2500000   0.7500000   0.0000000  )
        11           Pd  tau(  11) = (   0.2500000   0.5000000   0.2500000  )
        12           Pd  tau(  12) = (   0.0000000   0.7500000   0.2500000  )
        13           Pd  tau(  13) = (   0.0000000   0.5000000   1.2500000  )
        14           Pd  tau(  14) = (   0.2500000   0.7500000   1.2500000  )
        15           Pd  tau(  15) = (   0.2500000   0.5000000   1.5000000  )
        16           Pd  tau(  16) = (   0.0000000   0.7500000   1.5000000  )
        17           Pd  tau(  17) = (   0.5000000   0.0000000   0.0000000  )
        18           Pd  tau(  18) = (   0.7500000   0.2500000   0.0000000  )
        19           Pd  tau(  19) = (   0.7500000   0.0000000   0.2500000  )
        20           Pd  tau(  20) = (   0.5000000   0.2500000   0.2500000  )
        21           Pd  tau(  21) = (   0.5000000   0.0000000   1.2500000  )
        22           Pd  tau(  22) = (   0.7500000   0.2500000   1.2500000  )
        23           Pd  tau(  23) = (   0.7500000   0.0000000   1.5000000  )
        24           Pd  tau(  24) = (   0.5000000   0.2500000   1.5000000  )
        25           Pd  tau(  25) = (   0.5000000   0.5000000   0.0000000  )
        26           Pd  tau(  26) = (   0.7500000   0.7500000   0.0000000  )
        27           Pd  tau(  27) = (   0.7500000   0.5000000   0.2500000  )
        28           Pd  tau(  28) = (   0.5000000   0.7500000   0.2500000  )
        29           Pd  tau(  29) = (   0.5000000   0.5000000   1.2500000  )
        30           Pd  tau(  30) = (   0.7500000   0.7500000   1.2500000  )
        31           Pd  tau(  31) = (   0.7500000   0.5000000   1.5000000  )
        32           Pd  tau(  32) = (   0.5000000   0.7500000   1.5000000  )

     number of k points=    75  Marzari-Vanderbilt smearing, width (Ry)=  0.0400
                       cart. coord. in units 2pi/alat
        k(    1) = (   0.0555556   0.0555556   0.0317460), wk =   0.0219479
        k(    2) = (   0.0555556   0.0555556   0.0952381), wk =   0.0219479
        k(    3) = (   0.0555556   0.0555556   0.1587302), wk =   0.0219479
        k(    4) = (   0.0555556   0.0555556   0.2222222), wk =   0.0219479
        k(    5) = (   0.0555556   0.0555556  -0.2857143), wk =   0.0109739
        k(    6) = (   0.0555556   0.1666667   0.0317460), wk =   0.0438957
        k(    7) = (   0.0555556   0.1666667   0.0952381), wk =   0.0438957
        k(    8) = (   0.0555556   0.1666667   0.1587302), wk =   0.0438957
        k(    9) = (   0.0555556   0.1666667   0.2222222), wk =   0.0438957
        k(   10) = (   0.0555556   0.1666667  -0.2857143), wk =   0.0219479
        k(   11) = (   0.0555556   0.2777778   0.0317460), wk =   0.0438957
        k(   12) = (   0.0555556   0.2777778   0.0952381), wk =   0.0438957
        k(   13) = (   0.0555556   0.2777778   0.1587302), wk =   0.0438957
        k(   14) = (   0.0555556   0.2777778   0.2222222), wk =   0.0438957
        k(   15) = (   0.0555556   0.2777778  -0.2857143), wk =   0.0219479
        k(   16) = (   0.0555556   0.3888889   0.0317460), wk =   0.0438957
        k(   17) = (   0.0555556   0.3888889   0.0952381), wk =   0.0438957
        k(   18) = (   0.0555556   0.3888889   0.1587302), wk =   0.0438957
        k(   19) = (   0.0555556   0.3888889   0.2222222), wk =   0.0438957
        k(   20) = (   0.0555556   0.3888889  -0.2857143), wk =   0.0219479
        k(   21) = (   0.0555556  -0.5000000   0.0317460), wk =   0.0219479
        k(   22) = (   0.0555556  -0.5000000   0.0952381), wk =   0.0219479
        k(   23) = (   0.0555556  -0.5000000   0.1587302), wk =   0.0219479
        k(   24) = (   0.0555556  -0.5000000   0.2222222), wk =   0.0219479
        k(   25) = (   0.0555556  -0.5000000  -0.2857143), wk =   0.0109739
        k(   26) = (   0.1666667   0.1666667   0.0317460), wk =   0.0219479
        k(   27) = (   0.1666667   0.1666667   0.0952381), wk =   0.0219479
        k(   28) = (   0.1666667   0.1666667   0.1587302), wk =   0.0219479
        k(   29) = (   0.1666667   0.1666667   0.2222222), wk =   0.0219479
        k(   30) = (   0.1666667   0.1666667  -0.2857143), wk =   0.0109739
        k(   31) = (   0.1666667   0.2777778   0.0317460), wk =   0.0438957
        k(   32) = (   0.1666667   0.2777778   0.0952381), wk =   0.0438957
        k(   33) = (   0.1666667   0.2777778   0.1587302), wk =   0.0438957
        k(   34) = (   0.1666667   0.2777778   0.2222222), wk =   0.0438957
        k(   35) = (   0.1666667   0.2777778  -0.2857143), wk =   0.0219479
        k(   36) = (   0.1666667   0.3888889   0.0317460), wk =   0.0438957
        k(   37) = (   0.1666667   0.3888889   0.0952381), wk =   0.0438957
        k(   38) = (   0.1666667   0.3888889   0.1587302), wk =   0.0438957
        k(   39) = (   0.1666667   0.3888889   0.2222222), wk =   0.0438957
        k(   40) = (   0.1666667   0.3888889  -0.2857143), wk =   0.0219479
        k(   41) = (   0.1666667  -0.5000000   0.0317460), wk =   0.0219479
        k(   42) = (   0.1666667  -0.5000000   0.0952381), wk =   0.0219479
        k(   43) = (   0.1666667  -0.5000000   0.1587302), wk =   0.0219479
        k(   44) = (   0.1666667  -0.5000000   0.2222222), wk =   0.0219479
        k(   45) = (   0.1666667  -0.5000000  -0.2857143), wk =   0.0109739
        k(   46) = (   0.2777778   0.2777778   0.0317460), wk =   0.0219479
        k(   47) = (   0.2777778   0.2777778   0.0952381), wk =   0.0219479
        k(   48) = (   0.2777778   0.2777778   0.1587302), wk =   0.0219479
        k(   49) = (   0.2777778   0.2777778   0.2222222), wk =   0.0219479
        k(   50) = (   0.2777778   0.2777778  -0.2857143), wk =   0.0109739
        k(   51) = (   0.2777778   0.3888889   0.0317460), wk =   0.0438957
        k(   52) = (   0.2777778   0.3888889   0.0952381), wk =   0.0438957
        k(   53) = (   0.2777778   0.3888889   0.1587302), wk =   0.0438957
        k(   54) = (   0.2777778   0.3888889   0.2222222), wk =   0.0438957
        k(   55) = (   0.2777778   0.3888889  -0.2857143), wk =   0.0219479
        k(   56) = (   0.2777778  -0.5000000   0.0317460), wk =   0.0219479
        k(   57) = (   0.2777778  -0.5000000   0.0952381), wk =   0.0219479
        k(   58) = (   0.2777778  -0.5000000   0.1587302), wk =   0.0219479
        k(   59) = (   0.2777778  -0.5000000   0.2222222), wk =   0.0219479
        k(   60) = (   0.2777778  -0.5000000  -0.2857143), wk =   0.0109739
        k(   61) = (   0.3888889   0.3888889   0.0317460), wk =   0.0219479
        k(   62) = (   0.3888889   0.3888889   0.0952381), wk =   0.0219479
        k(   63) = (   0.3888889   0.3888889   0.1587302), wk =   0.0219479
        k(   64) = (   0.3888889   0.3888889   0.2222222), wk =   0.0219479
        k(   65) = (   0.3888889   0.3888889  -0.2857143), wk =   0.0109739
        k(   66) = (   0.3888889  -0.5000000   0.0317460), wk =   0.0219479
        k(   67) = (   0.3888889  -0.5000000   0.0952381), wk =   0.0219479
        k(   68) = (   0.3888889  -0.5000000   0.1587302), wk =   0.0219479
        k(   69) = (   0.3888889  -0.5000000   0.2222222), wk =   0.0219479
        k(   70) = (   0.3888889  -0.5000000  -0.2857143), wk =   0.0109739
[...]
     SCF correction compared to forces is large: reduce conv_thr to get better values

     Computing stress (Cartesian axis) and pressure

          total   stress  (Ry/bohr**3)                   (kbar)     P=      -31.65
  -0.00026993   0.00000000   0.00000000          -39.71        0.00        0.00
   0.00000000  -0.00026993   0.00000000            0.00      -39.71        0.00
   0.00000000   0.00000000  -0.00010567            0.00        0.00      -15.54

     BFGS Geometry Optimization
     Energy error            =      0.0E+00
     Gradient error          =      4.1E-03

     number of scf cycles    =   1
     number of bfgs steps    =   0

     energy   new            =  -16384.0507647165 Ry

     new trust radius        =       0.0040848426 bohr
     new conv_thr            =       0.0000010000 Ry

ATOMIC_POSITIONS (crystal)
Pd            0.0000000000        0.0000000000        0.0001227468
Pd            0.2499996111        0.2499996111        0.0001232528
Pd            0.2499994688        0.0000000000        0.1426998657
Pd            0.0000000000        0.2499994688        0.1426998657
Pd            0.0000000000        0.0000000000        0.7144410979
Pd            0.2499992632        0.2499992632        0.7144410857
Pd            0.2499992038        0.0000000000        0.8570213007
Pd           -0.0000000000        0.2499992038        0.8570213007
Pd            0.0000000000        0.5000000000        0.0001234293
Pd            0.2499996111        0.7500003889        0.0001232528
Pd            0.2500003768        0.5000000000        0.1426998460
Pd            0.0000000000        0.7500005312        0.1426998657
Pd            0.0000000000        0.5000000000        0.7144410631
Pd            0.2499992632        0.7500007368        0.7144410857
Pd            0.2499999352        0.5000000000        0.8570218053
Pd            0.0000000000        0.7500007962        0.8570213007
Pd            0.5000000000        0.0000000000        0.0001234293
Pd            0.7500003889        0.2499996111        0.0001232528
Pd            0.7500005312        0.0000000000        0.1426998657
Pd            0.5000000000        0.2500003768        0.1426998460
Pd            0.5000000000        0.0000000000        0.7144410631
Pd            0.7500007368        0.2499992632        0.7144410857
Pd            0.7500007962       -0.0000000000        0.8570213007
Pd            0.5000000000        0.2499999352        0.8570218053
Pd            0.5000000000        0.5000000000        0.0001234185
Pd            0.7500003889        0.7500003889        0.0001232528
Pd            0.7499996232        0.5000000000        0.1426998460
Pd            0.5000000000        0.7499996232        0.1426998460
Pd            0.5000000000        0.5000000000        0.7144408414
Pd            0.7500007368        0.7500007368        0.7144410857
Pd            0.7500000648        0.5000000000        0.8570218053
Pd            0.5000000000        0.7500000648        0.8570218053

     Writing output data file /scratch/vzRwBdzYGStYciNb.save/
     NEW-OLD atomic charge density approx. for the potential

[...]

     Energy error            =      3.8E-04
     Gradient error          =      3.6E-03

[...]

     energy   old            =  -16384.0507647165 Ry
     energy   new            =  -16384.0511475223 Ry

     CASE: energy  _new < energy  _old

[...]

     Total force =     0.011855     Total SCF correction =     0.000498

[...]

     WARNING: bfgs curvature condition failed, Theta= 0.903
     new trust radius        =       0.0037262861 bohr
     new conv_thr            =       0.0000000100 Ry

[...]

     Total force =     0.004259     Total SCF correction =     0.000391

[...]

     number of scf cycles    =   8
     number of bfgs steps    =   7

     energy   old            =  -16384.0520034361 Ry
     energy   new            =  -16384.0521180969 Ry

     CASE: energy  _new < energy  _old

     new trust radius        =       0.0052292984 bohr
     new conv_thr            =       0.0000000108 Ry

ATOMIC_POSITIONS (crystal)
Pd            0.0000000000        0.0000000000       -0.0000945198
Pd            0.2499979494        0.2499979494       -0.0000929948
Pd            0.2499980297        0.0000000000        0.1411964745
Pd            0.0000000000        0.2499980297        0.1411964745
Pd            0.0000000000        0.0000000000        0.7159362115
Pd            0.2499971284        0.2499971284        0.7159361216
Pd            0.2499981778        0.0000000000        0.8572455043
Pd           -0.0000000000        0.2499981778        0.8572455043
Pd            0.0000000000        0.5000000000       -0.0000933082
Pd            0.2499979494        0.7500020506       -0.0000929948
Pd            0.2499993803        0.5000000000        0.1411967799
Pd            0.0000000000        0.7500019703        0.1411964745
Pd            0.0000000000        0.5000000000        0.7159371159
Pd            0.2499971284        0.7500028716        0.7159361216
Pd            0.2499985582        0.5000000000        0.8572463594
Pd            0.0000000000        0.7500018222        0.8572455043
Pd            0.5000000000        0.0000000000       -0.0000933082
Pd            0.7500020506        0.2499979494       -0.0000929948
Pd            0.7500019703        0.0000000000        0.1411964745
Pd            0.5000000000        0.2499993803        0.1411967799
Pd            0.5000000000        0.0000000000        0.7159371159
Pd            0.7500028716        0.2499971284        0.7159361216
Pd            0.7500018222       -0.0000000000        0.8572455043
Pd            0.5000000000        0.2499985582        0.8572463594
Pd            0.5000000000        0.5000000000       -0.0000934736
Pd            0.7500020506        0.7500020506       -0.0000929948
Pd            0.7500006197        0.5000000000        0.1411967799
Pd            0.5000000000        0.7500006197        0.1411967799
Pd            0.5000000000        0.5000000000        0.7159369013
Pd            0.7500028716        0.7500028716        0.7159361216
Pd            0.7500014418        0.5000000000        0.8572463594
Pd            0.5000000000        0.7500014418        0.8572463594

     Writing output data file /scratch/vzRwBdzYGStYciNb.save/
     NEW-OLD atomic charge density approx. for the potential

     Check: negative core charge=   -0.000001

     Self-consistent Calculation

[...]

     Threshold (ethr) on eigenvalues was too large:
     Diagonalizing with lowered threshold

     Davidson diagonalization with overlap
     ethr =  3.44E-08,  avg # of iterations =  2.0

[...]

     total energy              =  -16384.05216950 Ry
     estimated scf accuracy    <       0.00000001 Ry

     iteration # 11     ecut=    71.00 Ry     beta= 0.10
     Davidson diagonalization with overlap
     ethr =  2.27E-12,  avg # of iterations =  2.0

     End of self-consistent calculation

[...]

          k = 0.3889-0.5000-0.2857 ( 57796 PWs)   bands (ev):

[...]

          k =-0.5000-0.5000-0.2857 ( 57696 PWs)   bands (ev):

   -75.3395 -75.3395 -75.3395 -75.3394 -75.3165 -75.3165 -75.3165 -75.3165
   -75.3118 -75.3118 -75.3118 -75.3118 -75.3116 -75.3115 -75.3115 -75.3115
   -74.7519 -74.7518 -74.7518 -74.7518 -74.7517 -74.7516 -74.7516 -74.7516
   -74.7359 -74.7359 -74.7359 -74.7358 -74.7357 -74.7356 -74.7356 -74.7356
   -41.1654 -41.1654 -41.1654 -41.1654 -41.1653 -41.1653 -41.1653 -41.1653
   -41.1545 -41.1545 -41.1545 -41.1544 -41.1019 -41.1019 -41.1019 -41.1019
   -41.0420 -41.0420 -41.0420 -41.0420 -41.0418 -41.0418 -41.0418 -41.0418
   -40.9995 -40.9995 -40.9995 -40.9995 -40.9980 -40.9980 -40.9980 -40.9980
   -40.9979 -40.9979 -40.9979 -40.9979 -40.9779 -40.9779 -40.9779 -40.9779
   -40.9558 -40.9558 -40.9558 -40.9558 -40.9056 -40.9056 -40.9056 -40.9056
   -40.6262 -40.6262 -40.6262 -40.6262 -40.6260 -40.6260 -40.6260 -40.6260
   -40.5430 -40.5430 -40.5430 -40.5430 -40.5403 -40.5403 -40.5403 -40.5403
   -40.5287 -40.5287 -40.5286 -40.5286 -40.5284 -40.5284 -40.5284 -40.5284
   -40.4401 -40.4401 -40.4401 -40.4401 -40.4398 -40.4398 -40.4398 -40.4398
   -40.3535 -40.3534 -40.3534 -40.3534 -40.3527 -40.3527 -40.3527 -40.3526
   -40.3418 -40.3418 -40.3418 -40.3417 -40.3415 -40.3415 -40.3415 -40.3414
     3.5636   3.5636   3.5636   3.5637   4.1888   4.1888   4.1888   4.1888
     4.5158   4.5159   4.5159   4.5159   4.5161   4.5161   4.5161   4.5161
     4.6257   4.6257   4.6257   4.6257   4.6869   4.6869   4.6869   4.6870
     4.6870   4.6871   4.6871   4.6871   4.7740   4.7740   4.7740   4.7740
     5.0663   5.0663   5.0663   5.0663   5.3807   5.3807   5.3807   5.3807
     5.3812   5.3812   5.3812   5.3812   5.6896   5.6897   5.6897   5.6897
     5.6898   5.6899   5.6899   5.6900   5.8616   5.8616   5.8616   5.8617
     6.0944   6.0944   6.0944   6.0944   6.3524   6.3524   6.3524   6.3524
     6.4647   6.4647   6.4647   6.4648   6.4711   6.4712   6.4712   6.4712
     6.5533   6.5533   6.5533   6.5533   6.6672   6.6672   6.6672   6.6672
     6.6672   6.6673   6.6673   6.6673   6.6936   6.6936   6.6936   6.6936
     7.0099   7.0100   7.0100   7.0100   7.1404   7.1405   7.1405   7.1405
     7.2650   7.2650   7.2650   7.2651   7.2652   7.2653   7.2653   7.2653
     7.2999   7.2999   7.2999   7.2999   7.3001   7.3001   7.3001   7.3001
     7.3135   7.3135   7.3135   7.3135   7.5362   7.5362   7.5362   7.5362
     7.8810   7.8811   7.8811   7.8811   7.8811   7.8811   7.8811   7.8811
     7.8905   7.8905   7.8905   7.8905   8.0090   8.0091   8.0091   8.0091
     8.1417   8.1417   8.1417   8.1417   8.3514   8.3514   8.3514   8.3514
     8.4816   8.4816   8.4816   8.4816   8.4817   8.4817   8.4817   8.4817
     8.7760   8.7760   8.7760   8.7760   8.8261   8.8261   8.8261   8.8261
     8.8261   8.8261   8.8262   8.8262   8.8443   8.8443   8.8443   8.8443
     9.6364   9.6365   9.6365   9.6365  11.9315  11.9315  11.9315  11.9315
    12.0776  12.0776  12.0776  12.0776  12.0776  12.0777  12.0777  12.0777
    13.2066  13.2067  13.2067  13.2067  13.2067  13.2068  13.2068  13.2068
    14.2891  14.2892  14.2892  14.2892  15.2260  15.2260  15.2260  15.2260
    15.2261  15.2261  15.2261  15.2261  15.2963  15.2963  15.2963  15.2963
    17.4325  17.4325  17.4325  17.4325  17.5865  17.5865  17.5865  17.5867
    17.5868  17.5868

     the Fermi energy is     8.8403 ev

!    total energy              =  -16384.05216966 Ry

     total all-electron energy =   -322944.905877 Ry
     estimated scf accuracy    <          9.0E-09 Ry
     smearing contrib. (-TS)   =       0.12010883 Ry
     internal energy E=F+TS    =  -16384.17227850 Ry

     The total energy is F=E-TS. E is the sum of the following terms:
     one-electron contribution =  -18697.97835567 Ry
     hartree contribution      =    9550.48780787 Ry
     xc contribution           =    -985.50346441 Ry
     ewald contribution        =    1916.15847166 Ry
     one-center paw contrib.   =   -8167.33673795 Ry

     convergence has been achieved in  11 iterations

     Forces acting on atoms (cartesian axes, Ry/au):

     atom    1 type  1   force =     0.00000000    0.00000000   -0.00010868
     atom    2 type  1   force =     0.00000447    0.00000447   -0.00011417
     atom    3 type  1   force =     0.00000250    0.00000000    0.00004271
     atom    4 type  1   force =     0.00000000    0.00000250    0.00004271
     atom    5 type  1   force =     0.00000000    0.00000000   -0.00001186
     atom    6 type  1   force =     0.00000470    0.00000470   -0.00000700
     atom    7 type  1   force =     0.00000537    0.00000000    0.00008172
     atom    8 type  1   force =     0.00000000    0.00000537    0.00008172
     atom    9 type  1   force =     0.00000000    0.00000000   -0.00011188
     atom   10 type  1   force =     0.00000447   -0.00000447   -0.00011417
     atom   11 type  1   force =    -0.00000005    0.00000000    0.00003948
     atom   12 type  1   force =     0.00000000   -0.00000250    0.00004271
     atom   13 type  1   force =     0.00000000    0.00000000   -0.00000928
     atom   14 type  1   force =     0.00000470   -0.00000470   -0.00000700
     atom   15 type  1   force =     0.00000358    0.00000000    0.00007723
     atom   16 type  1   force =     0.00000000   -0.00000537    0.00008172
     atom   17 type  1   force =     0.00000000    0.00000000   -0.00011188
     atom   18 type  1   force =    -0.00000447    0.00000447   -0.00011417
     atom   19 type  1   force =    -0.00000250    0.00000000    0.00004271
     atom   20 type  1   force =     0.00000000   -0.00000005    0.00003948
     atom   21 type  1   force =     0.00000000    0.00000000   -0.00000928
     atom   22 type  1   force =    -0.00000470    0.00000470   -0.00000700
     atom   23 type  1   force =    -0.00000537    0.00000000    0.00008172
     atom   24 type  1   force =     0.00000000    0.00000358    0.00007723
     atom   25 type  1   force =     0.00000000    0.00000000   -0.00011194
     atom   26 type  1   force =    -0.00000447   -0.00000447   -0.00011417
     atom   27 type  1   force =     0.00000005    0.00000000    0.00003948
     atom   28 type  1   force =     0.00000000    0.00000005    0.00003948
     atom   29 type  1   force =     0.00000000    0.00000000   -0.00000512
     atom   30 type  1   force =    -0.00000470   -0.00000470   -0.00000700
     atom   31 type  1   force =    -0.00000358    0.00000000    0.00007723
     atom   32 type  1   force =     0.00000000   -0.00000358    0.00007723

     Total force =     0.000408     Total SCF correction =     0.000577
     SCF correction compared to forces is large: reduce conv_thr to get better values

     Computing stress (Cartesian axis) and pressure

          total   stress  (Ry/bohr**3)                   (kbar)     P=      -25.95
  -0.00023600   0.00000000   0.00000000          -34.72        0.00        0.00
   0.00000000  -0.00023600   0.00000000            0.00      -34.72        0.00
   0.00000000   0.00000000  -0.00005727            0.00        0.00       -8.43

     Energy error            =      5.2E-05
     Gradient error          =      1.1E-04

     bfgs converged in   9 scf cycles and   8 bfgs steps
     (criteria: energy <  1.0E-04 Ry, force <  1.0E-03 Ry/Bohr)

     End of BFGS Geometry Optimization

     Final energy   =  -16384.0521696646 Ry

     File /scratch/vzRwBdzYGStYciNb.bfgs deleted, as requested
Begin final coordinates

ATOMIC_POSITIONS (crystal)
Pd            0.0000000000        0.0000000000       -0.0000945198
Pd            0.2499979494        0.2499979494       -0.0000929948
Pd            0.2499980297        0.0000000000        0.1411964745
Pd            0.0000000000        0.2499980297        0.1411964745
Pd            0.0000000000        0.0000000000        0.7159362115
Pd            0.2499971284        0.2499971284        0.7159361216
Pd            0.2499981778        0.0000000000        0.8572455043
Pd           -0.0000000000        0.2499981778        0.8572455043
Pd            0.0000000000        0.5000000000       -0.0000933082
Pd            0.2499979494        0.7500020506       -0.0000929948
Pd            0.2499993803        0.5000000000        0.1411967799
Pd            0.0000000000        0.7500019703        0.1411964745
Pd            0.0000000000        0.5000000000        0.7159371159
Pd            0.2499971284        0.7500028716        0.7159361216
Pd            0.2499985582        0.5000000000        0.8572463594
Pd            0.0000000000        0.7500018222        0.8572455043
Pd            0.5000000000        0.0000000000       -0.0000933082
Pd            0.7500020506        0.2499979494       -0.0000929948
Pd            0.7500019703        0.0000000000        0.1411964745
Pd            0.5000000000        0.2499993803        0.1411967799
Pd            0.5000000000        0.0000000000        0.7159371159
Pd            0.7500028716        0.2499971284        0.7159361216
Pd            0.7500018222       -0.0000000000        0.8572455043
Pd            0.5000000000        0.2499985582        0.8572463594
Pd            0.5000000000        0.5000000000       -0.0000934736
Pd            0.7500020506        0.7500020506       -0.0000929948
Pd            0.7500006197        0.5000000000        0.1411967799
Pd            0.5000000000        0.7500006197        0.1411967799
Pd            0.5000000000        0.5000000000        0.7159369013
Pd            0.7500028716        0.7500028716        0.7159361216
Pd            0.7500014418        0.5000000000        0.8572463594
Pd            0.5000000000        0.7500014418        0.8572463594
End final coordinates

     Writing output data file /scratch/vzRwBdzYGStYciNb.save/

     General routines

     Parallel routines

   This run was terminated on:   0:32:46   9Jan2022

   JOB DONE.