     Program PWSCF v.6.7MaX starts on  8Jan2022 at 13: 7:58

     R & G space division:  proc/nbgrp/npool/nimage =      72
     Reading input from relax_12.in
Warning: card &CELL ignored
Warning: card CELL_DYNAMICS = 'BFGS', ignored
Warning: card CELL_FACTOR = 2.0, ignored
Warning: card PRESS = 0.0, ignored
Warning: card / ignored

     Current dimensions of program PWSCF are:
     Max number of different atomic species (ntypx) = 10
     Max number of k-points (npk) =  40000
     Max angular momentum in pseudopotentials (lmaxx) =  3
     file Pd.pbe-spn-kjpaw_psl.1.0.0.UPF: wavefunction(s)  4S 5S 4D renormalized

     Subspace diagonalization in iterative solution of the eigenvalue problem:
     one sub-group per band group will be used

     Found symmetry operation: I + (  0.2500  0.2500  0.0000)
     This is a supercell, fractional translations are disabled
     Message from routine setup:
     using ibrav=0 with symmetry is DISCOURAGED, use correct ibrav instead

     bravais-lattice index     =            0
     lattice parameter (alat)  =      14.8394  a.u.
     unit-cell volume          =    4391.0589 (a.u.)^3
     number of atoms/cell      =           32
     number of atomic types    =            1
     number of electrons       =       576.00
     number of Kohn-Sham states=          346
     kinetic-energy cutoff     =      71.0000  Ry
     charge density cutoff     =     430.0000  Ry
     scf convergence threshold =      1.0E-06
     mixing beta               =       0.1000
     number of iterations used =           10  TF        mixing
     energy convergence thresh.=      1.0E-04
     force convergence thresh. =      1.0E-03
     Exchange-correlation= SLA  PW   PBX  PBC
                           (   1   4   3   4   0   0   0)
     nstep                     =           40

     celldm(1)=  14.839420  celldm(2)=   0.000000  celldm(3)=   0.000000
     celldm(4)=   0.000000  celldm(5)=   0.000000  celldm(6)=   0.000000

     crystal axes: (cart. coord. in units of alat)
               a(1) = (   1.000000   0.000000   0.000000 )
               a(2) = (   0.000000   1.000000   0.000000 )
               a(3) = (   0.000000   0.000000   1.343750 )

     reciprocal axes: (cart. coord. in units 2 pi/alat)
               b(1) = (  1.000000  0.000000  0.000000 )
               b(2) = (  0.000000  1.000000  0.000000 )
               b(3) = (  0.000000  0.000000  0.744186 )

     PseudoPot. # 1 for Pd read from file:
     /rds/homes/b/bxp912/pp/Pd.pbe-spn-kjpaw_psl.1.0.0.UPF
     MD5 check sum: 790f2ebce206edfd9790dcb9844eca51
     Pseudo is Projector augmented-wave + core cor, Zval = 18.0
     Generated using &quot;atomic&quot; code by A. Dal Corso  v.6.3
     Shape of augmentation charge: PSQ
     Using radial grid of 1235 points,  6 beta functions with:
                l(1) =   0
                l(2) =   0
                l(3) =   1
                l(4) =   1
                l(5) =   2
                l(6) =   2
     Q(r) pseudized with 0 coefficients

     atomic species   valence    mass     pseudopotential
        Pd            18.00   106.42000     Pd( 1.00)

      8 Sym. Ops. (no inversion) found

   Cartesian axes

     site n.     atom                  positions (alat units)
         1           Pd  tau(   1) = (   0.0000000   0.0000000   0.0000000  )
         2           Pd  tau(   2) = (   0.2500000   0.2500000   0.0000000  )
         3           Pd  tau(   3) = (   0.2500000   0.0000000   0.2500000  )
         4           Pd  tau(   4) = (   0.0000000   0.2500000   0.2500000  )
         5           Pd  tau(   5) = (   0.0000000   0.0000000   0.8437500  )
         6           Pd  tau(   6) = (   0.2500000   0.2500000   0.8437500  )
         7           Pd  tau(   7) = (   0.2500000   0.0000000   1.0937500  )
         8           Pd  tau(   8) = (   0.0000000   0.2500000   1.0937500  )
         9           Pd  tau(   9) = (   0.0000000   0.5000000   0.0000000  )
        10           Pd  tau(  10) = (   0.2500000   0.7500000   0.0000000  )
        11           Pd  tau(  11) = (   0.2500000   0.5000000   0.2500000  )
        12           Pd  tau(  12) = (   0.0000000   0.7500000   0.2500000  )
        13           Pd  tau(  13) = (   0.0000000   0.5000000   0.8437500  )
        14           Pd  tau(  14) = (   0.2500000   0.7500000   0.8437500  )
        15           Pd  tau(  15) = (   0.2500000   0.5000000   1.0937500  )
        16           Pd  tau(  16) = (   0.0000000   0.7500000   1.0937500  )
        17           Pd  tau(  17) = (   0.5000000   0.0000000   0.0000000  )
        18           Pd  tau(  18) = (   0.7500000   0.2500000   0.0000000  )
        19           Pd  tau(  19) = (   0.7500000   0.0000000   0.2500000  )
        20           Pd  tau(  20) = (   0.5000000   0.2500000   0.2500000  )
        21           Pd  tau(  21) = (   0.5000000   0.0000000   0.8437500  )
        22           Pd  tau(  22) = (   0.7500000   0.2500000   0.8437500  )
        23           Pd  tau(  23) = (   0.7500000   0.0000000   1.0937500  )
        24           Pd  tau(  24) = (   0.5000000   0.2500000   1.0937500  )
        25           Pd  tau(  25) = (   0.5000000   0.5000000   0.0000000  )
        26           Pd  tau(  26) = (   0.7500000   0.7500000   0.0000000  )
        27           Pd  tau(  27) = (   0.7500000   0.5000000   0.2500000  )
        28           Pd  tau(  28) = (   0.5000000   0.7500000   0.2500000  )
        29           Pd  tau(  29) = (   0.5000000   0.5000000   0.8437500  )
        30           Pd  tau(  30) = (   0.7500000   0.7500000   0.8437500  )
        31           Pd  tau(  31) = (   0.7500000   0.5000000   1.0937500  )
        32           Pd  tau(  32) = (   0.5000000   0.7500000   1.0937500  )

     number of k points=    75  Marzari-Vanderbilt smearing, width (Ry)=  0.0400
                       cart. coord. in units 2pi/alat
        k(    1) = (   0.0555556   0.0555556   0.0413437), wk =   0.0219479
        k(    2) = (   0.0555556   0.0555556   0.1240310), wk =   0.0219479
        k(    3) = (   0.0555556   0.0555556   0.2067183), wk =   0.0219479
        k(    4) = (   0.0555556   0.0555556   0.2894057), wk =   0.0219479
        k(    5) = (   0.0555556   0.0555556  -0.3720930), wk =   0.0109739
        k(    6) = (   0.0555556   0.1666667   0.0413437), wk =   0.0438957
        k(    7) = (   0.0555556   0.1666667   0.1240310), wk =   0.0438957
        k(    8) = (   0.0555556   0.1666667   0.2067183), wk =   0.0438957
        k(    9) = (   0.0555556   0.1666667   0.2894057), wk =   0.0438957
        k(   10) = (   0.0555556   0.1666667  -0.3720930), wk =   0.0219479
        k(   11) = (   0.0555556   0.2777778   0.0413437), wk =   0.0438957
        k(   12) = (   0.0555556   0.2777778   0.1240310), wk =   0.0438957
        k(   13) = (   0.0555556   0.2777778   0.2067183), wk =   0.0438957
        k(   14) = (   0.0555556   0.2777778   0.2894057), wk =   0.0438957
        k(   15) = (   0.0555556   0.2777778  -0.3720930), wk =   0.0219479
        k(   16) = (   0.0555556   0.3888889   0.0413437), wk =   0.0438957
        k(   17) = (   0.0555556   0.3888889   0.1240310), wk =   0.0438957
        k(   18) = (   0.0555556   0.3888889   0.2067183), wk =   0.0438957
        k(   19) = (   0.0555556   0.3888889   0.2894057), wk =   0.0438957
        k(   20) = (   0.0555556   0.3888889  -0.3720930), wk =   0.0219479
        k(   21) = (   0.0555556  -0.5000000   0.0413437), wk =   0.0219479
        k(   22) = (   0.0555556  -0.5000000   0.1240310), wk =   0.0219479
        k(   23) = (   0.0555556  -0.5000000   0.2067183), wk =   0.0219479
        k(   24) = (   0.0555556  -0.5000000   0.2894057), wk =   0.0219479
        k(   25) = (   0.0555556  -0.5000000  -0.3720930), wk =   0.0109739
        k(   26) = (   0.1666667   0.1666667   0.0413437), wk =   0.0219479
        k(   27) = (   0.1666667   0.1666667   0.1240310), wk =   0.0219479
        k(   28) = (   0.1666667   0.1666667   0.2067183), wk =   0.0219479
        k(   29) = (   0.1666667   0.1666667   0.2894057), wk =   0.0219479
        k(   30) = (   0.1666667   0.1666667  -0.3720930), wk =   0.0109739
        k(   31) = (   0.1666667   0.2777778   0.0413437), wk =   0.0438957
        k(   32) = (   0.1666667   0.2777778   0.1240310), wk =   0.0438957
        k(   33) = (   0.1666667   0.2777778   0.2067183), wk =   0.0438957
        k(   34) = (   0.1666667   0.2777778   0.2894057), wk =   0.0438957
        k(   35) = (   0.1666667   0.2777778  -0.3720930), wk =   0.0219479
        k(   36) = (   0.1666667   0.3888889   0.0413437), wk =   0.0438957
        k(   37) = (   0.1666667   0.3888889   0.1240310), wk =   0.0438957
        k(   38) = (   0.1666667   0.3888889   0.2067183), wk =   0.0438957
        k(   39) = (   0.1666667   0.3888889   0.2894057), wk =   0.0438957
        k(   40) = (   0.1666667   0.3888889  -0.3720930), wk =   0.0219479
        k(   41) = (   0.1666667  -0.5000000   0.0413437), wk =   0.0219479
        k(   42) = (   0.1666667  -0.5000000   0.1240310), wk =   0.0219479
        k(   43) = (   0.1666667  -0.5000000   0.2067183), wk =   0.0219479
        k(   44) = (   0.1666667  -0.5000000   0.2894057), wk =   0.0219479
        k(   45) = (   0.1666667  -0.5000000  -0.3720930), wk =   0.0109739
        k(   46) = (   0.2777778   0.2777778   0.0413437), wk =   0.0219479
        k(   47) = (   0.2777778   0.2777778   0.1240310), wk =   0.0219479
        k(   48) = (   0.2777778   0.2777778   0.2067183), wk =   0.0219479
        k(   49) = (   0.2777778   0.2777778   0.2894057), wk =   0.0219479
        k(   50) = (   0.2777778   0.2777778  -0.3720930), wk =   0.0109739
        k(   51) = (   0.2777778   0.3888889   0.0413437), wk =   0.0438957
        k(   52) = (   0.2777778   0.3888889   0.1240310), wk =   0.0438957
        k(   53) = (   0.2777778   0.3888889   0.2067183), wk =   0.0438957
        k(   54) = (   0.2777778   0.3888889   0.2894057), wk =   0.0438957
        k(   55) = (   0.2777778   0.3888889  -0.3720930), wk =   0.0219479
        k(   56) = (   0.2777778  -0.5000000   0.0413437), wk =   0.0219479
        k(   57) = (   0.2777778  -0.5000000   0.1240310), wk =   0.0219479
        k(   58) = (   0.2777778  -0.5000000   0.2067183), wk =   0.0219479
        k(   59) = (   0.2777778  -0.5000000   0.2894057), wk =   0.0219479
        k(   60) = (   0.2777778  -0.5000000  -0.3720930), wk =   0.0109739
        k(   61) = (   0.3888889   0.3888889   0.0413437), wk =   0.0219479
        k(   62) = (   0.3888889   0.3888889   0.1240310), wk =   0.0219479
        k(   63) = (   0.3888889   0.3888889   0.2067183), wk =   0.0219479
        k(   64) = (   0.3888889   0.3888889   0.2894057), wk =   0.0219479
        k(   65) = (   0.3888889   0.3888889  -0.3720930), wk =   0.0109739
        k(   66) = (   0.3888889  -0.5000000   0.0413437), wk =   0.0219479
        k(   67) = (   0.3888889  -0.5000000   0.1240310), wk =   0.0219479
        k(   68) = (   0.3888889  -0.5000000   0.2067183), wk =   0.0219479
        k(   69) = (   0.3888889  -0.5000000   0.2894057), wk =   0.0219479
        k(   70) = (   0.3888889  -0.5000000  -0.3720930), wk =   0.0109739
[...]
     atom   30 type  1   force =    -0.00001260   -0.00001260    0.00136631
     atom   31 type  1   force =     0.00000132    0.00000000   -0.00349685
     atom   32 type  1   force =     0.00000000    0.00000132   -0.00349685

     Total force =     0.014963     Total SCF correction =     0.002283
     SCF correction compared to forces is large: reduce conv_thr to get better values

     Computing stress (Cartesian axis) and pressure

          total   stress  (Ry/bohr**3)                   (kbar)     P=      -43.67
  -0.00035144   0.00000000   0.00000000          -51.70        0.00        0.00
   0.00000000  -0.00035144   0.00000000            0.00      -51.70        0.00
   0.00000000   0.00000000  -0.00018769            0.00        0.00      -27.61

     BFGS Geometry Optimization
     Energy error            =      0.0E+00
     Gradient error          =      3.5E-03

     number of scf cycles    =   1
     number of bfgs steps    =   0

     energy   new            =  -16384.0744950155 Ry

     new trust radius        =       0.0034968533 bohr
     new conv_thr            =       0.0000010000 Ry

ATOMIC_POSITIONS (crystal)
Pd            0.0000000000        0.0000000000        0.0001751743
Pd            0.2499999895        0.2499999895        0.0001746937
Pd            0.2500003966       -0.0000000000        0.1859785550
Pd            0.0000000000        0.2500003966        0.1859785550
Pd            0.0000000000        0.0000000000        0.6279751210
Pd            0.2500008493        0.2500008493        0.6279754960
Pd            0.2500003568        0.0000000000        0.8137788949
Pd            0.0000000000        0.2500003568        0.8137788949
Pd            0.0000000000        0.5000000000        0.0001745214
Pd            0.2499999895        0.7500000105        0.0001746937
Pd            0.2499990693        0.5000000000        0.1859787300
Pd            0.0000000000        0.7499996034        0.1859785550
Pd            0.0000000000        0.5000000000        0.6279747485
Pd            0.2500008493        0.7499991507        0.6279754960
Pd            0.2499999111        0.5000000000        0.8137781238
Pd            0.0000000000        0.7499996432        0.8137788949
Pd            0.5000000000        0.0000000000        0.0001745214
Pd            0.7500000105        0.2499999895        0.0001746937
Pd            0.7499996034        0.0000000000        0.1859785550
Pd            0.5000000000        0.2499990693        0.1859787300
Pd            0.5000000000        0.0000000000        0.6279747485
Pd            0.7499991507        0.2500008493        0.6279754960
Pd            0.7499996432        0.0000000000        0.8137788949
Pd            0.5000000000        0.2499999111        0.8137781238
Pd            0.5000000000        0.5000000000        0.0001745476
Pd            0.7500000105        0.7500000105        0.0001746937
Pd            0.7500009307        0.5000000000        0.1859787300
Pd            0.5000000000        0.7500009307        0.1859787300
Pd            0.5000000000        0.5000000000        0.6279744576
Pd            0.7499991507        0.7499991507        0.6279754960
Pd            0.7500000889        0.5000000000        0.8137781238
Pd            0.5000000000        0.7500000889        0.8137781238

     Writing output data file /scratch/yZIOXgHmkbYHhIMp.save/
     NEW-OLD atomic charge density approx. for the potential

[...]

     Energy error            =      1.8E-04
     Gradient error          =      1.8E-03

[...]

     energy   old            =  -16384.0744950155 Ry
     energy   new            =  -16384.0746789844 Ry

     CASE: energy  _new < energy  _old

[...]

     number of scf cycles    =   3
     number of bfgs steps    =   2

     energy   old            =  -16384.0746789844 Ry
     energy   new            =  -16384.0748006225 Ry

     CASE: energy  _new < energy  _old

     new trust radius        =       0.0048475296 bohr
     new conv_thr            =       0.0000000106 Ry

ATOMIC_POSITIONS (crystal)
Pd            0.0000000000        0.0000000000        0.0006078699
Pd            0.2500001901        0.2500001901        0.0006075755
Pd            0.2500011890       -0.0000000000        0.1858258024
Pd            0.0000000000        0.2500011890        0.1858258024
Pd            0.0000000000        0.0000000000        0.6281301402
Pd            0.2499985362        0.2499985362        0.6281307053
Pd            0.2499995374        0.0000000000        0.8133428943
Pd            0.0000000000        0.2499995374        0.8133428943
Pd            0.0000000000        0.5000000000        0.0006078116
Pd            0.2500001901        0.7499998099        0.0006075755
Pd            0.2500003578        0.5000000000        0.1858258263
Pd            0.0000000000        0.7499988110        0.1858258024
Pd            0.0000000000        0.5000000000        0.6281292182
Pd            0.2499985362        0.7500014638        0.6281307053
Pd            0.2499988548        0.5000000000        0.8133436077
Pd            0.0000000000        0.7500004626        0.8133428943
Pd            0.5000000000        0.0000000000        0.0006078116
Pd            0.7499998099        0.2500001901        0.0006075755
Pd            0.7499988110        0.0000000000        0.1858258024
Pd            0.5000000000        0.2500003578        0.1858258263
Pd            0.5000000000        0.0000000000        0.6281292182
Pd            0.7500014638        0.2499985362        0.6281307053
Pd            0.7500004626        0.0000000000        0.8133428943
Pd            0.5000000000        0.2499988548        0.8133436077
Pd            0.5000000000        0.5000000000        0.0006091584
Pd            0.7499998099        0.7499998099        0.0006075755
Pd            0.7499996422        0.5000000000        0.1858258263
Pd            0.5000000000        0.7499996422        0.1858258263
Pd            0.5000000000        0.5000000000        0.6281289396
Pd            0.7500014638        0.7500014638        0.6281307053
Pd            0.7500011452        0.5000000000        0.8133436077
Pd            0.5000000000        0.7500011452        0.8133436077

     Writing output data file /scratch/yZIOXgHmkbYHhIMp.save/
     NEW-OLD atomic charge density approx. for the potential

     Check: negative core charge=   -0.000001

     Self-consistent Calculation

[...]

     Threshold (ethr) on eigenvalues was too large:
     Diagonalizing with lowered threshold

     Davidson diagonalization with overlap
     ethr =  9.56E-09,  avg # of iterations =  4.5

[...]

     total energy              =  -16384.07483538 Ry
     estimated scf accuracy    <       0.00000001 Ry

     iteration # 10     ecut=    71.00 Ry     beta= 0.10
     Davidson diagonalization with overlap
     ethr =  1.90E-12,  avg # of iterations =  2.0

     End of self-consistent calculation

[...]

          k = 0.3889-0.5000-0.3721 ( 44384 PWs)   bands (ev):

[...]

          k =-0.5000-0.5000-0.3721 ( 44440 PWs)   bands (ev):

   -71.1379 -71.1379 -71.1379 -71.1379 -71.1162 -71.1162 -71.1162 -71.1161
   -71.1108 -71.1108 -71.1108 -71.1107 -71.1107 -71.1107 -71.1107 -71.1107
   -70.5702 -70.5702 -70.5702 -70.5702 -70.5702 -70.5702 -70.5702 -70.5701
   -70.5542 -70.5542 -70.5542 -70.5542 -70.5542 -70.5542 -70.5542 -70.5542
   -36.9620 -36.9620 -36.9620 -36.9620 -36.9620 -36.9620 -36.9620 -36.9620
   -36.9472 -36.9472 -36.9472 -36.9472 -36.8980 -36.8980 -36.8980 -36.8980
   -36.8392 -36.8392 -36.8392 -36.8392 -36.8392 -36.8392 -36.8392 -36.8392
   -36.8011 -36.8011 -36.8011 -36.8011 -36.7989 -36.7989 -36.7989 -36.7989
   -36.7989 -36.7989 -36.7989 -36.7989 -36.7777 -36.7777 -36.7777 -36.7777
   -36.7545 -36.7545 -36.7545 -36.7545 -36.7071 -36.7071 -36.7071 -36.7071
   -36.4425 -36.4425 -36.4425 -36.4425 -36.4425 -36.4425 -36.4425 -36.4425
   -36.3594 -36.3594 -36.3594 -36.3594 -36.3568 -36.3568 -36.3568 -36.3568
   -36.3448 -36.3448 -36.3448 -36.3448 -36.3448 -36.3448 -36.3448 -36.3448
   -36.2564 -36.2564 -36.2564 -36.2564 -36.2563 -36.2563 -36.2563 -36.2563
   -36.1742 -36.1742 -36.1742 -36.1742 -36.1735 -36.1735 -36.1735 -36.1735
   -36.1624 -36.1623 -36.1623 -36.1623 -36.1623 -36.1623 -36.1623 -36.1623
     7.7877   7.7877   7.7877   7.7877   8.4076   8.4076   8.4076   8.4076
     8.7400   8.7400   8.7400   8.7400   8.7401   8.7401   8.7401   8.7401
     8.8317   8.8317   8.8317   8.8317   8.9113   8.9113   8.9113   8.9113
     8.9113   8.9113   8.9113   8.9113   8.9939   8.9939   8.9939   8.9939
     9.2906   9.2906   9.2906   9.2907   9.5958   9.5958   9.5958   9.5958
     9.5959   9.5959   9.5959   9.5959   9.8924   9.8925   9.8925   9.8925
     9.8925   9.8925   9.8925   9.8925  10.0617  10.0617  10.0617  10.0617
    10.2938  10.2938  10.2938  10.2938  10.5317  10.5317  10.5317  10.5317
    10.6440  10.6440  10.6440  10.6440  10.6951  10.6951  10.6951  10.6951
    10.7600  10.7600  10.7600  10.7600  10.8735  10.8735  10.8736  10.8736
    10.8736  10.8736  10.8736  10.8736  10.9211  10.9211  10.9211  10.9211
    11.1781  11.1781  11.1782  11.1782  11.3318  11.3318  11.3318  11.3318
    11.4517  11.4517  11.4517  11.4517  11.4517  11.4518  11.4518  11.4518
    11.4950  11.4950  11.4950  11.4950  11.4950  11.4950  11.4951  11.4951
    11.5205  11.5205  11.5206  11.5206  11.7406  11.7406  11.7406  11.7406
    12.0337  12.0337  12.0337  12.0337  12.0354  12.0354  12.0354  12.0354
    12.0354  12.0354  12.0354  12.0354  12.0887  12.0887  12.0887  12.0887
    12.3269  12.3269  12.3269  12.3269  12.5314  12.5315  12.5315  12.5315
    12.6822  12.6822  12.6822  12.6822  12.6822  12.6822  12.6822  12.6822
    12.9485  12.9485  12.9485  12.9485  13.0077  13.0077  13.0077  13.0077
    13.0077  13.0077  13.0077  13.0077  13.0164  13.0164  13.0164  13.0164
    14.1915  14.1915  14.1915  14.1915  15.6967  15.6967  15.6967  15.6967
    16.2914  16.2914  16.2914  16.2915  16.2915  16.2915  16.2915  16.2915
    17.3000  17.3000  17.3000  17.3000  17.3000  17.3000  17.3000  17.3000
    19.5569  19.5569  19.5569  19.5569  19.5569  19.5569  19.5569  19.5569
    19.5966  19.5966  19.5966  19.5966  21.5318  21.5318  21.5318  21.5319
    21.5319  21.5319  21.5319  21.5319  21.6612  21.6612  21.6612  21.6612
    22.5052  22.5052

     the Fermi energy is    13.0191 ev

!    total energy              =  -16384.07483543 Ry

     total all-electron energy =   -322944.928543 Ry
     estimated scf accuracy    <          5.7E-09 Ry
     smearing contrib. (-TS)   =       0.12053818 Ry
     internal energy E=F+TS    =  -16384.19537361 Ry

     The total energy is F=E-TS. E is the sum of the following terms:
     one-electron contribution =   -7176.94785958 Ry
     hartree contribution      =    3878.66854502 Ry
     xc contribution           =    -985.34555450 Ry
     ewald contribution        =   -3933.24008251 Ry
     one-center paw contrib.   =   -8167.33042204 Ry

     convergence has been achieved in  10 iterations

     Forces acting on atoms (cartesian axes, Ry/au):

     atom    1 type  1   force =     0.00000000    0.00000000   -0.00017544
     atom    2 type  1   force =    -0.00000067   -0.00000067   -0.00017697
     atom    3 type  1   force =    -0.00000235    0.00000000    0.00032891
     atom    4 type  1   force =     0.00000000   -0.00000235    0.00032891
     atom    5 type  1   force =     0.00000000    0.00000000   -0.00034088
     atom    6 type  1   force =     0.00000318    0.00000318   -0.00034097
     atom    7 type  1   force =     0.00000172    0.00000000    0.00019000
     atom    8 type  1   force =     0.00000000    0.00000172    0.00019000
     atom    9 type  1   force =     0.00000000    0.00000000   -0.00017782
     atom   10 type  1   force =    -0.00000067    0.00000067   -0.00017697
     atom   11 type  1   force =    -0.00000072    0.00000000    0.00033002
     atom   12 type  1   force =     0.00000000    0.00000235    0.00032891
     atom   13 type  1   force =     0.00000000    0.00000000   -0.00033718
     atom   14 type  1   force =     0.00000318   -0.00000318   -0.00034097
     atom   15 type  1   force =     0.00000526    0.00000000    0.00018482
     atom   16 type  1   force =     0.00000000   -0.00000172    0.00019000
     atom   17 type  1   force =     0.00000000    0.00000000   -0.00017782
     atom   18 type  1   force =     0.00000067   -0.00000067   -0.00017697
     atom   19 type  1   force =     0.00000235    0.00000000    0.00032891
     atom   20 type  1   force =     0.00000000   -0.00000072    0.00033002
     atom   21 type  1   force =     0.00000000    0.00000000   -0.00033718
     atom   22 type  1   force =    -0.00000318    0.00000318   -0.00034097
     atom   23 type  1   force =    -0.00000172    0.00000000    0.00019000
     atom   24 type  1   force =     0.00000000    0.00000526    0.00018482
     atom   25 type  1   force =     0.00000000    0.00000000   -0.00018450
     atom   26 type  1   force =     0.00000067    0.00000067   -0.00017697
     atom   27 type  1   force =     0.00000072    0.00000000    0.00033002
     atom   28 type  1   force =     0.00000000    0.00000072    0.00033002
     atom   29 type  1   force =     0.00000000    0.00000000   -0.00033242
     atom   30 type  1   force =    -0.00000318   -0.00000318   -0.00034097
     atom   31 type  1   force =    -0.00000526    0.00000000    0.00018482
     atom   32 type  1   force =     0.00000000   -0.00000526    0.00018482

     Total force =     0.001524     Total SCF correction =     0.000627
     SCF correction compared to forces is large: reduce conv_thr to get better values

     Computing stress (Cartesian axis) and pressure

          total   stress  (Ry/bohr**3)                   (kbar)     P=      -42.60
  -0.00034489   0.00000000   0.00000000          -50.74        0.00        0.00
   0.00000000  -0.00034489   0.00000000            0.00      -50.74        0.00
   0.00000000   0.00000000  -0.00017899            0.00        0.00      -26.33

     Energy error            =      3.5E-05
     Gradient error          =      3.4E-04

     bfgs converged in   4 scf cycles and   3 bfgs steps
     (criteria: energy <  1.0E-04 Ry, force <  1.0E-03 Ry/Bohr)

     End of BFGS Geometry Optimization

     Final energy   =  -16384.0748354317 Ry

     File /scratch/yZIOXgHmkbYHhIMp.bfgs deleted, as requested
Begin final coordinates

ATOMIC_POSITIONS (crystal)
Pd            0.0000000000        0.0000000000        0.0006078699
Pd            0.2500001901        0.2500001901        0.0006075755
Pd            0.2500011890       -0.0000000000        0.1858258024
Pd            0.0000000000        0.2500011890        0.1858258024
Pd            0.0000000000        0.0000000000        0.6281301402
Pd            0.2499985362        0.2499985362        0.6281307053
Pd            0.2499995374        0.0000000000        0.8133428943
Pd            0.0000000000        0.2499995374        0.8133428943
Pd            0.0000000000        0.5000000000        0.0006078116
Pd            0.2500001901        0.7499998099        0.0006075755
Pd            0.2500003578        0.5000000000        0.1858258263
Pd            0.0000000000        0.7499988110        0.1858258024
Pd            0.0000000000        0.5000000000        0.6281292182
Pd            0.2499985362        0.7500014638        0.6281307053
Pd            0.2499988548        0.5000000000        0.8133436077
Pd            0.0000000000        0.7500004626        0.8133428943
Pd            0.5000000000        0.0000000000        0.0006078116
Pd            0.7499998099        0.2500001901        0.0006075755
Pd            0.7499988110        0.0000000000        0.1858258024
Pd            0.5000000000        0.2500003578        0.1858258263
Pd            0.5000000000        0.0000000000        0.6281292182
Pd            0.7500014638        0.2499985362        0.6281307053
Pd            0.7500004626        0.0000000000        0.8133428943
Pd            0.5000000000        0.2499988548        0.8133436077
Pd            0.5000000000        0.5000000000        0.0006091584
Pd            0.7499998099        0.7499998099        0.0006075755
Pd            0.7499996422        0.5000000000        0.1858258263
Pd            0.5000000000        0.7499996422        0.1858258263
Pd            0.5000000000        0.5000000000        0.6281289396
Pd            0.7500014638        0.7500014638        0.6281307053
Pd            0.7500011452        0.5000000000        0.8133436077
Pd            0.5000000000        0.7500011452        0.8133436077
End final coordinates

     Writing output data file /scratch/yZIOXgHmkbYHhIMp.save/

     General routines

     Parallel routines

   This run was terminated on:  14:36:44   8Jan2022

   JOB DONE.