     Program PWSCF v.6.7MaX starts on  7Jan2022 at 12:36:33

     R & G space division:  proc/nbgrp/npool/nimage =      72
     Reading input from relax_19.in
Warning: card &CELL ignored
Warning: card CELL_DYNAMICS = 'BFGS', ignored
Warning: card CELL_FACTOR = 2.0, ignored
Warning: card PRESS = 0.0, ignored
Warning: card / ignored

     Current dimensions of program PWSCF are:
     Max number of different atomic species (ntypx) = 10
     Max number of k-points (npk) =  40000
     Max angular momentum in pseudopotentials (lmaxx) =  3
     file Pd.pbe-spn-kjpaw_psl.1.0.0.UPF: wavefunction(s)  4S 5S 4D renormalized

     Subspace diagonalization in iterative solution of the eigenvalue problem:
     one sub-group per band group will be used

     Found symmetry operation: I + (  0.2500  0.2500  0.0000)
     This is a supercell, fractional translations are disabled
     Message from routine setup:
     using ibrav=0 with symmetry is DISCOURAGED, use correct ibrav instead

     bravais-lattice index     =            0
     lattice parameter (alat)  =      14.8394  a.u.
     unit-cell volume          =    5105.8824 (a.u.)^3
     number of atoms/cell      =           32
     number of atomic types    =            1
     number of electrons       =       576.00
     number of Kohn-Sham states=          346
     kinetic-energy cutoff     =      71.0000  Ry
     charge density cutoff     =     430.0000  Ry
     scf convergence threshold =      1.0E-06
     mixing beta               =       0.1000
     number of iterations used =           10  TF        mixing
     energy convergence thresh.=      1.0E-04
     force convergence thresh. =      1.0E-03
     Exchange-correlation= SLA  PW   PBX  PBC
                           (   1   4   3   4   0   0   0)
     nstep                     =           40

     celldm(1)=  14.839420  celldm(2)=   0.000000  celldm(3)=   0.000000
     celldm(4)=   0.000000  celldm(5)=   0.000000  celldm(6)=   0.000000

     crystal axes: (cart. coord. in units of alat)
               a(1) = (   1.000000   0.000000   0.000000 )
               a(2) = (   0.000000   1.000000   0.000000 )
               a(3) = (   0.000000   0.000000   1.562500 )

     reciprocal axes: (cart. coord. in units 2 pi/alat)
               b(1) = (  1.000000  0.000000  0.000000 )
               b(2) = (  0.000000  1.000000  0.000000 )
               b(3) = (  0.000000  0.000000  0.640000 )

     PseudoPot. # 1 for Pd read from file:
     /rds/homes/b/bxp912/pp/Pd.pbe-spn-kjpaw_psl.1.0.0.UPF
     MD5 check sum: 790f2ebce206edfd9790dcb9844eca51
     Pseudo is Projector augmented-wave + core cor, Zval = 18.0
     Generated using &quot;atomic&quot; code by A. Dal Corso  v.6.3
     Shape of augmentation charge: PSQ
     Using radial grid of 1235 points,  6 beta functions with:
                l(1) =   0
                l(2) =   0
                l(3) =   1
                l(4) =   1
                l(5) =   2
                l(6) =   2
     Q(r) pseudized with 0 coefficients

     atomic species   valence    mass     pseudopotential
        Pd            18.00   106.42000     Pd( 1.00)

      8 Sym. Ops. (no inversion) found

   Cartesian axes

     site n.     atom                  positions (alat units)
         1           Pd  tau(   1) = (   0.0000000   0.0000000   0.0000000  )
         2           Pd  tau(   2) = (   0.2500000   0.2500000   0.0000000  )
         3           Pd  tau(   3) = (   0.2500000   0.0000000   0.2500000  )
         4           Pd  tau(   4) = (   0.0000000   0.2500000   0.2500000  )
         5           Pd  tau(   5) = (   0.0000000   0.0000000   1.0625000  )
         6           Pd  tau(   6) = (   0.2500000   0.2500000   1.0625000  )
         7           Pd  tau(   7) = (   0.2500000   0.0000000   1.3125000  )
         8           Pd  tau(   8) = (   0.0000000   0.2500000   1.3125000  )
         9           Pd  tau(   9) = (   0.0000000   0.5000000   0.0000000  )
        10           Pd  tau(  10) = (   0.2500000   0.7500000   0.0000000  )
        11           Pd  tau(  11) = (   0.2500000   0.5000000   0.2500000  )
        12           Pd  tau(  12) = (   0.0000000   0.7500000   0.2500000  )
        13           Pd  tau(  13) = (   0.0000000   0.5000000   1.0625000  )
        14           Pd  tau(  14) = (   0.2500000   0.7500000   1.0625000  )
        15           Pd  tau(  15) = (   0.2500000   0.5000000   1.3125000  )
        16           Pd  tau(  16) = (   0.0000000   0.7500000   1.3125000  )
        17           Pd  tau(  17) = (   0.5000000   0.0000000   0.0000000  )
        18           Pd  tau(  18) = (   0.7500000   0.2500000   0.0000000  )
        19           Pd  tau(  19) = (   0.7500000   0.0000000   0.2500000  )
        20           Pd  tau(  20) = (   0.5000000   0.2500000   0.2500000  )
        21           Pd  tau(  21) = (   0.5000000   0.0000000   1.0625000  )
        22           Pd  tau(  22) = (   0.7500000   0.2500000   1.0625000  )
        23           Pd  tau(  23) = (   0.7500000   0.0000000   1.3125000  )
        24           Pd  tau(  24) = (   0.5000000   0.2500000   1.3125000  )
        25           Pd  tau(  25) = (   0.5000000   0.5000000   0.0000000  )
        26           Pd  tau(  26) = (   0.7500000   0.7500000   0.0000000  )
        27           Pd  tau(  27) = (   0.7500000   0.5000000   0.2500000  )
        28           Pd  tau(  28) = (   0.5000000   0.7500000   0.2500000  )
        29           Pd  tau(  29) = (   0.5000000   0.5000000   1.0625000  )
        30           Pd  tau(  30) = (   0.7500000   0.7500000   1.0625000  )
        31           Pd  tau(  31) = (   0.7500000   0.5000000   1.3125000  )
        32           Pd  tau(  32) = (   0.5000000   0.7500000   1.3125000  )

     number of k points=    75  Marzari-Vanderbilt smearing, width (Ry)=  0.0400
                       cart. coord. in units 2pi/alat
        k(    1) = (   0.0555556   0.0555556   0.0355556), wk =   0.0219479
        k(    2) = (   0.0555556   0.0555556   0.1066667), wk =   0.0219479
        k(    3) = (   0.0555556   0.0555556   0.1777778), wk =   0.0219479
        k(    4) = (   0.0555556   0.0555556   0.2488889), wk =   0.0219479
        k(    5) = (   0.0555556   0.0555556  -0.3200000), wk =   0.0109739
        k(    6) = (   0.0555556   0.1666667   0.0355556), wk =   0.0438957
        k(    7) = (   0.0555556   0.1666667   0.1066667), wk =   0.0438957
        k(    8) = (   0.0555556   0.1666667   0.1777778), wk =   0.0438957
        k(    9) = (   0.0555556   0.1666667   0.2488889), wk =   0.0438957
        k(   10) = (   0.0555556   0.1666667  -0.3200000), wk =   0.0219479
        k(   11) = (   0.0555556   0.2777778   0.0355556), wk =   0.0438957
        k(   12) = (   0.0555556   0.2777778   0.1066667), wk =   0.0438957
        k(   13) = (   0.0555556   0.2777778   0.1777778), wk =   0.0438957
        k(   14) = (   0.0555556   0.2777778   0.2488889), wk =   0.0438957
        k(   15) = (   0.0555556   0.2777778  -0.3200000), wk =   0.0219479
        k(   16) = (   0.0555556   0.3888889   0.0355556), wk =   0.0438957
        k(   17) = (   0.0555556   0.3888889   0.1066667), wk =   0.0438957
        k(   18) = (   0.0555556   0.3888889   0.1777778), wk =   0.0438957
        k(   19) = (   0.0555556   0.3888889   0.2488889), wk =   0.0438957
        k(   20) = (   0.0555556   0.3888889  -0.3200000), wk =   0.0219479
        k(   21) = (   0.0555556  -0.5000000   0.0355556), wk =   0.0219479
        k(   22) = (   0.0555556  -0.5000000   0.1066667), wk =   0.0219479
        k(   23) = (   0.0555556  -0.5000000   0.1777778), wk =   0.0219479
        k(   24) = (   0.0555556  -0.5000000   0.2488889), wk =   0.0219479
        k(   25) = (   0.0555556  -0.5000000  -0.3200000), wk =   0.0109739
        k(   26) = (   0.1666667   0.1666667   0.0355556), wk =   0.0219479
        k(   27) = (   0.1666667   0.1666667   0.1066667), wk =   0.0219479
        k(   28) = (   0.1666667   0.1666667   0.1777778), wk =   0.0219479
        k(   29) = (   0.1666667   0.1666667   0.2488889), wk =   0.0219479
        k(   30) = (   0.1666667   0.1666667  -0.3200000), wk =   0.0109739
        k(   31) = (   0.1666667   0.2777778   0.0355556), wk =   0.0438957
        k(   32) = (   0.1666667   0.2777778   0.1066667), wk =   0.0438957
        k(   33) = (   0.1666667   0.2777778   0.1777778), wk =   0.0438957
        k(   34) = (   0.1666667   0.2777778   0.2488889), wk =   0.0438957
        k(   35) = (   0.1666667   0.2777778  -0.3200000), wk =   0.0219479
        k(   36) = (   0.1666667   0.3888889   0.0355556), wk =   0.0438957
        k(   37) = (   0.1666667   0.3888889   0.1066667), wk =   0.0438957
        k(   38) = (   0.1666667   0.3888889   0.1777778), wk =   0.0438957
        k(   39) = (   0.1666667   0.3888889   0.2488889), wk =   0.0438957
        k(   40) = (   0.1666667   0.3888889  -0.3200000), wk =   0.0219479
        k(   41) = (   0.1666667  -0.5000000   0.0355556), wk =   0.0219479
        k(   42) = (   0.1666667  -0.5000000   0.1066667), wk =   0.0219479
        k(   43) = (   0.1666667  -0.5000000   0.1777778), wk =   0.0219479
        k(   44) = (   0.1666667  -0.5000000   0.2488889), wk =   0.0219479
        k(   45) = (   0.1666667  -0.5000000  -0.3200000), wk =   0.0109739
        k(   46) = (   0.2777778   0.2777778   0.0355556), wk =   0.0219479
        k(   47) = (   0.2777778   0.2777778   0.1066667), wk =   0.0219479
        k(   48) = (   0.2777778   0.2777778   0.1777778), wk =   0.0219479
        k(   49) = (   0.2777778   0.2777778   0.2488889), wk =   0.0219479
        k(   50) = (   0.2777778   0.2777778  -0.3200000), wk =   0.0109739
        k(   51) = (   0.2777778   0.3888889   0.0355556), wk =   0.0438957
        k(   52) = (   0.2777778   0.3888889   0.1066667), wk =   0.0438957
        k(   53) = (   0.2777778   0.3888889   0.1777778), wk =   0.0438957
        k(   54) = (   0.2777778   0.3888889   0.2488889), wk =   0.0438957
        k(   55) = (   0.2777778   0.3888889  -0.3200000), wk =   0.0219479
        k(   56) = (   0.2777778  -0.5000000   0.0355556), wk =   0.0219479
        k(   57) = (   0.2777778  -0.5000000   0.1066667), wk =   0.0219479
        k(   58) = (   0.2777778  -0.5000000   0.1777778), wk =   0.0219479
        k(   59) = (   0.2777778  -0.5000000   0.2488889), wk =   0.0219479
        k(   60) = (   0.2777778  -0.5000000  -0.3200000), wk =   0.0109739
        k(   61) = (   0.3888889   0.3888889   0.0355556), wk =   0.0219479
        k(   62) = (   0.3888889   0.3888889   0.1066667), wk =   0.0219479
        k(   63) = (   0.3888889   0.3888889   0.1777778), wk =   0.0219479
        k(   64) = (   0.3888889   0.3888889   0.2488889), wk =   0.0219479
        k(   65) = (   0.3888889   0.3888889  -0.3200000), wk =   0.0109739
        k(   66) = (   0.3888889  -0.5000000   0.0355556), wk =   0.0219479
        k(   67) = (   0.3888889  -0.5000000   0.1066667), wk =   0.0219479
        k(   68) = (   0.3888889  -0.5000000   0.1777778), wk =   0.0219479
        k(   69) = (   0.3888889  -0.5000000   0.2488889), wk =   0.0219479
        k(   70) = (   0.3888889  -0.5000000  -0.3200000), wk =   0.0109739
[...]
     atom   32 type  1   force =     0.00000000    0.00001092   -0.00310666

     Total force =     0.021697     Total SCF correction =     0.004694
     SCF correction compared to forces is large: reduce conv_thr to get better values

     Computing stress (Cartesian axis) and pressure

          total   stress  (Ry/bohr**3)                   (kbar)     P=      -35.41
  -0.00030131   0.00000000   0.00000000          -44.32        0.00        0.00
   0.00000000  -0.00030131   0.00000000            0.00      -44.32        0.00
   0.00000000   0.00000000  -0.00011949            0.00        0.00      -17.58

     BFGS Geometry Optimization
     Energy error            =      0.0E+00
     Gradient error          =      4.5E-03

     number of scf cycles    =   1
     number of bfgs steps    =   0

     energy   new            =  -16384.0518586900 Ry

     new trust radius        =       0.0044542435 bohr
     new conv_thr            =       0.0000010000 Ry

ATOMIC_POSITIONS (crystal)
Pd            0.0000000000        0.0000000000        0.0001349501
Pd            0.2500000809        0.2500000809        0.0001351718
Pd            0.2500005393        0.0000000000        0.1598079214
Pd            0.0000000000        0.2500005393        0.1598079214
Pd            0.0000000000        0.0000000000        0.6801910822
Pd            0.2500000640        0.2500000640        0.6801909851
Pd            0.2499998668        0.0000000000        0.8398664077
Pd            0.0000000000        0.2499998668        0.8398664077
Pd            0.0000000000        0.5000000000        0.0001348302
Pd            0.2500000809        0.7499999191        0.0001351718
Pd            0.2499995432        0.5000000000        0.1598078960
Pd            0.0000000000        0.7499994607        0.1598079214
Pd            0.0000000000        0.5000000000        0.6801906817
Pd            0.2500000640        0.7499999360        0.6801909851
Pd            0.2499992640        0.5000000000        0.8398660150
Pd            0.0000000000        0.7500001332        0.8398664077
Pd            0.5000000000        0.0000000000        0.0001348302
Pd            0.7499999191        0.2500000809        0.0001351718
Pd            0.7499994607        0.0000000000        0.1598079214
Pd            0.5000000000        0.2499995432        0.1598078960
Pd            0.5000000000        0.0000000000        0.6801906817
Pd            0.7499999360        0.2500000640        0.6801909851
Pd            0.7500001332        0.0000000000        0.8398664077
Pd            0.5000000000        0.2499992640        0.8398660150
Pd            0.5000000000        0.5000000000        0.0001351235
Pd            0.7499999191        0.7499999191        0.0001351718
Pd            0.7500004568        0.5000000000        0.1598078960
Pd            0.5000000000        0.7500004568        0.1598078960
Pd            0.5000000000        0.5000000000        0.6801902324
Pd            0.7499999360        0.7499999360        0.6801909851
Pd            0.7500007360        0.5000000000        0.8398660150
Pd            0.5000000000        0.7500007360        0.8398660150

     Writing output data file /scratch/YpUETEwtnpJyXVWy.save/
     NEW-OLD atomic charge density approx. for the potential

[...]

     Energy error            =      3.9E-04
     Gradient error          =      3.4E-03

[...]

     energy   old            =  -16384.0518586900 Ry
     energy   new            =  -16384.0522534241 Ry

     CASE: energy  _new < energy  _old

[...]

     Total force =     0.011549     Total SCF correction =     0.000439

[...]

     Total force =     0.007517     Total SCF correction =     0.000360

[...]

     number of scf cycles    =   8
     number of bfgs steps    =   7

     energy   old            =  -16384.0530802759 Ry
     energy   new            =  -16384.0531806219 Ry

     CASE: energy  _new < energy  _old

     new trust radius        =       0.0027879043 bohr
     new conv_thr            =       0.0000000100 Ry

ATOMIC_POSITIONS (crystal)
Pd            0.0000000000        0.0000000000       -0.0001211903
Pd            0.2499997243        0.2499997243       -0.0001206205
Pd            0.2500003964        0.0000000000        0.1581294577
Pd            0.0000000000        0.2500003964        0.1581294577
Pd            0.0000000000        0.0000000000        0.6818708901
Pd            0.2499997926        0.2499997926        0.6818701607
Pd            0.2499991462        0.0000000000        0.8401212718
Pd            0.0000000000        0.2499991462        0.8401212718
Pd            0.0000000000        0.5000000000       -0.0001212372
Pd            0.2499997243        0.7500002757       -0.0001206205
Pd            0.2499997147        0.5000000000        0.1581296962
Pd            0.0000000000        0.7499996036        0.1581294577
Pd            0.0000000000        0.5000000000        0.6818697619
Pd            0.2499997926        0.7500002074        0.6818701607
Pd            0.2499991124        0.5000000000        0.8401213006
Pd            0.0000000000        0.7500008538        0.8401212718
Pd            0.5000000000        0.0000000000       -0.0001212372
Pd            0.7500002757        0.2499997243       -0.0001206205
Pd            0.7499996036        0.0000000000        0.1581294577
Pd            0.5000000000        0.2499997147        0.1581296962
Pd            0.5000000000        0.0000000000        0.6818697619
Pd            0.7500002074        0.2499997926        0.6818701607
Pd            0.7500008538        0.0000000000        0.8401212718
Pd            0.5000000000        0.2499991124        0.8401213006
Pd            0.5000000000        0.5000000000       -0.0001205881
Pd            0.7500002757        0.7500002757       -0.0001206205
Pd            0.7500002853        0.5000000000        0.1581296962
Pd            0.5000000000        0.7500002853        0.1581296962
Pd            0.5000000000        0.5000000000        0.6818687729
Pd            0.7500002074        0.7500002074        0.6818701607
Pd            0.7500008876        0.5000000000        0.8401213006
Pd            0.5000000000        0.7500008876        0.8401213006

     Writing output data file /scratch/YpUETEwtnpJyXVWy.save/
     NEW-OLD atomic charge density approx. for the potential

     Check: negative core charge=   -0.000001

     Self-consistent Calculation

[...]

     Threshold (ethr) on eigenvalues was too large:
     Diagonalizing with lowered threshold

     Davidson diagonalization with overlap
     ethr =  6.03E-09,  avg # of iterations =  3.4

[...]

     total energy              =  -16384.05319253 Ry
     estimated scf accuracy    <       0.00000001 Ry

     iteration # 10     ecut=    71.00 Ry     beta= 0.10
     Davidson diagonalization with overlap
     ethr =  2.08E-12,  avg # of iterations =  2.0

     End of self-consistent calculation

[...]

          k = 0.3889-0.5000-0.3200 ( 51588 PWs)   bands (ev):

[...]

          k =-0.5000-0.5000-0.3200 ( 51624 PWs)   bands (ev):

   -73.6686 -73.6686 -73.6686 -73.6686 -73.6456 -73.6456 -73.6456 -73.6456
   -73.6408 -73.6408 -73.6408 -73.6408 -73.6408 -73.6408 -73.6408 -73.6408
   -73.0808 -73.0808 -73.0808 -73.0808 -73.0808 -73.0808 -73.0808 -73.0808
   -73.0648 -73.0648 -73.0648 -73.0648 -73.0648 -73.0648 -73.0648 -73.0648
   -39.4946 -39.4946 -39.4946 -39.4946 -39.4945 -39.4945 -39.4945 -39.4945
   -39.4838 -39.4838 -39.4838 -39.4837 -39.4311 -39.4311 -39.4311 -39.4311
   -39.3710 -39.3710 -39.3710 -39.3710 -39.3710 -39.3710 -39.3710 -39.3710
   -39.3286 -39.3286 -39.3286 -39.3286 -39.3270 -39.3270 -39.3270 -39.3270
   -39.3270 -39.3270 -39.3270 -39.3270 -39.3071 -39.3071 -39.3071 -39.3071
   -39.2850 -39.2850 -39.2850 -39.2850 -39.2348 -39.2348 -39.2348 -39.2348
   -38.9552 -38.9552 -38.9552 -38.9552 -38.9552 -38.9552 -38.9552 -38.9551
   -38.8720 -38.8720 -38.8720 -38.8720 -38.8694 -38.8694 -38.8693 -38.8693
   -38.8576 -38.8576 -38.8576 -38.8576 -38.8575 -38.8575 -38.8575 -38.8575
   -38.7691 -38.7691 -38.7691 -38.7691 -38.7689 -38.7689 -38.7689 -38.7689
   -38.6827 -38.6827 -38.6827 -38.6827 -38.6819 -38.6819 -38.6819 -38.6819
   -38.6707 -38.6707 -38.6707 -38.6707 -38.6707 -38.6707 -38.6707 -38.6707
     5.2344   5.2344   5.2344   5.2344   5.8591   5.8591   5.8591   5.8591
     6.1866   6.1866   6.1866   6.1866   6.1866   6.1866   6.1866   6.1866
     6.2962   6.2962   6.2962   6.2962   6.3575   6.3575   6.3575   6.3575
     6.3575   6.3575   6.3575   6.3575   6.4457   6.4457   6.4457   6.4457
     6.7367   6.7367   6.7367   6.7367   7.0520   7.0520   7.0520   7.0520
     7.0520   7.0521   7.0521   7.0521   7.3607   7.3607   7.3607   7.3607
     7.3608   7.3608   7.3608   7.3608   7.5329   7.5329   7.5329   7.5329
     7.7652   7.7652   7.7652   7.7652   8.0237   8.0237   8.0237   8.0237
     8.1352   8.1352   8.1352   8.1352   8.1416   8.1416   8.1416   8.1416
     8.2262   8.2262   8.2262   8.2262   8.3380   8.3380   8.3380   8.3380
     8.3380   8.3380   8.3380   8.3380   8.3642   8.3642   8.3642   8.3642
     8.6796   8.6796   8.6796   8.6796   8.8134   8.8134   8.8134   8.8134
     8.9363   8.9363   8.9363   8.9363   8.9363   8.9363   8.9363   8.9363
     8.9715   8.9715   8.9715   8.9715   8.9715   8.9715   8.9715   8.9715
     8.9844   8.9844   8.9844   8.9844   9.2072   9.2072   9.2072   9.2072
     9.5508   9.5508   9.5508   9.5508   9.5508   9.5508   9.5508   9.5508
     9.5646   9.5646   9.5646   9.5646   9.6622   9.6622   9.6622   9.6622
     9.8127   9.8127   9.8127   9.8127  10.0224  10.0224  10.0224  10.0224
    10.1538  10.1538  10.1538  10.1538  10.1538  10.1538  10.1538  10.1538
    10.4471  10.4471  10.4471  10.4471  10.4974  10.4974  10.4974  10.4974
    10.4974  10.4974  10.4974  10.4974  10.5155  10.5155  10.5155  10.5155
    11.3598  11.3598  11.3598  11.3598  13.4831  13.4831  13.4831  13.4832
    13.7508  13.7508  13.7508  13.7508  13.7508  13.7508  13.7508  13.7508
    14.8697  14.8697  14.8697  14.8697  14.8697  14.8697  14.8697  14.8697
    16.2784  16.2784  16.2784  16.2784  16.9218  16.9218  16.9218  16.9218
    16.9218  16.9218  16.9218  16.9218  17.8147  17.8148  17.8148  17.8148
    19.1095  19.1095  19.1095  19.1096  19.1714  19.1714  19.1714  19.1715
    19.1715  19.1715

     the Fermi energy is    10.5114 ev

!    total energy              =  -16384.05319258 Ry

     total all-electron energy =   -322944.906900 Ry
     estimated scf accuracy    <          4.8E-09 Ry
     smearing contrib. (-TS)   =       0.12007922 Ry
     internal energy E=F+TS    =  -16384.17327180 Ry

     The total energy is F=E-TS. E is the sum of the following terms:
     one-electron contribution =  -12958.84097838 Ry
     hartree contribution      =    6716.28906732 Ry
     xc contribution           =    -985.50265133 Ry
     ewald contribution        =    -988.78194198 Ry
     one-center paw contrib.   =   -8167.33676743 Ry

     convergence has been achieved in  10 iterations

     Forces acting on atoms (cartesian axes, Ry/au):

     atom    1 type  1   force =     0.00000000    0.00000000   -0.00012377
     atom    2 type  1   force =     0.00000180    0.00000180   -0.00012845
     atom    3 type  1   force =    -0.00000057    0.00000000    0.00011796
     atom    4 type  1   force =     0.00000000   -0.00000057    0.00011796
     atom    5 type  1   force =     0.00000000    0.00000000   -0.00009264
     atom    6 type  1   force =     0.00000109    0.00000109   -0.00008812
     atom    7 type  1   force =     0.00000392    0.00000000    0.00009842
     atom    8 type  1   force =     0.00000000    0.00000392    0.00009842
     atom    9 type  1   force =     0.00000000    0.00000000   -0.00012636
     atom   10 type  1   force =     0.00000180   -0.00000180   -0.00012845
     atom   11 type  1   force =     0.00000077    0.00000000    0.00011650
     atom   12 type  1   force =     0.00000000    0.00000057    0.00011796
     atom   13 type  1   force =     0.00000000    0.00000000   -0.00008759
     atom   14 type  1   force =     0.00000109   -0.00000109   -0.00008812
     atom   15 type  1   force =     0.00000439    0.00000000    0.00009785
     atom   16 type  1   force =     0.00000000   -0.00000392    0.00009842
     atom   17 type  1   force =     0.00000000    0.00000000   -0.00012636
     atom   18 type  1   force =    -0.00000180    0.00000180   -0.00012845
     atom   19 type  1   force =     0.00000057    0.00000000    0.00011796
     atom   20 type  1   force =     0.00000000    0.00000077    0.00011650
     atom   21 type  1   force =     0.00000000    0.00000000   -0.00008759
     atom   22 type  1   force =    -0.00000109    0.00000109   -0.00008812
     atom   23 type  1   force =    -0.00000392    0.00000000    0.00009842
     atom   24 type  1   force =     0.00000000    0.00000439    0.00009785
     atom   25 type  1   force =     0.00000000    0.00000000   -0.00012971
     atom   26 type  1   force =    -0.00000180   -0.00000180   -0.00012845
     atom   27 type  1   force =    -0.00000077    0.00000000    0.00011650
     atom   28 type  1   force =     0.00000000   -0.00000077    0.00011650
     atom   29 type  1   force =     0.00000000    0.00000000   -0.00008264
     atom   30 type  1   force =    -0.00000109   -0.00000109   -0.00008812
     atom   31 type  1   force =    -0.00000439    0.00000000    0.00009785
     atom   32 type  1   force =     0.00000000   -0.00000439    0.00009785

     Total force =     0.000616     Total SCF correction =     0.000415
     SCF correction compared to forces is large: reduce conv_thr to get better values

     Computing stress (Cartesian axis) and pressure

          total   stress  (Ry/bohr**3)                   (kbar)     P=      -29.09
  -0.00026382   0.00000000   0.00000000          -38.81        0.00        0.00
   0.00000000  -0.00026382   0.00000000            0.00      -38.81        0.00
   0.00000000   0.00000000  -0.00006563            0.00        0.00       -9.65

     Energy error            =      1.2E-05
     Gradient error          =      1.3E-04

     bfgs converged in   9 scf cycles and   8 bfgs steps
     (criteria: energy <  1.0E-04 Ry, force <  1.0E-03 Ry/Bohr)

     End of BFGS Geometry Optimization

     Final energy   =  -16384.0531925787 Ry

     File /scratch/YpUETEwtnpJyXVWy.bfgs deleted, as requested
Begin final coordinates

ATOMIC_POSITIONS (crystal)
Pd            0.0000000000        0.0000000000       -0.0001211903
Pd            0.2499997243        0.2499997243       -0.0001206205
Pd            0.2500003964        0.0000000000        0.1581294577
Pd            0.0000000000        0.2500003964        0.1581294577
Pd            0.0000000000        0.0000000000        0.6818708901
Pd            0.2499997926        0.2499997926        0.6818701607
Pd            0.2499991462        0.0000000000        0.8401212718
Pd            0.0000000000        0.2499991462        0.8401212718
Pd            0.0000000000        0.5000000000       -0.0001212372
Pd            0.2499997243        0.7500002757       -0.0001206205
Pd            0.2499997147        0.5000000000        0.1581296962
Pd            0.0000000000        0.7499996036        0.1581294577
Pd            0.0000000000        0.5000000000        0.6818697619
Pd            0.2499997926        0.7500002074        0.6818701607
Pd            0.2499991124        0.5000000000        0.8401213006
Pd            0.0000000000        0.7500008538        0.8401212718
Pd            0.5000000000        0.0000000000       -0.0001212372
Pd            0.7500002757        0.2499997243       -0.0001206205
Pd            0.7499996036        0.0000000000        0.1581294577
Pd            0.5000000000        0.2499997147        0.1581296962
Pd            0.5000000000        0.0000000000        0.6818697619
Pd            0.7500002074        0.2499997926        0.6818701607
Pd            0.7500008538        0.0000000000        0.8401212718
Pd            0.5000000000        0.2499991124        0.8401213006
Pd            0.5000000000        0.5000000000       -0.0001205881
Pd            0.7500002757        0.7500002757       -0.0001206205
Pd            0.7500002853        0.5000000000        0.1581296962
Pd            0.5000000000        0.7500002853        0.1581296962
Pd            0.5000000000        0.5000000000        0.6818687729
Pd            0.7500002074        0.7500002074        0.6818701607
Pd            0.7500008876        0.5000000000        0.8401213006
Pd            0.5000000000        0.7500008876        0.8401213006
End final coordinates

     Writing output data file /scratch/YpUETEwtnpJyXVWy.save/

     General routines

     Parallel routines

   This run was terminated on:  16: 4:56   7Jan2022

   JOB DONE.