     Program PWSCF v.6.7MaX starts on  8Jan2022 at 19: 3:34

     R & G space division:  proc/nbgrp/npool/nimage =      72
     Reading input from relax_8.in
Warning: card &CELL ignored
Warning: card CELL_DYNAMICS = 'BFGS', ignored
Warning: card CELL_FACTOR = 2.0, ignored
Warning: card PRESS = 0.0, ignored
Warning: card / ignored

     Current dimensions of program PWSCF are:
     Max number of different atomic species (ntypx) = 10
     Max number of k-points (npk) =  40000
     Max angular momentum in pseudopotentials (lmaxx) =  3
     file Pd.pbe-spn-kjpaw_psl.1.0.0.UPF: wavefunction(s)  4S 5S 4D renormalized

     Subspace diagonalization in iterative solution of the eigenvalue problem:
     one sub-group per band group will be used

     Found symmetry operation: I + (  0.2500  0.2500  0.0000)
     This is a supercell, fractional translations are disabled
     Message from routine setup:
     using ibrav=0 with symmetry is DISCOURAGED, use correct ibrav instead

     bravais-lattice index     =            0
     lattice parameter (alat)  =      14.8394  a.u.
     unit-cell volume          =    3982.5883 (a.u.)^3
     number of atoms/cell      =           32
     number of atomic types    =            1
     number of electrons       =       576.00
     number of Kohn-Sham states=          346
     kinetic-energy cutoff     =      71.0000  Ry
     charge density cutoff     =     430.0000  Ry
     scf convergence threshold =      1.0E-06
     mixing beta               =       0.1000
     number of iterations used =           10  TF        mixing
     energy convergence thresh.=      1.0E-04
     force convergence thresh. =      1.0E-03
     Exchange-correlation= SLA  PW   PBX  PBC
                           (   1   4   3   4   0   0   0)
     nstep                     =           40

     celldm(1)=  14.839420  celldm(2)=   0.000000  celldm(3)=   0.000000
     celldm(4)=   0.000000  celldm(5)=   0.000000  celldm(6)=   0.000000

     crystal axes: (cart. coord. in units of alat)
               a(1) = (   1.000000   0.000000   0.000000 )
               a(2) = (   0.000000   1.000000   0.000000 )
               a(3) = (   0.000000   0.000000   1.218750 )

     reciprocal axes: (cart. coord. in units 2 pi/alat)
               b(1) = (  1.000000  0.000000  0.000000 )
               b(2) = (  0.000000  1.000000  0.000000 )
               b(3) = (  0.000000  0.000000  0.820513 )

     PseudoPot. # 1 for Pd read from file:
     /rds/homes/b/bxp912/pp/Pd.pbe-spn-kjpaw_psl.1.0.0.UPF
     MD5 check sum: 790f2ebce206edfd9790dcb9844eca51
     Pseudo is Projector augmented-wave + core cor, Zval = 18.0
     Generated using &quot;atomic&quot; code by A. Dal Corso  v.6.3
     Shape of augmentation charge: PSQ
     Using radial grid of 1235 points,  6 beta functions with:
                l(1) =   0
                l(2) =   0
                l(3) =   1
                l(4) =   1
                l(5) =   2
                l(6) =   2
     Q(r) pseudized with 0 coefficients

     atomic species   valence    mass     pseudopotential
        Pd            18.00   106.42000     Pd( 1.00)

      8 Sym. Ops. (no inversion) found

   Cartesian axes

     site n.     atom                  positions (alat units)
         1           Pd  tau(   1) = (   0.0000000   0.0000000   0.0000000  )
         2           Pd  tau(   2) = (   0.2500000   0.2500000   0.0000000  )
         3           Pd  tau(   3) = (   0.2500000   0.0000000   0.2500000  )
         4           Pd  tau(   4) = (   0.0000000   0.2500000   0.2500000  )
         5           Pd  tau(   5) = (   0.0000000   0.0000000   0.7187500  )
         6           Pd  tau(   6) = (   0.2500000   0.2500000   0.7187500  )
         7           Pd  tau(   7) = (   0.2500000   0.0000000   0.9687500  )
         8           Pd  tau(   8) = (   0.0000000   0.2500000   0.9687500  )
         9           Pd  tau(   9) = (   0.0000000   0.5000000   0.0000000  )
        10           Pd  tau(  10) = (   0.2500000   0.7500000   0.0000000  )
        11           Pd  tau(  11) = (   0.2500000   0.5000000   0.2500000  )
        12           Pd  tau(  12) = (   0.0000000   0.7500000   0.2500000  )
        13           Pd  tau(  13) = (   0.0000000   0.5000000   0.7187500  )
        14           Pd  tau(  14) = (   0.2500000   0.7500000   0.7187500  )
        15           Pd  tau(  15) = (   0.2500000   0.5000000   0.9687500  )
        16           Pd  tau(  16) = (   0.0000000   0.7500000   0.9687500  )
        17           Pd  tau(  17) = (   0.5000000   0.0000000   0.0000000  )
        18           Pd  tau(  18) = (   0.7500000   0.2500000   0.0000000  )
        19           Pd  tau(  19) = (   0.7500000   0.0000000   0.2500000  )
        20           Pd  tau(  20) = (   0.5000000   0.2500000   0.2500000  )
        21           Pd  tau(  21) = (   0.5000000   0.0000000   0.7187500  )
        22           Pd  tau(  22) = (   0.7500000   0.2500000   0.7187500  )
        23           Pd  tau(  23) = (   0.7500000   0.0000000   0.9687500  )
        24           Pd  tau(  24) = (   0.5000000   0.2500000   0.9687500  )
        25           Pd  tau(  25) = (   0.5000000   0.5000000   0.0000000  )
        26           Pd  tau(  26) = (   0.7500000   0.7500000   0.0000000  )
        27           Pd  tau(  27) = (   0.7500000   0.5000000   0.2500000  )
        28           Pd  tau(  28) = (   0.5000000   0.7500000   0.2500000  )
        29           Pd  tau(  29) = (   0.5000000   0.5000000   0.7187500  )
        30           Pd  tau(  30) = (   0.7500000   0.7500000   0.7187500  )
        31           Pd  tau(  31) = (   0.7500000   0.5000000   0.9687500  )
        32           Pd  tau(  32) = (   0.5000000   0.7500000   0.9687500  )

     number of k points=    75  Marzari-Vanderbilt smearing, width (Ry)=  0.0400
                       cart. coord. in units 2pi/alat
        k(    1) = (   0.0555556   0.0555556   0.0455840), wk =   0.0219479
        k(    2) = (   0.0555556   0.0555556   0.1367521), wk =   0.0219479
        k(    3) = (   0.0555556   0.0555556   0.2279202), wk =   0.0219479
        k(    4) = (   0.0555556   0.0555556   0.3190883), wk =   0.0219479
        k(    5) = (   0.0555556   0.0555556  -0.4102564), wk =   0.0109739
        k(    6) = (   0.0555556   0.1666667   0.0455840), wk =   0.0438957
        k(    7) = (   0.0555556   0.1666667   0.1367521), wk =   0.0438957
        k(    8) = (   0.0555556   0.1666667   0.2279202), wk =   0.0438957
        k(    9) = (   0.0555556   0.1666667   0.3190883), wk =   0.0438957
        k(   10) = (   0.0555556   0.1666667  -0.4102564), wk =   0.0219479
        k(   11) = (   0.0555556   0.2777778   0.0455840), wk =   0.0438957
        k(   12) = (   0.0555556   0.2777778   0.1367521), wk =   0.0438957
        k(   13) = (   0.0555556   0.2777778   0.2279202), wk =   0.0438957
        k(   14) = (   0.0555556   0.2777778   0.3190883), wk =   0.0438957
        k(   15) = (   0.0555556   0.2777778  -0.4102564), wk =   0.0219479
        k(   16) = (   0.0555556   0.3888889   0.0455840), wk =   0.0438957
        k(   17) = (   0.0555556   0.3888889   0.1367521), wk =   0.0438957
        k(   18) = (   0.0555556   0.3888889   0.2279202), wk =   0.0438957
        k(   19) = (   0.0555556   0.3888889   0.3190883), wk =   0.0438957
        k(   20) = (   0.0555556   0.3888889  -0.4102564), wk =   0.0219479
        k(   21) = (   0.0555556  -0.5000000   0.0455840), wk =   0.0219479
        k(   22) = (   0.0555556  -0.5000000   0.1367521), wk =   0.0219479
        k(   23) = (   0.0555556  -0.5000000   0.2279202), wk =   0.0219479
        k(   24) = (   0.0555556  -0.5000000   0.3190883), wk =   0.0219479
        k(   25) = (   0.0555556  -0.5000000  -0.4102564), wk =   0.0109739
        k(   26) = (   0.1666667   0.1666667   0.0455840), wk =   0.0219479
        k(   27) = (   0.1666667   0.1666667   0.1367521), wk =   0.0219479
        k(   28) = (   0.1666667   0.1666667   0.2279202), wk =   0.0219479
        k(   29) = (   0.1666667   0.1666667   0.3190883), wk =   0.0219479
        k(   30) = (   0.1666667   0.1666667  -0.4102564), wk =   0.0109739
        k(   31) = (   0.1666667   0.2777778   0.0455840), wk =   0.0438957
        k(   32) = (   0.1666667   0.2777778   0.1367521), wk =   0.0438957
        k(   33) = (   0.1666667   0.2777778   0.2279202), wk =   0.0438957
        k(   34) = (   0.1666667   0.2777778   0.3190883), wk =   0.0438957
        k(   35) = (   0.1666667   0.2777778  -0.4102564), wk =   0.0219479
        k(   36) = (   0.1666667   0.3888889   0.0455840), wk =   0.0438957
        k(   37) = (   0.1666667   0.3888889   0.1367521), wk =   0.0438957
        k(   38) = (   0.1666667   0.3888889   0.2279202), wk =   0.0438957
        k(   39) = (   0.1666667   0.3888889   0.3190883), wk =   0.0438957
        k(   40) = (   0.1666667   0.3888889  -0.4102564), wk =   0.0219479
        k(   41) = (   0.1666667  -0.5000000   0.0455840), wk =   0.0219479
        k(   42) = (   0.1666667  -0.5000000   0.1367521), wk =   0.0219479
        k(   43) = (   0.1666667  -0.5000000   0.2279202), wk =   0.0219479
        k(   44) = (   0.1666667  -0.5000000   0.3190883), wk =   0.0219479
        k(   45) = (   0.1666667  -0.5000000  -0.4102564), wk =   0.0109739
        k(   46) = (   0.2777778   0.2777778   0.0455840), wk =   0.0219479
        k(   47) = (   0.2777778   0.2777778   0.1367521), wk =   0.0219479
        k(   48) = (   0.2777778   0.2777778   0.2279202), wk =   0.0219479
        k(   49) = (   0.2777778   0.2777778   0.3190883), wk =   0.0219479
        k(   50) = (   0.2777778   0.2777778  -0.4102564), wk =   0.0109739
        k(   51) = (   0.2777778   0.3888889   0.0455840), wk =   0.0438957
        k(   52) = (   0.2777778   0.3888889   0.1367521), wk =   0.0438957
        k(   53) = (   0.2777778   0.3888889   0.2279202), wk =   0.0438957
        k(   54) = (   0.2777778   0.3888889   0.3190883), wk =   0.0438957
        k(   55) = (   0.2777778   0.3888889  -0.4102564), wk =   0.0219479
        k(   56) = (   0.2777778  -0.5000000   0.0455840), wk =   0.0219479
        k(   57) = (   0.2777778  -0.5000000   0.1367521), wk =   0.0219479
        k(   58) = (   0.2777778  -0.5000000   0.2279202), wk =   0.0219479
        k(   59) = (   0.2777778  -0.5000000   0.3190883), wk =   0.0219479
        k(   60) = (   0.2777778  -0.5000000  -0.4102564), wk =   0.0109739
        k(   61) = (   0.3888889   0.3888889   0.0455840), wk =   0.0219479
        k(   62) = (   0.3888889   0.3888889   0.1367521), wk =   0.0219479
        k(   63) = (   0.3888889   0.3888889   0.2279202), wk =   0.0219479
        k(   64) = (   0.3888889   0.3888889   0.3190883), wk =   0.0219479
        k(   65) = (   0.3888889   0.3888889  -0.4102564), wk =   0.0109739
        k(   66) = (   0.3888889  -0.5000000   0.0455840), wk =   0.0219479
        k(   67) = (   0.3888889  -0.5000000   0.1367521), wk =   0.0219479
        k(   68) = (   0.3888889  -0.5000000   0.2279202), wk =   0.0219479
        k(   69) = (   0.3888889  -0.5000000   0.3190883), wk =   0.0219479
        k(   70) = (   0.3888889  -0.5000000  -0.4102564), wk =   0.0109739
[...]

     Computing stress (Cartesian axis) and pressure

          total   stress  (Ry/bohr**3)                   (kbar)     P=      -54.32
  -0.00037428   0.00000000   0.00000000          -55.06        0.00        0.00
   0.00000000  -0.00037428   0.00000000            0.00      -55.06        0.00
   0.00000000   0.00000000  -0.00035922            0.00        0.00      -52.84

     BFGS Geometry Optimization
     Energy error            =      0.0E+00
     Gradient error          =      1.1E-02

     number of scf cycles    =   1
     number of bfgs steps    =   0

     energy   new            =  -16384.1921581107 Ry

     new trust radius        =       0.0114974036 bohr
     new conv_thr            =       0.0000010000 Ry

ATOMIC_POSITIONS (crystal)
Pd            0.0000000000        0.0000000000        0.0002363858
Pd            0.2499997719        0.2499997719        0.0002371753
Pd            0.2500001036        0.0000000000        0.2057535343
Pd            0.0000000000        0.2500001036        0.2057535343
Pd            0.0000000000        0.0000000000        0.5891079477
Pd            0.2499985728        0.2499985728        0.5891078685
Pd            0.2500001774        0.0000000000        0.7946442217
Pd            0.0000000000        0.2500001774        0.7946442217
Pd            0.0000000000        0.5000000000        0.0002374302
Pd            0.2499997719        0.7500002281        0.0002371753
Pd            0.2500001176        0.5000000000        0.2057529807
Pd            0.0000000000        0.7499998964        0.2057535343
Pd            0.0000000000        0.5000000000        0.5891086712
Pd            0.2499985728        0.7500014272        0.5891078685
Pd            0.2499991134        0.5000000000        0.7946458641
Pd            0.0000000000        0.7499998226        0.7946442217
Pd            0.5000000000        0.0000000000        0.0002374302
Pd            0.7500002281        0.2499997719        0.0002371753
Pd            0.7499998964        0.0000000000        0.2057535343
Pd            0.5000000000        0.2500001176        0.2057529807
Pd            0.5000000000        0.0000000000        0.5891086712
Pd            0.7500014272        0.2499985728        0.5891078685
Pd            0.7499998226        0.0000000000        0.7946442217
Pd            0.5000000000        0.2499991134        0.7946458641
Pd            0.5000000000        0.5000000000        0.0002375805
Pd            0.7500002281        0.7500002281        0.0002371753
Pd            0.7499998824        0.5000000000        0.2057529807
Pd            0.5000000000        0.7499998824        0.2057529807
Pd            0.5000000000        0.5000000000        0.5891080224
Pd            0.7500014272        0.7500014272        0.5891078685
Pd            0.7500008866        0.5000000000        0.7946458641
Pd            0.5000000000        0.7500008866        0.7946458641

     Writing output data file /scratch/HVmUsJEhBySRVQRU.save/
     NEW-OLD atomic charge density approx. for the potential

[...]

     Energy error            =      2.3E-03
     Gradient error          =      1.1E-02

[...]

     energy   old            =  -16384.1921581107 Ry
     energy   new            =  -16384.1944258284 Ry

     CASE: energy  _new < energy  _old

     WARNING: bfgs curvature condition failed, Theta= 0.825
     new trust radius        =       0.0126471439 bohr
     new conv_thr            =       0.0000001106 Ry

[...]

     Total force =     0.012737     Total SCF correction =     0.000827

[...]

     iteration #  1     ecut=    71.00 Ry     beta= 0.10
     Davidson diagonalization with overlap
     c_bands:  1 eigenvalues not converged
     ethr =  1.00E-06,  avg # of iterations = 11.8

[...]

     Total force =     0.004219     Total SCF correction =     0.000565
     SCF correction compared to forces is large: reduce conv_thr to get better values

[...]

     number of scf cycles    =  11
     number of bfgs steps    =  10

     energy   old            =  -16384.2296880031 Ry
     energy   new            =  -16384.2299115954 Ry

     CASE: energy  _new < energy  _old

     new trust radius        =       0.0215335362 bohr
     new conv_thr            =       0.0000000100 Ry

ATOMIC_POSITIONS (crystal)
Pd            0.0000000000        0.0000000000        0.0114580923
Pd            0.2499947863        0.2499947863        0.0114650056
Pd            0.2499964925        0.0000000000        0.2347001145
Pd            0.0000000000        0.2499964925        0.2347001145
Pd            0.0000000000        0.0000000000        0.5601226379
Pd            0.2499888714        0.2499888714        0.5601258564
Pd            0.2499977720        0.0000000000        0.7834479900
Pd            0.0000000000        0.2499977720        0.7834479900
Pd            0.0000000000        0.5000000000        0.0114674647
Pd            0.2499947863        0.7500052137        0.0114650056
Pd            0.2500011629        0.5000000000        0.2346894889
Pd            0.0000000000        0.7500035075        0.2347001145
Pd            0.0000000000        0.5000000000        0.5601445792
Pd            0.2499888714        0.7500111286        0.5601258564
Pd            0.2499985452        0.5000000000        0.7834540180
Pd            0.0000000000        0.7500022280        0.7834479900
Pd            0.5000000000        0.0000000000        0.0114674647
Pd            0.7500052137        0.2499947863        0.0114650056
Pd            0.7500035075        0.0000000000        0.2347001145
Pd            0.5000000000        0.2500011629        0.2346894889
Pd            0.5000000000        0.0000000000        0.5601445792
Pd            0.7500111286        0.2499888714        0.5601258564
Pd            0.7500022280        0.0000000000        0.7834479900
Pd            0.5000000000        0.2499985452        0.7834540180
Pd            0.5000000000        0.5000000000        0.0114643043
Pd            0.7500052137        0.7500052137        0.0114650056
Pd            0.7499988371        0.5000000000        0.2346894889
Pd            0.5000000000        0.7499988371        0.2346894889
Pd            0.5000000000        0.5000000000        0.5601497020
Pd            0.7500111286        0.7500111286        0.5601258564
Pd            0.7500014548        0.5000000000        0.7834540180
Pd            0.5000000000        0.7500014548        0.7834540180

     Writing output data file /scratch/HVmUsJEhBySRVQRU.save/
     NEW-OLD atomic charge density approx. for the potential

     Check: negative core charge=   -0.000001

     Self-consistent Calculation

[...]

     total energy              =  -16384.22994264 Ry
     estimated scf accuracy    <       0.00000004 Ry

     iteration # 14     ecut=    71.00 Ry     beta= 0.10
     Davidson diagonalization with overlap
     ethr =  6.61E-12,  avg # of iterations =  2.1

     End of self-consistent calculation

[...]

          k = 0.3889-0.5000-0.4103 ( 40256 PWs)   bands (ev):

[...]

          k =-0.5000-0.5000-0.4103 ( 40272 PWs)   bands (ev):

   -69.1507 -69.1506 -69.1506 -69.1506 -69.1403 -69.1403 -69.1403 -69.1403
   -69.1297 -69.1297 -69.1297 -69.1297 -69.1291 -69.1290 -69.1290 -69.1290
   -68.8267 -68.8267 -68.8267 -68.8267 -68.8261 -68.8261 -68.8261 -68.8260
   -68.8108 -68.8107 -68.8107 -68.8107 -68.8102 -68.8101 -68.8101 -68.8101
   -34.9694 -34.9694 -34.9694 -34.9694 -34.9689 -34.9689 -34.9689 -34.9689
   -34.8982 -34.8982 -34.8982 -34.8982 -34.8948 -34.8948 -34.8948 -34.8948
   -34.8547 -34.8547 -34.8547 -34.8547 -34.8541 -34.8541 -34.8541 -34.8541
   -34.8436 -34.8436 -34.8436 -34.8436 -34.8159 -34.8158 -34.8158 -34.8158
   -34.8152 -34.8151 -34.8151 -34.8151 -34.7958 -34.7958 -34.7958 -34.7958
   -34.7763 -34.7763 -34.7763 -34.7763 -34.7537 -34.7537 -34.7537 -34.7537
   -34.6770 -34.6770 -34.6770 -34.6770 -34.6764 -34.6764 -34.6764 -34.6764
   -34.5954 -34.5954 -34.5954 -34.5954 -34.5927 -34.5927 -34.5927 -34.5927
   -34.5804 -34.5804 -34.5803 -34.5803 -34.5798 -34.5798 -34.5798 -34.5798
   -34.4921 -34.4921 -34.4921 -34.4921 -34.4914 -34.4914 -34.4913 -34.4913
   -34.4485 -34.4485 -34.4485 -34.4485 -34.4432 -34.4432 -34.4432 -34.4432
   -34.4332 -34.4332 -34.4332 -34.4332 -34.4326 -34.4326 -34.4326 -34.4325
    10.0527  10.0528  10.0528  10.0528  10.5321  10.5322  10.5322  10.5322
    10.9007  10.9007  10.9007  10.9007  11.0192  11.0192  11.0192  11.0193
    11.0198  11.0198  11.0199  11.0199  11.0945  11.0945  11.0945  11.0945
    11.1637  11.1637  11.1637  11.1638  11.1640  11.1640  11.1640  11.1640
    11.5640  11.5640  11.5640  11.5640  11.6966  11.6966  11.6966  11.6967
    11.6974  11.6974  11.6974  11.6974  11.8739  11.8739  11.8740  11.8740
    11.8746  11.8748  11.8748  11.8750  12.0043  12.0043  12.0043  12.0044
    12.2008  12.2009  12.2009  12.2010  12.2589  12.2590  12.2590  12.2590
    12.4276  12.4276  12.4276  12.4276  12.5843  12.5844  12.5844  12.5844
    12.7623  12.7625  12.7625  12.7626  12.9254  12.9254  12.9254  12.9254
    12.9255  12.9255  12.9255  12.9256  12.9609  12.9610  12.9611  12.9611
    13.0184  13.0185  13.0185  13.0186  13.1858  13.1859  13.1859  13.1859
    13.2373  13.2373  13.2374  13.2374  13.2377  13.2378  13.2378  13.2379
    13.3353  13.3354  13.3354  13.3355  13.3358  13.3359  13.3359  13.3359
    13.5042  13.5042  13.5042  13.5042  13.5304  13.5304  13.5304  13.5304
    13.5305  13.5305  13.5305  13.5306  13.5926  13.5926  13.5926  13.5926
    13.7491  13.7492  13.7492  13.7493  13.7891  13.7891  13.7891  13.7891
    14.1050  14.1050  14.1050  14.1051  14.2031  14.2031  14.2031  14.2032
    14.5256  14.5256  14.5256  14.5256  14.5257  14.5257  14.5257  14.5257
    14.5958  14.5958  14.5958  14.5959  14.6472  14.6473  14.6473  14.6473
    14.6996  14.6996  14.6996  14.6997  14.6997  14.6997  14.6997  14.6998
    16.7422  16.7423  16.7423  16.7423  17.0917  17.0918  17.0918  17.0919
    18.2348  18.2349  18.2349  18.2349  18.2351  18.2352  18.2352  18.2352
    18.6669  18.6670  18.6670  18.6672  18.6672  18.6673  18.6673  18.6673
    21.7834  21.7834  21.7834  21.7835  21.7840  21.7840  21.7840  21.7840
    22.7409  22.7409  22.7409  22.7410  22.7416  22.7416  22.7416  22.7416
    22.8091  22.8092  22.8092  22.8094  23.6239  23.6240  23.6240  23.6240
    24.3780  24.3781

     the Fermi energy is    14.7190 ev

!    total energy              =  -16384.22994288 Ry

     total all-electron energy =   -322945.083650 Ry
     estimated scf accuracy    <          3.5E-09 Ry
     smearing contrib. (-TS)   =       0.15206764 Ry
     internal energy E=F+TS    =  -16384.38201052 Ry

     The total energy is F=E-TS. E is the sum of the following terms:
     one-electron contribution =   -3635.27642066 Ry
     hartree contribution      =    2147.13151200 Ry
     xc contribution           =    -983.95381315 Ry
     ewald contribution        =   -5745.01900786 Ry
     one-center paw contrib.   =   -8167.26428085 Ry

     convergence has been achieved in  14 iterations

     Forces acting on atoms (cartesian axes, Ry/au):

     atom    1 type  1   force =     0.00000000    0.00000000   -0.00020615
     atom    2 type  1   force =     0.00000738    0.00000738   -0.00021451
     atom    3 type  1   force =     0.00000553    0.00000000    0.00016205
     atom    4 type  1   force =     0.00000000    0.00000553    0.00016205
     atom    5 type  1   force =     0.00000000    0.00000000   -0.00001716
     atom    6 type  1   force =     0.00001509    0.00001509   -0.00001178
     atom    7 type  1   force =     0.00000471    0.00000000    0.00007098
     atom    8 type  1   force =     0.00000000    0.00000471    0.00007098
     atom    9 type  1   force =     0.00000000    0.00000000   -0.00021847
     atom   10 type  1   force =     0.00000738   -0.00000738   -0.00021451
     atom   11 type  1   force =    -0.00000171    0.00000000    0.00016020
     atom   12 type  1   force =     0.00000000   -0.00000553    0.00016205
     atom   13 type  1   force =     0.00000000    0.00000000   -0.00001627
     atom   14 type  1   force =     0.00001509   -0.00001509   -0.00001178
     atom   15 type  1   force =     0.00000334    0.00000000    0.00006434
     atom   16 type  1   force =     0.00000000   -0.00000471    0.00007098
     atom   17 type  1   force =     0.00000000    0.00000000   -0.00021847
     atom   18 type  1   force =    -0.00000738    0.00000738   -0.00021451
     atom   19 type  1   force =    -0.00000553    0.00000000    0.00016205
     atom   20 type  1   force =     0.00000000   -0.00000171    0.00016020
     atom   21 type  1   force =     0.00000000    0.00000000   -0.00001627
     atom   22 type  1   force =    -0.00001509    0.00001509   -0.00001178
     atom   23 type  1   force =    -0.00000471    0.00000000    0.00007098
     atom   24 type  1   force =     0.00000000    0.00000334    0.00006434
     atom   25 type  1   force =     0.00000000    0.00000000   -0.00022022
     atom   26 type  1   force =    -0.00000738   -0.00000738   -0.00021451
     atom   27 type  1   force =     0.00000171    0.00000000    0.00016020
     atom   28 type  1   force =     0.00000000    0.00000171    0.00016020
     atom   29 type  1   force =     0.00000000    0.00000000   -0.00001209
     atom   30 type  1   force =    -0.00001509   -0.00001509   -0.00001178
     atom   31 type  1   force =    -0.00000334    0.00000000    0.00006434
     atom   32 type  1   force =     0.00000000   -0.00000334    0.00006434

     Total force =     0.000787     Total SCF correction =     0.000185
     SCF correction compared to forces is large: reduce conv_thr to get better values

     Computing stress (Cartesian axis) and pressure

          total   stress  (Ry/bohr**3)                   (kbar)     P=     -141.01
  -0.00083308   0.00000000   0.00000000         -122.55        0.00        0.00
   0.00000000  -0.00083308   0.00000000            0.00     -122.55        0.00
   0.00000000   0.00000000  -0.00120948            0.00        0.00     -177.92

     Energy error            =      3.1E-05
     Gradient error          =      2.2E-04

     bfgs converged in  12 scf cycles and  11 bfgs steps
     (criteria: energy <  1.0E-04 Ry, force <  1.0E-03 Ry/Bohr)

     End of BFGS Geometry Optimization

     Final energy   =  -16384.2299428830 Ry

     File /scratch/HVmUsJEhBySRVQRU.bfgs deleted, as requested
Begin final coordinates

ATOMIC_POSITIONS (crystal)
Pd            0.0000000000        0.0000000000        0.0114580923
Pd            0.2499947863        0.2499947863        0.0114650056
Pd            0.2499964925        0.0000000000        0.2347001145
Pd            0.0000000000        0.2499964925        0.2347001145
Pd            0.0000000000        0.0000000000        0.5601226379
Pd            0.2499888714        0.2499888714        0.5601258564
Pd            0.2499977720        0.0000000000        0.7834479900
Pd            0.0000000000        0.2499977720        0.7834479900
Pd            0.0000000000        0.5000000000        0.0114674647
Pd            0.2499947863        0.7500052137        0.0114650056
Pd            0.2500011629        0.5000000000        0.2346894889
Pd            0.0000000000        0.7500035075        0.2347001145
Pd            0.0000000000        0.5000000000        0.5601445792
Pd            0.2499888714        0.7500111286        0.5601258564
Pd            0.2499985452        0.5000000000        0.7834540180
Pd            0.0000000000        0.7500022280        0.7834479900
Pd            0.5000000000        0.0000000000        0.0114674647
Pd            0.7500052137        0.2499947863        0.0114650056
Pd            0.7500035075        0.0000000000        0.2347001145
Pd            0.5000000000        0.2500011629        0.2346894889
Pd            0.5000000000        0.0000000000        0.5601445792
Pd            0.7500111286        0.2499888714        0.5601258564
Pd            0.7500022280        0.0000000000        0.7834479900
Pd            0.5000000000        0.2499985452        0.7834540180
Pd            0.5000000000        0.5000000000        0.0114643043
Pd            0.7500052137        0.7500052137        0.0114650056
Pd            0.7499988371        0.5000000000        0.2346894889
Pd            0.5000000000        0.7499988371        0.2346894889
Pd            0.5000000000        0.5000000000        0.5601497020
Pd            0.7500111286        0.7500111286        0.5601258564
Pd            0.7500014548        0.5000000000        0.7834540180
Pd            0.5000000000        0.7500014548        0.7834540180
End final coordinates

     Writing output data file /scratch/HVmUsJEhBySRVQRU.save/

     General routines

     Parallel routines

   This run was terminated on:  23:46:19   8Jan2022

   JOB DONE.