     Program PWSCF v.6.7MaX starts on 26Nov2021 at  1:38:19

     R & G space division:  proc/nbgrp/npool/nimage =      72
     Reading input from sc_11.in
Warning: card &CELL ignored
Warning: card CELL_DYNAMICS = 'BFGS', ignored
Warning: card CELL_FACTOR = 2.0, ignored
Warning: card PRESS = 0.0, ignored
Warning: card / ignored

     Current dimensions of program PWSCF are:
     Max number of different atomic species (ntypx) = 10
     Max number of k-points (npk) =  40000
     Max angular momentum in pseudopotentials (lmaxx) =  3
     file Ru.pbe-spn-kjpaw_psl.1.0.0.UPF: wavefunction(s)  4D renormalized

     Subspace diagonalization in iterative solution of the eigenvalue problem:
     one sub-group per band group will be used

     Found symmetry operation: I + (  0.0000  0.0000 -0.5000)
     This is a supercell, fractional translations are disabled
     Message from routine setup:
     using ibrav=0 with symmetry is DISCOURAGED, use correct ibrav instead

     bravais-lattice index     =            0
     lattice parameter (alat)  =       9.0720  a.u.
     unit-cell volume          =    5973.0907 (a.u.)^3
     number of atoms/cell      =            8
     number of atomic types    =            1
     number of electrons       =       128.00
     number of Kohn-Sham states=           77
     kinetic-energy cutoff     =      71.0000  Ry
     charge density cutoff     =     430.0000  Ry
     scf convergence threshold =      1.0E-06
     mixing beta               =       0.1000
     number of iterations used =           10  TF        mixing
     Exchange-correlation= SLA  PW   PBX  PBC
                           (   1   4   3   4   0   0   0)

     celldm(1)=   9.072000  celldm(2)=   0.000000  celldm(3)=   0.000000
     celldm(4)=   0.000000  celldm(5)=   0.000000  celldm(6)=   0.000000

     crystal axes: (cart. coord. in units of alat)
               a(1) = (   2.000000   0.000000   0.000000 )
               a(2) = (   0.000000   2.000000   0.000000 )
               a(3) = (   0.000000   0.000000   2.000000 )

     reciprocal axes: (cart. coord. in units 2 pi/alat)
               b(1) = (  0.500000  0.000000  0.000000 )
               b(2) = (  0.000000  0.500000  0.000000 )
               b(3) = (  0.000000  0.000000  0.500000 )

     PseudoPot. # 1 for Ru read from file:
     /rds/homes/b/bxp912/pp/Ru.pbe-spn-kjpaw_psl.1.0.0.UPF
     MD5 check sum: 0ae1f594dea09af7be8575c3a481d1ae
     Pseudo is Projector augmented-wave + core cor, Zval = 16.0
     Generated using "atomic" code by A. Dal Corso  v.5.1
     Shape of augmentation charge: PSQ
     Using radial grid of 1233 points,  6 beta functions with:
                l(1) =   0
                l(2) =   0
                l(3) =   1
                l(4) =   1
                l(5) =   2
                l(6) =   2
     Q(r) pseudized with 0 coefficients

     atomic species   valence    mass     pseudopotential
        Ru            16.00   101.07000     Ru( 1.00)

     48 Sym. Ops., with inversion, found

   Cartesian axes

     site n.     atom                  positions (alat units)
         1           Ru  tau(   1) = (   0.0000000   0.0000000   0.0000000  )
         2           Ru  tau(   2) = (   0.0000000   0.0000000   1.0000000  )
         3           Ru  tau(   3) = (   0.0000000   1.0000000   0.0000000  )
         4           Ru  tau(   4) = (   0.0000000   1.0000000   1.0000000  )
         5           Ru  tau(   5) = (   1.0000000   0.0000000   0.0000000  )
         6           Ru  tau(   6) = (   1.0000000   0.0000000   1.0000000  )
         7           Ru  tau(   7) = (   1.0000000   1.0000000   0.0000000  )
         8           Ru  tau(   8) = (   1.0000000   1.0000000   1.0000000  )

     number of k points=    35  Marzari-Vanderbilt smearing, width (Ry)=  0.0400
                       cart. coord. in units 2pi/alat
        k(    1) = (   0.0277778   0.0277778   0.0277778), wk =   0.0219479
        k(    2) = (   0.0277778   0.0277778   0.0833333), wk =   0.0658436
        k(    3) = (   0.0277778   0.0277778   0.1388889), wk =   0.0658436
        k(    4) = (   0.0277778   0.0277778   0.1944444), wk =   0.0658436
        k(    5) = (   0.0277778   0.0277778  -0.2500000), wk =   0.0329218
        k(    6) = (   0.0277778   0.0833333   0.0833333), wk =   0.0658436
        k(    7) = (   0.0277778   0.0833333   0.1388889), wk =   0.1316872
        k(    8) = (   0.0277778   0.0833333   0.1944444), wk =   0.1316872
        k(    9) = (   0.0277778   0.0833333  -0.2500000), wk =   0.0658436
        k(   10) = (   0.0277778   0.1388889   0.1388889), wk =   0.0658436
        k(   11) = (   0.0277778   0.1388889   0.1944444), wk =   0.1316872
        k(   12) = (   0.0277778   0.1388889  -0.2500000), wk =   0.0658436
        k(   13) = (   0.0277778   0.1944444   0.1944444), wk =   0.0658436
        k(   14) = (   0.0277778   0.1944444  -0.2500000), wk =   0.0658436
        k(   15) = (   0.0277778  -0.2500000  -0.2500000), wk =   0.0164609
        k(   16) = (   0.0833333   0.0833333   0.0833333), wk =   0.0219479
        k(   17) = (   0.0833333   0.0833333   0.1388889), wk =   0.0658436
        k(   18) = (   0.0833333   0.0833333   0.1944444), wk =   0.0658436
        k(   19) = (   0.0833333   0.0833333  -0.2500000), wk =   0.0329218
        k(   20) = (   0.0833333   0.1388889   0.1388889), wk =   0.0658436
        k(   21) = (   0.0833333   0.1388889   0.1944444), wk =   0.1316872
        k(   22) = (   0.0833333   0.1388889  -0.2500000), wk =   0.0658436
        k(   23) = (   0.0833333   0.1944444   0.1944444), wk =   0.0658436
        k(   24) = (   0.0833333   0.1944444  -0.2500000), wk =   0.0658436
        k(   25) = (   0.0833333  -0.2500000  -0.2500000), wk =   0.0164609
        k(   26) = (   0.1388889   0.1388889   0.1388889), wk =   0.0219479
        k(   27) = (   0.1388889   0.1388889   0.1944444), wk =   0.0658436
        k(   28) = (   0.1388889   0.1388889  -0.2500000), wk =   0.0329218
        k(   29) = (   0.1388889   0.1944444   0.1944444), wk =   0.0658436
        k(   30) = (   0.1388889   0.1944444  -0.2500000), wk =   0.0658436
        k(   31) = (   0.1388889  -0.2500000  -0.2500000), wk =   0.0164609
        k(   32) = (   0.1944444   0.1944444   0.1944444), wk =   0.0219479
        k(   33) = (   0.1944444   0.1944444  -0.2500000), wk =   0.0329218
        k(   34) = (   0.1944444  -0.2500000  -0.2500000), wk =   0.0164609
        k(   35) = (  -0.2500000  -0.2500000  -0.2500000), wk =   0.0027435

     Initial potential from superposition of free atoms

     starting charge  127.99490, renormalised to  128.00000
     Starting wfcs are   80 randomized atomic wfcs
     Checking if some PAW data can be deallocated...

     Self-consistent Calculation

     iteration #  1     ecut=    71.00 Ry     beta= 0.10
     Davidson diagonalization with overlap
     ethr =  1.00E-02,  avg # of iterations =  2.0

     total energy              =   -3449.60810019 Ry
     estimated scf accuracy    <       4.87191411 Ry

[...]

     iteration # 25     ecut=    71.00 Ry     beta= 0.10
     Davidson diagonalization with overlap
     c_bands:  1 eigenvalues not converged
     ethr =  1.00E-08,  avg # of iterations =  2.4

[...]

     iteration # 26     ecut=    71.00 Ry     beta= 0.10
     Davidson diagonalization with overlap
     c_bands:  1 eigenvalues not converged
     ethr =  7.79E-09,  avg # of iterations =  3.9

[...]

     total energy              =   -3448.79716821 Ry
     estimated scf accuracy    <       0.00000101 Ry

     iteration # 48     ecut=    71.00 Ry     beta= 0.10
     Davidson diagonalization with overlap
     ethr =  7.87E-10,  avg # of iterations =  1.6

     End of self-consistent calculation

          k = 0.0278 0.0278 0.0278 ( 60421 PWs)   bands (ev):

   -71.9735 -71.9727 -71.9722 -71.9722 -71.9722 -71.9715 -71.9715 -71.9715
   -42.0537 -42.0537 -42.0537 -42.0532 -42.0531 -42.0531 -42.0527 -42.0527
   -42.0527 -42.0527 -42.0527 -42.0527 -42.0526 -42.0526 -42.0526 -42.0522
   -42.0522 -42.0522 -42.0521 -42.0521 -42.0521 -42.0521 -42.0521 -42.0521
    -1.6577  -1.2478  -1.2478  -1.2475  -1.1964  -1.1964  -1.1730  -1.1729
    -1.1729  -1.1590  -1.1590  -1.1590  -1.1464  -1.1464  -1.1464  -1.1151
    -1.1143  -1.1143  -1.0000  -1.0000  -0.9999  -0.9993  -0.9993  -0.9993
    -0.9872  -0.9872  -0.9872  -0.9871  -0.9871  -0.9871  -0.9185  -0.9183
    -0.9183  -0.9113  -0.9113  -0.9113  -0.8387  -0.8387  -0.8387  -0.8335
    -0.8335  -0.3948  -0.3948  -0.3945   0.3596

[...]

          k = 0.1944-0.2500-0.2500 ( 60356 PWs)   bands (ev):

[...]

          k =-0.2500-0.2500-0.2500 ( 60256 PWs)   bands (ev):

   -71.9735 -71.9727 -71.9721 -71.9721 -71.9721 -71.9715 -71.9715 -71.9715
   -42.0536 -42.0536 -42.0536 -42.0531 -42.0531 -42.0531 -42.0526 -42.0526
   -42.0526 -42.0526 -42.0526 -42.0526 -42.0526 -42.0526 -42.0526 -42.0522
   -42.0522 -42.0522 -42.0521 -42.0521 -42.0521 -42.0521 -42.0521 -42.0521
    -1.0403  -1.0403  -1.0403  -1.0403  -1.0403  -1.0403  -1.0403  -1.0403
    -1.0401  -1.0401  -1.0401  -1.0400  -1.0400  -1.0400  -1.0400  -1.0400
    -1.0400  -1.0400  -1.0400  -1.0400  -1.0400  -1.0399  -1.0399  -1.0399
    -1.0002  -1.0002  -1.0002  -1.0002  -1.0002  -1.0002  -1.0002  -1.0002
    -1.0002  -1.0002  -1.0001  -1.0001  -1.0001  -1.0001  -1.0001  -1.0001
    -0.5836  -0.5836  -0.5836  -0.5831  -0.5830

     the Fermi energy is    -0.7640 ev

!    total energy              =   -3448.79716866 Ry

     total all-electron energy =    -72492.894753 Ry
     estimated scf accuracy    <       0.00000058 Ry
     smearing contrib. (-TS)   =      -0.26706848 Ry
     internal energy E=F+TS    =   -3448.53010018 Ry

     The total energy is F=E-TS. E is the sum of the following terms:
     one-electron contribution =   -1363.60045579 Ry
     hartree contribution      =     682.07879864 Ry
     xc contribution           =    -229.27538742 Ry
     ewald contribution        =    -640.51865498 Ry
     one-center paw contrib.   =   -1897.21440064 Ry

     convergence has been achieved in  48 iterations

     Forces acting on atoms (cartesian axes, Ry/au):

     atom    1 type  1   force =     0.00000000    0.00000000    0.00000000
     atom    2 type  1   force =     0.00000000    0.00000000    0.00000000
     atom    3 type  1   force =     0.00000000    0.00000000    0.00000000
     atom    4 type  1   force =     0.00000000    0.00000000    0.00000000
     atom    5 type  1   force =     0.00000000    0.00000000    0.00000000
     atom    6 type  1   force =     0.00000000    0.00000000    0.00000000
     atom    7 type  1   force =     0.00000000    0.00000000    0.00000000
     atom    8 type  1   force =     0.00000000    0.00000000    0.00000000

     Total force =     0.000000     Total SCF correction =     0.000000

     Computing stress (Cartesian axis) and pressure

          total   stress  (Ry/bohr**3)                   (kbar)     P=      -17.01
  -0.00011560   0.00000000   0.00000000          -17.01        0.00        0.00
   0.00000000  -0.00011560   0.00000000            0.00      -17.01        0.00
   0.00000000   0.00000000  -0.00011560            0.00        0.00      -17.01

     Writing output data file /scratch/gKaoJLfWveWtQwrK.save/

     General routines

     Parallel routines

   This run was terminated on:   1:45:27  26Nov2021

   JOB DONE.