     Program PWSCF v.6.7MaX starts on 26Nov2021 at  1:14:19

     R & G space division:  proc/nbgrp/npool/nimage =      72
     Reading input from sc_1.in
Warning: card &CELL ignored
Warning: card CELL_DYNAMICS = 'BFGS', ignored
Warning: card CELL_FACTOR = 2.0, ignored
Warning: card PRESS = 0.0, ignored
Warning: card / ignored

     Current dimensions of program PWSCF are:
     Max number of different atomic species (ntypx) = 10
     Max number of k-points (npk) =  40000
     Max angular momentum in pseudopotentials (lmaxx) =  3
     file Ru.pbe-spn-kjpaw_psl.1.0.0.UPF: wavefunction(s)  4D renormalized

     Subspace diagonalization in iterative solution of the eigenvalue problem:
     one sub-group per band group will be used

     Found symmetry operation: I + (  0.0000  0.0000 -0.5000)
     This is a supercell, fractional translations are disabled
     Message from routine setup:
     using ibrav=0 with symmetry is DISCOURAGED, use correct ibrav instead

     bravais-lattice index     =            0
     lattice parameter (alat)  =       9.0720  a.u.
     unit-cell volume          =     746.6363 (a.u.)^3
     number of atoms/cell      =            8
     number of atomic types    =            1
     number of electrons       =       128.00
     number of Kohn-Sham states=           77
     kinetic-energy cutoff     =      71.0000  Ry
     charge density cutoff     =     430.0000  Ry
     scf convergence threshold =      1.0E-06
     mixing beta               =       0.1000
     number of iterations used =           10  TF        mixing
     Exchange-correlation= SLA  PW   PBX  PBC
                           (   1   4   3   4   0   0   0)

     celldm(1)=   9.072000  celldm(2)=   0.000000  celldm(3)=   0.000000
     celldm(4)=   0.000000  celldm(5)=   0.000000  celldm(6)=   0.000000

     crystal axes: (cart. coord. in units of alat)
               a(1) = (   1.000000   0.000000   0.000000 )
               a(2) = (   0.000000   1.000000   0.000000 )
               a(3) = (   0.000000   0.000000   1.000000 )

     reciprocal axes: (cart. coord. in units 2 pi/alat)
               b(1) = (  1.000000  0.000000  0.000000 )
               b(2) = (  0.000000  1.000000  0.000000 )
               b(3) = (  0.000000  0.000000  1.000000 )

     PseudoPot. # 1 for Ru read from file:
     /rds/homes/b/bxp912/pp/Ru.pbe-spn-kjpaw_psl.1.0.0.UPF
     MD5 check sum: 0ae1f594dea09af7be8575c3a481d1ae
     Pseudo is Projector augmented-wave + core cor, Zval = 16.0
     Generated using "atomic" code by A. Dal Corso  v.5.1
     Shape of augmentation charge: PSQ
     Using radial grid of 1233 points,  6 beta functions with:
                l(1) =   0
                l(2) =   0
                l(3) =   1
                l(4) =   1
                l(5) =   2
                l(6) =   2
     Q(r) pseudized with 0 coefficients

     atomic species   valence    mass     pseudopotential
        Ru            16.00   101.07000     Ru( 1.00)

     48 Sym. Ops., with inversion, found

   Cartesian axes

     site n.     atom                  positions (alat units)
         1           Ru  tau(   1) = (   0.0000000   0.0000000   0.0000000  )
         2           Ru  tau(   2) = (   0.0000000   0.0000000   0.5000000  )
         3           Ru  tau(   3) = (   0.0000000   0.5000000   0.0000000  )
         4           Ru  tau(   4) = (   0.0000000   0.5000000   0.5000000  )
         5           Ru  tau(   5) = (   0.5000000   0.0000000   0.0000000  )
         6           Ru  tau(   6) = (   0.5000000   0.0000000   0.5000000  )
         7           Ru  tau(   7) = (   0.5000000   0.5000000   0.0000000  )
         8           Ru  tau(   8) = (   0.5000000   0.5000000   0.5000000  )

     number of k points=    35  Marzari-Vanderbilt smearing, width (Ry)=  0.0400
                       cart. coord. in units 2pi/alat
        k(    1) = (   0.0555556   0.0555556   0.0555556), wk =   0.0219479
        k(    2) = (   0.0555556   0.0555556   0.1666667), wk =   0.0658436
        k(    3) = (   0.0555556   0.0555556   0.2777778), wk =   0.0658436
        k(    4) = (   0.0555556   0.0555556   0.3888889), wk =   0.0658436
        k(    5) = (   0.0555556   0.0555556  -0.5000000), wk =   0.0329218
        k(    6) = (   0.0555556   0.1666667   0.1666667), wk =   0.0658436
        k(    7) = (   0.0555556   0.1666667   0.2777778), wk =   0.1316872
        k(    8) = (   0.0555556   0.1666667   0.3888889), wk =   0.1316872
        k(    9) = (   0.0555556   0.1666667  -0.5000000), wk =   0.0658436
        k(   10) = (   0.0555556   0.2777778   0.2777778), wk =   0.0658436
        k(   11) = (   0.0555556   0.2777778   0.3888889), wk =   0.1316872
        k(   12) = (   0.0555556   0.2777778  -0.5000000), wk =   0.0658436
        k(   13) = (   0.0555556   0.3888889   0.3888889), wk =   0.0658436
        k(   14) = (   0.0555556   0.3888889  -0.5000000), wk =   0.0658436
        k(   15) = (   0.0555556  -0.5000000  -0.5000000), wk =   0.0164609
        k(   16) = (   0.1666667   0.1666667   0.1666667), wk =   0.0219479
        k(   17) = (   0.1666667   0.1666667   0.2777778), wk =   0.0658436
        k(   18) = (   0.1666667   0.1666667   0.3888889), wk =   0.0658436
        k(   19) = (   0.1666667   0.1666667  -0.5000000), wk =   0.0329218
        k(   20) = (   0.1666667   0.2777778   0.2777778), wk =   0.0658436
        k(   21) = (   0.1666667   0.2777778   0.3888889), wk =   0.1316872
        k(   22) = (   0.1666667   0.2777778  -0.5000000), wk =   0.0658436
        k(   23) = (   0.1666667   0.3888889   0.3888889), wk =   0.0658436
        k(   24) = (   0.1666667   0.3888889  -0.5000000), wk =   0.0658436
        k(   25) = (   0.1666667  -0.5000000  -0.5000000), wk =   0.0164609
        k(   26) = (   0.2777778   0.2777778   0.2777778), wk =   0.0219479
        k(   27) = (   0.2777778   0.2777778   0.3888889), wk =   0.0658436
        k(   28) = (   0.2777778   0.2777778  -0.5000000), wk =   0.0329218
        k(   29) = (   0.2777778   0.3888889   0.3888889), wk =   0.0658436
        k(   30) = (   0.2777778   0.3888889  -0.5000000), wk =   0.0658436
        k(   31) = (   0.2777778  -0.5000000  -0.5000000), wk =   0.0164609
        k(   32) = (   0.3888889   0.3888889   0.3888889), wk =   0.0219479
        k(   33) = (   0.3888889   0.3888889  -0.5000000), wk =   0.0329218
        k(   34) = (   0.3888889  -0.5000000  -0.5000000), wk =   0.0164609
        k(   35) = (  -0.5000000  -0.5000000  -0.5000000), wk =   0.0027435

     Check: negative core charge=   -0.000003

     Initial potential from superposition of free atoms

     starting charge  127.99490, renormalised to  128.00000
     Starting wfcs are   80 randomized atomic wfcs
     Checking if some PAW data can be deallocated...

     Self-consistent Calculation

     iteration #  1     ecut=    71.00 Ry     beta= 0.10
     Davidson diagonalization with overlap
     ethr =  1.00E-02,  avg # of iterations =  3.5

     Threshold (ethr) on eigenvalues was too large:
     Diagonalizing with lowered threshold

     Davidson diagonalization with overlap
     ethr =  2.92E-05,  avg # of iterations =  4.4

     total energy              =   -3452.60192296 Ry
     estimated scf accuracy    <       0.03792711 Ry

[...]

     total energy              =   -3452.59341818 Ry
     estimated scf accuracy    <       0.00000101 Ry

     iteration # 13     ecut=    71.00 Ry     beta= 0.10
     Davidson diagonalization with overlap
     ethr =  7.86E-10,  avg # of iterations =  3.0

     End of self-consistent calculation

          k = 0.0556 0.0556 0.0556 (  7559 PWs)   bands (ev):

   -49.8248 -49.6086 -49.6085 -49.6085 -49.3996 -49.3995 -49.3995 -49.1966
   -20.5351 -20.5351 -20.5351 -20.3179 -20.3179 -20.3179 -20.3168 -20.3168
   -20.3168 -20.1188 -20.1177 -20.1177 -18.9832 -18.9813 -18.9813 -18.8391
   -18.8390 -18.8390 -18.8381 -18.8381 -18.8380 -18.7027 -18.7027 -18.7027
    15.6718  16.1864  16.1864  16.1864  17.1703  17.1703  17.7618  17.8084
    17.8084  18.0673  18.0673  18.0673  18.5074  18.5074  18.5074  19.3515
    19.3515  19.3515  21.8327  21.8327  21.8327  22.2380  22.2380  22.2381
    22.8463  22.8463  22.8463  22.8539  22.8539  22.8539  23.5019  23.5019
    23.5019  25.4382  25.4570  25.4570  25.7790  25.7790  25.7790  27.4604
    27.4604  27.4604  27.8877  27.8877  29.6110

[...]

          k = 0.3889-0.5000-0.5000 (  7568 PWs)   bands (ev):

[...]

          k =-0.5000-0.5000-0.5000 (  7568 PWs)   bands (ev):

   -49.5089 -49.5087 -49.5087 -49.5087 -49.5087 -49.5086 -49.5086 -49.5086
   -19.6403 -19.6403 -19.6403 -19.6402 -19.6402 -19.6402 -19.6402 -19.6401
   -19.5884 -19.5884 -19.5884 -19.5883 -19.5883 -19.5883 -19.5883 -19.5883
   -19.5883 -19.5883 -19.5883 -19.5882 -19.5882 -19.5882 -19.5882 -19.5882
    18.7067  18.7067  18.7067  18.7068  18.7068  18.7068  18.7068  18.7068
    20.6201  20.6201  20.6201  20.6201  20.6201  20.6201  20.6201  20.6201
    20.6201  20.6201  20.6201  20.6201  20.6201  20.6201  20.6201  20.6201
    22.1354  22.1354  22.1354  22.1354  22.1354  22.1354  22.1354  22.1354
    22.1355  22.1355  22.1355  22.1355  22.1355  22.1355  22.1355  22.1355
    25.2965  25.2965  25.2966  25.2966  25.2966

     the Fermi energy is    23.4983 ev

!    total energy              =   -3452.59341822 Ry

     total all-electron energy =    -72496.691003 Ry
     estimated scf accuracy    <       0.00000075 Ry
     smearing contrib. (-TS)   =      -0.00169811 Ry
     internal energy E=F+TS    =   -3452.59172010 Ry

     The total energy is F=E-TS. E is the sum of the following terms:
     one-electron contribution =    -293.13737157 Ry
     hartree contribution      =     252.16682206 Ry
     xc contribution           =    -233.20974000 Ry
     ewald contribution        =   -1281.03730996 Ry
     one-center paw contrib.   =   -1897.37412063 Ry

     convergence has been achieved in  13 iterations

     Forces acting on atoms (cartesian axes, Ry/au):

     atom    1 type  1   force =     0.00000000    0.00000000    0.00000000
     atom    2 type  1   force =     0.00000000    0.00000000    0.00000000
     atom    3 type  1   force =     0.00000000    0.00000000    0.00000000
     atom    4 type  1   force =     0.00000000    0.00000000    0.00000000
     atom    5 type  1   force =     0.00000000    0.00000000    0.00000000
     atom    6 type  1   force =     0.00000000    0.00000000    0.00000000
     atom    7 type  1   force =     0.00000000    0.00000000    0.00000000
     atom    8 type  1   force =     0.00000000    0.00000000    0.00000000

     Total force =     0.000000     Total SCF correction =     0.000000

     Computing stress (Cartesian axis) and pressure

          total   stress  (Ry/bohr**3)                   (kbar)     P=      410.72
   0.00279199   0.00000000   0.00000000          410.72        0.00        0.00
   0.00000000   0.00279199   0.00000000            0.00      410.72        0.00
   0.00000000   0.00000000   0.00279199            0.00        0.00      410.72

     Writing output data file /scratch/YuFGEVvyVrpWOVHY.save/

     General routines

     Parallel routines

   This run was terminated on:   1:15: 4  26Nov2021

   JOB DONE.