     Program PWSCF v.6.7MaX starts on 26Nov2021 at  1:15:25

     R & G space division:  proc/nbgrp/npool/nimage =      72
     Reading input from sc_2.in
Warning: card &CELL ignored
Warning: card CELL_DYNAMICS = 'BFGS', ignored
Warning: card CELL_FACTOR = 2.0, ignored
Warning: card PRESS = 0.0, ignored
Warning: card / ignored

     Current dimensions of program PWSCF are:
     Max number of different atomic species (ntypx) = 10
     Max number of k-points (npk) =  40000
     Max angular momentum in pseudopotentials (lmaxx) =  3
     file Ru.pbe-spn-kjpaw_psl.1.0.0.UPF: wavefunction(s)  4D renormalized

     Subspace diagonalization in iterative solution of the eigenvalue problem:
     one sub-group per band group will be used

     Found symmetry operation: I + (  0.0000  0.0000  0.5000)
     This is a supercell, fractional translations are disabled
     Message from routine setup:
     using ibrav=0 with symmetry is DISCOURAGED, use correct ibrav instead

     bravais-lattice index     =            0
     lattice parameter (alat)  =       9.0720  a.u.
     unit-cell volume          =     993.7730 (a.u.)^3
     number of atoms/cell      =            8
     number of atomic types    =            1
     number of electrons       =       128.00
     number of Kohn-Sham states=           77
     kinetic-energy cutoff     =      71.0000  Ry
     charge density cutoff     =     430.0000  Ry
     scf convergence threshold =      1.0E-06
     mixing beta               =       0.1000
     number of iterations used =           10  TF        mixing
     Exchange-correlation= SLA  PW   PBX  PBC
                           (   1   4   3   4   0   0   0)

     celldm(1)=   9.072000  celldm(2)=   0.000000  celldm(3)=   0.000000
     celldm(4)=   0.000000  celldm(5)=   0.000000  celldm(6)=   0.000000

     crystal axes: (cart. coord. in units of alat)
               a(1) = (   1.100000   0.000000   0.000000 )
               a(2) = (   0.000000   1.100000   0.000000 )
               a(3) = (   0.000000   0.000000   1.100000 )

     reciprocal axes: (cart. coord. in units 2 pi/alat)
               b(1) = (  0.909091  0.000000  0.000000 )
               b(2) = (  0.000000  0.909091  0.000000 )
               b(3) = (  0.000000  0.000000  0.909091 )

     PseudoPot. # 1 for Ru read from file:
     /rds/homes/b/bxp912/pp/Ru.pbe-spn-kjpaw_psl.1.0.0.UPF
     MD5 check sum: 0ae1f594dea09af7be8575c3a481d1ae
     Pseudo is Projector augmented-wave + core cor, Zval = 16.0
     Generated using "atomic" code by A. Dal Corso  v.5.1
     Shape of augmentation charge: PSQ
     Using radial grid of 1233 points,  6 beta functions with:
                l(1) =   0
                l(2) =   0
                l(3) =   1
                l(4) =   1
                l(5) =   2
                l(6) =   2
     Q(r) pseudized with 0 coefficients

     atomic species   valence    mass     pseudopotential
        Ru            16.00   101.07000     Ru( 1.00)

     48 Sym. Ops., with inversion, found

   Cartesian axes

     site n.     atom                  positions (alat units)
         1           Ru  tau(   1) = (   0.0000000   0.0000000   0.0000000  )
         2           Ru  tau(   2) = (   0.0000000   0.0000000   0.5500000  )
         3           Ru  tau(   3) = (   0.0000000   0.5500000   0.0000000  )
         4           Ru  tau(   4) = (   0.0000000   0.5500000   0.5500000  )
         5           Ru  tau(   5) = (   0.5500000   0.0000000   0.0000000  )
         6           Ru  tau(   6) = (   0.5500000   0.0000000   0.5500000  )
         7           Ru  tau(   7) = (   0.5500000   0.5500000   0.0000000  )
         8           Ru  tau(   8) = (   0.5500000   0.5500000   0.5500000  )

     number of k points=    35  Marzari-Vanderbilt smearing, width (Ry)=  0.0400
                       cart. coord. in units 2pi/alat
        k(    1) = (   0.0505051   0.0505051   0.0505051), wk =   0.0219479
        k(    2) = (   0.0505051   0.0505051   0.1515152), wk =   0.0658436
        k(    3) = (   0.0505051   0.0505051   0.2525253), wk =   0.0658436
        k(    4) = (   0.0505051   0.0505051   0.3535354), wk =   0.0658436
        k(    5) = (   0.0505051   0.0505051  -0.4545455), wk =   0.0329218
        k(    6) = (   0.0505051   0.1515152   0.1515152), wk =   0.0658436
        k(    7) = (   0.0505051   0.1515152   0.2525253), wk =   0.1316872
        k(    8) = (   0.0505051   0.1515152   0.3535354), wk =   0.1316872
        k(    9) = (   0.0505051   0.1515152  -0.4545455), wk =   0.0658436
        k(   10) = (   0.0505051   0.2525253   0.2525253), wk =   0.0658436
        k(   11) = (   0.0505051   0.2525253   0.3535354), wk =   0.1316872
        k(   12) = (   0.0505051   0.2525253  -0.4545455), wk =   0.0658436
        k(   13) = (   0.0505051   0.3535354   0.3535354), wk =   0.0658436
        k(   14) = (   0.0505051   0.3535354  -0.4545455), wk =   0.0658436
        k(   15) = (   0.0505051  -0.4545455  -0.4545455), wk =   0.0164609
        k(   16) = (   0.1515152   0.1515152   0.1515152), wk =   0.0219479
        k(   17) = (   0.1515152   0.1515152   0.2525253), wk =   0.0658436
        k(   18) = (   0.1515152   0.1515152   0.3535354), wk =   0.0658436
        k(   19) = (   0.1515152   0.1515152  -0.4545455), wk =   0.0329218
        k(   20) = (   0.1515152   0.2525253   0.2525253), wk =   0.0658436
        k(   21) = (   0.1515152   0.2525253   0.3535354), wk =   0.1316872
        k(   22) = (   0.1515152   0.2525253  -0.4545455), wk =   0.0658436
        k(   23) = (   0.1515152   0.3535354   0.3535354), wk =   0.0658436
        k(   24) = (   0.1515152   0.3535354  -0.4545455), wk =   0.0658436
        k(   25) = (   0.1515152  -0.4545455  -0.4545455), wk =   0.0164609
        k(   26) = (   0.2525253   0.2525253   0.2525253), wk =   0.0219479
        k(   27) = (   0.2525253   0.2525253   0.3535354), wk =   0.0658436
        k(   28) = (   0.2525253   0.2525253  -0.4545455), wk =   0.0329218
        k(   29) = (   0.2525253   0.3535354   0.3535354), wk =   0.0658436
        k(   30) = (   0.2525253   0.3535354  -0.4545455), wk =   0.0658436
        k(   31) = (   0.2525253  -0.4545455  -0.4545455), wk =   0.0164609
        k(   32) = (   0.3535354   0.3535354   0.3535354), wk =   0.0219479
        k(   33) = (   0.3535354   0.3535354  -0.4545455), wk =   0.0329218
        k(   34) = (   0.3535354  -0.4545455  -0.4545455), wk =   0.0164609
        k(   35) = (  -0.4545455  -0.4545455  -0.4545455), wk =   0.0027435

     Check: negative core charge=   -0.000002

     Initial potential from superposition of free atoms

     starting charge  127.99490, renormalised to  128.00000
     Starting wfcs are   80 randomized atomic wfcs
     Checking if some PAW data can be deallocated...

     Self-consistent Calculation

     iteration #  1     ecut=    71.00 Ry     beta= 0.10
     Davidson diagonalization with overlap
     ethr =  1.00E-02,  avg # of iterations =  3.6

     Threshold (ethr) on eigenvalues was too large:
     Diagonalizing with lowered threshold

     Davidson diagonalization with overlap
     ethr =  2.91E-05,  avg # of iterations =  5.2

     total energy              =   -3452.60884357 Ry
     estimated scf accuracy    <       0.02829598 Ry

[...]

     total energy              =   -3452.60384643 Ry
     estimated scf accuracy    <       0.00000800 Ry

     iteration # 12     ecut=    71.00 Ry     beta= 0.10
     Davidson diagonalization with overlap
     ethr =  5.47E-09,  avg # of iterations =  2.0

     End of self-consistent calculation

          k = 0.0505 0.0505 0.0505 (  9996 PWs)   bands (ev):

   -56.4016 -56.3312 -56.3312 -56.3311 -56.2626 -56.2626 -56.2625 -56.1955
   -26.6674 -26.6674 -26.6674 -26.5894 -26.5894 -26.5894 -26.5891 -26.5891
   -26.5891 -26.5165 -26.5160 -26.5160 -26.0296 -26.0288 -26.0288 -25.9738
   -25.9738 -25.9738 -25.9735 -25.9734 -25.9734 -25.9205 -25.9205 -25.9205
    10.0932  11.5211  11.5211  11.5211  12.0064  12.0064  12.5150  12.5151
    12.5151  12.5683  12.5978  12.5978  12.5978  12.6002  12.6002  13.3157
    13.3157  13.3157  15.2700  15.2700  15.2701  15.5018  15.5018  15.5018
    15.8697  15.8697  15.8697  15.8743  15.8743  15.8743  16.5530  16.5530
    16.5530  17.4969  17.5071  17.5071  17.6997  17.6997  17.6997  18.8434
    18.8434  18.8434  19.0677  19.0677  21.3347

[...]

          k = 0.3535-0.4545-0.4545 ( 10012 PWs)   bands (ev):

[...]

          k =-0.4545-0.4545-0.4545 ( 10048 PWs)   bands (ev):

   -56.2978 -56.2978 -56.2978 -56.2977 -56.2976 -56.2976 -56.2976 -56.2974
   -26.2994 -26.2994 -26.2994 -26.2994 -26.2994 -26.2993 -26.2993 -26.2993
   -26.2816 -26.2816 -26.2816 -26.2816 -26.2816 -26.2815 -26.2815 -26.2815
   -26.2815 -26.2815 -26.2815 -26.2815 -26.2815 -26.2814 -26.2814 -26.2814
    12.9714  12.9714  12.9714  12.9714  12.9714  12.9714  12.9714  12.9714
    14.3220  14.3220  14.3220  14.3220  14.3220  14.3220  14.3220  14.3220
    14.3220  14.3220  14.3220  14.3220  14.3220  14.3220  14.3220  14.3220
    15.4207  15.4207  15.4207  15.4207  15.4207  15.4207  15.4208  15.4208
    15.4208  15.4208  15.4208  15.4208  15.4208  15.4208  15.4208  15.4208
    17.3850  17.3850  17.3850  17.3850  17.3850

     the Fermi energy is    16.2706 ev

!    total energy              =   -3452.60384848 Ry

     total all-electron energy =    -72496.701433 Ry
     estimated scf accuracy    <       0.00000007 Ry
     smearing contrib. (-TS)   =      -0.00986828 Ry
     internal energy E=F+TS    =   -3452.59398020 Ry

     The total energy is F=E-TS. E is the sum of the following terms:
     one-electron contribution =    -467.42098891 Ry
     hartree contribution      =     307.45115525 Ry
     xc contribution           =    -230.74875534 Ry
     ewald contribution        =   -1164.57937269 Ry
     one-center paw contrib.   =   -1897.29601851 Ry

     convergence has been achieved in  12 iterations

     Forces acting on atoms (cartesian axes, Ry/au):

     atom    1 type  1   force =     0.00000000    0.00000000    0.00000000
     atom    2 type  1   force =     0.00000000    0.00000000    0.00000000
     atom    3 type  1   force =     0.00000000    0.00000000    0.00000000
     atom    4 type  1   force =     0.00000000    0.00000000    0.00000000
     atom    5 type  1   force =     0.00000000    0.00000000    0.00000000
     atom    6 type  1   force =     0.00000000    0.00000000    0.00000000
     atom    7 type  1   force =     0.00000000    0.00000000    0.00000000
     atom    8 type  1   force =     0.00000000    0.00000000    0.00000000

     Total force =     0.000000     Total SCF correction =     0.000000

     Computing stress (Cartesian axis) and pressure

          total   stress  (Ry/bohr**3)                   (kbar)     P=     -234.44
  -0.00159367   0.00000000   0.00000000         -234.44        0.00        0.00
   0.00000000  -0.00159367   0.00000000            0.00     -234.44        0.00
   0.00000000   0.00000000  -0.00159367            0.00        0.00     -234.44

     Writing output data file /scratch/GRcSBtkbsGucxckB.save/

     General routines

     Parallel routines

   This run was terminated on:   1:16:15  26Nov2021

   JOB DONE.