     Program PWSCF v.6.7MaX starts on 26Nov2021 at  1:16:36

     R & G space division:  proc/nbgrp/npool/nimage =      72
     Reading input from sc_3.in
Warning: card &CELL ignored
Warning: card CELL_DYNAMICS = 'BFGS', ignored
Warning: card CELL_FACTOR = 2.0, ignored
Warning: card PRESS = 0.0, ignored
Warning: card / ignored

     Current dimensions of program PWSCF are:
     Max number of different atomic species (ntypx) = 10
     Max number of k-points (npk) =  40000
     Max angular momentum in pseudopotentials (lmaxx) =  3
     file Ru.pbe-spn-kjpaw_psl.1.0.0.UPF: wavefunction(s)  4D renormalized

     Subspace diagonalization in iterative solution of the eigenvalue problem:
     one sub-group per band group will be used

     Found symmetry operation: I + (  0.0000  0.0000  0.5000)
     This is a supercell, fractional translations are disabled
     Message from routine setup:
     using ibrav=0 with symmetry is DISCOURAGED, use correct ibrav instead

     bravais-lattice index     =            0
     lattice parameter (alat)  =       9.0720  a.u.
     unit-cell volume          =    1290.1876 (a.u.)^3
     number of atoms/cell      =            8
     number of atomic types    =            1
     number of electrons       =       128.00
     number of Kohn-Sham states=           77
     kinetic-energy cutoff     =      71.0000  Ry
     charge density cutoff     =     430.0000  Ry
     scf convergence threshold =      1.0E-06
     mixing beta               =       0.1000
     number of iterations used =           10  TF        mixing
     Exchange-correlation= SLA  PW   PBX  PBC
                           (   1   4   3   4   0   0   0)

     celldm(1)=   9.072000  celldm(2)=   0.000000  celldm(3)=   0.000000
     celldm(4)=   0.000000  celldm(5)=   0.000000  celldm(6)=   0.000000

     crystal axes: (cart. coord. in units of alat)
               a(1) = (   1.200000   0.000000   0.000000 )
               a(2) = (   0.000000   1.200000   0.000000 )
               a(3) = (   0.000000   0.000000   1.200000 )

     reciprocal axes: (cart. coord. in units 2 pi/alat)
               b(1) = (  0.833333  0.000000  0.000000 )
               b(2) = (  0.000000  0.833333  0.000000 )
               b(3) = (  0.000000  0.000000  0.833333 )

     PseudoPot. # 1 for Ru read from file:
     /rds/homes/b/bxp912/pp/Ru.pbe-spn-kjpaw_psl.1.0.0.UPF
     MD5 check sum: 0ae1f594dea09af7be8575c3a481d1ae
     Pseudo is Projector augmented-wave + core cor, Zval = 16.0
     Generated using "atomic" code by A. Dal Corso  v.5.1
     Shape of augmentation charge: PSQ
     Using radial grid of 1233 points,  6 beta functions with:
                l(1) =   0
                l(2) =   0
                l(3) =   1
                l(4) =   1
                l(5) =   2
                l(6) =   2
     Q(r) pseudized with 0 coefficients

     atomic species   valence    mass     pseudopotential
        Ru            16.00   101.07000     Ru( 1.00)

     48 Sym. Ops., with inversion, found

   Cartesian axes

     site n.     atom                  positions (alat units)
         1           Ru  tau(   1) = (   0.0000000   0.0000000   0.0000000  )
         2           Ru  tau(   2) = (   0.0000000   0.0000000   0.6000000  )
         3           Ru  tau(   3) = (   0.0000000   0.6000000   0.0000000  )
         4           Ru  tau(   4) = (   0.0000000   0.6000000   0.6000000  )
         5           Ru  tau(   5) = (   0.6000000   0.0000000   0.0000000  )
         6           Ru  tau(   6) = (   0.6000000   0.0000000   0.6000000  )
         7           Ru  tau(   7) = (   0.6000000   0.6000000   0.0000000  )
         8           Ru  tau(   8) = (   0.6000000   0.6000000   0.6000000  )

     number of k points=    35  Marzari-Vanderbilt smearing, width (Ry)=  0.0400
                       cart. coord. in units 2pi/alat
        k(    1) = (   0.0462963   0.0462963   0.0462963), wk =   0.0219479
        k(    2) = (   0.0462963   0.0462963   0.1388889), wk =   0.0658436
        k(    3) = (   0.0462963   0.0462963   0.2314815), wk =   0.0658436
        k(    4) = (   0.0462963   0.0462963   0.3240741), wk =   0.0658436
        k(    5) = (   0.0462963   0.0462963  -0.4166667), wk =   0.0329218
        k(    6) = (   0.0462963   0.1388889   0.1388889), wk =   0.0658436
        k(    7) = (   0.0462963   0.1388889   0.2314815), wk =   0.1316872
        k(    8) = (   0.0462963   0.1388889   0.3240741), wk =   0.1316872
        k(    9) = (   0.0462963   0.1388889  -0.4166667), wk =   0.0658436
        k(   10) = (   0.0462963   0.2314815   0.2314815), wk =   0.0658436
        k(   11) = (   0.0462963   0.2314815   0.3240741), wk =   0.1316872
        k(   12) = (   0.0462963   0.2314815  -0.4166667), wk =   0.0658436
        k(   13) = (   0.0462963   0.3240741   0.3240741), wk =   0.0658436
        k(   14) = (   0.0462963   0.3240741  -0.4166667), wk =   0.0658436
        k(   15) = (   0.0462963  -0.4166667  -0.4166667), wk =   0.0164609
        k(   16) = (   0.1388889   0.1388889   0.1388889), wk =   0.0219479
        k(   17) = (   0.1388889   0.1388889   0.2314815), wk =   0.0658436
        k(   18) = (   0.1388889   0.1388889   0.3240741), wk =   0.0658436
        k(   19) = (   0.1388889   0.1388889  -0.4166667), wk =   0.0329218
        k(   20) = (   0.1388889   0.2314815   0.2314815), wk =   0.0658436
        k(   21) = (   0.1388889   0.2314815   0.3240741), wk =   0.1316872
        k(   22) = (   0.1388889   0.2314815  -0.4166667), wk =   0.0658436
        k(   23) = (   0.1388889   0.3240741   0.3240741), wk =   0.0658436
        k(   24) = (   0.1388889   0.3240741  -0.4166667), wk =   0.0658436
        k(   25) = (   0.1388889  -0.4166667  -0.4166667), wk =   0.0164609
        k(   26) = (   0.2314815   0.2314815   0.2314815), wk =   0.0219479
        k(   27) = (   0.2314815   0.2314815   0.3240741), wk =   0.0658436
        k(   28) = (   0.2314815   0.2314815  -0.4166667), wk =   0.0329218
        k(   29) = (   0.2314815   0.3240741   0.3240741), wk =   0.0658436
        k(   30) = (   0.2314815   0.3240741  -0.4166667), wk =   0.0658436
        k(   31) = (   0.2314815  -0.4166667  -0.4166667), wk =   0.0164609
        k(   32) = (   0.3240741   0.3240741   0.3240741), wk =   0.0219479
        k(   33) = (   0.3240741   0.3240741  -0.4166667), wk =   0.0329218
        k(   34) = (   0.3240741  -0.4166667  -0.4166667), wk =   0.0164609
        k(   35) = (  -0.4166667  -0.4166667  -0.4166667), wk =   0.0027435

     Check: negative core charge=   -0.000002

     Initial potential from superposition of free atoms

     starting charge  127.99490, renormalised to  128.00000
     Starting wfcs are   80 randomized atomic wfcs
     Checking if some PAW data can be deallocated...

     Self-consistent Calculation

     iteration #  1     ecut=    71.00 Ry     beta= 0.10
     Davidson diagonalization with overlap
     ethr =  1.00E-02,  avg # of iterations =  3.7

     Threshold (ethr) on eigenvalues was too large:
     Diagonalizing with lowered threshold

     Davidson diagonalization with overlap
     ethr =  9.37E-05,  avg # of iterations =  4.0

     total energy              =   -3452.00517951 Ry
     estimated scf accuracy    <       0.05940378 Ry

[...]

     total energy              =   -3451.99573514 Ry
     estimated scf accuracy    <       0.00001315 Ry

     iteration # 10     ecut=    71.00 Ry     beta= 0.10
     Davidson diagonalization with overlap
     ethr =  8.51E-09,  avg # of iterations =  2.3

     End of self-consistent calculation

          k = 0.0463 0.0463 0.0463 ( 13088 PWs)   bands (ev):

   -61.0475 -61.0246 -61.0246 -61.0243 -61.0020 -61.0020 -61.0017 -60.9796
   -31.1274 -31.1274 -31.1274 -31.0991 -31.0991 -31.0990 -31.0990 -31.0989
   -31.0989 -31.0718 -31.0717 -31.0717 -30.8639 -30.8638 -30.8638 -30.8423
   -30.8423 -30.8422 -30.8422 -30.8421 -30.8421 -30.8211 -30.8211 -30.8211
     6.4320   8.1137   8.1137   8.1137   8.3251   8.3251   8.4578   8.4578
     8.4578   8.7215   8.7215   8.7215   8.8114   8.8327   8.8327   9.1399
     9.1399   9.1399  10.6511  10.6511  10.6511  10.7580  10.7580  10.7580
    10.9885  10.9885  10.9885  10.9913  10.9913  10.9914  11.8802  11.8802
    11.8802  12.0415  12.0473  12.0473  12.1677  12.1677  12.1677  12.9632
    12.9633  12.9633  13.0874  13.0874  15.6731

[...]

          k = 0.3241-0.4167-0.4167 ( 13024 PWs)   bands (ev):

[...]

          k =-0.4167-0.4167-0.4167 ( 13096 PWs)   bands (ev):

   -61.0135 -61.0135 -61.0135 -61.0133 -61.0133 -61.0133 -61.0132 -61.0130
   -30.9756 -30.9755 -30.9755 -30.9755 -30.9755 -30.9755 -30.9755 -30.9755
   -30.9701 -30.9701 -30.9701 -30.9700 -30.9700 -30.9700 -30.9700 -30.9700
   -30.9700 -30.9700 -30.9699 -30.9699 -30.9699 -30.9699 -30.9699 -30.9699
     8.9978   8.9978   8.9978   8.9978   8.9978   8.9978   8.9978   8.9978
     9.9309   9.9309   9.9309   9.9309   9.9309   9.9309   9.9309   9.9309
     9.9309   9.9309   9.9309   9.9309   9.9309   9.9309   9.9309   9.9309
    10.7065  10.7065  10.7065  10.7065  10.7065  10.7065  10.7065  10.7065
    10.7065  10.7065  10.7065  10.7065  10.7065  10.7065  10.7065  10.7065
    12.0354  12.0355  12.0355  12.0355  12.0355

     the Fermi energy is    11.2645 ev

!    total energy              =   -3451.99573947 Ry

     total all-electron energy =    -72496.093324 Ry
     estimated scf accuracy    <       0.00000037 Ry
     smearing contrib. (-TS)   =      -0.02401276 Ry
     internal energy E=F+TS    =   -3451.97172671 Ry

     The total energy is F=E-TS. E is the sum of the following terms:
     one-electron contribution =    -618.95611732 Ry
     hartree contribution      =     361.19470492 Ry
     xc contribution           =    -229.42042749 Ry
     ewald contribution        =   -1067.53109163 Ry
     one-center paw contrib.   =   -1897.25879519 Ry

     convergence has been achieved in  10 iterations

     Forces acting on atoms (cartesian axes, Ry/au):

     atom    1 type  1   force =     0.00000000    0.00000000    0.00000000
     atom    2 type  1   force =     0.00000000    0.00000000    0.00000000
     atom    3 type  1   force =     0.00000000    0.00000000    0.00000000
     atom    4 type  1   force =     0.00000000    0.00000000    0.00000000
     atom    5 type  1   force =     0.00000000    0.00000000    0.00000000
     atom    6 type  1   force =     0.00000000    0.00000000    0.00000000
     atom    7 type  1   force =     0.00000000    0.00000000    0.00000000
     atom    8 type  1   force =     0.00000000    0.00000000    0.00000000

     Total force =     0.000000     Total SCF correction =     0.000000

     Computing stress (Cartesian axis) and pressure

          total   stress  (Ry/bohr**3)                   (kbar)     P=     -330.85
  -0.00224910   0.00000000   0.00000000         -330.85        0.00        0.00
   0.00000000  -0.00224910   0.00000000            0.00     -330.85        0.00
   0.00000000   0.00000000  -0.00224910            0.00        0.00     -330.85

     Writing output data file /scratch/BGCEfmbGXtxIoMlh.save/

     General routines

     Parallel routines

   This run was terminated on:   1:17:21  26Nov2021

   JOB DONE.