     Program PWSCF v.6.7MaX starts on 26Nov2021 at  1:17:42

     R & G space division:  proc/nbgrp/npool/nimage =      72
     Reading input from sc_4.in
Warning: card &CELL ignored
Warning: card CELL_DYNAMICS = 'BFGS', ignored
Warning: card CELL_FACTOR = 2.0, ignored
Warning: card PRESS = 0.0, ignored
Warning: card / ignored

     Current dimensions of program PWSCF are:
     Max number of different atomic species (ntypx) = 10
     Max number of k-points (npk) =  40000
     Max angular momentum in pseudopotentials (lmaxx) =  3
     file Ru.pbe-spn-kjpaw_psl.1.0.0.UPF: wavefunction(s)  4D renormalized

     Subspace diagonalization in iterative solution of the eigenvalue problem:
     one sub-group per band group will be used

     Found symmetry operation: I + (  0.0000  0.0000 -0.5000)
     This is a supercell, fractional translations are disabled
     Message from routine setup:
     using ibrav=0 with symmetry is DISCOURAGED, use correct ibrav instead

     bravais-lattice index     =            0
     lattice parameter (alat)  =       9.0720  a.u.
     unit-cell volume          =    1640.3600 (a.u.)^3
     number of atoms/cell      =            8
     number of atomic types    =            1
     number of electrons       =       128.00
     number of Kohn-Sham states=           77
     kinetic-energy cutoff     =      71.0000  Ry
     charge density cutoff     =     430.0000  Ry
     scf convergence threshold =      1.0E-06
     mixing beta               =       0.1000
     number of iterations used =           10  TF        mixing
     Exchange-correlation= SLA  PW   PBX  PBC
                           (   1   4   3   4   0   0   0)

     celldm(1)=   9.072000  celldm(2)=   0.000000  celldm(3)=   0.000000
     celldm(4)=   0.000000  celldm(5)=   0.000000  celldm(6)=   0.000000

     crystal axes: (cart. coord. in units of alat)
               a(1) = (   1.300000   0.000000   0.000000 )
               a(2) = (   0.000000   1.300000   0.000000 )
               a(3) = (   0.000000   0.000000   1.300000 )

     reciprocal axes: (cart. coord. in units 2 pi/alat)
               b(1) = (  0.769231  0.000000  0.000000 )
               b(2) = (  0.000000  0.769231  0.000000 )
               b(3) = (  0.000000  0.000000  0.769231 )

     PseudoPot. # 1 for Ru read from file:
     /rds/homes/b/bxp912/pp/Ru.pbe-spn-kjpaw_psl.1.0.0.UPF
     MD5 check sum: 0ae1f594dea09af7be8575c3a481d1ae
     Pseudo is Projector augmented-wave + core cor, Zval = 16.0
     Generated using "atomic" code by A. Dal Corso  v.5.1
     Shape of augmentation charge: PSQ
     Using radial grid of 1233 points,  6 beta functions with:
                l(1) =   0
                l(2) =   0
                l(3) =   1
                l(4) =   1
                l(5) =   2
                l(6) =   2
     Q(r) pseudized with 0 coefficients

     atomic species   valence    mass     pseudopotential
        Ru            16.00   101.07000     Ru( 1.00)

     48 Sym. Ops., with inversion, found

   Cartesian axes

     site n.     atom                  positions (alat units)
         1           Ru  tau(   1) = (   0.0000000   0.0000000   0.0000000  )
         2           Ru  tau(   2) = (   0.0000000   0.0000000   0.6500000  )
         3           Ru  tau(   3) = (   0.0000000   0.6500000   0.0000000  )
         4           Ru  tau(   4) = (   0.0000000   0.6500000   0.6500000  )
         5           Ru  tau(   5) = (   0.6500000   0.0000000   0.0000000  )
         6           Ru  tau(   6) = (   0.6500000   0.0000000   0.6500000  )
         7           Ru  tau(   7) = (   0.6500000   0.6500000   0.0000000  )
         8           Ru  tau(   8) = (   0.6500000   0.6500000   0.6500000  )

     number of k points=    35  Marzari-Vanderbilt smearing, width (Ry)=  0.0400
                       cart. coord. in units 2pi/alat
        k(    1) = (   0.0427350   0.0427350   0.0427350), wk =   0.0219479
        k(    2) = (   0.0427350   0.0427350   0.1282051), wk =   0.0658436
        k(    3) = (   0.0427350   0.0427350   0.2136752), wk =   0.0658436
        k(    4) = (   0.0427350   0.0427350   0.2991453), wk =   0.0658436
        k(    5) = (   0.0427350   0.0427350  -0.3846154), wk =   0.0329218
        k(    6) = (   0.0427350   0.1282051   0.1282051), wk =   0.0658436
        k(    7) = (   0.0427350   0.1282051   0.2136752), wk =   0.1316872
        k(    8) = (   0.0427350   0.1282051   0.2991453), wk =   0.1316872
        k(    9) = (   0.0427350   0.1282051  -0.3846154), wk =   0.0658436
        k(   10) = (   0.0427350   0.2136752   0.2136752), wk =   0.0658436
        k(   11) = (   0.0427350   0.2136752   0.2991453), wk =   0.1316872
        k(   12) = (   0.0427350   0.2136752  -0.3846154), wk =   0.0658436
        k(   13) = (   0.0427350   0.2991453   0.2991453), wk =   0.0658436
        k(   14) = (   0.0427350   0.2991453  -0.3846154), wk =   0.0658436
        k(   15) = (   0.0427350  -0.3846154  -0.3846154), wk =   0.0164609
        k(   16) = (   0.1282051   0.1282051   0.1282051), wk =   0.0219479
        k(   17) = (   0.1282051   0.1282051   0.2136752), wk =   0.0658436
        k(   18) = (   0.1282051   0.1282051   0.2991453), wk =   0.0658436
        k(   19) = (   0.1282051   0.1282051  -0.3846154), wk =   0.0329218
        k(   20) = (   0.1282051   0.2136752   0.2136752), wk =   0.0658436
        k(   21) = (   0.1282051   0.2136752   0.2991453), wk =   0.1316872
        k(   22) = (   0.1282051   0.2136752  -0.3846154), wk =   0.0658436
        k(   23) = (   0.1282051   0.2991453   0.2991453), wk =   0.0658436
        k(   24) = (   0.1282051   0.2991453  -0.3846154), wk =   0.0658436
        k(   25) = (   0.1282051  -0.3846154  -0.3846154), wk =   0.0164609
        k(   26) = (   0.2136752   0.2136752   0.2136752), wk =   0.0219479
        k(   27) = (   0.2136752   0.2136752   0.2991453), wk =   0.0658436
        k(   28) = (   0.2136752   0.2136752  -0.3846154), wk =   0.0329218
        k(   29) = (   0.2136752   0.2991453   0.2991453), wk =   0.0658436
        k(   30) = (   0.2136752   0.2991453  -0.3846154), wk =   0.0658436
        k(   31) = (   0.2136752  -0.3846154  -0.3846154), wk =   0.0164609
        k(   32) = (   0.2991453   0.2991453   0.2991453), wk =   0.0219479
        k(   33) = (   0.2991453   0.2991453  -0.3846154), wk =   0.0329218
        k(   34) = (   0.2991453  -0.3846154  -0.3846154), wk =   0.0164609
        k(   35) = (  -0.3846154  -0.3846154  -0.3846154), wk =   0.0027435

     Check: negative core charge=   -0.000002

     Initial potential from superposition of free atoms

     starting charge  127.99490, renormalised to  128.00000
     Starting wfcs are   80 randomized atomic wfcs
     Checking if some PAW data can be deallocated...

     Self-consistent Calculation

     iteration #  1     ecut=    71.00 Ry     beta= 0.10
     Davidson diagonalization with overlap
     ethr =  1.00E-02,  avg # of iterations =  3.0

     Threshold (ethr) on eigenvalues was too large:
     Diagonalizing with lowered threshold

     Davidson diagonalization with overlap
     ethr =  3.37E-04,  avg # of iterations =  3.5

     total energy              =   -3451.29915987 Ry
     estimated scf accuracy    <       0.26274575 Ry

[...]

     total energy              =   -3451.26638112 Ry
     estimated scf accuracy    <       0.00000121 Ry

     iteration # 18     ecut=    71.00 Ry     beta= 0.10
     Davidson diagonalization with overlap
     ethr =  9.48E-10,  avg # of iterations =  2.0

     End of self-consistent calculation

          k = 0.0427 0.0427 0.0427 ( 16594 PWs)   bands (ev):

   -64.3218 -64.3142 -64.3142 -64.3142 -64.3067 -64.3067 -64.3066 -64.2992
   -34.3373 -34.3373 -34.3373 -34.3265 -34.3265 -34.3265 -34.3265 -34.3265
   -34.3265 -34.3163 -34.3161 -34.3161 -34.2275 -34.2275 -34.2275 -34.2188
   -34.2188 -34.2188 -34.2188 -34.2188 -34.2188 -34.2104 -34.2104 -34.2104
     3.9468   5.5963   5.5963   5.5963   5.6278   5.6278   5.6278   5.6606
     5.6606   5.9303   5.9303   5.9303   6.0626   6.0768   6.0768   6.1827
     6.1827   6.1827   7.3259   7.3259   7.3259   7.3734   7.3734   7.3734
     7.5225   7.5225   7.5225   7.5243   7.5243   7.5243   8.2236   8.2271
     8.2271   8.3052   8.3052   8.3052   8.6668   8.6668   8.6668   8.8689
     8.8689   8.8689   8.9420   8.9420  10.9975

[...]

          k = 0.2991-0.3846-0.3846 ( 16580 PWs)   bands (ev):

[...]

          k =-0.3846-0.3846-0.3846 ( 16560 PWs)   bands (ev):

   -64.3105 -64.3105 -64.3105 -64.3104 -64.3104 -64.3104 -64.3104 -64.3104
   -34.2740 -34.2740 -34.2740 -34.2740 -34.2740 -34.2740 -34.2740 -34.2740
   -34.2724 -34.2724 -34.2724 -34.2724 -34.2724 -34.2724 -34.2724 -34.2724
   -34.2724 -34.2724 -34.2724 -34.2724 -34.2724 -34.2723 -34.2723 -34.2723
     6.1812   6.1812   6.1812   6.1812   6.1812   6.1812   6.1812   6.1812
     6.8048   6.8048   6.8048   6.8048   6.8048   6.8048   6.8048   6.8048
     6.8048   6.8048   6.8048   6.8048   6.8048   6.8048   6.8048   6.8048
     7.3423   7.3423   7.3423   7.3423   7.3423   7.3423   7.3423   7.3423
     7.3423   7.3423   7.3423   7.3423   7.3423   7.3423   7.3423   7.3423
     8.3138   8.3138   8.3138   8.3138   8.3139

     the Fermi energy is     7.7257 ev

!    total energy              =   -3451.26638132 Ry

     total all-electron energy =    -72495.363966 Ry
     estimated scf accuracy    <       0.00000020 Ry
     smearing contrib. (-TS)   =      -0.02844337 Ry
     internal energy E=F+TS    =   -3451.23793795 Ry

     The total energy is F=E-TS. E is the sum of the following terms:
     one-electron contribution =    -752.21669378 Ry
     hartree contribution      =     412.40359100 Ry
     xc contribution           =    -228.77133293 Ry
     ewald contribution        =    -985.41331535 Ry
     one-center paw contrib.   =   -1897.24018690 Ry

     convergence has been achieved in  18 iterations

     Forces acting on atoms (cartesian axes, Ry/au):

     atom    1 type  1   force =     0.00000000    0.00000000    0.00000000
     atom    2 type  1   force =     0.00000000    0.00000000    0.00000000
     atom    3 type  1   force =     0.00000000    0.00000000    0.00000000
     atom    4 type  1   force =     0.00000000    0.00000000    0.00000000
     atom    5 type  1   force =     0.00000000    0.00000000    0.00000000
     atom    6 type  1   force =     0.00000000    0.00000000    0.00000000
     atom    7 type  1   force =     0.00000000    0.00000000    0.00000000
     atom    8 type  1   force =     0.00000000    0.00000000    0.00000000

     Total force =     0.000000     Total SCF correction =     0.000000

     Computing stress (Cartesian axis) and pressure

          total   stress  (Ry/bohr**3)                   (kbar)     P=     -281.57
  -0.00191409   0.00000000   0.00000000         -281.57        0.00        0.00
   0.00000000  -0.00191409   0.00000000            0.00     -281.57        0.00
   0.00000000   0.00000000  -0.00191409            0.00        0.00     -281.57

     Writing output data file /scratch/XwtpcopfVsehdWHN.save/

     General routines

     Parallel routines

   This run was terminated on:   1:19:25  26Nov2021

   JOB DONE.