     Program PWSCF v.6.7MaX starts on 26Nov2021 at  1:19:46

     R & G space division:  proc/nbgrp/npool/nimage =      72
     Reading input from sc_5.in
Warning: card &CELL ignored
Warning: card CELL_DYNAMICS = 'BFGS', ignored
Warning: card CELL_FACTOR = 2.0, ignored
Warning: card PRESS = 0.0, ignored
Warning: card / ignored

     Current dimensions of program PWSCF are:
     Max number of different atomic species (ntypx) = 10
     Max number of k-points (npk) =  40000
     Max angular momentum in pseudopotentials (lmaxx) =  3
     file Ru.pbe-spn-kjpaw_psl.1.0.0.UPF: wavefunction(s)  4D renormalized

     Subspace diagonalization in iterative solution of the eigenvalue problem:
     one sub-group per band group will be used

     Found symmetry operation: I + (  0.0000  0.0000 -0.5000)
     This is a supercell, fractional translations are disabled
     Message from routine setup:
     using ibrav=0 with symmetry is DISCOURAGED, use correct ibrav instead

     bravais-lattice index     =            0
     lattice parameter (alat)  =       9.0720  a.u.
     unit-cell volume          =    2048.7701 (a.u.)^3
     number of atoms/cell      =            8
     number of atomic types    =            1
     number of electrons       =       128.00
     number of Kohn-Sham states=           77
     kinetic-energy cutoff     =      71.0000  Ry
     charge density cutoff     =     430.0000  Ry
     scf convergence threshold =      1.0E-06
     mixing beta               =       0.1000
     number of iterations used =           10  TF        mixing
     Exchange-correlation= SLA  PW   PBX  PBC
                           (   1   4   3   4   0   0   0)

     celldm(1)=   9.072000  celldm(2)=   0.000000  celldm(3)=   0.000000
     celldm(4)=   0.000000  celldm(5)=   0.000000  celldm(6)=   0.000000

     crystal axes: (cart. coord. in units of alat)
               a(1) = (   1.400000   0.000000   0.000000 )
               a(2) = (   0.000000   1.400000   0.000000 )
               a(3) = (   0.000000   0.000000   1.400000 )

     reciprocal axes: (cart. coord. in units 2 pi/alat)
               b(1) = (  0.714286  0.000000  0.000000 )
               b(2) = (  0.000000  0.714286  0.000000 )
               b(3) = (  0.000000  0.000000  0.714286 )

     PseudoPot. # 1 for Ru read from file:
     /rds/homes/b/bxp912/pp/Ru.pbe-spn-kjpaw_psl.1.0.0.UPF
     MD5 check sum: 0ae1f594dea09af7be8575c3a481d1ae
     Pseudo is Projector augmented-wave + core cor, Zval = 16.0
     Generated using "atomic" code by A. Dal Corso  v.5.1
     Shape of augmentation charge: PSQ
     Using radial grid of 1233 points,  6 beta functions with:
                l(1) =   0
                l(2) =   0
                l(3) =   1
                l(4) =   1
                l(5) =   2
                l(6) =   2
     Q(r) pseudized with 0 coefficients

     atomic species   valence    mass     pseudopotential
        Ru            16.00   101.07000     Ru( 1.00)

     48 Sym. Ops., with inversion, found

   Cartesian axes

     site n.     atom                  positions (alat units)
         1           Ru  tau(   1) = (   0.0000000   0.0000000   0.0000000  )
         2           Ru  tau(   2) = (   0.0000000   0.0000000   0.7000000  )
         3           Ru  tau(   3) = (   0.0000000   0.7000000   0.0000000  )
         4           Ru  tau(   4) = (   0.0000000   0.7000000   0.7000000  )
         5           Ru  tau(   5) = (   0.7000000   0.0000000   0.0000000  )
         6           Ru  tau(   6) = (   0.7000000   0.0000000   0.7000000  )
         7           Ru  tau(   7) = (   0.7000000   0.7000000   0.0000000  )
         8           Ru  tau(   8) = (   0.7000000   0.7000000   0.7000000  )

     number of k points=    35  Marzari-Vanderbilt smearing, width (Ry)=  0.0400
                       cart. coord. in units 2pi/alat
        k(    1) = (   0.0396825   0.0396825   0.0396825), wk =   0.0219479
        k(    2) = (   0.0396825   0.0396825   0.1190476), wk =   0.0658436
        k(    3) = (   0.0396825   0.0396825   0.1984127), wk =   0.0658436
        k(    4) = (   0.0396825   0.0396825   0.2777778), wk =   0.0658436
        k(    5) = (   0.0396825   0.0396825  -0.3571429), wk =   0.0329218
        k(    6) = (   0.0396825   0.1190476   0.1190476), wk =   0.0658436
        k(    7) = (   0.0396825   0.1190476   0.1984127), wk =   0.1316872
        k(    8) = (   0.0396825   0.1190476   0.2777778), wk =   0.1316872
        k(    9) = (   0.0396825   0.1190476  -0.3571429), wk =   0.0658436
        k(   10) = (   0.0396825   0.1984127   0.1984127), wk =   0.0658436
        k(   11) = (   0.0396825   0.1984127   0.2777778), wk =   0.1316872
        k(   12) = (   0.0396825   0.1984127  -0.3571429), wk =   0.0658436
        k(   13) = (   0.0396825   0.2777778   0.2777778), wk =   0.0658436
        k(   14) = (   0.0396825   0.2777778  -0.3571429), wk =   0.0658436
        k(   15) = (   0.0396825  -0.3571429  -0.3571429), wk =   0.0164609
        k(   16) = (   0.1190476   0.1190476   0.1190476), wk =   0.0219479
        k(   17) = (   0.1190476   0.1190476   0.1984127), wk =   0.0658436
        k(   18) = (   0.1190476   0.1190476   0.2777778), wk =   0.0658436
        k(   19) = (   0.1190476   0.1190476  -0.3571429), wk =   0.0329218
        k(   20) = (   0.1190476   0.1984127   0.1984127), wk =   0.0658436
        k(   21) = (   0.1190476   0.1984127   0.2777778), wk =   0.1316872
        k(   22) = (   0.1190476   0.1984127  -0.3571429), wk =   0.0658436
        k(   23) = (   0.1190476   0.2777778   0.2777778), wk =   0.0658436
        k(   24) = (   0.1190476   0.2777778  -0.3571429), wk =   0.0658436
        k(   25) = (   0.1190476  -0.3571429  -0.3571429), wk =   0.0164609
        k(   26) = (   0.1984127   0.1984127   0.1984127), wk =   0.0219479
        k(   27) = (   0.1984127   0.1984127   0.2777778), wk =   0.0658436
        k(   28) = (   0.1984127   0.1984127  -0.3571429), wk =   0.0329218
        k(   29) = (   0.1984127   0.2777778   0.2777778), wk =   0.0658436
        k(   30) = (   0.1984127   0.2777778  -0.3571429), wk =   0.0658436
        k(   31) = (   0.1984127  -0.3571429  -0.3571429), wk =   0.0164609
        k(   32) = (   0.2777778   0.2777778   0.2777778), wk =   0.0219479
        k(   33) = (   0.2777778   0.2777778  -0.3571429), wk =   0.0329218
        k(   34) = (   0.2777778  -0.3571429  -0.3571429), wk =   0.0164609
        k(   35) = (  -0.3571429  -0.3571429  -0.3571429), wk =   0.0027435

     Check: negative core charge=   -0.000002

     Initial potential from superposition of free atoms

     starting charge  127.99490, renormalised to  128.00000
     Starting wfcs are   80 randomized atomic wfcs
     Checking if some PAW data can be deallocated...

     Self-consistent Calculation

     iteration #  1     ecut=    71.00 Ry     beta= 0.10
     Davidson diagonalization with overlap
     ethr =  1.00E-02,  avg # of iterations =  2.5

     Threshold (ethr) on eigenvalues was too large:
     Diagonalizing with lowered threshold

     Davidson diagonalization with overlap
     ethr =  7.62E-04,  avg # of iterations =  2.3

     total energy              =   -3450.67435216 Ry
     estimated scf accuracy    <       0.75286577 Ry

[...]

     total energy              =   -3450.59639104 Ry
     estimated scf accuracy    <       0.00000124 Ry

     iteration # 20     ecut=    71.00 Ry     beta= 0.10
     Davidson diagonalization with overlap
     ethr =  9.66E-10,  avg # of iterations =  2.0

     End of self-consistent calculation

          k = 0.0397 0.0397 0.0397 ( 20614 PWs)   bands (ev):

   -66.6554 -66.6529 -66.6529 -66.6529 -66.6504 -66.6504 -66.6504 -66.6478
   -36.6577 -36.6577 -36.6577 -36.6537 -36.6537 -36.6537 -36.6537 -36.6536
   -36.6536 -36.6497 -36.6496 -36.6496 -36.6117 -36.6116 -36.6116 -36.6083
   -36.6083 -36.6083 -36.6083 -36.6083 -36.6083 -36.6050 -36.6050 -36.6050
     2.2158   3.6038   3.6038   3.6038   3.7004   3.7004   3.7126   3.7126
     3.7126   3.8861   3.8862   3.8862   4.0252   4.0345   4.0345   4.0433
     4.0433   4.0433   4.8979   4.8979   4.8979   4.9200   4.9200   4.9200
     5.0189   5.0189   5.0189   5.0201   5.0201   5.0201   5.4973   5.4994
     5.4994   5.5517   5.5517   5.5517   5.9585   5.9586   5.9586   6.0040
     6.0040   6.3757   6.3757   6.3757   7.6981

[...]

          k = 0.2778-0.3571-0.3571 ( 20684 PWs)   bands (ev):

[...]

          k =-0.3571-0.3571-0.3571 ( 20672 PWs)   bands (ev):

   -66.6516 -66.6516 -66.6516 -66.6516 -66.6516 -66.6516 -66.6516 -66.6516
   -36.6315 -36.6315 -36.6315 -36.6315 -36.6314 -36.6314 -36.6314 -36.6314
   -36.6309 -36.6309 -36.6309 -36.6309 -36.6309 -36.6309 -36.6309 -36.6309
   -36.6309 -36.6309 -36.6309 -36.6308 -36.6308 -36.6308 -36.6308 -36.6308
     4.1367   4.1367   4.1367   4.1367   4.1367   4.1367   4.1367   4.1367
     4.5329   4.5329   4.5329   4.5329   4.5329   4.5329   4.5329   4.5329
     4.5329   4.5329   4.5329   4.5329   4.5329   4.5329   4.5329   4.5329
     4.9015   4.9015   4.9015   4.9015   4.9015   4.9015   4.9015   4.9015
     4.9015   4.9015   4.9015   4.9015   4.9015   4.9015   4.9015   4.9015
     5.6643   5.6643   5.6643   5.6643   5.6644

     the Fermi energy is     5.1776 ev

!    total energy              =   -3450.59639087 Ry

     total all-electron energy =    -72494.693976 Ry
     estimated scf accuracy    <       0.00000062 Ry
     smearing contrib. (-TS)   =      -0.01091902 Ry
     internal energy E=F+TS    =   -3450.58547185 Ry

     The total energy is F=E-TS. E is the sum of the following terms:
     one-electron contribution =    -870.31156700 Ry
     hartree contribution      =     460.50246249 Ry
     xc contribution           =    -228.51852450 Ry
     ewald contribution        =    -915.02664997 Ry
     one-center paw contrib.   =   -1897.23119287 Ry

     convergence has been achieved in  20 iterations

     Forces acting on atoms (cartesian axes, Ry/au):

     atom    1 type  1   force =     0.00000000    0.00000000    0.00000000
     atom    2 type  1   force =     0.00000000    0.00000000    0.00000000
     atom    3 type  1   force =     0.00000000    0.00000000    0.00000000
     atom    4 type  1   force =     0.00000000    0.00000000    0.00000000
     atom    5 type  1   force =     0.00000000    0.00000000    0.00000000
     atom    6 type  1   force =     0.00000000    0.00000000    0.00000000
     atom    7 type  1   force =     0.00000000    0.00000000    0.00000000
     atom    8 type  1   force =     0.00000000    0.00000000    0.00000000

     Total force =     0.000000     Total SCF correction =     0.000000

     Computing stress (Cartesian axis) and pressure

          total   stress  (Ry/bohr**3)                   (kbar)     P=     -209.03
  -0.00142096   0.00000000   0.00000000         -209.03        0.00        0.00
   0.00000000  -0.00142096   0.00000000            0.00     -209.03        0.00
   0.00000000   0.00000000  -0.00142096            0.00        0.00     -209.03

     Writing output data file /scratch/XsrvAVhKXXsVKdib.save/

     General routines

     Parallel routines

   This run was terminated on:   1:21:43  26Nov2021

   JOB DONE.