     Program PWSCF v.6.7MaX starts on 26Nov2021 at  1:22: 4

     R & G space division:  proc/nbgrp/npool/nimage =      72
     Reading input from sc_6.in
Warning: card &CELL ignored
Warning: card CELL_DYNAMICS = 'BFGS', ignored
Warning: card CELL_FACTOR = 2.0, ignored
Warning: card PRESS = 0.0, ignored
Warning: card / ignored

     Current dimensions of program PWSCF are:
     Max number of different atomic species (ntypx) = 10
     Max number of k-points (npk) =  40000
     Max angular momentum in pseudopotentials (lmaxx) =  3
     file Ru.pbe-spn-kjpaw_psl.1.0.0.UPF: wavefunction(s)  4D renormalized

     Subspace diagonalization in iterative solution of the eigenvalue problem:
     one sub-group per band group will be used

     Found symmetry operation: I + (  0.0000  0.0000 -0.5000)
     This is a supercell, fractional translations are disabled
     Message from routine setup:
     using ibrav=0 with symmetry is DISCOURAGED, use correct ibrav instead

     bravais-lattice index     =            0
     lattice parameter (alat)  =       9.0720  a.u.
     unit-cell volume          =    2519.8977 (a.u.)^3
     number of atoms/cell      =            8
     number of atomic types    =            1
     number of electrons       =       128.00
     number of Kohn-Sham states=           77
     kinetic-energy cutoff     =      71.0000  Ry
     charge density cutoff     =     430.0000  Ry
     scf convergence threshold =      1.0E-06
     mixing beta               =       0.1000
     number of iterations used =           10  TF        mixing
     Exchange-correlation= SLA  PW   PBX  PBC
                           (   1   4   3   4   0   0   0)

     celldm(1)=   9.072000  celldm(2)=   0.000000  celldm(3)=   0.000000
     celldm(4)=   0.000000  celldm(5)=   0.000000  celldm(6)=   0.000000

     crystal axes: (cart. coord. in units of alat)
               a(1) = (   1.500000   0.000000   0.000000 )
               a(2) = (   0.000000   1.500000   0.000000 )
               a(3) = (   0.000000   0.000000   1.500000 )

     reciprocal axes: (cart. coord. in units 2 pi/alat)
               b(1) = (  0.666667  0.000000  0.000000 )
               b(2) = (  0.000000  0.666667  0.000000 )
               b(3) = (  0.000000  0.000000  0.666667 )

     PseudoPot. # 1 for Ru read from file:
     /rds/homes/b/bxp912/pp/Ru.pbe-spn-kjpaw_psl.1.0.0.UPF
     MD5 check sum: 0ae1f594dea09af7be8575c3a481d1ae
     Pseudo is Projector augmented-wave + core cor, Zval = 16.0
     Generated using "atomic" code by A. Dal Corso  v.5.1
     Shape of augmentation charge: PSQ
     Using radial grid of 1233 points,  6 beta functions with:
                l(1) =   0
                l(2) =   0
                l(3) =   1
                l(4) =   1
                l(5) =   2
                l(6) =   2
     Q(r) pseudized with 0 coefficients

     atomic species   valence    mass     pseudopotential
        Ru            16.00   101.07000     Ru( 1.00)

     48 Sym. Ops., with inversion, found

   Cartesian axes

     site n.     atom                  positions (alat units)
         1           Ru  tau(   1) = (   0.0000000   0.0000000   0.0000000  )
         2           Ru  tau(   2) = (   0.0000000   0.0000000   0.7500000  )
         3           Ru  tau(   3) = (   0.0000000   0.7500000   0.0000000  )
         4           Ru  tau(   4) = (   0.0000000   0.7500000   0.7500000  )
         5           Ru  tau(   5) = (   0.7500000   0.0000000   0.0000000  )
         6           Ru  tau(   6) = (   0.7500000   0.0000000   0.7500000  )
         7           Ru  tau(   7) = (   0.7500000   0.7500000   0.0000000  )
         8           Ru  tau(   8) = (   0.7500000   0.7500000   0.7500000  )

     number of k points=    35  Marzari-Vanderbilt smearing, width (Ry)=  0.0400
                       cart. coord. in units 2pi/alat
        k(    1) = (   0.0370370   0.0370370   0.0370370), wk =   0.0219479
        k(    2) = (   0.0370370   0.0370370   0.1111111), wk =   0.0658436
        k(    3) = (   0.0370370   0.0370370   0.1851852), wk =   0.0658436
        k(    4) = (   0.0370370   0.0370370   0.2592593), wk =   0.0658436
        k(    5) = (   0.0370370   0.0370370  -0.3333333), wk =   0.0329218
        k(    6) = (   0.0370370   0.1111111   0.1111111), wk =   0.0658436
        k(    7) = (   0.0370370   0.1111111   0.1851852), wk =   0.1316872
        k(    8) = (   0.0370370   0.1111111   0.2592593), wk =   0.1316872
        k(    9) = (   0.0370370   0.1111111  -0.3333333), wk =   0.0658436
        k(   10) = (   0.0370370   0.1851852   0.1851852), wk =   0.0658436
        k(   11) = (   0.0370370   0.1851852   0.2592593), wk =   0.1316872
        k(   12) = (   0.0370370   0.1851852  -0.3333333), wk =   0.0658436
        k(   13) = (   0.0370370   0.2592593   0.2592593), wk =   0.0658436
        k(   14) = (   0.0370370   0.2592593  -0.3333333), wk =   0.0658436
        k(   15) = (   0.0370370  -0.3333333  -0.3333333), wk =   0.0164609
        k(   16) = (   0.1111111   0.1111111   0.1111111), wk =   0.0219479
        k(   17) = (   0.1111111   0.1111111   0.1851852), wk =   0.0658436
        k(   18) = (   0.1111111   0.1111111   0.2592593), wk =   0.0658436
        k(   19) = (   0.1111111   0.1111111  -0.3333333), wk =   0.0329218
        k(   20) = (   0.1111111   0.1851852   0.1851852), wk =   0.0658436
        k(   21) = (   0.1111111   0.1851852   0.2592593), wk =   0.1316872
        k(   22) = (   0.1111111   0.1851852  -0.3333333), wk =   0.0658436
        k(   23) = (   0.1111111   0.2592593   0.2592593), wk =   0.0658436
        k(   24) = (   0.1111111   0.2592593  -0.3333333), wk =   0.0658436
        k(   25) = (   0.1111111  -0.3333333  -0.3333333), wk =   0.0164609
        k(   26) = (   0.1851852   0.1851852   0.1851852), wk =   0.0219479
        k(   27) = (   0.1851852   0.1851852   0.2592593), wk =   0.0658436
        k(   28) = (   0.1851852   0.1851852  -0.3333333), wk =   0.0329218
        k(   29) = (   0.1851852   0.2592593   0.2592593), wk =   0.0658436
        k(   30) = (   0.1851852   0.2592593  -0.3333333), wk =   0.0658436
        k(   31) = (   0.1851852  -0.3333333  -0.3333333), wk =   0.0164609
        k(   32) = (   0.2592593   0.2592593   0.2592593), wk =   0.0219479
        k(   33) = (   0.2592593   0.2592593  -0.3333333), wk =   0.0329218
        k(   34) = (   0.2592593  -0.3333333  -0.3333333), wk =   0.0164609
        k(   35) = (  -0.3333333  -0.3333333  -0.3333333), wk =   0.0027435

     Check: negative core charge=   -0.000001

     Initial potential from superposition of free atoms

     starting charge  127.99490, renormalised to  128.00000
     Starting wfcs are   80 randomized atomic wfcs
     Checking if some PAW data can be deallocated...

     Self-consistent Calculation

     iteration #  1     ecut=    71.00 Ry     beta= 0.10
     Davidson diagonalization with overlap
     ethr =  1.00E-02,  avg # of iterations =  2.2

     total energy              =   -3450.14832351 Ry
     estimated scf accuracy    <       1.80711482 Ry

[...]

     total energy              =   -3450.03907357 Ry
     estimated scf accuracy    <       0.00000653 Ry

     iteration # 21     ecut=    71.00 Ry     beta= 0.10
     Davidson diagonalization with overlap
     ethr =  1.38E-09,  avg # of iterations =  4.7

     End of self-consistent calculation

          k = 0.0370 0.0370 0.0370 ( 25482 PWs)   bands (ev):

   -68.3241 -68.3233 -68.3233 -68.3233 -68.3225 -68.3224 -68.3224 -68.3216
   -38.3349 -38.3349 -38.3349 -38.3332 -38.3332 -38.3332 -38.3332 -38.3332
   -38.3332 -38.3317 -38.3317 -38.3316 -38.3152 -38.3152 -38.3152 -38.3139
   -38.3139 -38.3139 -38.3139 -38.3139 -38.3139 -38.3125 -38.3125 -38.3125
     0.9885   2.1329   2.1329   2.1329   2.2476   2.2476   2.2962   2.2962
     2.2962   2.3769   2.3769   2.3769   2.4771   2.4771   2.4771   2.5066
     2.5126   2.5126   3.1152   3.1152   3.1152   3.1263   3.1263   3.1263
     3.1934   3.1934   3.1934   3.1942   3.1942   3.1942   3.5272   3.5285
     3.5285   3.5644   3.5644   3.5644   3.8632   3.8632   3.8632   3.8929
     3.8929   4.6391   4.6391   4.6391   5.4007

[...]

          k = 0.2593-0.3333-0.3333 ( 25440 PWs)   bands (ev):

[...]

          k =-0.3333-0.3333-0.3333 ( 25576 PWs)   bands (ev):

   -68.3229 -68.3229 -68.3229 -68.3229 -68.3229 -68.3228 -68.3228 -68.3228
   -38.3237 -38.3237 -38.3237 -38.3237 -38.3237 -38.3237 -38.3237 -38.3237
   -38.3236 -38.3236 -38.3236 -38.3235 -38.3235 -38.3235 -38.3235 -38.3235
   -38.3235 -38.3235 -38.3235 -38.3235 -38.3235 -38.3235 -38.3235 -38.3235
     2.6257   2.6257   2.6257   2.6257   2.6257   2.6257   2.6257   2.6257
     2.8632   2.8632   2.8632   2.8632   2.8632   2.8632   2.8632   2.8632
     2.8632   2.8632   2.8632   2.8632   2.8632   2.8632   2.8632   2.8632
     3.1154   3.1154   3.1154   3.1154   3.1154   3.1154   3.1154   3.1154
     3.1154   3.1154   3.1154   3.1154   3.1154   3.1154   3.1154   3.1154
     3.7507   3.7508   3.7508   3.7508   3.7508

     the Fermi energy is     3.3364 ev

!    total energy              =   -3450.03907521 Ry

     total all-electron energy =    -72494.136660 Ry
     estimated scf accuracy    <       0.00000016 Ry
     smearing contrib. (-TS)   =      -0.01565608 Ry
     internal energy E=F+TS    =   -3450.02341913 Ry

     The total energy is F=E-TS. E is the sum of the following terms:
     one-electron contribution =    -975.53680939 Ry
     hartree contribution      =     505.25243233 Ry
     xc contribution           =    -228.48819288 Ry
     ewald contribution        =    -854.02487331 Ry
     one-center paw contrib.   =   -1897.22597588 Ry

     convergence has been achieved in  21 iterations

     Forces acting on atoms (cartesian axes, Ry/au):

     atom    1 type  1   force =     0.00000000    0.00000000    0.00000000
     atom    2 type  1   force =     0.00000000    0.00000000    0.00000000
     atom    3 type  1   force =     0.00000000    0.00000000    0.00000000
     atom    4 type  1   force =     0.00000000    0.00000000    0.00000000
     atom    5 type  1   force =     0.00000000    0.00000000    0.00000000
     atom    6 type  1   force =     0.00000000    0.00000000    0.00000000
     atom    7 type  1   force =     0.00000000    0.00000000    0.00000000
     atom    8 type  1   force =     0.00000000    0.00000000    0.00000000

     Total force =     0.000000     Total SCF correction =     0.000000

     Computing stress (Cartesian axis) and pressure

          total   stress  (Ry/bohr**3)                   (kbar)     P=     -145.92
  -0.00099193   0.00000000   0.00000000         -145.92        0.00        0.00
   0.00000000  -0.00099193   0.00000000            0.00     -145.92        0.00
   0.00000000   0.00000000  -0.00099193            0.00        0.00     -145.92

     Writing output data file /scratch/OIdaiRoILqkHLaLX.save/

     General routines

     Parallel routines

   This run was terminated on:   1:24:37  26Nov2021

   JOB DONE.