     Program PWSCF v.6.7MaX starts on 26Nov2021 at  1:24:58

     R & G space division:  proc/nbgrp/npool/nimage =      72
     Reading input from sc_7.in
Warning: card &CELL ignored
Warning: card CELL_DYNAMICS = 'BFGS', ignored
Warning: card CELL_FACTOR = 2.0, ignored
Warning: card PRESS = 0.0, ignored
Warning: card / ignored

     Current dimensions of program PWSCF are:
     Max number of different atomic species (ntypx) = 10
     Max number of k-points (npk) =  40000
     Max angular momentum in pseudopotentials (lmaxx) =  3
     file Ru.pbe-spn-kjpaw_psl.1.0.0.UPF: wavefunction(s)  4D renormalized

     Subspace diagonalization in iterative solution of the eigenvalue problem:
     one sub-group per band group will be used

     Found symmetry operation: I + (  0.0000  0.0000 -0.5000)
     This is a supercell, fractional translations are disabled
     Message from routine setup:
     using ibrav=0 with symmetry is DISCOURAGED, use correct ibrav instead

     bravais-lattice index     =            0
     lattice parameter (alat)  =       9.0720  a.u.
     unit-cell volume          =    3058.2225 (a.u.)^3
     number of atoms/cell      =            8
     number of atomic types    =            1
     number of electrons       =       128.00
     number of Kohn-Sham states=           77
     kinetic-energy cutoff     =      71.0000  Ry
     charge density cutoff     =     430.0000  Ry
     scf convergence threshold =      1.0E-06
     mixing beta               =       0.1000
     number of iterations used =           10  TF        mixing
     Exchange-correlation= SLA  PW   PBX  PBC
                           (   1   4   3   4   0   0   0)

     celldm(1)=   9.072000  celldm(2)=   0.000000  celldm(3)=   0.000000
     celldm(4)=   0.000000  celldm(5)=   0.000000  celldm(6)=   0.000000

     crystal axes: (cart. coord. in units of alat)
               a(1) = (   1.600000   0.000000   0.000000 )
               a(2) = (   0.000000   1.600000   0.000000 )
               a(3) = (   0.000000   0.000000   1.600000 )

     reciprocal axes: (cart. coord. in units 2 pi/alat)
               b(1) = (  0.625000  0.000000  0.000000 )
               b(2) = (  0.000000  0.625000  0.000000 )
               b(3) = (  0.000000  0.000000  0.625000 )

     PseudoPot. # 1 for Ru read from file:
     /rds/homes/b/bxp912/pp/Ru.pbe-spn-kjpaw_psl.1.0.0.UPF
     MD5 check sum: 0ae1f594dea09af7be8575c3a481d1ae
     Pseudo is Projector augmented-wave + core cor, Zval = 16.0
     Generated using "atomic" code by A. Dal Corso  v.5.1
     Shape of augmentation charge: PSQ
     Using radial grid of 1233 points,  6 beta functions with:
                l(1) =   0
                l(2) =   0
                l(3) =   1
                l(4) =   1
                l(5) =   2
                l(6) =   2
     Q(r) pseudized with 0 coefficients

     atomic species   valence    mass     pseudopotential
        Ru            16.00   101.07000     Ru( 1.00)

     48 Sym. Ops., with inversion, found

   Cartesian axes

     site n.     atom                  positions (alat units)
         1           Ru  tau(   1) = (   0.0000000   0.0000000   0.0000000  )
         2           Ru  tau(   2) = (   0.0000000   0.0000000   0.8000000  )
         3           Ru  tau(   3) = (   0.0000000   0.8000000   0.0000000  )
         4           Ru  tau(   4) = (   0.0000000   0.8000000   0.8000000  )
         5           Ru  tau(   5) = (   0.8000000   0.0000000   0.0000000  )
         6           Ru  tau(   6) = (   0.8000000   0.0000000   0.8000000  )
         7           Ru  tau(   7) = (   0.8000000   0.8000000   0.0000000  )
         8           Ru  tau(   8) = (   0.8000000   0.8000000   0.8000000  )

     number of k points=    35  Marzari-Vanderbilt smearing, width (Ry)=  0.0400
                       cart. coord. in units 2pi/alat
        k(    1) = (   0.0347222   0.0347222   0.0347222), wk =   0.0219479
        k(    2) = (   0.0347222   0.0347222   0.1041667), wk =   0.0658436
        k(    3) = (   0.0347222   0.0347222   0.1736111), wk =   0.0658436
        k(    4) = (   0.0347222   0.0347222   0.2430556), wk =   0.0658436
        k(    5) = (   0.0347222   0.0347222  -0.3125000), wk =   0.0329218
        k(    6) = (   0.0347222   0.1041667   0.1041667), wk =   0.0658436
        k(    7) = (   0.0347222   0.1041667   0.1736111), wk =   0.1316872
        k(    8) = (   0.0347222   0.1041667   0.2430556), wk =   0.1316872
        k(    9) = (   0.0347222   0.1041667  -0.3125000), wk =   0.0658436
        k(   10) = (   0.0347222   0.1736111   0.1736111), wk =   0.0658436
        k(   11) = (   0.0347222   0.1736111   0.2430556), wk =   0.1316872
        k(   12) = (   0.0347222   0.1736111  -0.3125000), wk =   0.0658436
        k(   13) = (   0.0347222   0.2430556   0.2430556), wk =   0.0658436
        k(   14) = (   0.0347222   0.2430556  -0.3125000), wk =   0.0658436
        k(   15) = (   0.0347222  -0.3125000  -0.3125000), wk =   0.0164609
        k(   16) = (   0.1041667   0.1041667   0.1041667), wk =   0.0219479
        k(   17) = (   0.1041667   0.1041667   0.1736111), wk =   0.0658436
        k(   18) = (   0.1041667   0.1041667   0.2430556), wk =   0.0658436
        k(   19) = (   0.1041667   0.1041667  -0.3125000), wk =   0.0329218
        k(   20) = (   0.1041667   0.1736111   0.1736111), wk =   0.0658436
        k(   21) = (   0.1041667   0.1736111   0.2430556), wk =   0.1316872
        k(   22) = (   0.1041667   0.1736111  -0.3125000), wk =   0.0658436
        k(   23) = (   0.1041667   0.2430556   0.2430556), wk =   0.0658436
        k(   24) = (   0.1041667   0.2430556  -0.3125000), wk =   0.0658436
        k(   25) = (   0.1041667  -0.3125000  -0.3125000), wk =   0.0164609
        k(   26) = (   0.1736111   0.1736111   0.1736111), wk =   0.0219479
        k(   27) = (   0.1736111   0.1736111   0.2430556), wk =   0.0658436
        k(   28) = (   0.1736111   0.1736111  -0.3125000), wk =   0.0329218
        k(   29) = (   0.1736111   0.2430556   0.2430556), wk =   0.0658436
        k(   30) = (   0.1736111   0.2430556  -0.3125000), wk =   0.0658436
        k(   31) = (   0.1736111  -0.3125000  -0.3125000), wk =   0.0164609
        k(   32) = (   0.2430556   0.2430556   0.2430556), wk =   0.0219479
        k(   33) = (   0.2430556   0.2430556  -0.3125000), wk =   0.0329218
        k(   34) = (   0.2430556  -0.3125000  -0.3125000), wk =   0.0164609
        k(   35) = (  -0.3125000  -0.3125000  -0.3125000), wk =   0.0027435

     Check: negative core charge=   -0.000001

     Initial potential from superposition of free atoms

     starting charge  127.99490, renormalised to  128.00000
     Starting wfcs are   80 randomized atomic wfcs
     Checking if some PAW data can be deallocated...

     Self-consistent Calculation

     iteration #  1     ecut=    71.00 Ry     beta= 0.10
     Davidson diagonalization with overlap
     ethr =  1.00E-02,  avg # of iterations =  2.0

     total energy              =   -3449.84217357 Ry
     estimated scf accuracy    <       2.96392077 Ry

[...]

     total energy              =   -3449.61008679 Ry
     estimated scf accuracy    <       0.00001775 Ry

     iteration # 19     ecut=    71.00 Ry     beta= 0.10
     Davidson diagonalization with overlap
     ethr =  1.39E-08,  avg # of iterations =  2.8

     End of self-consistent calculation

          k = 0.0347 0.0347 0.0347 ( 31019 PWs)   bands (ev):

   -69.5132 -69.5129 -69.5127 -69.5127 -69.5125 -69.5124 -69.5124 -69.5122
   -39.5402 -39.5402 -39.5402 -39.5397 -39.5397 -39.5397 -39.5396 -39.5396
   -39.5396 -39.5390 -39.5390 -39.5390 -39.5320 -39.5320 -39.5319 -39.5314
   -39.5314 -39.5314 -39.5314 -39.5314 -39.5314 -39.5308 -39.5308 -39.5308
     0.1082   1.0542   1.0542   1.0542   1.1693   1.1693   1.2326   1.2326
     1.2326   1.2605   1.2605   1.2605   1.3247   1.3247   1.3247   1.3753
     1.3793   1.3793   1.8052   1.8052   1.8052   1.8112   1.8112   1.8112
     1.8577   1.8577   1.8577   1.8582   1.8582   1.8582   2.0954   2.0963
     2.0963   2.1215   2.1215   2.1215   2.3437   2.3438   2.3438   2.3638
     2.3638   3.1760   3.1760   3.1761   3.9141

[...]

          k = 0.2431-0.3125-0.3125 ( 30876 PWs)   bands (ev):

[...]

          k =-0.3125-0.3125-0.3125 ( 30976 PWs)   bands (ev):

   -69.5130 -69.5126 -69.5126 -69.5126 -69.5125 -69.5125 -69.5125 -69.5125
   -39.5358 -39.5358 -39.5358 -39.5355 -39.5355 -39.5355 -39.5355 -39.5355
   -39.5355 -39.5355 -39.5355 -39.5355 -39.5355 -39.5355 -39.5355 -39.5355
   -39.5355 -39.5355 -39.5355 -39.5355 -39.5354 -39.5354 -39.5354 -39.5354
     1.4963   1.4963   1.4963   1.4963   1.4964   1.4964   1.4964   1.4964
     1.6310   1.6310   1.6310   1.6310   1.6310   1.6310   1.6310   1.6310
     1.6310   1.6310   1.6310   1.6310   1.6310   1.6310   1.6310   1.6310
     1.8046   1.8046   1.8046   1.8046   1.8046   1.8046   1.8046   1.8046
     1.8046   1.8046   1.8046   1.8046   1.8046   1.8046   1.8046   1.8046
     2.3544   2.3545   2.3545   2.3545   2.3545

     the Fermi energy is     2.0117 ev

!    total energy              =   -3449.61009068 Ry

     total all-electron energy =    -72493.707675 Ry
     estimated scf accuracy    <       0.00000022 Ry
     smearing contrib. (-TS)   =      -0.07471992 Ry
     internal energy E=F+TS    =   -3449.53537077 Ry

     The total energy is F=E-TS. E is the sum of the following terms:
     one-electron contribution =   -1069.87978654 Ry
     hartree contribution      =     546.81613979 Ry
     xc contribution           =    -228.60019783 Ry
     ewald contribution        =    -800.64831872 Ry
     one-center paw contrib.   =   -1897.22320746 Ry

     convergence has been achieved in  19 iterations

     Forces acting on atoms (cartesian axes, Ry/au):

     atom    1 type  1   force =     0.00000000    0.00000000    0.00000000
     atom    2 type  1   force =     0.00000000    0.00000000    0.00000000
     atom    3 type  1   force =     0.00000000    0.00000000    0.00000000
     atom    4 type  1   force =     0.00000000    0.00000000    0.00000000
     atom    5 type  1   force =     0.00000000    0.00000000    0.00000000
     atom    6 type  1   force =     0.00000000    0.00000000    0.00000000
     atom    7 type  1   force =     0.00000000    0.00000000    0.00000000
     atom    8 type  1   force =     0.00000000    0.00000000    0.00000000

     Total force =     0.000000     Total SCF correction =     0.000000

     Computing stress (Cartesian axis) and pressure

          total   stress  (Ry/bohr**3)                   (kbar)     P=      -96.07
  -0.00065305   0.00000000   0.00000000          -96.07        0.00        0.00
   0.00000000  -0.00065305   0.00000000            0.00      -96.07        0.00
   0.00000000   0.00000000  -0.00065305            0.00        0.00      -96.07

     Writing output data file /scratch/ZVTtDDUVBYxGnEBK.save/

     General routines

     Parallel routines

   This run was terminated on:   1:26:59  26Nov2021

   JOB DONE.