     Program PWSCF v.6.7MaX starts on 26Nov2021 at  1:30:57

     R & G space division:  proc/nbgrp/npool/nimage =      72
     Reading input from sc_9.in
Warning: card &CELL ignored
Warning: card CELL_DYNAMICS = 'BFGS', ignored
Warning: card CELL_FACTOR = 2.0, ignored
Warning: card PRESS = 0.0, ignored
Warning: card / ignored

     Current dimensions of program PWSCF are:
     Max number of different atomic species (ntypx) = 10
     Max number of k-points (npk) =  40000
     Max angular momentum in pseudopotentials (lmaxx) =  3
     file Ru.pbe-spn-kjpaw_psl.1.0.0.UPF: wavefunction(s)  4D renormalized

     Subspace diagonalization in iterative solution of the eigenvalue problem:
     one sub-group per band group will be used

     Found symmetry operation: I + (  0.0000  0.0000  0.5000)
     This is a supercell, fractional translations are disabled
     Message from routine setup:
     using ibrav=0 with symmetry is DISCOURAGED, use correct ibrav instead

     bravais-lattice index     =            0
     lattice parameter (alat)  =       9.0720  a.u.
     unit-cell volume          =    4354.3831 (a.u.)^3
     number of atoms/cell      =            8
     number of atomic types    =            1
     number of electrons       =       128.00
     number of Kohn-Sham states=           77
     kinetic-energy cutoff     =      71.0000  Ry
     charge density cutoff     =     430.0000  Ry
     scf convergence threshold =      1.0E-06
     mixing beta               =       0.1000
     number of iterations used =           10  TF        mixing
     Exchange-correlation= SLA  PW   PBX  PBC
                           (   1   4   3   4   0   0   0)

     celldm(1)=   9.072000  celldm(2)=   0.000000  celldm(3)=   0.000000
     celldm(4)=   0.000000  celldm(5)=   0.000000  celldm(6)=   0.000000

     crystal axes: (cart. coord. in units of alat)
               a(1) = (   1.800000   0.000000   0.000000 )
               a(2) = (   0.000000   1.800000   0.000000 )
               a(3) = (   0.000000   0.000000   1.800000 )

     reciprocal axes: (cart. coord. in units 2 pi/alat)
               b(1) = (  0.555556  0.000000  0.000000 )
               b(2) = (  0.000000  0.555556  0.000000 )
               b(3) = (  0.000000  0.000000  0.555556 )

     PseudoPot. # 1 for Ru read from file:
     /rds/homes/b/bxp912/pp/Ru.pbe-spn-kjpaw_psl.1.0.0.UPF
     MD5 check sum: 0ae1f594dea09af7be8575c3a481d1ae
     Pseudo is Projector augmented-wave + core cor, Zval = 16.0
     Generated using "atomic" code by A. Dal Corso  v.5.1
     Shape of augmentation charge: PSQ
     Using radial grid of 1233 points,  6 beta functions with:
                l(1) =   0
                l(2) =   0
                l(3) =   1
                l(4) =   1
                l(5) =   2
                l(6) =   2
     Q(r) pseudized with 0 coefficients

     atomic species   valence    mass     pseudopotential
        Ru            16.00   101.07000     Ru( 1.00)

     48 Sym. Ops., with inversion, found

   Cartesian axes

     site n.     atom                  positions (alat units)
         1           Ru  tau(   1) = (   0.0000000   0.0000000   0.0000000  )
         2           Ru  tau(   2) = (   0.0000000   0.0000000   0.9000000  )
         3           Ru  tau(   3) = (   0.0000000   0.9000000   0.0000000  )
         4           Ru  tau(   4) = (   0.0000000   0.9000000   0.9000000  )
         5           Ru  tau(   5) = (   0.9000000   0.0000000   0.0000000  )
         6           Ru  tau(   6) = (   0.9000000   0.0000000   0.9000000  )
         7           Ru  tau(   7) = (   0.9000000   0.9000000   0.0000000  )
         8           Ru  tau(   8) = (   0.9000000   0.9000000   0.9000000  )

     number of k points=    35  Marzari-Vanderbilt smearing, width (Ry)=  0.0400
                       cart. coord. in units 2pi/alat
        k(    1) = (   0.0308642   0.0308642   0.0308642), wk =   0.0219479
        k(    2) = (   0.0308642   0.0308642   0.0925926), wk =   0.0658436
        k(    3) = (   0.0308642   0.0308642   0.1543210), wk =   0.0658436
        k(    4) = (   0.0308642   0.0308642   0.2160494), wk =   0.0658436
        k(    5) = (   0.0308642   0.0308642  -0.2777778), wk =   0.0329218
        k(    6) = (   0.0308642   0.0925926   0.0925926), wk =   0.0658436
        k(    7) = (   0.0308642   0.0925926   0.1543210), wk =   0.1316872
        k(    8) = (   0.0308642   0.0925926   0.2160494), wk =   0.1316872
        k(    9) = (   0.0308642   0.0925926  -0.2777778), wk =   0.0658436
        k(   10) = (   0.0308642   0.1543210   0.1543210), wk =   0.0658436
        k(   11) = (   0.0308642   0.1543210   0.2160494), wk =   0.1316872
        k(   12) = (   0.0308642   0.1543210  -0.2777778), wk =   0.0658436
        k(   13) = (   0.0308642   0.2160494   0.2160494), wk =   0.0658436
        k(   14) = (   0.0308642   0.2160494  -0.2777778), wk =   0.0658436
        k(   15) = (   0.0308642  -0.2777778  -0.2777778), wk =   0.0164609
        k(   16) = (   0.0925926   0.0925926   0.0925926), wk =   0.0219479
        k(   17) = (   0.0925926   0.0925926   0.1543210), wk =   0.0658436
        k(   18) = (   0.0925926   0.0925926   0.2160494), wk =   0.0658436
        k(   19) = (   0.0925926   0.0925926  -0.2777778), wk =   0.0329218
        k(   20) = (   0.0925926   0.1543210   0.1543210), wk =   0.0658436
        k(   21) = (   0.0925926   0.1543210   0.2160494), wk =   0.1316872
        k(   22) = (   0.0925926   0.1543210  -0.2777778), wk =   0.0658436
        k(   23) = (   0.0925926   0.2160494   0.2160494), wk =   0.0658436
        k(   24) = (   0.0925926   0.2160494  -0.2777778), wk =   0.0658436
        k(   25) = (   0.0925926  -0.2777778  -0.2777778), wk =   0.0164609
        k(   26) = (   0.1543210   0.1543210   0.1543210), wk =   0.0219479
        k(   27) = (   0.1543210   0.1543210   0.2160494), wk =   0.0658436
        k(   28) = (   0.1543210   0.1543210  -0.2777778), wk =   0.0329218
        k(   29) = (   0.1543210   0.2160494   0.2160494), wk =   0.0658436
        k(   30) = (   0.1543210   0.2160494  -0.2777778), wk =   0.0658436
        k(   31) = (   0.1543210  -0.2777778  -0.2777778), wk =   0.0164609
        k(   32) = (   0.2160494   0.2160494   0.2160494), wk =   0.0219479
        k(   33) = (   0.2160494   0.2160494  -0.2777778), wk =   0.0329218
        k(   34) = (   0.2160494  -0.2777778  -0.2777778), wk =   0.0164609
        k(   35) = (  -0.2777778  -0.2777778  -0.2777778), wk =   0.0027435

     Check: negative core charge=   -0.000001

     Initial potential from superposition of free atoms

     starting charge  127.99490, renormalised to  128.00000
     Starting wfcs are   80 randomized atomic wfcs
     Checking if some PAW data can be deallocated...

     Self-consistent Calculation

     iteration #  1     ecut=    71.00 Ry     beta= 0.10
     Davidson diagonalization with overlap
     ethr =  1.00E-02,  avg # of iterations =  2.0

     total energy              =   -3449.62479499 Ry
     estimated scf accuracy    <       4.51621030 Ry

[...]

     total energy              =   -3449.07231433 Ry
     estimated scf accuracy    <       0.00001130 Ry

     iteration # 22     ecut=    71.00 Ry     beta= 0.10
     Davidson diagonalization with overlap
     ethr =  2.10E-09,  avg # of iterations =  4.9

     End of self-consistent calculation

          k = 0.0309 0.0309 0.0309 ( 43900 PWs)   bands (ev):

   -71.0480 -71.0479 -71.0478 -71.0478 -71.0478 -71.0477 -71.0477 -71.0477
   -41.1069 -41.1069 -41.1069 -41.1068 -41.1068 -41.1068 -41.1068 -41.1068
   -41.1068 -41.1068 -41.1067 -41.1067 -41.1054 -41.1054 -41.1054 -41.1053
   -41.1053 -41.1053 -41.1052 -41.1052 -41.1052 -41.1051 -41.1051 -41.1051
    -1.0107  -0.3742  -0.3742  -0.3742  -0.2851  -0.2851  -0.2391  -0.2391
    -0.2391  -0.2212  -0.2212  -0.2212  -0.2116  -0.2116  -0.2116  -0.1551
    -0.1534  -0.1534   0.0650   0.0650   0.0650   0.0669   0.0669   0.0669
     0.0902   0.0902   0.0902   0.0904   0.0904   0.0904   0.2160   0.2164
     0.2164   0.2295   0.2295   0.2295   0.3553   0.3553   0.3553   0.3652
     0.3652   0.9760   0.9760   0.9760   2.1151

[...]

          k = 0.2160-0.2778-0.2778 ( 44044 PWs)   bands (ev):

[...]

          k =-0.2778-0.2778-0.2778 ( 43976 PWs)   bands (ev):

   -71.0480 -71.0479 -71.0478 -71.0478 -71.0478 -71.0477 -71.0477 -71.0477
   -41.1061 -41.1061 -41.1061 -41.1061 -41.1061 -41.1061 -41.1061 -41.1061
   -41.1060 -41.1060 -41.1060 -41.1060 -41.1060 -41.1060 -41.1060 -41.1060
   -41.1060 -41.1060 -41.1060 -41.1060 -41.1060 -41.1060 -41.1060 -41.1060
    -0.0492  -0.0492  -0.0492  -0.0492  -0.0492  -0.0492  -0.0492  -0.0492
    -0.0186  -0.0186  -0.0186  -0.0186  -0.0186  -0.0186  -0.0186  -0.0186
    -0.0186  -0.0186  -0.0186  -0.0186  -0.0186  -0.0186  -0.0185  -0.0185
     0.0645   0.0645   0.0645   0.0645   0.0645   0.0645   0.0645   0.0645
     0.0645   0.0645   0.0645   0.0645   0.0645   0.0645   0.0645   0.0645
     0.5229   0.5229   0.5229   0.5230   0.5230

     the Fermi energy is     0.2841 ev

!    total energy              =   -3449.07231735 Ry

     total all-electron energy =    -72493.169902 Ry
     estimated scf accuracy    <       0.00000019 Ry
     smearing contrib. (-TS)   =      -0.19663934 Ry
     internal energy E=F+TS    =   -3448.87567801 Ry

     The total energy is F=E-TS. E is the sum of the following terms:
     one-electron contribution =   -1231.31107914 Ry
     hartree contribution      =     620.29320435 Ry
     xc contribution           =    -228.95145778 Ry
     ewald contribution        =    -711.68739442 Ry
     one-center paw contrib.   =   -1897.21895103 Ry

     convergence has been achieved in  22 iterations

     Forces acting on atoms (cartesian axes, Ry/au):

     atom    1 type  1   force =     0.00000000    0.00000000    0.00000000
     atom    2 type  1   force =     0.00000000    0.00000000    0.00000000
     atom    3 type  1   force =     0.00000000    0.00000000    0.00000000
     atom    4 type  1   force =     0.00000000    0.00000000    0.00000000
     atom    5 type  1   force =     0.00000000    0.00000000    0.00000000
     atom    6 type  1   force =     0.00000000    0.00000000    0.00000000
     atom    7 type  1   force =     0.00000000    0.00000000    0.00000000
     atom    8 type  1   force =     0.00000000    0.00000000    0.00000000

     Total force =     0.000000     Total SCF correction =     0.000000

     Computing stress (Cartesian axis) and pressure

          total   stress  (Ry/bohr**3)                   (kbar)     P=      -39.72
  -0.00027001   0.00000000   0.00000000          -39.72        0.00        0.00
   0.00000000  -0.00027001   0.00000000            0.00      -39.72        0.00
   0.00000000   0.00000000  -0.00027001            0.00        0.00      -39.72

     Writing output data file /scratch/QsyETgKVyBNljpRL.save/

     General routines

     Parallel routines

   This run was terminated on:   1:33:57  26Nov2021

   JOB DONE.