     Program PWSCF v.6.7MaX starts on 19Jan2022 at  1:55:55

     R & G space division:  proc/nbgrp/npool/nimage =      72
     Reading input from fe_tetra_1.in
Warning: card &CELL ignored
Warning: card CELL_DYNAMICS = 'BFGS', ignored
Warning: card CELL_FACTOR = 2.0, ignored
Warning: card PRESS = 0.0, ignored
Warning: card / ignored

     Current dimensions of program PWSCF are:
     Max number of different atomic species (ntypx) = 10
     Max number of k-points (npk) =  40000
     Max angular momentum in pseudopotentials (lmaxx) =  3
     file Fe.pbe-spn-kjpaw_psl.1.0.0.UPF: wavefunction(s)  3P 3D renormalized
     file Fe.pbe-spn-kjpaw_psl.1.0.0.UPF: wavefunction(s)  3P 3D renormalized
     file Fe.pbe-spn-kjpaw_psl.1.0.0.UPF: wavefunction(s)  3P 3D renormalized

     Subspace diagonalization in iterative solution of the eigenvalue problem:
     one sub-group per band group will be used

     Message from routine setup:
     using ibrav=0 with symmetry is DISCOURAGED, use correct ibrav instead

     bravais-lattice index     =            0
     lattice parameter (alat)  =      12.9382  a.u.
     unit-cell volume          =    2283.7811 (a.u.)^3
     number of atoms/cell      =           33
     number of atomic types    =            3
     number of electrons       =       528.00
     number of Kohn-Sham states=          317
     kinetic-energy cutoff     =      71.0000  Ry
     charge density cutoff     =     430.0000  Ry
     scf convergence threshold =      1.0E-06
     mixing beta               =       0.1000
     number of iterations used =           10  local-TF  mixing
     Exchange-correlation= SLA  PW   PBX  PBC
                           (   1   4   3   4   0   0   0)

     celldm(1)=  12.938187  celldm(2)=   0.000000  celldm(3)=   0.000000
     celldm(4)=   0.000000  celldm(5)=   0.000000  celldm(6)=   0.000000

     crystal axes: (cart. coord. in units of alat)
               a(1) = (   1.000000   0.000000   0.000000 )
               a(2) = (   0.000000   1.054470   0.000000 )
               a(3) = (   0.000000   0.000000   1.000000 )

     reciprocal axes: (cart. coord. in units 2 pi/alat)
               b(1) = (  1.000000  0.000000  0.000000 )
               b(2) = (  0.000000  0.948344  0.000000 )
               b(3) = (  0.000000  0.000000  1.000000 )

     PseudoPot. # 1 for Fe read from file:
     /rds/homes/b/bxp912/pp/Fe.pbe-spn-kjpaw_psl.1.0.0.UPF
     MD5 check sum: 42f43b795421b414b0dc916aa790dbcb
     Pseudo is Projector augmented-wave + core cor, Zval = 16.0
     Generated using &quot;atomic&quot; code by A. Dal Corso  v.6.3
     Shape of augmentation charge: PSQ
     Using radial grid of 1191 points,  6 beta functions with:
                l(1) =   0
                l(2) =   0
                l(3) =   1
                l(4) =   1
                l(5) =   2
                l(6) =   2
     Q(r) pseudized with 0 coefficients

[...]

     PseudoPot. # 3 for Fe read from file:
     /rds/homes/b/bxp912/pp/Fe.pbe-spn-kjpaw_psl.1.0.0.UPF
     MD5 check sum: 42f43b795421b414b0dc916aa790dbcb
     Pseudo is Projector augmented-wave + core cor, Zval = 16.0
     Generated using &quot;atomic&quot; code by A. Dal Corso  v.6.3
     Shape of augmentation charge: PSQ
     Using radial grid of 1191 points,  6 beta functions with:
                l(1) =   0
                l(2) =   0
                l(3) =   1
                l(4) =   1
                l(5) =   2
                l(6) =   2
     Q(r) pseudized with 0 coefficients

     atomic species   valence    mass     pseudopotential
        Fe1           16.00    55.84500     Fe( 1.00)
        Fe2           16.00    55.84500     Fe( 1.00)
        Fe3           16.00    55.84500     Fe( 1.00)

     Starting magnetic structure
     atomic species   magnetization
        Fe1          0.100
        Fe2         -0.100
        Fe3         -0.010

      4 Sym. Ops. (no inversion) found ( 2 have fractional translation)

   Cartesian axes

     site n.     atom                  positions (alat units)
         1           Fe3 tau(   1) = (   0.1250000   0.1318088   0.1250000  )
         2           Fe1 tau(   2) = (   0.0000000   0.0000000   0.0000000  )
         3           Fe2 tau(   3) = (   0.2500000   0.2636175   0.0000000  )
         4           Fe1 tau(   4) = (   0.2500000   0.0000000   0.2500000  )
         5           Fe2 tau(   5) = (   0.0000000   0.2636175   0.2500000  )
         6           Fe1 tau(   6) = (   0.0000000   0.0000000   0.5000000  )
         7           Fe2 tau(   7) = (   0.2500000   0.2636175   0.5000000  )
         8           Fe1 tau(   8) = (   0.2500000   0.0000000   0.7500000  )
         9           Fe2 tau(   9) = (   0.0000000   0.2636175   0.7500000  )
        10           Fe1 tau(  10) = (   0.0000000   0.5272350   0.0000000  )
        11           Fe2 tau(  11) = (   0.2500000   0.7908525   0.0000000  )
        12           Fe1 tau(  12) = (   0.2500000   0.5272350   0.2500000  )
        13           Fe2 tau(  13) = (   0.0000000   0.7908525   0.2500000  )
        14           Fe1 tau(  14) = (   0.0000000   0.5272350   0.5000000  )
        15           Fe2 tau(  15) = (   0.2500000   0.7908525   0.5000000  )
        16           Fe1 tau(  16) = (   0.2500000   0.5272350   0.7500000  )
        17           Fe2 tau(  17) = (   0.0000000   0.7908525   0.7500000  )
        18           Fe1 tau(  18) = (   0.5000000   0.0000000   0.0000000  )
        19           Fe2 tau(  19) = (   0.7500000   0.2636175   0.0000000  )
        20           Fe1 tau(  20) = (   0.7500000   0.0000000   0.2500000  )
        21           Fe2 tau(  21) = (   0.5000000   0.2636175   0.2500000  )
        22           Fe1 tau(  22) = (   0.5000000   0.0000000   0.5000000  )
        23           Fe2 tau(  23) = (   0.7500000   0.2636175   0.5000000  )
        24           Fe1 tau(  24) = (   0.7500000   0.0000000   0.7500000  )
        25           Fe2 tau(  25) = (   0.5000000   0.2636175   0.7500000  )
        26           Fe1 tau(  26) = (   0.5000000   0.5272350   0.0000000  )
        27           Fe2 tau(  27) = (   0.7500000   0.7908525   0.0000000  )
        28           Fe1 tau(  28) = (   0.7500000   0.5272350   0.2500000  )
        29           Fe2 tau(  29) = (   0.5000000   0.7908525   0.2500000  )
        30           Fe1 tau(  30) = (   0.5000000   0.5272350   0.5000000  )
        31           Fe2 tau(  31) = (   0.7500000   0.7908525   0.5000000  )
        32           Fe1 tau(  32) = (   0.7500000   0.5272350   0.7500000  )
        33           Fe2 tau(  33) = (   0.5000000   0.7908525   0.7500000  )

     number of k points=   125  Marzari-Vanderbilt smearing, width (Ry)=  0.0400

     Number of k-points >= 100: set verbosity='high' to print them.

     Check: negative core charge=   -0.000006
     Generating pointlists ...
     new r_m :   0.0910 (alat units)  1.1768 (a.u.) for type    1
     new r_m :   0.0910 (alat units)  1.1768 (a.u.) for type    2
     new r_m :   0.0910 (alat units)  1.1768 (a.u.) for type    3

     Initial potential from superposition of free atoms

     starting charge  527.98556, renormalised to  528.00000
     Starting wfcs are  330 randomized atomic wfcs
     Checking if some PAW data can be deallocated...

     Self-consistent Calculation

     iteration #  1     ecut=    71.00 Ry     beta= 0.10
     Davidson diagonalization with overlap
     ethr =  1.00E-02,  avg # of iterations =  3.4

     total energy              =  -10864.07028811 Ry
     estimated scf accuracy    <      27.75153043 Ry

     total magnetization       =     0.04 Bohr mag/cell
     absolute magnetization    =    43.55 Bohr mag/cell

[...]

     negative rho (up, down):  6.774E-04 3.479E-04

[...]

     iteration #  5     ecut=    71.00 Ry     beta= 0.10
     Davidson diagonalization with overlap
     c_bands:  1 eigenvalues not converged
     c_bands:  2 eigenvalues not converged
     c_bands:  1 eigenvalues not converged
     ethr =  7.39E-05,  avg # of iterations =  7.6

[...]

     negative rho (up, down):  9.809E-05 0.000E+00

[...]

     iteration # 11     ecut=    71.00 Ry     beta= 0.10
     Davidson diagonalization with overlap
     c_bands:  1 eigenvalues not converged
     ethr =  8.02E-07,  avg # of iterations =  8.7

[...]

     total energy              =  -10863.35567735 Ry
     estimated scf accuracy    <       0.00000180 Ry

[...]

     iteration # 24     ecut=    71.00 Ry     beta= 0.10
     Davidson diagonalization with overlap
     ethr =  3.41E-10,  avg # of iterations =  3.7

     Magnetic moment per site:
     atom:    1    charge:   11.9863    magn:   -0.0000    constr:    0.0000
     atom:    2    charge:   11.6360    magn:    0.1136    constr:    0.0000
     atom:    3    charge:   11.6360    magn:   -0.1134    constr:    0.0000
     atom:    4    charge:   11.6360    magn:    0.1136    constr:    0.0000
     atom:    5    charge:   11.6360    magn:   -0.1134    constr:    0.0000
     atom:    6    charge:   11.4281    magn:    1.0888    constr:    0.0000
     atom:    7    charge:   11.4281    magn:   -1.0885    constr:    0.0000
     atom:    8    charge:   11.4281    magn:    1.0888    constr:    0.0000
     atom:    9    charge:   11.4281    magn:   -1.0885    constr:    0.0000
     atom:   10    charge:   11.4283    magn:    1.1209    constr:    0.0000
     atom:   11    charge:   11.4283    magn:   -1.1211    constr:    0.0000
     atom:   12    charge:   11.4283    magn:    1.1209    constr:    0.0000
     atom:   13    charge:   11.4283    magn:   -1.1211    constr:    0.0000
     atom:   14    charge:   11.4278    magn:    1.2143    constr:    0.0000
     atom:   15    charge:   11.4278    magn:   -1.2145    constr:    0.0000
     atom:   16    charge:   11.4278    magn:    1.2143    constr:    0.0000
     atom:   17    charge:   11.4278    magn:   -1.2145    constr:    0.0000
     atom:   18    charge:   11.4281    magn:    1.0888    constr:    0.0000
     atom:   19    charge:   11.4281    magn:   -1.0885    constr:    0.0000
     atom:   20    charge:   11.4281    magn:    1.0888    constr:    0.0000
     atom:   21    charge:   11.4281    magn:   -1.0885    constr:    0.0000
     atom:   22    charge:   11.4274    magn:    1.1805    constr:    0.0000
     atom:   23    charge:   11.4274    magn:   -1.1815    constr:    0.0000
     atom:   24    charge:   11.4274    magn:    1.1805    constr:    0.0000
     atom:   25    charge:   11.4274    magn:   -1.1815    constr:    0.0000
     atom:   26    charge:   11.4278    magn:    1.2143    constr:    0.0000
     atom:   27    charge:   11.4278    magn:   -1.2145    constr:    0.0000
     atom:   28    charge:   11.4278    magn:    1.2143    constr:    0.0000
     atom:   29    charge:   11.4278    magn:   -1.2145    constr:    0.0000
     atom:   30    charge:   11.4249    magn:    1.1769    constr:    0.0000
     atom:   31    charge:   11.4249    magn:   -1.1760    constr:    0.0000
     atom:   32    charge:   11.4249    magn:    1.1769    constr:    0.0000
     atom:   33    charge:   11.4249    magn:   -1.1760    constr:    0.0000

     End of self-consistent calculation

     Number of k-points >= 100: set verbosity='high' to print the bands.

     the Fermi energy is    20.8466 ev

!    total energy              =  -10863.35568777 Ry

     total all-electron energy =    -84001.141279 Ry
     estimated scf accuracy    <       0.00000083 Ry
     smearing contrib. (-TS)   =       0.02938238 Ry
     internal energy E=F+TS    =  -10863.38507015 Ry

     The total energy is F=E-TS. E is the sum of the following terms:
     one-electron contribution =   -3532.04816669 Ry
     hartree contribution      =    2139.85328754 Ry
     xc contribution           =    -917.59805925 Ry
     ewald contribution        =   -5821.52886385 Ry
     one-center paw contrib.   =   -2732.06326791 Ry

     total magnetization       =     0.00 Bohr mag/cell
     absolute magnetization    =    44.09 Bohr mag/cell

     convergence has been achieved in  24 iterations

     Forces acting on atoms (cartesian axes, Ry/au):

     atom    1 type  3   force =     0.00000000    0.00002408    0.00000000
     atom    2 type  1   force =    -0.77428239   -0.82230730   -0.77428239
     atom    3 type  2   force =     0.77430506    0.82229314   -0.77430506
     atom    4 type  1   force =     0.77428239   -0.82230730    0.77428239
     atom    5 type  2   force =    -0.77430506    0.82229314    0.77430506
     atom    6 type  1   force =    -0.00863851   -0.00136601    0.01455199
     atom    7 type  2   force =     0.00861101    0.00132676    0.01454572
     atom    8 type  1   force =     0.00863851   -0.00136601   -0.01455199
     atom    9 type  2   force =    -0.00861101    0.00132676   -0.01454572
     atom   10 type  1   force =    -0.00281272    0.00704887   -0.00281272
     atom   11 type  2   force =     0.00285570   -0.00704921   -0.00285570
     atom   12 type  1   force =     0.00281272    0.00704887    0.00281272
     atom   13 type  2   force =    -0.00285570   -0.00704921    0.00285570
     atom   14 type  1   force =    -0.00137317    0.00840377    0.00936931
     atom   15 type  2   force =     0.00138744   -0.00840321    0.00937556
     atom   16 type  1   force =     0.00137317    0.00840377   -0.00936931
     atom   17 type  2   force =    -0.00138744   -0.00840321   -0.00937556
     atom   18 type  1   force =     0.01455199   -0.00136601   -0.00863851
     atom   19 type  2   force =    -0.01454572    0.00132676   -0.00861101
     atom   20 type  1   force =    -0.01455199   -0.00136601    0.00863851
     atom   21 type  2   force =     0.01454572    0.00132676    0.00861101
     atom   22 type  1   force =     0.01398512    0.00279182    0.01398512
     atom   23 type  2   force =    -0.01396605   -0.00278723    0.01396605
     atom   24 type  1   force =    -0.01398512    0.00279182   -0.01398512
     atom   25 type  2   force =     0.01396605   -0.00278723   -0.01396605
     atom   26 type  1   force =     0.00936931    0.00840377   -0.00137317
     atom   27 type  2   force =    -0.00937556   -0.00840321   -0.00138744
     atom   28 type  1   force =    -0.00936931    0.00840377    0.00137317
     atom   29 type  2   force =     0.00937556   -0.00840321    0.00138744
     atom   30 type  1   force =     0.00157844   -0.00260497    0.00157844
     atom   31 type  2   force =    -0.00159055    0.00268025    0.00159055
     atom   32 type  1   force =    -0.00157844   -0.00260497   -0.00157844
     atom   33 type  2   force =     0.00159055    0.00268025   -0.00159055

     Total force =     2.739790     Total SCF correction =     0.004772

     Computing stress (Cartesian axis) and pressure

          total   stress  (Ry/bohr**3)                   (kbar)     P=      368.76
   0.00247144   0.00000000   0.00000017          363.56        0.00        0.02
   0.00000000   0.00257739   0.00000000            0.00      379.15        0.00
   0.00000017   0.00000000   0.00247144            0.02        0.00      363.56

     Writing output data file /scratch/bxp912/fetetra1.save/

     General routines

     Parallel routines

   This run was terminated on:   3:21: 2  19Jan2022

   JOB DONE.