     Program PWSCF v.6.7MaX starts on 25Nov2021 at 23:47: 0

     R & G space division:  proc/nbgrp/npool/nimage =      72
     Reading input from bcc_3.in
Warning: card &CELL ignored
Warning: card CELL_DYNAMICS = 'BFGS', ignored
Warning: card CELL_FACTOR = 2.0, ignored
Warning: card PRESS = 0.0, ignored
Warning: card / ignored

     Current dimensions of program PWSCF are:
     Max number of different atomic species (ntypx) = 10
     Max number of k-points (npk) =  40000
     Max angular momentum in pseudopotentials (lmaxx) =  3
     file Ru.pbe-spn-kjpaw_psl.1.0.0.UPF: wavefunction(s)  4D renormalized

     Subspace diagonalization in iterative solution of the eigenvalue problem:
     one sub-group per band group will be used

     Found symmetry operation: I + (  0.2500  0.2500  0.2500)
     This is a supercell, fractional translations are disabled
     Message from routine setup:
     using ibrav=0 with symmetry is DISCOURAGED, use correct ibrav instead

     bravais-lattice index     =            0
     lattice parameter (alat)  =      11.4293  a.u.
     unit-cell volume          =    2579.8850 (a.u.)^3
     number of atoms/cell      =           16
     number of atomic types    =            1
     number of electrons       =       256.00
     number of Kohn-Sham states=          154
     kinetic-energy cutoff     =      71.0000  Ry
     charge density cutoff     =     430.0000  Ry
     scf convergence threshold =      1.0E-06
     mixing beta               =       0.1000
     number of iterations used =           10  TF        mixing
     Exchange-correlation= SLA  PW   PBX  PBC
                           (   1   4   3   4   0   0   0)

     celldm(1)=  11.429280  celldm(2)=   0.000000  celldm(3)=   0.000000
     celldm(4)=   0.000000  celldm(5)=   0.000000  celldm(6)=   0.000000

     crystal axes: (cart. coord. in units of alat)
               a(1) = (   1.200000   0.000000   0.000000 )
               a(2) = (   0.000000   1.200000   0.000000 )
               a(3) = (   0.000000   0.000000   1.200000 )

     reciprocal axes: (cart. coord. in units 2 pi/alat)
               b(1) = (  0.833333  0.000000  0.000000 )
               b(2) = (  0.000000  0.833333  0.000000 )
               b(3) = (  0.000000  0.000000  0.833333 )

     PseudoPot. # 1 for Ru read from file:
     /rds/homes/b/bxp912/pp/Ru.pbe-spn-kjpaw_psl.1.0.0.UPF
     MD5 check sum: 0ae1f594dea09af7be8575c3a481d1ae
     Pseudo is Projector augmented-wave + core cor, Zval = 16.0
     Generated using "atomic" code by A. Dal Corso  v.5.1
     Shape of augmentation charge: PSQ
     Using radial grid of 1233 points,  6 beta functions with:
                l(1) =   0
                l(2) =   0
                l(3) =   1
                l(4) =   1
                l(5) =   2
                l(6) =   2
     Q(r) pseudized with 0 coefficients

     atomic species   valence    mass     pseudopotential
        Ru            16.00   101.07000     Ru( 1.00)

     48 Sym. Ops., with inversion, found

   Cartesian axes

     site n.     atom                  positions (alat units)
         1           Ru  tau(   1) = (   0.0000000   0.0000000   0.0000000  )
         2           Ru  tau(   2) = (   0.3000000   0.3000000   0.3000000  )
         3           Ru  tau(   3) = (   0.0000000   0.0000000   0.6000000  )
         4           Ru  tau(   4) = (   0.3000000   0.3000000   0.9000000  )
         5           Ru  tau(   5) = (   0.0000000   0.6000000   0.0000000  )
         6           Ru  tau(   6) = (   0.3000000   0.9000000   0.3000000  )
         7           Ru  tau(   7) = (   0.0000000   0.6000000   0.6000000  )
         8           Ru  tau(   8) = (   0.3000000   0.9000000   0.9000000  )
         9           Ru  tau(   9) = (   0.6000000   0.0000000   0.0000000  )
        10           Ru  tau(  10) = (   0.9000000   0.3000000   0.3000000  )
        11           Ru  tau(  11) = (   0.6000000   0.0000000   0.6000000  )
        12           Ru  tau(  12) = (   0.9000000   0.3000000   0.9000000  )
        13           Ru  tau(  13) = (   0.6000000   0.6000000   0.0000000  )
        14           Ru  tau(  14) = (   0.9000000   0.9000000   0.3000000  )
        15           Ru  tau(  15) = (   0.6000000   0.6000000   0.6000000  )
        16           Ru  tau(  16) = (   0.9000000   0.9000000   0.9000000  )

     number of k points=    35  Marzari-Vanderbilt smearing, width (Ry)=  0.0400
                       cart. coord. in units 2pi/alat
        k(    1) = (   0.0462963   0.0462963   0.0462963), wk =   0.0219479
        k(    2) = (   0.0462963   0.0462963   0.1388889), wk =   0.0658436
        k(    3) = (   0.0462963   0.0462963   0.2314815), wk =   0.0658436
        k(    4) = (   0.0462963   0.0462963   0.3240741), wk =   0.0658436
        k(    5) = (   0.0462963   0.0462963  -0.4166667), wk =   0.0329218
        k(    6) = (   0.0462963   0.1388889   0.1388889), wk =   0.0658436
        k(    7) = (   0.0462963   0.1388889   0.2314815), wk =   0.1316872
        k(    8) = (   0.0462963   0.1388889   0.3240741), wk =   0.1316872
        k(    9) = (   0.0462963   0.1388889  -0.4166667), wk =   0.0658436
        k(   10) = (   0.0462963   0.2314815   0.2314815), wk =   0.0658436
        k(   11) = (   0.0462963   0.2314815   0.3240741), wk =   0.1316872
        k(   12) = (   0.0462963   0.2314815  -0.4166667), wk =   0.0658436
        k(   13) = (   0.0462963   0.3240741   0.3240741), wk =   0.0658436
        k(   14) = (   0.0462963   0.3240741  -0.4166667), wk =   0.0658436
        k(   15) = (   0.0462963  -0.4166667  -0.4166667), wk =   0.0164609
        k(   16) = (   0.1388889   0.1388889   0.1388889), wk =   0.0219479
        k(   17) = (   0.1388889   0.1388889   0.2314815), wk =   0.0658436
        k(   18) = (   0.1388889   0.1388889   0.3240741), wk =   0.0658436
        k(   19) = (   0.1388889   0.1388889  -0.4166667), wk =   0.0329218
        k(   20) = (   0.1388889   0.2314815   0.2314815), wk =   0.0658436
        k(   21) = (   0.1388889   0.2314815   0.3240741), wk =   0.1316872
        k(   22) = (   0.1388889   0.2314815  -0.4166667), wk =   0.0658436
        k(   23) = (   0.1388889   0.3240741   0.3240741), wk =   0.0658436
        k(   24) = (   0.1388889   0.3240741  -0.4166667), wk =   0.0658436
        k(   25) = (   0.1388889  -0.4166667  -0.4166667), wk =   0.0164609
        k(   26) = (   0.2314815   0.2314815   0.2314815), wk =   0.0219479
        k(   27) = (   0.2314815   0.2314815   0.3240741), wk =   0.0658436
        k(   28) = (   0.2314815   0.2314815  -0.4166667), wk =   0.0329218
        k(   29) = (   0.2314815   0.3240741   0.3240741), wk =   0.0658436
        k(   30) = (   0.2314815   0.3240741  -0.4166667), wk =   0.0658436
        k(   31) = (   0.2314815  -0.4166667  -0.4166667), wk =   0.0164609
        k(   32) = (   0.3240741   0.3240741   0.3240741), wk =   0.0219479
        k(   33) = (   0.3240741   0.3240741  -0.4166667), wk =   0.0329218
        k(   34) = (   0.3240741  -0.4166667  -0.4166667), wk =   0.0164609
        k(   35) = (  -0.4166667  -0.4166667  -0.4166667), wk =   0.0027435

     Check: negative core charge=   -0.000002

     Initial potential from superposition of free atoms

     starting charge  255.98980, renormalised to  256.00000
     Starting wfcs are  160 randomized atomic wfcs
     Checking if some PAW data can be deallocated...

     Self-consistent Calculation

     iteration #  1     ecut=    71.00 Ry     beta= 0.10
     Davidson diagonalization with overlap
     ethr =  1.00E-02,  avg # of iterations =  3.4

     Threshold (ethr) on eigenvalues was too large:
     Diagonalizing with lowered threshold

     Davidson diagonalization with overlap
     ethr =  4.89E-05,  avg # of iterations =  4.6

     total energy              =   -6903.76012736 Ry
     estimated scf accuracy    <       0.02778489 Ry

[...]

     total energy              =   -6903.76258686 Ry
     estimated scf accuracy    <       0.00000124 Ry

     iteration # 10     ecut=    71.00 Ry     beta= 0.10
     Davidson diagonalization with overlap
     ethr =  4.86E-10,  avg # of iterations =  4.0

     End of self-consistent calculation

          k = 0.0463 0.0463 0.0463 ( 25992 PWs)   bands (ev):

   -61.0713 -61.0584 -61.0584 -61.0584 -61.0566 -61.0566 -61.0566 -61.0564
   -61.0564 -61.0564 -61.0560 -61.0560 -61.0560 -61.0558 -61.0557 -61.0446
   -31.0761 -31.0761 -31.0761 -31.0752 -31.0752 -31.0752 -31.0427 -31.0427
   -31.0411 -31.0154 -31.0140 -31.0140 -31.0140 -31.0091 -31.0091 -31.0046
   -31.0045 -31.0045 -30.9964 -30.9964 -30.9915 -30.9915 -30.9915 -30.9903
   -30.9879 -30.9879 -30.9879 -30.9858 -30.9858 -30.9858 -30.9850 -30.9850
   -30.9850 -30.9819 -30.9819 -30.9819 -30.9786 -30.9785 -30.9785 -30.9347
   -30.9331 -30.9331 -30.9326 -30.9326 -30.9326 -30.9318 -30.9318 -30.9317
     6.3496   8.3149   8.3149   8.3149   8.3274   8.3274   8.3274   8.5380
     8.5380   8.6597   8.6597   8.6597   8.9221   8.9221   8.9221   9.2123
     9.2123   9.2123   9.2218   9.2218   9.2218   9.3593   9.4348   9.4348
     9.5652   9.5652   9.6164   9.6562   9.6562   9.6562   9.8742   9.8742
     9.8742   9.9601   9.9601   9.9898  10.2580  10.2580  10.2580  10.3261
    10.3261  10.3261  10.3903  10.3903  10.3903  10.4522  10.4522  10.4522
    10.8764  10.8765  10.8765  11.0487  11.0487  11.0487  11.1302  11.1302
    11.1302  11.1394  11.1394  11.1394  11.2016  11.2016  11.2512  11.2512
    11.2512  11.3401  11.3401  11.3401  11.3675  11.3675  11.3676  11.3676
    11.8853  11.8853  11.8853  11.9008  11.9539  11.9539  12.0446  12.0446
    12.0446  12.1048  12.1048  12.1048  12.2301  12.2301  12.2301  12.6419
    12.6419  12.6419

[...]

          k = 0.3241-0.4167-0.4167 ( 26008 PWs)   bands (ev):

[...]

          k =-0.4167-0.4167-0.4167 ( 25912 PWs)   bands (ev):

   -61.0618 -61.0617 -61.0617 -61.0617 -61.0617 -61.0617 -61.0617 -61.0616
   -61.0522 -61.0520 -61.0520 -61.0520 -61.0520 -61.0520 -61.0520 -61.0519
   -31.0404 -31.0404 -31.0404 -31.0403 -31.0403 -31.0403 -31.0403 -31.0403
   -31.0403 -31.0403 -31.0403 -31.0403 -31.0403 -31.0403 -31.0403 -31.0403
   -31.0276 -31.0276 -31.0276 -31.0276 -31.0276 -31.0276 -31.0276 -31.0276
   -30.9634 -30.9634 -30.9634 -30.9634 -30.9634 -30.9634 -30.9634 -30.9634
   -30.9504 -30.9504 -30.9504 -30.9503 -30.9503 -30.9503 -30.9503 -30.9503
   -30.9503 -30.9503 -30.9503 -30.9503 -30.9503 -30.9503 -30.9503 -30.9503
     8.3902   8.3902   8.3902   8.3902   8.3902   8.3902   8.3902   8.3903
     9.4448   9.4448   9.4448   9.4448   9.4448   9.4448   9.4448   9.4448
     9.4448   9.4448   9.4448   9.4448   9.4448   9.4448   9.4449   9.4449
     9.4603   9.4603   9.4603   9.4603   9.4603   9.4603   9.4603   9.4603
     9.4871   9.4871   9.4871   9.4871   9.4871   9.4871   9.4871   9.4871
     9.4871   9.4871   9.4871   9.4871   9.4871   9.4871   9.4871   9.4871
    11.1843  11.1843  11.1843  11.1843  11.1843  11.1843  11.1843  11.1843
    11.1843  11.1843  11.1843  11.1843  11.1843  11.1843  11.1843  11.1843
    11.4427  11.4427  11.4427  11.4427  11.4427  11.4427  11.4427  11.4427
    11.4427  11.4427  11.4427  11.4427  11.4427  11.4427  11.4427  11.4427
    11.9058  11.9058  11.9058  11.9058  11.9058  11.9058  11.9058  11.9058
    17.1816  17.1816

     the Fermi energy is    11.2524 ev

!    total energy              =   -6903.76258904 Ry

     total all-electron energy =   -144991.957759 Ry
     estimated scf accuracy    <       0.00000084 Ry
     smearing contrib. (-TS)   =      -0.16387587 Ry
     internal energy E=F+TS    =   -6903.59871317 Ry

     The total energy is F=E-TS. E is the sum of the following terms:
     one-electron contribution =   -1161.72594033 Ry
     hartree contribution      =     684.23675028 Ry
     xc contribution           =    -457.90160571 Ry
     ewald contribution        =   -2173.70067773 Ry
     one-center paw contrib.   =   -3794.50723969 Ry

     convergence has been achieved in  10 iterations

     Forces acting on atoms (cartesian axes, Ry/au):

     atom    1 type  1   force =     0.00000000    0.00000000    0.00000000
     atom    2 type  1   force =    -0.00000556   -0.00000556   -0.00000556
     atom    3 type  1   force =     0.00000000    0.00000000    0.00000000
     atom    4 type  1   force =    -0.00000556   -0.00000556    0.00000556
     atom    5 type  1   force =     0.00000000    0.00000000    0.00000000
     atom    6 type  1   force =    -0.00000556    0.00000556   -0.00000556
     atom    7 type  1   force =     0.00000000    0.00000000    0.00000000
     atom    8 type  1   force =    -0.00000556    0.00000556    0.00000556
     atom    9 type  1   force =     0.00000000    0.00000000    0.00000000
     atom   10 type  1   force =     0.00000556   -0.00000556   -0.00000556
     atom   11 type  1   force =     0.00000000    0.00000000    0.00000000
     atom   12 type  1   force =     0.00000556   -0.00000556    0.00000556
     atom   13 type  1   force =     0.00000000    0.00000000    0.00000000
     atom   14 type  1   force =     0.00000556    0.00000556   -0.00000556
     atom   15 type  1   force =     0.00000000    0.00000000    0.00000000
     atom   16 type  1   force =     0.00000556    0.00000556    0.00000556

     Total force =     0.000027     Total SCF correction =     0.000705
     SCF correction compared to forces is large: reduce conv_thr to get better values

     Computing stress (Cartesian axis) and pressure

          total   stress  (Ry/bohr**3)                   (kbar)     P=     -384.04
  -0.00261067   0.00000000   0.00000000         -384.04        0.00        0.00
   0.00000000  -0.00261067   0.00000000            0.00     -384.04        0.00
   0.00000000   0.00000000  -0.00261067            0.00        0.00     -384.04

     Writing output data file /scratch/plZYKuTunRUVQQoT.save/

     General routines

     Parallel routines

   This run was terminated on:  23:50:40  25Nov2021

   JOB DONE.