     Program PWSCF v.6.7MaX starts on 26Nov2021 at  0:24:26

     R & G space division:  proc/nbgrp/npool/nimage =      72
     Reading input from bcc_9.in
Warning: card &CELL ignored
Warning: card CELL_DYNAMICS = 'BFGS', ignored
Warning: card CELL_FACTOR = 2.0, ignored
Warning: card PRESS = 0.0, ignored
Warning: card / ignored

     Current dimensions of program PWSCF are:
     Max number of different atomic species (ntypx) = 10
     Max number of k-points (npk) =  40000
     Max angular momentum in pseudopotentials (lmaxx) =  3
     file Ru.pbe-spn-kjpaw_psl.1.0.0.UPF: wavefunction(s)  4D renormalized

     Subspace diagonalization in iterative solution of the eigenvalue problem:
     one sub-group per band group will be used

     Found symmetry operation: I + (  0.2500  0.2500  0.2500)
     This is a supercell, fractional translations are disabled
     Message from routine setup:
     using ibrav=0 with symmetry is DISCOURAGED, use correct ibrav instead

     bravais-lattice index     =            0
     lattice parameter (alat)  =      11.4293  a.u.
     unit-cell volume          =    8707.1120 (a.u.)^3
     number of atoms/cell      =           16
     number of atomic types    =            1
     number of electrons       =       256.00
     number of Kohn-Sham states=          154
     kinetic-energy cutoff     =      71.0000  Ry
     charge density cutoff     =     430.0000  Ry
     scf convergence threshold =      1.0E-06
     mixing beta               =       0.1000
     number of iterations used =           10  TF        mixing
     Exchange-correlation= SLA  PW   PBX  PBC
                           (   1   4   3   4   0   0   0)

     celldm(1)=  11.429280  celldm(2)=   0.000000  celldm(3)=   0.000000
     celldm(4)=   0.000000  celldm(5)=   0.000000  celldm(6)=   0.000000

     crystal axes: (cart. coord. in units of alat)
               a(1) = (   1.800000   0.000000   0.000000 )
               a(2) = (   0.000000   1.800000   0.000000 )
               a(3) = (   0.000000   0.000000   1.800000 )

     reciprocal axes: (cart. coord. in units 2 pi/alat)
               b(1) = (  0.555556  0.000000  0.000000 )
               b(2) = (  0.000000  0.555556  0.000000 )
               b(3) = (  0.000000  0.000000  0.555556 )

     PseudoPot. # 1 for Ru read from file:
     /rds/homes/b/bxp912/pp/Ru.pbe-spn-kjpaw_psl.1.0.0.UPF
     MD5 check sum: 0ae1f594dea09af7be8575c3a481d1ae
     Pseudo is Projector augmented-wave + core cor, Zval = 16.0
     Generated using "atomic" code by A. Dal Corso  v.5.1
     Shape of augmentation charge: PSQ
     Using radial grid of 1233 points,  6 beta functions with:
                l(1) =   0
                l(2) =   0
                l(3) =   1
                l(4) =   1
                l(5) =   2
                l(6) =   2
     Q(r) pseudized with 0 coefficients

     atomic species   valence    mass     pseudopotential
        Ru            16.00   101.07000     Ru( 1.00)

     48 Sym. Ops., with inversion, found

   Cartesian axes

     site n.     atom                  positions (alat units)
         1           Ru  tau(   1) = (   0.0000000   0.0000000   0.0000000  )
         2           Ru  tau(   2) = (   0.4500000   0.4500000   0.4500000  )
         3           Ru  tau(   3) = (   0.0000000   0.0000000   0.9000000  )
         4           Ru  tau(   4) = (   0.4500000   0.4500000   1.3500000  )
         5           Ru  tau(   5) = (   0.0000000   0.9000000   0.0000000  )
         6           Ru  tau(   6) = (   0.4500000   1.3500000   0.4500000  )
         7           Ru  tau(   7) = (   0.0000000   0.9000000   0.9000000  )
         8           Ru  tau(   8) = (   0.4500000   1.3500000   1.3500000  )
         9           Ru  tau(   9) = (   0.9000000   0.0000000   0.0000000  )
        10           Ru  tau(  10) = (   1.3500000   0.4500000   0.4500000  )
        11           Ru  tau(  11) = (   0.9000000   0.0000000   0.9000000  )
        12           Ru  tau(  12) = (   1.3500000   0.4500000   1.3500000  )
        13           Ru  tau(  13) = (   0.9000000   0.9000000   0.0000000  )
        14           Ru  tau(  14) = (   1.3500000   1.3500000   0.4500000  )
        15           Ru  tau(  15) = (   0.9000000   0.9000000   0.9000000  )
        16           Ru  tau(  16) = (   1.3500000   1.3500000   1.3500000  )

     number of k points=    35  Marzari-Vanderbilt smearing, width (Ry)=  0.0400
                       cart. coord. in units 2pi/alat
        k(    1) = (   0.0308642   0.0308642   0.0308642), wk =   0.0219479
        k(    2) = (   0.0308642   0.0308642   0.0925926), wk =   0.0658436
        k(    3) = (   0.0308642   0.0308642   0.1543210), wk =   0.0658436
        k(    4) = (   0.0308642   0.0308642   0.2160494), wk =   0.0658436
        k(    5) = (   0.0308642   0.0308642  -0.2777778), wk =   0.0329218
        k(    6) = (   0.0308642   0.0925926   0.0925926), wk =   0.0658436
        k(    7) = (   0.0308642   0.0925926   0.1543210), wk =   0.1316872
        k(    8) = (   0.0308642   0.0925926   0.2160494), wk =   0.1316872
        k(    9) = (   0.0308642   0.0925926  -0.2777778), wk =   0.0658436
        k(   10) = (   0.0308642   0.1543210   0.1543210), wk =   0.0658436
        k(   11) = (   0.0308642   0.1543210   0.2160494), wk =   0.1316872
        k(   12) = (   0.0308642   0.1543210  -0.2777778), wk =   0.0658436
        k(   13) = (   0.0308642   0.2160494   0.2160494), wk =   0.0658436
        k(   14) = (   0.0308642   0.2160494  -0.2777778), wk =   0.0658436
        k(   15) = (   0.0308642  -0.2777778  -0.2777778), wk =   0.0164609
        k(   16) = (   0.0925926   0.0925926   0.0925926), wk =   0.0219479
        k(   17) = (   0.0925926   0.0925926   0.1543210), wk =   0.0658436
        k(   18) = (   0.0925926   0.0925926   0.2160494), wk =   0.0658436
        k(   19) = (   0.0925926   0.0925926  -0.2777778), wk =   0.0329218
        k(   20) = (   0.0925926   0.1543210   0.1543210), wk =   0.0658436
        k(   21) = (   0.0925926   0.1543210   0.2160494), wk =   0.1316872
        k(   22) = (   0.0925926   0.1543210  -0.2777778), wk =   0.0658436
        k(   23) = (   0.0925926   0.2160494   0.2160494), wk =   0.0658436
        k(   24) = (   0.0925926   0.2160494  -0.2777778), wk =   0.0658436
        k(   25) = (   0.0925926  -0.2777778  -0.2777778), wk =   0.0164609
        k(   26) = (   0.1543210   0.1543210   0.1543210), wk =   0.0219479
        k(   27) = (   0.1543210   0.1543210   0.2160494), wk =   0.0658436
        k(   28) = (   0.1543210   0.1543210  -0.2777778), wk =   0.0329218
        k(   29) = (   0.1543210   0.2160494   0.2160494), wk =   0.0658436
        k(   30) = (   0.1543210   0.2160494  -0.2777778), wk =   0.0658436
        k(   31) = (   0.1543210  -0.2777778  -0.2777778), wk =   0.0164609
        k(   32) = (   0.2160494   0.2160494   0.2160494), wk =   0.0219479
        k(   33) = (   0.2160494   0.2160494  -0.2777778), wk =   0.0329218
        k(   34) = (   0.2160494  -0.2777778  -0.2777778), wk =   0.0164609
        k(   35) = (  -0.2777778  -0.2777778  -0.2777778), wk =   0.0027435

     Check: negative core charge=   -0.000001

     Initial potential from superposition of free atoms

     starting charge  255.98980, renormalised to  256.00000
     Starting wfcs are  160 randomized atomic wfcs
     Checking if some PAW data can be deallocated...

     Self-consistent Calculation

     iteration #  1     ecut=    71.00 Ry     beta= 0.10
     Davidson diagonalization with overlap
     ethr =  1.00E-02,  avg # of iterations =  2.0

     total energy              =   -6899.20824906 Ry
     estimated scf accuracy    <       9.43066446 Ry

[...]

     total energy              =   -6897.92540465 Ry
     estimated scf accuracy    <       0.00000154 Ry

     iteration # 24     ecut=    71.00 Ry     beta= 0.10
     Davidson diagonalization with overlap
     ethr =  6.01E-10,  avg # of iterations =  1.1

     End of self-consistent calculation

          k = 0.0309 0.0309 0.0309 ( 88015 PWs)   bands (ev):

   -70.8740 -70.8739 -70.8739 -70.8739 -70.8739 -70.8739 -70.8739 -70.8739
   -70.8739 -70.8739 -70.8739 -70.8739 -70.8739 -70.8739 -70.8739 -70.8739
   -40.9439 -40.9439 -40.9439 -40.9438 -40.9438 -40.9438 -40.9438 -40.9438
   -40.9438 -40.9437 -40.9436 -40.9436 -40.9436 -40.9436 -40.9436 -40.9436
   -40.9436 -40.9436 -40.9435 -40.9435 -40.9435 -40.9435 -40.9435 -40.9435
   -40.9435 -40.9435 -40.9435 -40.9435 -40.9435 -40.9435 -40.9435 -40.9435
   -40.9435 -40.9435 -40.9435 -40.9435 -40.9435 -40.9435 -40.9435 -40.9433
   -40.9433 -40.9433 -40.9433 -40.9433 -40.9432 -40.9432 -40.9432 -40.9432
    -0.9321  -0.1497  -0.1497  -0.1497  -0.1463  -0.1463  -0.1463  -0.0632
    -0.0632  -0.0233  -0.0233  -0.0233  -0.0172  -0.0172  -0.0172  -0.0156
    -0.0156  -0.0156   0.0341   0.0341   0.0341   0.0432   0.0584   0.0584
     0.0684   0.0684   0.0724   0.0762   0.0762   0.0762   0.0850   0.0850
     0.0959   0.1000   0.1000   0.1000   0.1319   0.1319   0.1319   0.1395
     0.1395   0.1395   0.1503   0.1503   0.1503   0.1581   0.1581   0.1581
     0.1947   0.1947   0.1947   0.2165   0.2165   0.2165   0.2179   0.2179
     0.2179   0.2188   0.2188   0.2188   0.2345   0.2345   0.2377   0.2377
     0.2377   0.2409   0.2409   0.2409   0.2431   0.2431   0.2431   0.2431
     0.3186   0.3235   0.3235   0.3472   0.3472   0.3472   0.3495   0.3495
     0.3495   0.4316   0.4316   0.4316   0.6301   0.6301   0.6301   1.3633
     1.3634   1.3634

[...]

          k = 0.2160-0.2778-0.2778 ( 87916 PWs)   bands (ev):

[...]

          k =-0.2778-0.2778-0.2778 ( 87848 PWs)   bands (ev):

   -70.8739 -70.8739 -70.8739 -70.8739 -70.8739 -70.8739 -70.8739 -70.8739
   -70.8739 -70.8739 -70.8739 -70.8739 -70.8739 -70.8739 -70.8739 -70.8739
   -40.9437 -40.9437 -40.9437 -40.9437 -40.9437 -40.9437 -40.9437 -40.9437
   -40.9437 -40.9437 -40.9437 -40.9437 -40.9437 -40.9437 -40.9437 -40.9437
   -40.9437 -40.9436 -40.9436 -40.9436 -40.9436 -40.9436 -40.9436 -40.9436
   -40.9434 -40.9434 -40.9434 -40.9434 -40.9434 -40.9434 -40.9434 -40.9434
   -40.9434 -40.9434 -40.9434 -40.9434 -40.9434 -40.9434 -40.9434 -40.9434
   -40.9434 -40.9434 -40.9434 -40.9434 -40.9434 -40.9434 -40.9433 -40.9433
    -0.1541  -0.1541  -0.1541  -0.1541  -0.1541  -0.1541  -0.1541  -0.1540
     0.0195   0.0195   0.0195   0.0195   0.0195   0.0195   0.0195   0.0195
     0.0296   0.0296   0.0296   0.0297   0.0297   0.0297   0.0297   0.0297
     0.0297   0.0297   0.0297   0.0297   0.0297   0.0297   0.0297   0.0297
     0.0715   0.0715   0.0715   0.0715   0.0715   0.0715   0.0715   0.0715
     0.0715   0.0715   0.0715   0.0715   0.0715   0.0715   0.0715   0.0715
     0.2281   0.2281   0.2281   0.2281   0.2281   0.2281   0.2281   0.2281
     0.2281   0.2281   0.2282   0.2282   0.2282   0.2282   0.2282   0.2282
     0.2739   0.2739   0.2739   0.2739   0.2739   0.2739   0.2739   0.2739
     0.2739   0.2739   0.2739   0.2739   0.2739   0.2739   0.2739   0.2739
     0.4276   0.4276   0.4276   0.4276   0.4276   0.4276   0.4276   0.4276
     1.7907   1.7907

     the Fermi energy is     0.4066 ev

!    total energy              =   -6897.92540476 Ry

     total all-electron energy =   -144986.120574 Ry
     estimated scf accuracy    <       0.00000088 Ry
     smearing contrib. (-TS)   =      -0.45480768 Ry
     internal energy E=F+TS    =   -6897.47059708 Ry

     The total energy is F=E-TS. E is the sum of the following terms:
     one-electron contribution =   -2413.23590314 Ry
     hartree contribution      =    1217.44143979 Ry
     xc contribution           =    -458.11407454 Ry
     ewald contribution        =   -1449.13378515 Ry
     one-center paw contrib.   =   -3794.42827404 Ry

     convergence has been achieved in  24 iterations

     Forces acting on atoms (cartesian axes, Ry/au):

     atom    1 type  1   force =     0.00000000    0.00000000    0.00000000
     atom    2 type  1   force =    -0.00000087   -0.00000087   -0.00000087
     atom    3 type  1   force =     0.00000000    0.00000000    0.00000000
     atom    4 type  1   force =    -0.00000087   -0.00000087    0.00000087
     atom    5 type  1   force =     0.00000000    0.00000000    0.00000000
     atom    6 type  1   force =    -0.00000087    0.00000087   -0.00000087
     atom    7 type  1   force =     0.00000000    0.00000000    0.00000000
     atom    8 type  1   force =    -0.00000087    0.00000087    0.00000087
     atom    9 type  1   force =     0.00000000    0.00000000    0.00000000
     atom   10 type  1   force =     0.00000087   -0.00000087   -0.00000087
     atom   11 type  1   force =     0.00000000    0.00000000    0.00000000
     atom   12 type  1   force =     0.00000087   -0.00000087    0.00000087
     atom   13 type  1   force =     0.00000000    0.00000000    0.00000000
     atom   14 type  1   force =     0.00000087    0.00000087   -0.00000087
     atom   15 type  1   force =     0.00000000    0.00000000    0.00000000
     atom   16 type  1   force =     0.00000087    0.00000087    0.00000087

     Total force =     0.000004     Total SCF correction =     0.000796
     SCF correction compared to forces is large: reduce conv_thr to get better values

     Computing stress (Cartesian axis) and pressure

          total   stress  (Ry/bohr**3)                   (kbar)     P=      -35.17
  -0.00023909   0.00000000   0.00000000          -35.17        0.00        0.00
   0.00000000  -0.00023909   0.00000000            0.00      -35.17        0.00
   0.00000000   0.00000000  -0.00023909            0.00        0.00      -35.17

     Writing output data file /scratch/QFnWXfOpUUTboTIg.save/

     General routines

     Parallel routines

   This run was terminated on:   0:36:27  26Nov2021

   JOB DONE.