     Program PWSCF v.6.7MaX starts on 25Nov2021 at 23:55:32

     R & G space division:  proc/nbgrp/npool/nimage =      72
     Reading input from bcc_5.in
Warning: card &CELL ignored
Warning: card CELL_DYNAMICS = 'BFGS', ignored
Warning: card CELL_FACTOR = 2.0, ignored
Warning: card PRESS = 0.0, ignored
Warning: card / ignored

     Current dimensions of program PWSCF are:
     Max number of different atomic species (ntypx) = 10
     Max number of k-points (npk) =  40000
     Max angular momentum in pseudopotentials (lmaxx) =  3
     file Ru.pbe-spn-kjpaw_psl.1.0.0.UPF: wavefunction(s)  4D renormalized

     Subspace diagonalization in iterative solution of the eigenvalue problem:
     one sub-group per band group will be used

     Found symmetry operation: I + (  0.2500  0.2500  0.2500)
     This is a supercell, fractional translations are disabled
     Message from routine setup:
     using ibrav=0 with symmetry is DISCOURAGED, use correct ibrav instead

     bravais-lattice index     =            0
     lattice parameter (alat)  =      11.4293  a.u.
     unit-cell volume          =    4096.7619 (a.u.)^3
     number of atoms/cell      =           16
     number of atomic types    =            1
     number of electrons       =       256.00
     number of Kohn-Sham states=          154
     kinetic-energy cutoff     =      71.0000  Ry
     charge density cutoff     =     430.0000  Ry
     scf convergence threshold =      1.0E-06
     mixing beta               =       0.1000
     number of iterations used =           10  TF        mixing
     Exchange-correlation= SLA  PW   PBX  PBC
                           (   1   4   3   4   0   0   0)

     celldm(1)=  11.429280  celldm(2)=   0.000000  celldm(3)=   0.000000
     celldm(4)=   0.000000  celldm(5)=   0.000000  celldm(6)=   0.000000

     crystal axes: (cart. coord. in units of alat)
               a(1) = (   1.400000   0.000000   0.000000 )
               a(2) = (   0.000000   1.400000   0.000000 )
               a(3) = (   0.000000   0.000000   1.400000 )

     reciprocal axes: (cart. coord. in units 2 pi/alat)
               b(1) = (  0.714286  0.000000  0.000000 )
               b(2) = (  0.000000  0.714286  0.000000 )
               b(3) = (  0.000000  0.000000  0.714286 )

     PseudoPot. # 1 for Ru read from file:
     /rds/homes/b/bxp912/pp/Ru.pbe-spn-kjpaw_psl.1.0.0.UPF
     MD5 check sum: 0ae1f594dea09af7be8575c3a481d1ae
     Pseudo is Projector augmented-wave + core cor, Zval = 16.0
     Generated using "atomic" code by A. Dal Corso  v.5.1
     Shape of augmentation charge: PSQ
     Using radial grid of 1233 points,  6 beta functions with:
                l(1) =   0
                l(2) =   0
                l(3) =   1
                l(4) =   1
                l(5) =   2
                l(6) =   2
     Q(r) pseudized with 0 coefficients

     atomic species   valence    mass     pseudopotential
        Ru            16.00   101.07000     Ru( 1.00)

     48 Sym. Ops., with inversion, found

   Cartesian axes

     site n.     atom                  positions (alat units)
         1           Ru  tau(   1) = (   0.0000000   0.0000000   0.0000000  )
         2           Ru  tau(   2) = (   0.3500000   0.3500000   0.3500000  )
         3           Ru  tau(   3) = (   0.0000000   0.0000000   0.7000000  )
         4           Ru  tau(   4) = (   0.3500000   0.3500000   1.0500000  )
         5           Ru  tau(   5) = (   0.0000000   0.7000000   0.0000000  )
         6           Ru  tau(   6) = (   0.3500000   1.0500000   0.3500000  )
         7           Ru  tau(   7) = (   0.0000000   0.7000000   0.7000000  )
         8           Ru  tau(   8) = (   0.3500000   1.0500000   1.0500000  )
         9           Ru  tau(   9) = (   0.7000000   0.0000000   0.0000000  )
        10           Ru  tau(  10) = (   1.0500000   0.3500000   0.3500000  )
        11           Ru  tau(  11) = (   0.7000000   0.0000000   0.7000000  )
        12           Ru  tau(  12) = (   1.0500000   0.3500000   1.0500000  )
        13           Ru  tau(  13) = (   0.7000000   0.7000000   0.0000000  )
        14           Ru  tau(  14) = (   1.0500000   1.0500000   0.3500000  )
        15           Ru  tau(  15) = (   0.7000000   0.7000000   0.7000000  )
        16           Ru  tau(  16) = (   1.0500000   1.0500000   1.0500000  )

     number of k points=    35  Marzari-Vanderbilt smearing, width (Ry)=  0.0400
                       cart. coord. in units 2pi/alat
        k(    1) = (   0.0396825   0.0396825   0.0396825), wk =   0.0219479
        k(    2) = (   0.0396825   0.0396825   0.1190476), wk =   0.0658436
        k(    3) = (   0.0396825   0.0396825   0.1984127), wk =   0.0658436
        k(    4) = (   0.0396825   0.0396825   0.2777778), wk =   0.0658436
        k(    5) = (   0.0396825   0.0396825  -0.3571429), wk =   0.0329218
        k(    6) = (   0.0396825   0.1190476   0.1190476), wk =   0.0658436
        k(    7) = (   0.0396825   0.1190476   0.1984127), wk =   0.1316872
        k(    8) = (   0.0396825   0.1190476   0.2777778), wk =   0.1316872
        k(    9) = (   0.0396825   0.1190476  -0.3571429), wk =   0.0658436
        k(   10) = (   0.0396825   0.1984127   0.1984127), wk =   0.0658436
        k(   11) = (   0.0396825   0.1984127   0.2777778), wk =   0.1316872
        k(   12) = (   0.0396825   0.1984127  -0.3571429), wk =   0.0658436
        k(   13) = (   0.0396825   0.2777778   0.2777778), wk =   0.0658436
        k(   14) = (   0.0396825   0.2777778  -0.3571429), wk =   0.0658436
        k(   15) = (   0.0396825  -0.3571429  -0.3571429), wk =   0.0164609
        k(   16) = (   0.1190476   0.1190476   0.1190476), wk =   0.0219479
        k(   17) = (   0.1190476   0.1190476   0.1984127), wk =   0.0658436
        k(   18) = (   0.1190476   0.1190476   0.2777778), wk =   0.0658436
        k(   19) = (   0.1190476   0.1190476  -0.3571429), wk =   0.0329218
        k(   20) = (   0.1190476   0.1984127   0.1984127), wk =   0.0658436
        k(   21) = (   0.1190476   0.1984127   0.2777778), wk =   0.1316872
        k(   22) = (   0.1190476   0.1984127  -0.3571429), wk =   0.0658436
        k(   23) = (   0.1190476   0.2777778   0.2777778), wk =   0.0658436
        k(   24) = (   0.1190476   0.2777778  -0.3571429), wk =   0.0658436
        k(   25) = (   0.1190476  -0.3571429  -0.3571429), wk =   0.0164609
        k(   26) = (   0.1984127   0.1984127   0.1984127), wk =   0.0219479
        k(   27) = (   0.1984127   0.1984127   0.2777778), wk =   0.0658436
        k(   28) = (   0.1984127   0.1984127  -0.3571429), wk =   0.0329218
        k(   29) = (   0.1984127   0.2777778   0.2777778), wk =   0.0658436
        k(   30) = (   0.1984127   0.2777778  -0.3571429), wk =   0.0658436
        k(   31) = (   0.1984127  -0.3571429  -0.3571429), wk =   0.0164609
        k(   32) = (   0.2777778   0.2777778   0.2777778), wk =   0.0219479
        k(   33) = (   0.2777778   0.2777778  -0.3571429), wk =   0.0329218
        k(   34) = (   0.2777778  -0.3571429  -0.3571429), wk =   0.0164609
        k(   35) = (  -0.3571429  -0.3571429  -0.3571429), wk =   0.0027435

     Check: negative core charge=   -0.000002

     Initial potential from superposition of free atoms

     starting charge  255.98980, renormalised to  256.00000
     Starting wfcs are  160 randomized atomic wfcs
     Checking if some PAW data can be deallocated...

     Self-consistent Calculation

     iteration #  1     ecut=    71.00 Ry     beta= 0.10
     Davidson diagonalization with overlap
     ethr =  1.00E-02,  avg # of iterations =  3.5

     Threshold (ethr) on eigenvalues was too large:
     Diagonalizing with lowered threshold

     Davidson diagonalization with overlap
     ethr =  8.70E-04,  avg # of iterations =  2.9

     total energy              =   -6900.93460014 Ry
     estimated scf accuracy    <       1.75645593 Ry

[...]

     total energy              =   -6900.77046087 Ry
     estimated scf accuracy    <       0.00000250 Ry

     iteration # 14     ecut=    71.00 Ry     beta= 0.10
     Davidson diagonalization with overlap
     ethr =  9.77E-10,  avg # of iterations =  3.2

     End of self-consistent calculation

          k = 0.0397 0.0397 0.0397 ( 41437 PWs)   bands (ev):

   -66.5656 -66.5645 -66.5645 -66.5644 -66.5643 -66.5643 -66.5643 -66.5643
   -66.5643 -66.5643 -66.5643 -66.5643 -66.5642 -66.5642 -66.5642 -66.5632
   -36.5605 -36.5604 -36.5604 -36.5603 -36.5603 -36.5603 -36.5564 -36.5564
   -36.5561 -36.5513 -36.5512 -36.5511 -36.5511 -36.5504 -36.5504 -36.5497
   -36.5497 -36.5497 -36.5485 -36.5485 -36.5484 -36.5484 -36.5484 -36.5478
   -36.5477 -36.5477 -36.5477 -36.5477 -36.5477 -36.5476 -36.5476 -36.5476
   -36.5475 -36.5469 -36.5469 -36.5469 -36.5463 -36.5463 -36.5463 -36.5395
   -36.5392 -36.5392 -36.5389 -36.5389 -36.5389 -36.5388 -36.5388 -36.5388
     2.2352   3.7710   3.7711   3.7711   3.7800   3.7800   3.7800   3.9250
     3.9250   3.9250   3.9712   3.9712   4.1229   4.1229   4.1229   4.2479
     4.2479   4.2479   4.2528   4.2529   4.2529   4.3538   4.3965   4.3965
     4.4703   4.4703   4.4994   4.5150   4.5150   4.5150   4.5920   4.5920
     4.6062   4.6139   4.6139   4.6139   4.7632   4.7632   4.7632   4.7962
     4.7962   4.7962   4.8292   4.8293   4.8293   4.8588   4.8588   4.8588
     5.0391   5.0392   5.0392   5.1202   5.1203   5.1203   5.1423   5.1423
     5.1423   5.1463   5.1463   5.1463   5.1876   5.1876   5.2118   5.2119
     5.2119   5.2343   5.2344   5.2344   5.2449   5.2449   5.2449   5.2449
     5.5081   5.5297   5.5297   5.5612   5.5612   5.5613   5.6123   5.6124
     5.6124   5.6231   5.6231   5.6231   5.8225   5.8225   5.8225   6.8601
     6.8601   6.8601

[...]

          k = 0.2778-0.3571-0.3571 ( 41408 PWs)   bands (ev):

[...]

          k =-0.3571-0.3571-0.3571 ( 41328 PWs)   bands (ev):

   -66.5648 -66.5648 -66.5648 -66.5648 -66.5648 -66.5648 -66.5648 -66.5647
   -66.5639 -66.5639 -66.5639 -66.5639 -66.5639 -66.5639 -66.5639 -66.5638
   -36.5555 -36.5555 -36.5555 -36.5555 -36.5555 -36.5555 -36.5555 -36.5555
   -36.5555 -36.5555 -36.5555 -36.5555 -36.5555 -36.5555 -36.5553 -36.5553
   -36.5534 -36.5533 -36.5533 -36.5533 -36.5533 -36.5533 -36.5533 -36.5532
   -36.5440 -36.5440 -36.5440 -36.5440 -36.5440 -36.5440 -36.5440 -36.5439
   -36.5418 -36.5418 -36.5418 -36.5418 -36.5418 -36.5418 -36.5418 -36.5418
   -36.5418 -36.5417 -36.5417 -36.5417 -36.5417 -36.5417 -36.5416 -36.5416
     3.6950   3.6950   3.6950   3.6950   3.6950   3.6950   3.6950   3.6950
     4.3692   4.3693   4.3693   4.3693   4.3693   4.3693   4.3693   4.3693
     4.3925   4.3925   4.3925   4.3925   4.3925   4.3925   4.3925   4.3925
     4.3926   4.3926   4.3926   4.3926   4.3926   4.3926   4.3926   4.3926
     4.4285   4.4285   4.4285   4.4285   4.4285   4.4286   4.4286   4.4286
     4.4286   4.4286   4.4286   4.4286   4.4286   4.4286   4.4286   4.4286
     5.1731   5.1731   5.1731   5.1732   5.1732   5.1732   5.1732   5.1732
     5.1732   5.1732   5.1732   5.1732   5.1732   5.1733   5.1733   5.1733
     5.3112   5.3112   5.3112   5.3112   5.3112   5.3112   5.3112   5.3112
     5.3113   5.3113   5.3113   5.3113   5.3113   5.3113   5.3113   5.3113
     5.5943   5.5943   5.5944   5.5944   5.5944   5.5944   5.5944   5.5944
     8.9118   8.9118

     the Fermi energy is     5.2304 ev

!    total energy              =   -6900.77046224 Ry

     total all-electron energy =   -144988.965632 Ry
     estimated scf accuracy    <       0.00000069 Ry
     smearing contrib. (-TS)   =      -0.06079695 Ry
     internal energy E=F+TS    =   -6900.70966529 Ry

     The total energy is F=E-TS. E is the sum of the following terms:
     one-electron contribution =   -1675.77488544 Ry
     hartree contribution      =     889.48171378 Ry
     xc contribution           =    -456.79059248 Ry
     ewald contribution        =   -1863.17200948 Ry
     one-center paw contrib.   =   -3794.45389166 Ry

     convergence has been achieved in  14 iterations

     Forces acting on atoms (cartesian axes, Ry/au):

     atom    1 type  1   force =     0.00000000    0.00000000    0.00000000
     atom    2 type  1   force =     0.00003877    0.00003877    0.00003877
     atom    3 type  1   force =     0.00000000    0.00000000    0.00000000
     atom    4 type  1   force =     0.00003877    0.00003877   -0.00003877
     atom    5 type  1   force =     0.00000000    0.00000000    0.00000000
     atom    6 type  1   force =     0.00003877   -0.00003877    0.00003877
     atom    7 type  1   force =     0.00000000    0.00000000    0.00000000
     atom    8 type  1   force =     0.00003877   -0.00003877   -0.00003877
     atom    9 type  1   force =     0.00000000    0.00000000    0.00000000
     atom   10 type  1   force =    -0.00003877    0.00003877    0.00003877
     atom   11 type  1   force =     0.00000000    0.00000000    0.00000000
     atom   12 type  1   force =    -0.00003877    0.00003877   -0.00003877
     atom   13 type  1   force =     0.00000000    0.00000000    0.00000000
     atom   14 type  1   force =    -0.00003877   -0.00003877    0.00003877
     atom   15 type  1   force =     0.00000000    0.00000000    0.00000000
     atom   16 type  1   force =    -0.00003877   -0.00003877   -0.00003877

     Total force =     0.000190     Total SCF correction =     0.000794
     SCF correction compared to forces is large: reduce conv_thr to get better values

     Computing stress (Cartesian axis) and pressure

          total   stress  (Ry/bohr**3)                   (kbar)     P=     -209.85
  -0.00142652   0.00000000   0.00000000         -209.85        0.00        0.00
   0.00000000  -0.00142652   0.00000000            0.00     -209.85        0.00
   0.00000000   0.00000000  -0.00142652            0.00        0.00     -209.85

     Writing output data file /scratch/cFVGWowTsIqOIAuZ.save/

     General routines

     Parallel routines

   This run was terminated on:   0: 0: 6  26Nov2021

   JOB DONE.