     Program PWSCF v.6.7MaX starts on 26Nov2021 at  0: 0:27

     R & G space division:  proc/nbgrp/npool/nimage =      72
     Reading input from bcc_6.in
Warning: card &CELL ignored
Warning: card CELL_DYNAMICS = 'BFGS', ignored
Warning: card CELL_FACTOR = 2.0, ignored
Warning: card PRESS = 0.0, ignored
Warning: card / ignored

     Current dimensions of program PWSCF are:
     Max number of different atomic species (ntypx) = 10
     Max number of k-points (npk) =  40000
     Max angular momentum in pseudopotentials (lmaxx) =  3
     file Ru.pbe-spn-kjpaw_psl.1.0.0.UPF: wavefunction(s)  4D renormalized

     Subspace diagonalization in iterative solution of the eigenvalue problem:
     one sub-group per band group will be used

     Found symmetry operation: I + (  0.2500  0.2500  0.2500)
     This is a supercell, fractional translations are disabled
     Message from routine setup:
     using ibrav=0 with symmetry is DISCOURAGED, use correct ibrav instead

     bravais-lattice index     =            0
     lattice parameter (alat)  =      11.4293  a.u.
     unit-cell volume          =    5038.8380 (a.u.)^3
     number of atoms/cell      =           16
     number of atomic types    =            1
     number of electrons       =       256.00
     number of Kohn-Sham states=          154
     kinetic-energy cutoff     =      71.0000  Ry
     charge density cutoff     =     430.0000  Ry
     scf convergence threshold =      1.0E-06
     mixing beta               =       0.1000
     number of iterations used =           10  TF        mixing
     Exchange-correlation= SLA  PW   PBX  PBC
                           (   1   4   3   4   0   0   0)

     celldm(1)=  11.429280  celldm(2)=   0.000000  celldm(3)=   0.000000
     celldm(4)=   0.000000  celldm(5)=   0.000000  celldm(6)=   0.000000

     crystal axes: (cart. coord. in units of alat)
               a(1) = (   1.500000   0.000000   0.000000 )
               a(2) = (   0.000000   1.500000   0.000000 )
               a(3) = (   0.000000   0.000000   1.500000 )

     reciprocal axes: (cart. coord. in units 2 pi/alat)
               b(1) = (  0.666667  0.000000  0.000000 )
               b(2) = (  0.000000  0.666667  0.000000 )
               b(3) = (  0.000000  0.000000  0.666667 )

     PseudoPot. # 1 for Ru read from file:
     /rds/homes/b/bxp912/pp/Ru.pbe-spn-kjpaw_psl.1.0.0.UPF
     MD5 check sum: 0ae1f594dea09af7be8575c3a481d1ae
     Pseudo is Projector augmented-wave + core cor, Zval = 16.0
     Generated using "atomic" code by A. Dal Corso  v.5.1
     Shape of augmentation charge: PSQ
     Using radial grid of 1233 points,  6 beta functions with:
                l(1) =   0
                l(2) =   0
                l(3) =   1
                l(4) =   1
                l(5) =   2
                l(6) =   2
     Q(r) pseudized with 0 coefficients

     atomic species   valence    mass     pseudopotential
        Ru            16.00   101.07000     Ru( 1.00)

     48 Sym. Ops., with inversion, found

   Cartesian axes

     site n.     atom                  positions (alat units)
         1           Ru  tau(   1) = (   0.0000000   0.0000000   0.0000000  )
         2           Ru  tau(   2) = (   0.3750000   0.3750000   0.3750000  )
         3           Ru  tau(   3) = (   0.0000000   0.0000000   0.7500000  )
         4           Ru  tau(   4) = (   0.3750000   0.3750000   1.1250000  )
         5           Ru  tau(   5) = (   0.0000000   0.7500000   0.0000000  )
         6           Ru  tau(   6) = (   0.3750000   1.1250000   0.3750000  )
         7           Ru  tau(   7) = (   0.0000000   0.7500000   0.7500000  )
         8           Ru  tau(   8) = (   0.3750000   1.1250000   1.1250000  )
         9           Ru  tau(   9) = (   0.7500000   0.0000000   0.0000000  )
        10           Ru  tau(  10) = (   1.1250000   0.3750000   0.3750000  )
        11           Ru  tau(  11) = (   0.7500000   0.0000000   0.7500000  )
        12           Ru  tau(  12) = (   1.1250000   0.3750000   1.1250000  )
        13           Ru  tau(  13) = (   0.7500000   0.7500000   0.0000000  )
        14           Ru  tau(  14) = (   1.1250000   1.1250000   0.3750000  )
        15           Ru  tau(  15) = (   0.7500000   0.7500000   0.7500000  )
        16           Ru  tau(  16) = (   1.1250000   1.1250000   1.1250000  )

     number of k points=    35  Marzari-Vanderbilt smearing, width (Ry)=  0.0400
                       cart. coord. in units 2pi/alat
        k(    1) = (   0.0370370   0.0370370   0.0370370), wk =   0.0219479
        k(    2) = (   0.0370370   0.0370370   0.1111111), wk =   0.0658436
        k(    3) = (   0.0370370   0.0370370   0.1851852), wk =   0.0658436
        k(    4) = (   0.0370370   0.0370370   0.2592593), wk =   0.0658436
        k(    5) = (   0.0370370   0.0370370  -0.3333333), wk =   0.0329218
        k(    6) = (   0.0370370   0.1111111   0.1111111), wk =   0.0658436
        k(    7) = (   0.0370370   0.1111111   0.1851852), wk =   0.1316872
        k(    8) = (   0.0370370   0.1111111   0.2592593), wk =   0.1316872
        k(    9) = (   0.0370370   0.1111111  -0.3333333), wk =   0.0658436
        k(   10) = (   0.0370370   0.1851852   0.1851852), wk =   0.0658436
        k(   11) = (   0.0370370   0.1851852   0.2592593), wk =   0.1316872
        k(   12) = (   0.0370370   0.1851852  -0.3333333), wk =   0.0658436
        k(   13) = (   0.0370370   0.2592593   0.2592593), wk =   0.0658436
        k(   14) = (   0.0370370   0.2592593  -0.3333333), wk =   0.0658436
        k(   15) = (   0.0370370  -0.3333333  -0.3333333), wk =   0.0164609
        k(   16) = (   0.1111111   0.1111111   0.1111111), wk =   0.0219479
        k(   17) = (   0.1111111   0.1111111   0.1851852), wk =   0.0658436
        k(   18) = (   0.1111111   0.1111111   0.2592593), wk =   0.0658436
        k(   19) = (   0.1111111   0.1111111  -0.3333333), wk =   0.0329218
        k(   20) = (   0.1111111   0.1851852   0.1851852), wk =   0.0658436
        k(   21) = (   0.1111111   0.1851852   0.2592593), wk =   0.1316872
        k(   22) = (   0.1111111   0.1851852  -0.3333333), wk =   0.0658436
        k(   23) = (   0.1111111   0.2592593   0.2592593), wk =   0.0658436
        k(   24) = (   0.1111111   0.2592593  -0.3333333), wk =   0.0658436
        k(   25) = (   0.1111111  -0.3333333  -0.3333333), wk =   0.0164609
        k(   26) = (   0.1851852   0.1851852   0.1851852), wk =   0.0219479
        k(   27) = (   0.1851852   0.1851852   0.2592593), wk =   0.0658436
        k(   28) = (   0.1851852   0.1851852  -0.3333333), wk =   0.0329218
        k(   29) = (   0.1851852   0.2592593   0.2592593), wk =   0.0658436
        k(   30) = (   0.1851852   0.2592593  -0.3333333), wk =   0.0658436
        k(   31) = (   0.1851852  -0.3333333  -0.3333333), wk =   0.0164609
        k(   32) = (   0.2592593   0.2592593   0.2592593), wk =   0.0219479
        k(   33) = (   0.2592593   0.2592593  -0.3333333), wk =   0.0329218
        k(   34) = (   0.2592593  -0.3333333  -0.3333333), wk =   0.0164609
        k(   35) = (  -0.3333333  -0.3333333  -0.3333333), wk =   0.0027435

     Check: negative core charge=   -0.000001

     Initial potential from superposition of free atoms

     starting charge  255.98980, renormalised to  256.00000
     Starting wfcs are  160 randomized atomic wfcs
     Checking if some PAW data can be deallocated...

     Self-consistent Calculation

     iteration #  1     ecut=    71.00 Ry     beta= 0.10
     Davidson diagonalization with overlap
     ethr =  1.00E-02,  avg # of iterations =  2.0

     total energy              =   -6899.96157657 Ry
     estimated scf accuracy    <       4.25811095 Ry

[...]

     total energy              =   -6899.68478303 Ry
     estimated scf accuracy    <       0.00000104 Ry

     iteration # 18     ecut=    71.00 Ry     beta= 0.10
     Davidson diagonalization with overlap
     ethr =  4.06E-10,  avg # of iterations =  4.2

     End of self-consistent calculation

          k = 0.0370 0.0370 0.0370 ( 50892 PWs)   bands (ev):

   -68.1814 -68.1811 -68.1811 -68.1811 -68.1810 -68.1810 -68.1810 -68.1810
   -68.1810 -68.1810 -68.1810 -68.1810 -68.1810 -68.1810 -68.1810 -68.1808
   -38.1968 -38.1968 -38.1968 -38.1968 -38.1968 -38.1968 -38.1956 -38.1956
   -38.1955 -38.1933 -38.1932 -38.1932 -38.1932 -38.1928 -38.1928 -38.1927
   -38.1927 -38.1927 -38.1923 -38.1923 -38.1923 -38.1921 -38.1921 -38.1920
   -38.1920 -38.1920 -38.1919 -38.1919 -38.1919 -38.1919 -38.1919 -38.1919
   -38.1918 -38.1917 -38.1917 -38.1917 -38.1914 -38.1914 -38.1914 -38.1885
   -38.1884 -38.1884 -38.1883 -38.1883 -38.1883 -38.1882 -38.1882 -38.1882
     1.0341   2.3525   2.3525   2.3525   2.3597   2.3597   2.3597   2.4883
     2.4883   2.4883   2.5214   2.5214   2.6485   2.6485   2.6485   2.6998
     2.6998   2.6998   2.7035   2.7035   2.7035   2.7939   2.8268   2.8268
     2.8839   2.8839   2.9050   2.9050   2.9050   2.9068   2.9390   2.9390
     2.9491   2.9732   2.9732   2.9732   3.0712   3.0712   3.0712   3.0942
     3.0942   3.0942   3.1188   3.1188   3.1188   3.1397   3.1397   3.1397
     3.2593   3.2593   3.2593   3.3165   3.3165   3.3165   3.3283   3.3283
     3.3283   3.3310   3.3310   3.3310   3.3635   3.3635   3.3789   3.3789
     3.3789   3.3918   3.3918   3.3918   3.3987   3.3987   3.3987   3.3987
     3.5878   3.6023   3.6023   3.6618   3.6618   3.6618   3.6626   3.6626
     3.6626   3.6694   3.6694   3.6694   3.9007   3.9007   3.9007   5.0692
     5.0692   5.0692

[...]

          k = 0.2593-0.3333-0.3333 ( 50988 PWs)   bands (ev):

[...]

          k =-0.3333-0.3333-0.3333 ( 50864 PWs)   bands (ev):

   -68.1812 -68.1812 -68.1812 -68.1812 -68.1812 -68.1812 -68.1812 -68.1812
   -68.1809 -68.1809 -68.1809 -68.1809 -68.1809 -68.1809 -68.1809 -68.1809
   -38.1950 -38.1950 -38.1950 -38.1950 -38.1950 -38.1950 -38.1950 -38.1950
   -38.1950 -38.1950 -38.1950 -38.1950 -38.1950 -38.1950 -38.1950 -38.1950
   -38.1941 -38.1941 -38.1941 -38.1941 -38.1941 -38.1941 -38.1941 -38.1941
   -38.1904 -38.1904 -38.1904 -38.1904 -38.1904 -38.1904 -38.1904 -38.1904
   -38.1895 -38.1895 -38.1895 -38.1895 -38.1895 -38.1895 -38.1895 -38.1895
   -38.1895 -38.1895 -38.1895 -38.1895 -38.1895 -38.1895 -38.1895 -38.1895
     2.2823   2.2823   2.2823   2.2823   2.2823   2.2823   2.2823   2.2824
     2.7878   2.7878   2.7878   2.7878   2.7878   2.7878   2.7878   2.7878
     2.8075   2.8075   2.8075   2.8075   2.8075   2.8075   2.8075   2.8075
     2.8075   2.8075   2.8075   2.8075   2.8075   2.8075   2.8075   2.8075
     2.8555   2.8555   2.8555   2.8555   2.8555   2.8555   2.8555   2.8555
     2.8555   2.8555   2.8555   2.8555   2.8555   2.8555   2.8556   2.8556
     3.3516   3.3516   3.3516   3.3516   3.3516   3.3516   3.3516   3.3516
     3.3516   3.3516   3.3516   3.3516   3.3516   3.3516   3.3516   3.3516
     3.4549   3.4549   3.4549   3.4549   3.4549   3.4549   3.4549   3.4549
     3.4549   3.4549   3.4549   3.4549   3.4549   3.4549   3.4549   3.4549
     3.6885   3.6885   3.6885   3.6885   3.6885   3.6885   3.6885   3.6885
     6.3395   6.3395

     the Fermi energy is     3.4328 ev

!    total energy              =   -6899.68478348 Ry

     total all-electron energy =   -144987.879953 Ry
     estimated scf accuracy    <       0.00000086 Ry
     smearing contrib. (-TS)   =      -0.12661882 Ry
     internal energy E=F+TS    =   -6899.55816466 Ry

     The total energy is F=E-TS. E is the sum of the following terms:
     one-electron contribution =   -1891.06557190 Ry
     hartree contribution      =     981.87350322 Ry
     xc contribution           =    -456.96048870 Ry
     ewald contribution        =   -1738.96054218 Ry
     one-center paw contrib.   =   -3794.44506510 Ry

     convergence has been achieved in  18 iterations

     Forces acting on atoms (cartesian axes, Ry/au):

     atom    1 type  1   force =     0.00000000    0.00000000    0.00000000
     atom    2 type  1   force =     0.00001959    0.00001959    0.00001959
     atom    3 type  1   force =     0.00000000    0.00000000    0.00000000
     atom    4 type  1   force =     0.00001959    0.00001959   -0.00001959
     atom    5 type  1   force =     0.00000000    0.00000000    0.00000000
     atom    6 type  1   force =     0.00001959   -0.00001959    0.00001959
     atom    7 type  1   force =     0.00000000    0.00000000    0.00000000
     atom    8 type  1   force =     0.00001959   -0.00001959   -0.00001959
     atom    9 type  1   force =     0.00000000    0.00000000    0.00000000
     atom   10 type  1   force =    -0.00001959    0.00001959    0.00001959
     atom   11 type  1   force =     0.00000000    0.00000000    0.00000000
     atom   12 type  1   force =    -0.00001959    0.00001959   -0.00001959
     atom   13 type  1   force =     0.00000000    0.00000000    0.00000000
     atom   14 type  1   force =    -0.00001959   -0.00001959    0.00001959
     atom   15 type  1   force =     0.00000000    0.00000000    0.00000000
     atom   16 type  1   force =    -0.00001959   -0.00001959   -0.00001959

     Total force =     0.000096     Total SCF correction =     0.000676
     SCF correction compared to forces is large: reduce conv_thr to get better values

     Computing stress (Cartesian axis) and pressure

          total   stress  (Ry/bohr**3)                   (kbar)     P=     -137.97
  -0.00093793   0.00000000   0.00000000         -137.97        0.00        0.00
   0.00000000  -0.00093793   0.00000000            0.00     -137.97        0.00
   0.00000000   0.00000000  -0.00093793            0.00        0.00     -137.97

     Writing output data file /scratch/GwqmOFjFwyKgiFOc.save/

     General routines

     Parallel routines

   This run was terminated on:   0: 7: 6  26Nov2021

   JOB DONE.