     Program PWSCF v.6.7MaX starts on 26Nov2021 at  0:53:33

     R & G space division:  proc/nbgrp/npool/nimage =      72
     Reading input from bcc_11.in
Warning: card &CELL ignored
Warning: card CELL_DYNAMICS = 'BFGS', ignored
Warning: card CELL_FACTOR = 2.0, ignored
Warning: card PRESS = 0.0, ignored
Warning: card / ignored

     Current dimensions of program PWSCF are:
     Max number of different atomic species (ntypx) = 10
     Max number of k-points (npk) =  40000
     Max angular momentum in pseudopotentials (lmaxx) =  3
     file Ru.pbe-spn-kjpaw_psl.1.0.0.UPF: wavefunction(s)  4D renormalized

     Subspace diagonalization in iterative solution of the eigenvalue problem:
     one sub-group per band group will be used

     Found symmetry operation: I + (  0.2500  0.2500  0.2500)
     This is a supercell, fractional translations are disabled
     Message from routine setup:
     using ibrav=0 with symmetry is DISCOURAGED, use correct ibrav instead

     bravais-lattice index     =            0
     lattice parameter (alat)  =      11.4293  a.u.
     unit-cell volume          =   11943.9123 (a.u.)^3
     number of atoms/cell      =           16
     number of atomic types    =            1
     number of electrons       =       256.00
     number of Kohn-Sham states=          154
     kinetic-energy cutoff     =      71.0000  Ry
     charge density cutoff     =     430.0000  Ry
     scf convergence threshold =      1.0E-06
     mixing beta               =       0.1000
     number of iterations used =           10  TF        mixing
     Exchange-correlation= SLA  PW   PBX  PBC
                           (   1   4   3   4   0   0   0)

     celldm(1)=  11.429280  celldm(2)=   0.000000  celldm(3)=   0.000000
     celldm(4)=   0.000000  celldm(5)=   0.000000  celldm(6)=   0.000000

     crystal axes: (cart. coord. in units of alat)
               a(1) = (   2.000000   0.000000   0.000000 )
               a(2) = (   0.000000   2.000000   0.000000 )
               a(3) = (   0.000000   0.000000   2.000000 )

     reciprocal axes: (cart. coord. in units 2 pi/alat)
               b(1) = (  0.500000  0.000000  0.000000 )
               b(2) = (  0.000000  0.500000  0.000000 )
               b(3) = (  0.000000  0.000000  0.500000 )

     PseudoPot. # 1 for Ru read from file:
     /rds/homes/b/bxp912/pp/Ru.pbe-spn-kjpaw_psl.1.0.0.UPF
     MD5 check sum: 0ae1f594dea09af7be8575c3a481d1ae
     Pseudo is Projector augmented-wave + core cor, Zval = 16.0
     Generated using "atomic" code by A. Dal Corso  v.5.1
     Shape of augmentation charge: PSQ
     Using radial grid of 1233 points,  6 beta functions with:
                l(1) =   0
                l(2) =   0
                l(3) =   1
                l(4) =   1
                l(5) =   2
                l(6) =   2
     Q(r) pseudized with 0 coefficients

     atomic species   valence    mass     pseudopotential
        Ru            16.00   101.07000     Ru( 1.00)

     48 Sym. Ops., with inversion, found

   Cartesian axes

     site n.     atom                  positions (alat units)
         1           Ru  tau(   1) = (   0.0000000   0.0000000   0.0000000  )
         2           Ru  tau(   2) = (   0.5000000   0.5000000   0.5000000  )
         3           Ru  tau(   3) = (   0.0000000   0.0000000   1.0000000  )
         4           Ru  tau(   4) = (   0.5000000   0.5000000   1.5000000  )
         5           Ru  tau(   5) = (   0.0000000   1.0000000   0.0000000  )
         6           Ru  tau(   6) = (   0.5000000   1.5000000   0.5000000  )
         7           Ru  tau(   7) = (   0.0000000   1.0000000   1.0000000  )
         8           Ru  tau(   8) = (   0.5000000   1.5000000   1.5000000  )
         9           Ru  tau(   9) = (   1.0000000   0.0000000   0.0000000  )
        10           Ru  tau(  10) = (   1.5000000   0.5000000   0.5000000  )
        11           Ru  tau(  11) = (   1.0000000   0.0000000   1.0000000  )
        12           Ru  tau(  12) = (   1.5000000   0.5000000   1.5000000  )
        13           Ru  tau(  13) = (   1.0000000   1.0000000   0.0000000  )
        14           Ru  tau(  14) = (   1.5000000   1.5000000   0.5000000  )
        15           Ru  tau(  15) = (   1.0000000   1.0000000   1.0000000  )
        16           Ru  tau(  16) = (   1.5000000   1.5000000   1.5000000  )

     number of k points=    35  Marzari-Vanderbilt smearing, width (Ry)=  0.0400
                       cart. coord. in units 2pi/alat
        k(    1) = (   0.0277778   0.0277778   0.0277778), wk =   0.0219479
        k(    2) = (   0.0277778   0.0277778   0.0833333), wk =   0.0658436
        k(    3) = (   0.0277778   0.0277778   0.1388889), wk =   0.0658436
        k(    4) = (   0.0277778   0.0277778   0.1944444), wk =   0.0658436
        k(    5) = (   0.0277778   0.0277778  -0.2500000), wk =   0.0329218
        k(    6) = (   0.0277778   0.0833333   0.0833333), wk =   0.0658436
        k(    7) = (   0.0277778   0.0833333   0.1388889), wk =   0.1316872
        k(    8) = (   0.0277778   0.0833333   0.1944444), wk =   0.1316872
        k(    9) = (   0.0277778   0.0833333  -0.2500000), wk =   0.0658436
        k(   10) = (   0.0277778   0.1388889   0.1388889), wk =   0.0658436
        k(   11) = (   0.0277778   0.1388889   0.1944444), wk =   0.1316872
        k(   12) = (   0.0277778   0.1388889  -0.2500000), wk =   0.0658436
        k(   13) = (   0.0277778   0.1944444   0.1944444), wk =   0.0658436
        k(   14) = (   0.0277778   0.1944444  -0.2500000), wk =   0.0658436
        k(   15) = (   0.0277778  -0.2500000  -0.2500000), wk =   0.0164609
        k(   16) = (   0.0833333   0.0833333   0.0833333), wk =   0.0219479
        k(   17) = (   0.0833333   0.0833333   0.1388889), wk =   0.0658436
        k(   18) = (   0.0833333   0.0833333   0.1944444), wk =   0.0658436
        k(   19) = (   0.0833333   0.0833333  -0.2500000), wk =   0.0329218
        k(   20) = (   0.0833333   0.1388889   0.1388889), wk =   0.0658436
        k(   21) = (   0.0833333   0.1388889   0.1944444), wk =   0.1316872
        k(   22) = (   0.0833333   0.1388889  -0.2500000), wk =   0.0658436
        k(   23) = (   0.0833333   0.1944444   0.1944444), wk =   0.0658436
        k(   24) = (   0.0833333   0.1944444  -0.2500000), wk =   0.0658436
        k(   25) = (   0.0833333  -0.2500000  -0.2500000), wk =   0.0164609
        k(   26) = (   0.1388889   0.1388889   0.1388889), wk =   0.0219479
        k(   27) = (   0.1388889   0.1388889   0.1944444), wk =   0.0658436
        k(   28) = (   0.1388889   0.1388889  -0.2500000), wk =   0.0329218
        k(   29) = (   0.1388889   0.1944444   0.1944444), wk =   0.0658436
        k(   30) = (   0.1388889   0.1944444  -0.2500000), wk =   0.0658436
        k(   31) = (   0.1388889  -0.2500000  -0.2500000), wk =   0.0164609
        k(   32) = (   0.1944444   0.1944444   0.1944444), wk =   0.0219479
        k(   33) = (   0.1944444   0.1944444  -0.2500000), wk =   0.0329218
        k(   34) = (   0.1944444  -0.2500000  -0.2500000), wk =   0.0164609
        k(   35) = (  -0.2500000  -0.2500000  -0.2500000), wk =   0.0027435

     Initial potential from superposition of free atoms

     starting charge  255.98980, renormalised to  256.00000
     Starting wfcs are  160 randomized atomic wfcs
     Checking if some PAW data can be deallocated...

     Self-consistent Calculation

     iteration #  1     ecut=    71.00 Ry     beta= 0.10
     Davidson diagonalization with overlap
     ethr =  1.00E-02,  avg # of iterations =  2.0

     total energy              =   -6899.22403903 Ry
     estimated scf accuracy    <       9.87669305 Ry

[...]

     iteration # 20     ecut=    71.00 Ry     beta= 0.10
     Davidson diagonalization with overlap
     c_bands:  1 eigenvalues not converged
     ethr =  1.14E-07,  avg # of iterations =  4.8

[...]

     iteration # 25     ecut=    71.00 Ry     beta= 0.10
     Davidson diagonalization with overlap
     c_bands:  1 eigenvalues not converged
     c_bands:  2 eigenvalues not converged
     c_bands:  1 eigenvalues not converged
     ethr =  1.88E-09,  avg # of iterations =  8.2

[...]

     total energy              =   -6897.45234044 Ry
     estimated scf accuracy    <       0.00000135 Ry

     iteration # 27     ecut=    71.00 Ry     beta= 0.10
     Davidson diagonalization with overlap
     ethr =  5.28E-10,  avg # of iterations =  6.2

     End of self-consistent calculation

          k = 0.0278 0.0278 0.0278 (120722 PWs)   bands (ev):

   -71.8087 -71.8087 -71.8087 -71.8086 -71.8086 -71.8086 -71.8086 -71.8086
   -71.8086 -71.8086 -71.8086 -71.8086 -71.8086 -71.8086 -71.8086 -71.8086
   -41.8980 -41.8980 -41.8980 -41.8980 -41.8980 -41.8980 -41.8980 -41.8980
   -41.8980 -41.8980 -41.8980 -41.8980 -41.8980 -41.8980 -41.8980 -41.8980
   -41.8980 -41.8980 -41.8980 -41.8980 -41.8980 -41.8979 -41.8979 -41.8979
   -41.8979 -41.8979 -41.8979 -41.8979 -41.8979 -41.8979 -41.8979 -41.8979
   -41.8979 -41.8979 -41.8979 -41.8979 -41.8979 -41.8979 -41.8979 -41.8979
   -41.8979 -41.8979 -41.8979 -41.8979 -41.8979 -41.8979 -41.8979 -41.8979
    -1.5614  -1.0588  -1.0588  -1.0588  -1.0569  -1.0569  -1.0569  -1.0107
    -1.0107  -0.9945  -0.9945  -0.9945  -0.9935  -0.9935  -0.9935  -0.9534
    -0.9534  -0.9534  -0.9528  -0.9505  -0.9505  -0.9484  -0.9439  -0.9439
    -0.9392  -0.9392  -0.9392  -0.9391  -0.9391  -0.9391  -0.9284  -0.9284
    -0.9271  -0.9271  -0.9271  -0.9219  -0.9102  -0.9102  -0.9102  -0.9076
    -0.9076  -0.9076  -0.9012  -0.9012  -0.9012  -0.8971  -0.8971  -0.8971
    -0.8804  -0.8804  -0.8804  -0.8687  -0.8687  -0.8687  -0.8685  -0.8685
    -0.8685  -0.8682  -0.8682  -0.8682  -0.8587  -0.8587  -0.8581  -0.8581
    -0.8581  -0.8566  -0.8566  -0.8566  -0.8556  -0.8556  -0.8556  -0.8556
    -0.8130  -0.8105  -0.8105  -0.7975  -0.7975  -0.7975  -0.7963  -0.7963
    -0.7963  -0.6629  -0.6629  -0.6629  -0.4953  -0.4952  -0.4952  -0.0894
    -0.0894  -0.0894

[...]

          k = 0.1944-0.2500-0.2500 (120648 PWs)   bands (ev):

[...]

          k =-0.2500-0.2500-0.2500 (120648 PWs)   bands (ev):

   -71.8087 -71.8087 -71.8087 -71.8086 -71.8086 -71.8086 -71.8086 -71.8086
   -71.8086 -71.8086 -71.8086 -71.8086 -71.8086 -71.8086 -71.8086 -71.8086
   -41.8980 -41.8980 -41.8980 -41.8980 -41.8980 -41.8980 -41.8980 -41.8980
   -41.8980 -41.8980 -41.8980 -41.8980 -41.8980 -41.8980 -41.8980 -41.8980
   -41.8980 -41.8980 -41.8980 -41.8979 -41.8979 -41.8979 -41.8979 -41.8979
   -41.8979 -41.8979 -41.8979 -41.8979 -41.8979 -41.8979 -41.8979 -41.8979
   -41.8979 -41.8979 -41.8979 -41.8979 -41.8979 -41.8979 -41.8979 -41.8979
   -41.8979 -41.8979 -41.8979 -41.8979 -41.8979 -41.8979 -41.8979 -41.8979
    -1.0259  -1.0258  -1.0258  -1.0258  -1.0258  -1.0258  -1.0258  -1.0258
    -0.9724  -0.9724  -0.9724  -0.9724  -0.9724  -0.9724  -0.9724  -0.9724
    -0.9671  -0.9671  -0.9671  -0.9671  -0.9671  -0.9671  -0.9671  -0.9671
    -0.9671  -0.9671  -0.9671  -0.9671  -0.9671  -0.9671  -0.9671  -0.9671
    -0.9377  -0.9377  -0.9377  -0.9377  -0.9377  -0.9377  -0.9377  -0.9377
    -0.9377  -0.9377  -0.9377  -0.9377  -0.9377  -0.9377  -0.9377  -0.9377
    -0.8628  -0.8628  -0.8628  -0.8628  -0.8628  -0.8628  -0.8628  -0.8628
    -0.8628  -0.8628  -0.8628  -0.8628  -0.8628  -0.8628  -0.8628  -0.8628
    -0.8355  -0.8355  -0.8355  -0.8355  -0.8355  -0.8355  -0.8355  -0.8355
    -0.8355  -0.8355  -0.8355  -0.8355  -0.8355  -0.8355  -0.8355  -0.8355
    -0.6972  -0.6972  -0.6972  -0.6972  -0.6972  -0.6971  -0.6971  -0.6971
     0.1805   0.1805

     the Fermi energy is    -0.6458 ev

!    total energy              =   -6897.45234206 Ry

     total all-electron energy =   -144985.647512 Ry
     estimated scf accuracy    <       0.00000072 Ry
     smearing contrib. (-TS)   =      -0.56372037 Ry
     internal energy E=F+TS    =   -6896.88862169 Ry

     The total energy is F=E-TS. E is the sum of the following terms:
     one-electron contribution =   -2682.98868425 Ry
     hartree contribution      =    1343.53120843 Ry
     xc contribution           =    -458.78998244 Ry
     ewald contribution        =   -1304.22040664 Ry
     one-center paw contrib.   =   -3794.42075679 Ry

     convergence has been achieved in  27 iterations

     Forces acting on atoms (cartesian axes, Ry/au):

     atom    1 type  1   force =     0.00000000    0.00000000    0.00000000
     atom    2 type  1   force =    -0.00000654   -0.00000654   -0.00000654
     atom    3 type  1   force =     0.00000000    0.00000000    0.00000000
     atom    4 type  1   force =    -0.00000654   -0.00000654    0.00000654
     atom    5 type  1   force =     0.00000000    0.00000000    0.00000000
     atom    6 type  1   force =    -0.00000654    0.00000654   -0.00000654
     atom    7 type  1   force =     0.00000000    0.00000000    0.00000000
     atom    8 type  1   force =    -0.00000654    0.00000654    0.00000654
     atom    9 type  1   force =     0.00000000    0.00000000    0.00000000
     atom   10 type  1   force =     0.00000654   -0.00000654   -0.00000654
     atom   11 type  1   force =     0.00000000    0.00000000    0.00000000
     atom   12 type  1   force =     0.00000654   -0.00000654    0.00000654
     atom   13 type  1   force =     0.00000000    0.00000000    0.00000000
     atom   14 type  1   force =     0.00000654    0.00000654   -0.00000654
     atom   15 type  1   force =     0.00000000    0.00000000    0.00000000
     atom   16 type  1   force =     0.00000654    0.00000654    0.00000654

     Total force =     0.000032     Total SCF correction =     0.000155
     SCF correction compared to forces is large: reduce conv_thr to get better values

     Computing stress (Cartesian axis) and pressure

          total   stress  (Ry/bohr**3)                   (kbar)     P=      -14.40
  -0.00009791   0.00000000   0.00000000          -14.40        0.00        0.00
   0.00000000  -0.00009791   0.00000000            0.00      -14.40        0.00
   0.00000000   0.00000000  -0.00009791            0.00        0.00      -14.40

     Writing output data file /scratch/cWKIdTCRuFWYLhpJ.save/

     General routines

     Parallel routines

   This run was terminated on:   1:13:59  26Nov2021

   JOB DONE.