     Program PWSCF v.6.7MaX starts on 25Nov2021 at 23:40:49

     R & G space division:  proc/nbgrp/npool/nimage =      72
     Reading input from bcc_1.in
Warning: card &CELL ignored
Warning: card CELL_DYNAMICS = 'BFGS', ignored
Warning: card CELL_FACTOR = 2.0, ignored
Warning: card PRESS = 0.0, ignored
Warning: card / ignored

     Current dimensions of program PWSCF are:
     Max number of different atomic species (ntypx) = 10
     Max number of k-points (npk) =  40000
     Max angular momentum in pseudopotentials (lmaxx) =  3
     file Ru.pbe-spn-kjpaw_psl.1.0.0.UPF: wavefunction(s)  4D renormalized

     Subspace diagonalization in iterative solution of the eigenvalue problem:
     one sub-group per band group will be used

     Found symmetry operation: I + (  0.2500  0.2500  0.2500)
     This is a supercell, fractional translations are disabled
     Message from routine setup:
     using ibrav=0 with symmetry is DISCOURAGED, use correct ibrav instead

     bravais-lattice index     =            0
     lattice parameter (alat)  =      11.4293  a.u.
     unit-cell volume          =    1492.9890 (a.u.)^3
     number of atoms/cell      =           16
     number of atomic types    =            1
     number of electrons       =       256.00
     number of Kohn-Sham states=          154
     kinetic-energy cutoff     =      71.0000  Ry
     charge density cutoff     =     430.0000  Ry
     scf convergence threshold =      1.0E-06
     mixing beta               =       0.1000
     number of iterations used =           10  TF        mixing
     Exchange-correlation= SLA  PW   PBX  PBC
                           (   1   4   3   4   0   0   0)

     celldm(1)=  11.429280  celldm(2)=   0.000000  celldm(3)=   0.000000
     celldm(4)=   0.000000  celldm(5)=   0.000000  celldm(6)=   0.000000

     crystal axes: (cart. coord. in units of alat)
               a(1) = (   1.000000   0.000000   0.000000 )
               a(2) = (   0.000000   1.000000   0.000000 )
               a(3) = (   0.000000   0.000000   1.000000 )

     reciprocal axes: (cart. coord. in units 2 pi/alat)
               b(1) = (  1.000000  0.000000  0.000000 )
               b(2) = (  0.000000  1.000000  0.000000 )
               b(3) = (  0.000000  0.000000  1.000000 )

     PseudoPot. # 1 for Ru read from file:
     /rds/homes/b/bxp912/pp/Ru.pbe-spn-kjpaw_psl.1.0.0.UPF
     MD5 check sum: 0ae1f594dea09af7be8575c3a481d1ae
     Pseudo is Projector augmented-wave + core cor, Zval = 16.0
     Generated using "atomic" code by A. Dal Corso  v.5.1
     Shape of augmentation charge: PSQ
     Using radial grid of 1233 points,  6 beta functions with:
                l(1) =   0
                l(2) =   0
                l(3) =   1
                l(4) =   1
                l(5) =   2
                l(6) =   2
     Q(r) pseudized with 0 coefficients

     atomic species   valence    mass     pseudopotential
        Ru            16.00   101.07000     Ru( 1.00)

     48 Sym. Ops., with inversion, found

   Cartesian axes

     site n.     atom                  positions (alat units)
         1           Ru  tau(   1) = (   0.0000000   0.0000000   0.0000000  )
         2           Ru  tau(   2) = (   0.2500000   0.2500000   0.2500000  )
         3           Ru  tau(   3) = (   0.0000000   0.0000000   0.5000000  )
         4           Ru  tau(   4) = (   0.2500000   0.2500000   0.7500000  )
         5           Ru  tau(   5) = (   0.0000000   0.5000000   0.0000000  )
         6           Ru  tau(   6) = (   0.2500000   0.7500000   0.2500000  )
         7           Ru  tau(   7) = (   0.0000000   0.5000000   0.5000000  )
         8           Ru  tau(   8) = (   0.2500000   0.7500000   0.7500000  )
         9           Ru  tau(   9) = (   0.5000000   0.0000000   0.0000000  )
        10           Ru  tau(  10) = (   0.7500000   0.2500000   0.2500000  )
        11           Ru  tau(  11) = (   0.5000000   0.0000000   0.5000000  )
        12           Ru  tau(  12) = (   0.7500000   0.2500000   0.7500000  )
        13           Ru  tau(  13) = (   0.5000000   0.5000000   0.0000000  )
        14           Ru  tau(  14) = (   0.7500000   0.7500000   0.2500000  )
        15           Ru  tau(  15) = (   0.5000000   0.5000000   0.5000000  )
        16           Ru  tau(  16) = (   0.7500000   0.7500000   0.7500000  )

     number of k points=    35  Marzari-Vanderbilt smearing, width (Ry)=  0.0400
                       cart. coord. in units 2pi/alat
        k(    1) = (   0.0555556   0.0555556   0.0555556), wk =   0.0219479
        k(    2) = (   0.0555556   0.0555556   0.1666667), wk =   0.0658436
        k(    3) = (   0.0555556   0.0555556   0.2777778), wk =   0.0658436
        k(    4) = (   0.0555556   0.0555556   0.3888889), wk =   0.0658436
        k(    5) = (   0.0555556   0.0555556  -0.5000000), wk =   0.0329218
        k(    6) = (   0.0555556   0.1666667   0.1666667), wk =   0.0658436
        k(    7) = (   0.0555556   0.1666667   0.2777778), wk =   0.1316872
        k(    8) = (   0.0555556   0.1666667   0.3888889), wk =   0.1316872
        k(    9) = (   0.0555556   0.1666667  -0.5000000), wk =   0.0658436
        k(   10) = (   0.0555556   0.2777778   0.2777778), wk =   0.0658436
        k(   11) = (   0.0555556   0.2777778   0.3888889), wk =   0.1316872
        k(   12) = (   0.0555556   0.2777778  -0.5000000), wk =   0.0658436
        k(   13) = (   0.0555556   0.3888889   0.3888889), wk =   0.0658436
        k(   14) = (   0.0555556   0.3888889  -0.5000000), wk =   0.0658436
        k(   15) = (   0.0555556  -0.5000000  -0.5000000), wk =   0.0164609
        k(   16) = (   0.1666667   0.1666667   0.1666667), wk =   0.0219479
        k(   17) = (   0.1666667   0.1666667   0.2777778), wk =   0.0658436
        k(   18) = (   0.1666667   0.1666667   0.3888889), wk =   0.0658436
        k(   19) = (   0.1666667   0.1666667  -0.5000000), wk =   0.0329218
        k(   20) = (   0.1666667   0.2777778   0.2777778), wk =   0.0658436
        k(   21) = (   0.1666667   0.2777778   0.3888889), wk =   0.1316872
        k(   22) = (   0.1666667   0.2777778  -0.5000000), wk =   0.0658436
        k(   23) = (   0.1666667   0.3888889   0.3888889), wk =   0.0658436
        k(   24) = (   0.1666667   0.3888889  -0.5000000), wk =   0.0658436
        k(   25) = (   0.1666667  -0.5000000  -0.5000000), wk =   0.0164609
        k(   26) = (   0.2777778   0.2777778   0.2777778), wk =   0.0219479
        k(   27) = (   0.2777778   0.2777778   0.3888889), wk =   0.0658436
        k(   28) = (   0.2777778   0.2777778  -0.5000000), wk =   0.0329218
        k(   29) = (   0.2777778   0.3888889   0.3888889), wk =   0.0658436
        k(   30) = (   0.2777778   0.3888889  -0.5000000), wk =   0.0658436
        k(   31) = (   0.2777778  -0.5000000  -0.5000000), wk =   0.0164609
        k(   32) = (   0.3888889   0.3888889   0.3888889), wk =   0.0219479
        k(   33) = (   0.3888889   0.3888889  -0.5000000), wk =   0.0329218
        k(   34) = (   0.3888889  -0.5000000  -0.5000000), wk =   0.0164609
        k(   35) = (  -0.5000000  -0.5000000  -0.5000000), wk =   0.0027435

     Check: negative core charge=   -0.000002

     Initial potential from superposition of free atoms

     starting charge  255.98980, renormalised to  256.00000
     Starting wfcs are  160 randomized atomic wfcs
     Checking if some PAW data can be deallocated...

     Self-consistent Calculation

     iteration #  1     ecut=    71.00 Ry     beta= 0.10
     Davidson diagonalization with overlap
     ethr =  1.00E-02,  avg # of iterations =  3.4

     Threshold (ethr) on eigenvalues was too large:
     Diagonalizing with lowered threshold

     Davidson diagonalization with overlap
     ethr =  6.29E-05,  avg # of iterations =  4.4

     total energy              =   -6906.10745828 Ry
     estimated scf accuracy    <       0.23619017 Ry

[...]

     total energy              =   -6906.05268527 Ry
     estimated scf accuracy    <       0.00000168 Ry

     iteration # 14     ecut=    71.00 Ry     beta= 0.10
     Davidson diagonalization with overlap
     ethr =  5.75E-10,  avg # of iterations =  2.0

     End of self-consistent calculation

          k = 0.0556 0.0556 0.0556 ( 15128 PWs)   bands (ev):

   -49.7985 -49.6461 -49.6461 -49.6461 -49.6206 -49.6206 -49.6206 -49.6190
   -49.6190 -49.6190 -49.6182 -49.6182 -49.6182 -49.6067 -49.6065 -49.4896
   -20.2150 -20.2150 -20.2150 -20.2099 -20.2099 -20.2099 -19.9202 -19.9202
   -19.9090 -19.7952 -19.7858 -19.7858 -19.7858 -19.7520 -19.7520 -19.7245
   -19.7245 -19.7245 -19.6635 -19.6635 -19.6197 -19.5850 -19.5850 -19.5850
   -19.5648 -19.5648 -19.5648 -19.5394 -19.5394 -19.5394 -19.5338 -19.5338
   -19.5338 -19.5220 -19.5220 -19.5220 -19.5030 -19.5030 -19.5030 -19.2136
   -19.2113 -19.2113 -19.2113 -19.2058 -19.2058 -19.2058 -19.2016 -19.2016
    15.3733  17.0402  17.0402  17.1379  17.1379  17.1379  17.1500  17.1500
    17.1500  18.5857  18.5857  18.5857  18.7491  18.7491  18.7491  18.7697
    18.7697  18.7697  18.7911  18.7911  18.7911  19.2136  19.3644  19.3644
    19.3644  19.3785  19.3785  19.6772  19.6772  19.8056  19.8651  19.8651
    19.8651  20.4997  20.4997  20.5689  21.0847  21.0847  21.0847  21.2238
    21.2238  21.2238  21.3720  21.3720  21.3720  21.5115  21.5115  21.5115
    22.5121  22.5121  22.5121  22.9102  22.9102  22.9102  23.2149  23.2149
    23.2149  23.2385  23.2385  23.2385  23.2542  23.2542  23.3406  23.3406
    23.3406  23.7328  23.7328  23.7328  23.8203  23.8203  23.8204  23.8204
    24.3046  24.3046  24.3046  24.7917  24.7917  24.7917  24.9512  24.9512
    24.9512  25.0268  25.1773  25.1773  25.5339  25.5339  25.5339  25.9131
    25.9131  25.9131

[...]

          k = 0.3889-0.5000-0.5000 ( 15088 PWs)   bands (ev):

[...]

          k =-0.5000-0.5000-0.5000 ( 15192 PWs)   bands (ev):

   -49.6812 -49.6812 -49.6812 -49.6812 -49.6812 -49.6812 -49.6812 -49.6812
   -49.5705 -49.5705 -49.5705 -49.5705 -49.5704 -49.5704 -49.5704 -49.5704
   -19.9412 -19.9412 -19.9412 -19.9412 -19.9412 -19.9412 -19.9412 -19.9412
   -19.9412 -19.9412 -19.9412 -19.9412 -19.9412 -19.9412 -19.9412 -19.9412
   -19.8697 -19.8697 -19.8697 -19.8697 -19.8697 -19.8697 -19.8697 -19.8697
   -19.4001 -19.4001 -19.4001 -19.4001 -19.4001 -19.4001 -19.4001 -19.4001
   -19.3262 -19.3262 -19.3262 -19.3262 -19.3262 -19.3262 -19.3262 -19.3262
   -19.3262 -19.3262 -19.3262 -19.3262 -19.3262 -19.3262 -19.3262 -19.3262
    18.3777  18.3777  18.3777  18.3777  18.3777  18.3777  18.3777  18.3777
    19.1535  19.1535  19.1535  19.1535  19.1535  19.1535  19.1535  19.1535
    19.1535  19.1535  19.1535  19.1535  19.1535  19.1535  19.1535  19.1535
    19.3436  19.3436  19.3436  19.3436  19.3436  19.3436  19.3436  19.3436
    19.3436  19.3436  19.3436  19.3436  19.3436  19.3436  19.3436  19.3436
    19.3474  19.3474  19.3474  19.3474  19.3474  19.3474  19.3474  19.3474
    23.2648  23.2648  23.2648  23.2648  23.2648  23.2648  23.2648  23.2648
    23.2648  23.2648  23.2648  23.2648  23.2648  23.2648  23.2648  23.2648
    23.8702  23.8702  23.8702  23.8702  23.8702  23.8702  23.8702  23.8702
    23.8702  23.8702  23.8702  23.8702  23.8702  23.8702  23.8702  23.8702
    24.8383  24.8383  24.8383  24.8383  24.8383  24.8383  24.8383  24.8383
    33.0089  33.0089

     the Fermi energy is    23.3756 ev

!    total energy              =   -6906.05268622 Ry

     total all-electron energy =   -144994.247856 Ry
     estimated scf accuracy    <       0.00000001 Ry
     smearing contrib. (-TS)   =      -0.04391947 Ry
     internal energy E=F+TS    =   -6906.00876674 Ry

     The total energy is F=E-TS. E is the sum of the following terms:
     one-electron contribution =    -497.67891365 Ry
     hartree contribution      =     459.17334913 Ry
     xc contribution           =    -464.33475562 Ry
     ewald contribution        =   -2608.44081328 Ry
     one-center paw contrib.   =   -3794.72763333 Ry

     convergence has been achieved in  14 iterations

     Forces acting on atoms (cartesian axes, Ry/au):

     atom    1 type  1   force =     0.00000000    0.00000000    0.00000000
     atom    2 type  1   force =     0.00000801    0.00000801    0.00000801
     atom    3 type  1   force =     0.00000000    0.00000000    0.00000000
     atom    4 type  1   force =     0.00000801    0.00000801   -0.00000801
     atom    5 type  1   force =     0.00000000    0.00000000    0.00000000
     atom    6 type  1   force =     0.00000801   -0.00000801    0.00000801
     atom    7 type  1   force =     0.00000000    0.00000000    0.00000000
     atom    8 type  1   force =     0.00000801   -0.00000801   -0.00000801
     atom    9 type  1   force =     0.00000000    0.00000000    0.00000000
     atom   10 type  1   force =    -0.00000801    0.00000801    0.00000801
     atom   11 type  1   force =     0.00000000    0.00000000    0.00000000
     atom   12 type  1   force =    -0.00000801    0.00000801   -0.00000801
     atom   13 type  1   force =     0.00000000    0.00000000    0.00000000
     atom   14 type  1   force =    -0.00000801   -0.00000801    0.00000801
     atom   15 type  1   force =     0.00000000    0.00000000    0.00000000
     atom   16 type  1   force =    -0.00000801   -0.00000801   -0.00000801

     Total force =     0.000039     Total SCF correction =     0.000010
     SCF correction compared to forces is large: reduce conv_thr to get better values

     Computing stress (Cartesian axis) and pressure

          total   stress  (Ry/bohr**3)                   (kbar)     P=       86.35
   0.00058700   0.00000000   0.00000000           86.35        0.00        0.00
   0.00000000   0.00058700   0.00000000            0.00       86.35        0.00
   0.00000000   0.00000000   0.00058700            0.00        0.00       86.35

     Writing output data file /scratch/eMFzZtaOGFceIUsf.save/

     General routines

     Parallel routines

   This run was terminated on:  23:43:47  25Nov2021

   JOB DONE.