     Program PWSCF v.6.7MaX starts on 25Nov2021 at 23:51: 2

     R & G space division:  proc/nbgrp/npool/nimage =      72
     Reading input from bcc_4.in
Warning: card &CELL ignored
Warning: card CELL_DYNAMICS = 'BFGS', ignored
Warning: card CELL_FACTOR = 2.0, ignored
Warning: card PRESS = 0.0, ignored
Warning: card / ignored

     Current dimensions of program PWSCF are:
     Max number of different atomic species (ntypx) = 10
     Max number of k-points (npk) =  40000
     Max angular momentum in pseudopotentials (lmaxx) =  3
     file Ru.pbe-spn-kjpaw_psl.1.0.0.UPF: wavefunction(s)  4D renormalized

     Subspace diagonalization in iterative solution of the eigenvalue problem:
     one sub-group per band group will be used

     Found symmetry operation: I + (  0.2500  0.2500  0.2500)
     This is a supercell, fractional translations are disabled
     Message from routine setup:
     using ibrav=0 with symmetry is DISCOURAGED, use correct ibrav instead

     bravais-lattice index     =            0
     lattice parameter (alat)  =      11.4293  a.u.
     unit-cell volume          =    3280.0969 (a.u.)^3
     number of atoms/cell      =           16
     number of atomic types    =            1
     number of electrons       =       256.00
     number of Kohn-Sham states=          154
     kinetic-energy cutoff     =      71.0000  Ry
     charge density cutoff     =     430.0000  Ry
     scf convergence threshold =      1.0E-06
     mixing beta               =       0.1000
     number of iterations used =           10  TF        mixing
     Exchange-correlation= SLA  PW   PBX  PBC
                           (   1   4   3   4   0   0   0)

     celldm(1)=  11.429280  celldm(2)=   0.000000  celldm(3)=   0.000000
     celldm(4)=   0.000000  celldm(5)=   0.000000  celldm(6)=   0.000000

     crystal axes: (cart. coord. in units of alat)
               a(1) = (   1.300000   0.000000   0.000000 )
               a(2) = (   0.000000   1.300000   0.000000 )
               a(3) = (   0.000000   0.000000   1.300000 )

     reciprocal axes: (cart. coord. in units 2 pi/alat)
               b(1) = (  0.769231  0.000000  0.000000 )
               b(2) = (  0.000000  0.769231  0.000000 )
               b(3) = (  0.000000  0.000000  0.769231 )

     PseudoPot. # 1 for Ru read from file:
     /rds/homes/b/bxp912/pp/Ru.pbe-spn-kjpaw_psl.1.0.0.UPF
     MD5 check sum: 0ae1f594dea09af7be8575c3a481d1ae
     Pseudo is Projector augmented-wave + core cor, Zval = 16.0
     Generated using "atomic" code by A. Dal Corso  v.5.1
     Shape of augmentation charge: PSQ
     Using radial grid of 1233 points,  6 beta functions with:
                l(1) =   0
                l(2) =   0
                l(3) =   1
                l(4) =   1
                l(5) =   2
                l(6) =   2
     Q(r) pseudized with 0 coefficients

     atomic species   valence    mass     pseudopotential
        Ru            16.00   101.07000     Ru( 1.00)

     48 Sym. Ops., with inversion, found

   Cartesian axes

     site n.     atom                  positions (alat units)
         1           Ru  tau(   1) = (   0.0000000   0.0000000   0.0000000  )
         2           Ru  tau(   2) = (   0.3250000   0.3250000   0.3250000  )
         3           Ru  tau(   3) = (   0.0000000   0.0000000   0.6500000  )
         4           Ru  tau(   4) = (   0.3250000   0.3250000   0.9750000  )
         5           Ru  tau(   5) = (   0.0000000   0.6500000   0.0000000  )
         6           Ru  tau(   6) = (   0.3250000   0.9750000   0.3250000  )
         7           Ru  tau(   7) = (   0.0000000   0.6500000   0.6500000  )
         8           Ru  tau(   8) = (   0.3250000   0.9750000   0.9750000  )
         9           Ru  tau(   9) = (   0.6500000   0.0000000   0.0000000  )
        10           Ru  tau(  10) = (   0.9750000   0.3250000   0.3250000  )
        11           Ru  tau(  11) = (   0.6500000   0.0000000   0.6500000  )
        12           Ru  tau(  12) = (   0.9750000   0.3250000   0.9750000  )
        13           Ru  tau(  13) = (   0.6500000   0.6500000   0.0000000  )
        14           Ru  tau(  14) = (   0.9750000   0.9750000   0.3250000  )
        15           Ru  tau(  15) = (   0.6500000   0.6500000   0.6500000  )
        16           Ru  tau(  16) = (   0.9750000   0.9750000   0.9750000  )

     number of k points=    35  Marzari-Vanderbilt smearing, width (Ry)=  0.0400
                       cart. coord. in units 2pi/alat
        k(    1) = (   0.0427350   0.0427350   0.0427350), wk =   0.0219479
        k(    2) = (   0.0427350   0.0427350   0.1282051), wk =   0.0658436
        k(    3) = (   0.0427350   0.0427350   0.2136752), wk =   0.0658436
        k(    4) = (   0.0427350   0.0427350   0.2991453), wk =   0.0658436
        k(    5) = (   0.0427350   0.0427350  -0.3846154), wk =   0.0329218
        k(    6) = (   0.0427350   0.1282051   0.1282051), wk =   0.0658436
        k(    7) = (   0.0427350   0.1282051   0.2136752), wk =   0.1316872
        k(    8) = (   0.0427350   0.1282051   0.2991453), wk =   0.1316872
        k(    9) = (   0.0427350   0.1282051  -0.3846154), wk =   0.0658436
        k(   10) = (   0.0427350   0.2136752   0.2136752), wk =   0.0658436
        k(   11) = (   0.0427350   0.2136752   0.2991453), wk =   0.1316872
        k(   12) = (   0.0427350   0.2136752  -0.3846154), wk =   0.0658436
        k(   13) = (   0.0427350   0.2991453   0.2991453), wk =   0.0658436
        k(   14) = (   0.0427350   0.2991453  -0.3846154), wk =   0.0658436
        k(   15) = (   0.0427350  -0.3846154  -0.3846154), wk =   0.0164609
        k(   16) = (   0.1282051   0.1282051   0.1282051), wk =   0.0219479
        k(   17) = (   0.1282051   0.1282051   0.2136752), wk =   0.0658436
        k(   18) = (   0.1282051   0.1282051   0.2991453), wk =   0.0658436
        k(   19) = (   0.1282051   0.1282051  -0.3846154), wk =   0.0329218
        k(   20) = (   0.1282051   0.2136752   0.2136752), wk =   0.0658436
        k(   21) = (   0.1282051   0.2136752   0.2991453), wk =   0.1316872
        k(   22) = (   0.1282051   0.2136752  -0.3846154), wk =   0.0658436
        k(   23) = (   0.1282051   0.2991453   0.2991453), wk =   0.0658436
        k(   24) = (   0.1282051   0.2991453  -0.3846154), wk =   0.0658436
        k(   25) = (   0.1282051  -0.3846154  -0.3846154), wk =   0.0164609
        k(   26) = (   0.2136752   0.2136752   0.2136752), wk =   0.0219479
        k(   27) = (   0.2136752   0.2136752   0.2991453), wk =   0.0658436
        k(   28) = (   0.2136752   0.2136752  -0.3846154), wk =   0.0329218
        k(   29) = (   0.2136752   0.2991453   0.2991453), wk =   0.0658436
        k(   30) = (   0.2136752   0.2991453  -0.3846154), wk =   0.0658436
        k(   31) = (   0.2136752  -0.3846154  -0.3846154), wk =   0.0164609
        k(   32) = (   0.2991453   0.2991453   0.2991453), wk =   0.0219479
        k(   33) = (   0.2991453   0.2991453  -0.3846154), wk =   0.0329218
        k(   34) = (   0.2991453  -0.3846154  -0.3846154), wk =   0.0164609
        k(   35) = (  -0.3846154  -0.3846154  -0.3846154), wk =   0.0027435

     Check: negative core charge=   -0.000002

     Initial potential from superposition of free atoms

     starting charge  255.98980, renormalised to  256.00000
     Starting wfcs are  160 randomized atomic wfcs
     Checking if some PAW data can be deallocated...

     Self-consistent Calculation

     iteration #  1     ecut=    71.00 Ry     beta= 0.10
     Davidson diagonalization with overlap
     ethr =  1.00E-02,  avg # of iterations =  3.7

     Threshold (ethr) on eigenvalues was too large:
     Diagonalizing with lowered threshold

     Davidson diagonalization with overlap
     ethr =  3.27E-04,  avg # of iterations =  4.3

     total energy              =   -6902.20303803 Ry
     estimated scf accuracy    <       0.46835455 Ry

[...]

     total energy              =   -6902.15491871 Ry
     estimated scf accuracy    <       0.00000155 Ry

     iteration # 13     ecut=    71.00 Ry     beta= 0.10
     Davidson diagonalization with overlap
     ethr =  6.04E-10,  avg # of iterations =  3.9

     End of self-consistent calculation

          k = 0.0427 0.0427 0.0427 ( 33101 PWs)   bands (ev):

   -64.2958 -64.2919 -64.2919 -64.2919 -64.2915 -64.2914 -64.2914 -64.2914
   -64.2913 -64.2913 -64.2913 -64.2912 -64.2912 -64.2912 -64.2911 -64.2876
   -34.2799 -34.2799 -34.2799 -34.2796 -34.2796 -34.2796 -34.2681 -34.2681
   -34.2674 -34.2566 -34.2560 -34.2560 -34.2560 -34.2543 -34.2543 -34.2524
   -34.2524 -34.2523 -34.2494 -34.2494 -34.2483 -34.2482 -34.2482 -34.2469
   -34.2467 -34.2467 -34.2467 -34.2462 -34.2462 -34.2461 -34.2458 -34.2458
   -34.2458 -34.2445 -34.2445 -34.2445 -34.2430 -34.2430 -34.2430 -34.2261
   -34.2254 -34.2254 -34.2247 -34.2247 -34.2247 -34.2245 -34.2244 -34.2244
     3.9254   5.6885   5.6885   5.6885   5.6993   5.6993   5.6993   5.8957
     5.8957   5.8958   5.9135   5.9135   6.1299   6.1299   6.1299   6.3436
     6.3436   6.3436   6.3503   6.3503   6.3503   6.4636   6.5196   6.5196
     6.6161   6.6161   6.6539   6.6909   6.6909   6.6909   6.8366   6.8366
     6.8366   6.8463   6.8463   6.8666   7.0704   7.0704   7.0704   7.1178
     7.1179   7.1179   7.1632   7.1632   7.1632   7.2056   7.2056   7.2056
     7.4809   7.4809   7.4809   7.5978   7.5978   7.5978   7.6405   7.6405
     7.6406   7.6465   7.6465   7.6466   7.6987   7.6987   7.7353   7.7353
     7.7353   7.7779   7.7779   7.7779   7.7945   7.7945   7.7946   7.7946
     8.1650   8.1893   8.1893   8.1893   8.1983   8.1983   8.3063   8.3063
     8.3063   8.3262   8.3262   8.3262   8.4832   8.4832   8.4832   9.2500
     9.2500   9.2500

[...]

          k = 0.2991-0.3846-0.3846 ( 33144 PWs)   bands (ev):

[...]

          k =-0.3846-0.3846-0.3846 ( 33168 PWs)   bands (ev):

   -64.2931 -64.2930 -64.2930 -64.2930 -64.2930 -64.2930 -64.2930 -64.2929
   -64.2901 -64.2900 -64.2900 -64.2900 -64.2900 -64.2900 -64.2900 -64.2899
   -34.2667 -34.2667 -34.2667 -34.2667 -34.2667 -34.2667 -34.2666 -34.2666
   -34.2666 -34.2666 -34.2666 -34.2666 -34.2666 -34.2666 -34.2666 -34.2666
   -34.2615 -34.2615 -34.2615 -34.2615 -34.2615 -34.2615 -34.2615 -34.2615
   -34.2373 -34.2373 -34.2373 -34.2373 -34.2373 -34.2373 -34.2372 -34.2372
   -34.2319 -34.2319 -34.2319 -34.2319 -34.2319 -34.2319 -34.2319 -34.2319
   -34.2319 -34.2319 -34.2319 -34.2319 -34.2319 -34.2318 -34.2318 -34.2318
     5.6429   5.6429   5.6429   5.6429   5.6429   5.6429   5.6429   5.6430
     6.5145   6.5145   6.5145   6.5145   6.5145   6.5145   6.5145   6.5145
     6.5409   6.5409   6.5409   6.5409   6.5409   6.5409   6.5409   6.5409
     6.5409   6.5409   6.5409   6.5409   6.5409   6.5409   6.5409   6.5409
     6.5493   6.5493   6.5493   6.5494   6.5494   6.5494   6.5494   6.5494
     6.5494   6.5494   6.5494   6.5494   6.5494   6.5494   6.5494   6.5494
     7.6820   7.6820   7.6820   7.6820   7.6820   7.6820   7.6820   7.6820
     7.6820   7.6820   7.6820   7.6820   7.6820   7.6820   7.6820   7.6820
     7.8680   7.8680   7.8680   7.8680   7.8680   7.8680   7.8680   7.8681
     7.8681   7.8681   7.8681   7.8681   7.8681   7.8681   7.8681   7.8681
     8.2223   8.2223   8.2223   8.2223   8.2223   8.2223   8.2223   8.2223
    12.3909  12.3909

     the Fermi energy is     7.7393 ev

!    total energy              =   -6902.15492010 Ry

     total all-electron energy =   -144990.350090 Ry
     estimated scf accuracy    <       0.00000021 Ry
     smearing contrib. (-TS)   =      -0.11252712 Ry
     internal energy E=F+TS    =   -6902.04239298 Ry

     The total energy is F=E-TS. E is the sum of the following terms:
     one-electron contribution =   -1434.16507298 Ry
     hartree contribution      =     790.08246899 Ry
     xc contribution           =    -456.99460508 Ry
     ewald contribution        =   -2006.49293329 Ry
     one-center paw contrib.   =   -3794.47225061 Ry

     convergence has been achieved in  13 iterations

     Forces acting on atoms (cartesian axes, Ry/au):

     atom    1 type  1   force =     0.00000000    0.00000000    0.00000000
     atom    2 type  1   force =     0.00002087    0.00002087    0.00002087
     atom    3 type  1   force =     0.00000000    0.00000000    0.00000000
     atom    4 type  1   force =     0.00002087    0.00002087   -0.00002087
     atom    5 type  1   force =     0.00000000    0.00000000    0.00000000
     atom    6 type  1   force =     0.00002087   -0.00002087    0.00002087
     atom    7 type  1   force =     0.00000000    0.00000000    0.00000000
     atom    8 type  1   force =     0.00002087   -0.00002087   -0.00002087
     atom    9 type  1   force =     0.00000000    0.00000000    0.00000000
     atom   10 type  1   force =    -0.00002087    0.00002087    0.00002087
     atom   11 type  1   force =     0.00000000    0.00000000    0.00000000
     atom   12 type  1   force =    -0.00002087    0.00002087   -0.00002087
     atom   13 type  1   force =     0.00000000    0.00000000    0.00000000
     atom   14 type  1   force =    -0.00002087   -0.00002087    0.00002087
     atom   15 type  1   force =     0.00000000    0.00000000    0.00000000
     atom   16 type  1   force =    -0.00002087   -0.00002087   -0.00002087

     Total force =     0.000102     Total SCF correction =     0.000450
     SCF correction compared to forces is large: reduce conv_thr to get better values

     Computing stress (Cartesian axis) and pressure

          total   stress  (Ry/bohr**3)                   (kbar)     P=     -298.42
  -0.00202863   0.00000000   0.00000000         -298.42        0.00        0.00
   0.00000000  -0.00202863   0.00000000            0.00     -298.42        0.00
   0.00000000   0.00000000  -0.00202863            0.00        0.00     -298.42

     Writing output data file /scratch/vfAeAVnVflpCFMrU.save/

     General routines

     Parallel routines

   This run was terminated on:  23:55:11  25Nov2021

   JOB DONE.