     Program PWSCF v.6.7MaX starts on 26Nov2021 at  0:14:31

     R & G space division:  proc/nbgrp/npool/nimage =      72
     Reading input from bcc_8.in
Warning: card &CELL ignored
Warning: card CELL_DYNAMICS = 'BFGS', ignored
Warning: card CELL_FACTOR = 2.0, ignored
Warning: card PRESS = 0.0, ignored
Warning: card / ignored

     Current dimensions of program PWSCF are:
     Max number of different atomic species (ntypx) = 10
     Max number of k-points (npk) =  40000
     Max angular momentum in pseudopotentials (lmaxx) =  3
     file Ru.pbe-spn-kjpaw_psl.1.0.0.UPF: wavefunction(s)  4D renormalized

     Subspace diagonalization in iterative solution of the eigenvalue problem:
     one sub-group per band group will be used

     Found symmetry operation: I + (  0.2500  0.2500  0.2500)
     This is a supercell, fractional translations are disabled
     Message from routine setup:
     using ibrav=0 with symmetry is DISCOURAGED, use correct ibrav instead

     bravais-lattice index     =            0
     lattice parameter (alat)  =      11.4293  a.u.
     unit-cell volume          =    7335.0551 (a.u.)^3
     number of atoms/cell      =           16
     number of atomic types    =            1
     number of electrons       =       256.00
     number of Kohn-Sham states=          154
     kinetic-energy cutoff     =      71.0000  Ry
     charge density cutoff     =     430.0000  Ry
     scf convergence threshold =      1.0E-06
     mixing beta               =       0.1000
     number of iterations used =           10  TF        mixing
     Exchange-correlation= SLA  PW   PBX  PBC
                           (   1   4   3   4   0   0   0)

     celldm(1)=  11.429280  celldm(2)=   0.000000  celldm(3)=   0.000000
     celldm(4)=   0.000000  celldm(5)=   0.000000  celldm(6)=   0.000000

     crystal axes: (cart. coord. in units of alat)
               a(1) = (   1.700000   0.000000   0.000000 )
               a(2) = (   0.000000   1.700000   0.000000 )
               a(3) = (   0.000000   0.000000   1.700000 )

     reciprocal axes: (cart. coord. in units 2 pi/alat)
               b(1) = (  0.588235  0.000000  0.000000 )
               b(2) = (  0.000000  0.588235  0.000000 )
               b(3) = (  0.000000  0.000000  0.588235 )

     PseudoPot. # 1 for Ru read from file:
     /rds/homes/b/bxp912/pp/Ru.pbe-spn-kjpaw_psl.1.0.0.UPF
     MD5 check sum: 0ae1f594dea09af7be8575c3a481d1ae
     Pseudo is Projector augmented-wave + core cor, Zval = 16.0
     Generated using "atomic" code by A. Dal Corso  v.5.1
     Shape of augmentation charge: PSQ
     Using radial grid of 1233 points,  6 beta functions with:
                l(1) =   0
                l(2) =   0
                l(3) =   1
                l(4) =   1
                l(5) =   2
                l(6) =   2
     Q(r) pseudized with 0 coefficients

     atomic species   valence    mass     pseudopotential
        Ru            16.00   101.07000     Ru( 1.00)

     48 Sym. Ops., with inversion, found

   Cartesian axes

     site n.     atom                  positions (alat units)
         1           Ru  tau(   1) = (   0.0000000   0.0000000   0.0000000  )
         2           Ru  tau(   2) = (   0.4250000   0.4250000   0.4250000  )
         3           Ru  tau(   3) = (   0.0000000   0.0000000   0.8500000  )
         4           Ru  tau(   4) = (   0.4250000   0.4250000   1.2750000  )
         5           Ru  tau(   5) = (   0.0000000   0.8500000   0.0000000  )
         6           Ru  tau(   6) = (   0.4250000   1.2750000   0.4250000  )
         7           Ru  tau(   7) = (   0.0000000   0.8500000   0.8500000  )
         8           Ru  tau(   8) = (   0.4250000   1.2750000   1.2750000  )
         9           Ru  tau(   9) = (   0.8500000   0.0000000   0.0000000  )
        10           Ru  tau(  10) = (   1.2750000   0.4250000   0.4250000  )
        11           Ru  tau(  11) = (   0.8500000   0.0000000   0.8500000  )
        12           Ru  tau(  12) = (   1.2750000   0.4250000   1.2750000  )
        13           Ru  tau(  13) = (   0.8500000   0.8500000   0.0000000  )
        14           Ru  tau(  14) = (   1.2750000   1.2750000   0.4250000  )
        15           Ru  tau(  15) = (   0.8500000   0.8500000   0.8500000  )
        16           Ru  tau(  16) = (   1.2750000   1.2750000   1.2750000  )

     number of k points=    35  Marzari-Vanderbilt smearing, width (Ry)=  0.0400
                       cart. coord. in units 2pi/alat
        k(    1) = (   0.0326797   0.0326797   0.0326797), wk =   0.0219479
        k(    2) = (   0.0326797   0.0326797   0.0980392), wk =   0.0658436
        k(    3) = (   0.0326797   0.0326797   0.1633987), wk =   0.0658436
        k(    4) = (   0.0326797   0.0326797   0.2287582), wk =   0.0658436
        k(    5) = (   0.0326797   0.0326797  -0.2941176), wk =   0.0329218
        k(    6) = (   0.0326797   0.0980392   0.0980392), wk =   0.0658436
        k(    7) = (   0.0326797   0.0980392   0.1633987), wk =   0.1316872
        k(    8) = (   0.0326797   0.0980392   0.2287582), wk =   0.1316872
        k(    9) = (   0.0326797   0.0980392  -0.2941176), wk =   0.0658436
        k(   10) = (   0.0326797   0.1633987   0.1633987), wk =   0.0658436
        k(   11) = (   0.0326797   0.1633987   0.2287582), wk =   0.1316872
        k(   12) = (   0.0326797   0.1633987  -0.2941176), wk =   0.0658436
        k(   13) = (   0.0326797   0.2287582   0.2287582), wk =   0.0658436
        k(   14) = (   0.0326797   0.2287582  -0.2941176), wk =   0.0658436
        k(   15) = (   0.0326797  -0.2941176  -0.2941176), wk =   0.0164609
        k(   16) = (   0.0980392   0.0980392   0.0980392), wk =   0.0219479
        k(   17) = (   0.0980392   0.0980392   0.1633987), wk =   0.0658436
        k(   18) = (   0.0980392   0.0980392   0.2287582), wk =   0.0658436
        k(   19) = (   0.0980392   0.0980392  -0.2941176), wk =   0.0329218
        k(   20) = (   0.0980392   0.1633987   0.1633987), wk =   0.0658436
        k(   21) = (   0.0980392   0.1633987   0.2287582), wk =   0.1316872
        k(   22) = (   0.0980392   0.1633987  -0.2941176), wk =   0.0658436
        k(   23) = (   0.0980392   0.2287582   0.2287582), wk =   0.0658436
        k(   24) = (   0.0980392   0.2287582  -0.2941176), wk =   0.0658436
        k(   25) = (   0.0980392  -0.2941176  -0.2941176), wk =   0.0164609
        k(   26) = (   0.1633987   0.1633987   0.1633987), wk =   0.0219479
        k(   27) = (   0.1633987   0.1633987   0.2287582), wk =   0.0658436
        k(   28) = (   0.1633987   0.1633987  -0.2941176), wk =   0.0329218
        k(   29) = (   0.1633987   0.2287582   0.2287582), wk =   0.0658436
        k(   30) = (   0.1633987   0.2287582  -0.2941176), wk =   0.0658436
        k(   31) = (   0.1633987  -0.2941176  -0.2941176), wk =   0.0164609
        k(   32) = (   0.2287582   0.2287582   0.2287582), wk =   0.0219479
        k(   33) = (   0.2287582   0.2287582  -0.2941176), wk =   0.0329218
        k(   34) = (   0.2287582  -0.2941176  -0.2941176), wk =   0.0164609
        k(   35) = (  -0.2941176  -0.2941176  -0.2941176), wk =   0.0027435

     Check: negative core charge=   -0.000001

     Initial potential from superposition of free atoms

     starting charge  255.98980, renormalised to  256.00000
     Starting wfcs are  160 randomized atomic wfcs
     Checking if some PAW data can be deallocated...

     Self-consistent Calculation

     iteration #  1     ecut=    71.00 Ry     beta= 0.10
     Davidson diagonalization with overlap
     ethr =  1.00E-02,  avg # of iterations =  2.0

     total energy              =   -6899.24798367 Ry
     estimated scf accuracy    <       8.67826252 Ry

[...]

     total energy              =   -6898.32263704 Ry
     estimated scf accuracy    <       0.00000242 Ry

     iteration # 22     ecut=    71.00 Ry     beta= 0.10
     Davidson diagonalization with overlap
     ethr =  9.44E-10,  avg # of iterations =  3.9

     End of self-consistent calculation

          k = 0.0327 0.0327 0.0327 ( 74070 PWs)   bands (ev):

   -70.2146 -70.2145 -70.2145 -70.2145 -70.2145 -70.2145 -70.2145 -70.2145
   -70.2145 -70.2145 -70.2145 -70.2145 -70.2145 -70.2145 -70.2144 -70.2144
   -40.2698 -40.2698 -40.2698 -40.2698 -40.2698 -40.2698 -40.2694 -40.2694
   -40.2694 -40.2692 -40.2692 -40.2692 -40.2691 -40.2691 -40.2691 -40.2691
   -40.2691 -40.2690 -40.2690 -40.2690 -40.2690 -40.2690 -40.2690 -40.2690
   -40.2690 -40.2690 -40.2690 -40.2689 -40.2689 -40.2689 -40.2689 -40.2689
   -40.2689 -40.2689 -40.2689 -40.2689 -40.2688 -40.2688 -40.2688 -40.2685
   -40.2684 -40.2684 -40.2684 -40.2684 -40.2684 -40.2684 -40.2684 -40.2684
    -0.4633   0.4804   0.4804   0.4804   0.4848   0.4848   0.4848   0.5911
     0.5911   0.6093   0.6093   0.6093   0.6645   0.6645   0.6645   0.6666
     0.6666   0.6666   0.6981   0.6981   0.6981   0.7357   0.7554   0.7554
     0.7843   0.7843   0.7859   0.7859   0.7859   0.7897   0.7898   0.7898
     0.8038   0.8194   0.8194   0.8194   0.8649   0.8649   0.8649   0.8761
     0.8761   0.8761   0.8901   0.8901   0.8901   0.9009   0.9009   0.9009
     0.9550   0.9550   0.9550   0.9848   0.9848   0.9848   0.9879   0.9879
     0.9879   0.9893   0.9893   0.9893   1.0093   1.0093   1.0150   1.0150
     1.0150   1.0200   1.0200   1.0200   1.0231   1.0231   1.0232   1.0232
     1.1246   1.1316   1.1316   1.1637   1.1637   1.1637   1.1669   1.1669
     1.1669   1.2248   1.2248   1.2248   1.4347   1.4347   1.4347   2.3732
     2.3733   2.3733

[...]

          k = 0.2288-0.2941-0.2941 ( 74132 PWs)   bands (ev):

[...]

          k =-0.2941-0.2941-0.2941 ( 74184 PWs)   bands (ev):

   -70.2145 -70.2145 -70.2145 -70.2145 -70.2145 -70.2145 -70.2145 -70.2145
   -70.2145 -70.2145 -70.2145 -70.2145 -70.2145 -70.2145 -70.2145 -70.2144
   -40.2695 -40.2695 -40.2695 -40.2695 -40.2695 -40.2695 -40.2695 -40.2695
   -40.2695 -40.2695 -40.2695 -40.2695 -40.2695 -40.2695 -40.2695 -40.2695
   -40.2693 -40.2693 -40.2693 -40.2693 -40.2693 -40.2693 -40.2693 -40.2693
   -40.2688 -40.2687 -40.2687 -40.2687 -40.2687 -40.2687 -40.2687 -40.2687
   -40.2686 -40.2686 -40.2686 -40.2686 -40.2686 -40.2686 -40.2686 -40.2686
   -40.2686 -40.2686 -40.2686 -40.2686 -40.2686 -40.2686 -40.2686 -40.2686
     0.4523   0.4523   0.4523   0.4523   0.4523   0.4523   0.4523   0.4523
     0.7129   0.7129   0.7129   0.7129   0.7129   0.7129   0.7129   0.7129
     0.7260   0.7260   0.7260   0.7260   0.7260   0.7260   0.7260   0.7260
     0.7260   0.7260   0.7260   0.7260   0.7260   0.7260   0.7260   0.7260
     0.7732   0.7732   0.7732   0.7732   0.7733   0.7733   0.7733   0.7733
     0.7733   0.7733   0.7733   0.7733   0.7733   0.7733   0.7733   0.7733
     1.0014   1.0014   1.0014   1.0014   1.0014   1.0014   1.0014   1.0014
     1.0014   1.0014   1.0014   1.0014   1.0014   1.0014   1.0014   1.0014
     1.0610   1.0610   1.0610   1.0610   1.0610   1.0610   1.0610   1.0610
     1.0610   1.0610   1.0610   1.0610   1.0610   1.0610   1.0610   1.0610
     1.2328   1.2328   1.2328   1.2328   1.2328   1.2328   1.2328   1.2328
     2.9327   2.9327

     the Fermi energy is     1.1518 ev

!    total energy              =   -6898.32263813 Ry

     total all-electron energy =   -144986.517808 Ry
     estimated scf accuracy    <       0.00000016 Ry
     smearing contrib. (-TS)   =      -0.36934278 Ry
     internal energy E=F+TS    =   -6897.95329534 Ry

     The total energy is F=E-TS. E is the sum of the following terms:
     one-electron contribution =   -2257.04138500 Ry
     hartree contribution      =    1145.61821325 Ry
     xc contribution           =    -457.71905788 Ry
     ewald contribution        =   -1534.37694899 Ry
     one-center paw contrib.   =   -3794.43411672 Ry

     convergence has been achieved in  22 iterations

     Forces acting on atoms (cartesian axes, Ry/au):

     atom    1 type  1   force =     0.00000000    0.00000000    0.00000000
     atom    2 type  1   force =     0.00000820    0.00000820    0.00000820
     atom    3 type  1   force =     0.00000000    0.00000000    0.00000000
     atom    4 type  1   force =     0.00000820    0.00000820   -0.00000820
     atom    5 type  1   force =     0.00000000    0.00000000    0.00000000
     atom    6 type  1   force =     0.00000820   -0.00000820    0.00000820
     atom    7 type  1   force =     0.00000000    0.00000000    0.00000000
     atom    8 type  1   force =     0.00000820   -0.00000820   -0.00000820
     atom    9 type  1   force =     0.00000000    0.00000000    0.00000000
     atom   10 type  1   force =    -0.00000820    0.00000820    0.00000820
     atom   11 type  1   force =     0.00000000    0.00000000    0.00000000
     atom   12 type  1   force =    -0.00000820    0.00000820   -0.00000820
     atom   13 type  1   force =     0.00000000    0.00000000    0.00000000
     atom   14 type  1   force =    -0.00000820   -0.00000820    0.00000820
     atom   15 type  1   force =     0.00000000    0.00000000    0.00000000
     atom   16 type  1   force =    -0.00000820   -0.00000820   -0.00000820

     Total force =     0.000040     Total SCF correction =     0.000205
     SCF correction compared to forces is large: reduce conv_thr to get better values

     Computing stress (Cartesian axis) and pressure

          total   stress  (Ry/bohr**3)                   (kbar)     P=      -55.10
  -0.00037454   0.00000000   0.00000000          -55.10        0.00        0.00
   0.00000000  -0.00037454   0.00000000            0.00      -55.10        0.00
   0.00000000   0.00000000  -0.00037454            0.00        0.00      -55.10

     Writing output data file /scratch/nEotgMIzVnVDQwNX.save/

     General routines

     Parallel routines

   This run was terminated on:   0:24: 7  26Nov2021

   JOB DONE.