     Program PWSCF v.6.7MaX starts on 25Nov2021 at 23:44: 8

     R & G space division:  proc/nbgrp/npool/nimage =      72
     Reading input from bcc_2.in
Warning: card &CELL ignored
Warning: card CELL_DYNAMICS = 'BFGS', ignored
Warning: card CELL_FACTOR = 2.0, ignored
Warning: card PRESS = 0.0, ignored
Warning: card / ignored

     Current dimensions of program PWSCF are:
     Max number of different atomic species (ntypx) = 10
     Max number of k-points (npk) =  40000
     Max angular momentum in pseudopotentials (lmaxx) =  3
     file Ru.pbe-spn-kjpaw_psl.1.0.0.UPF: wavefunction(s)  4D renormalized

     Subspace diagonalization in iterative solution of the eigenvalue problem:
     one sub-group per band group will be used

     Found symmetry operation: I + (  0.2500  0.2500  0.2500)
     This is a supercell, fractional translations are disabled
     Message from routine setup:
     using ibrav=0 with symmetry is DISCOURAGED, use correct ibrav instead

     bravais-lattice index     =            0
     lattice parameter (alat)  =      11.4293  a.u.
     unit-cell volume          =    1987.1684 (a.u.)^3
     number of atoms/cell      =           16
     number of atomic types    =            1
     number of electrons       =       256.00
     number of Kohn-Sham states=          154
     kinetic-energy cutoff     =      71.0000  Ry
     charge density cutoff     =     430.0000  Ry
     scf convergence threshold =      1.0E-06
     mixing beta               =       0.1000
     number of iterations used =           10  TF        mixing
     Exchange-correlation= SLA  PW   PBX  PBC
                           (   1   4   3   4   0   0   0)

     celldm(1)=  11.429280  celldm(2)=   0.000000  celldm(3)=   0.000000
     celldm(4)=   0.000000  celldm(5)=   0.000000  celldm(6)=   0.000000

     crystal axes: (cart. coord. in units of alat)
               a(1) = (   1.100000   0.000000   0.000000 )
               a(2) = (   0.000000   1.100000   0.000000 )
               a(3) = (   0.000000   0.000000   1.100000 )

     reciprocal axes: (cart. coord. in units 2 pi/alat)
               b(1) = (  0.909091  0.000000  0.000000 )
               b(2) = (  0.000000  0.909091  0.000000 )
               b(3) = (  0.000000  0.000000  0.909091 )

     PseudoPot. # 1 for Ru read from file:
     /rds/homes/b/bxp912/pp/Ru.pbe-spn-kjpaw_psl.1.0.0.UPF
     MD5 check sum: 0ae1f594dea09af7be8575c3a481d1ae
     Pseudo is Projector augmented-wave + core cor, Zval = 16.0
     Generated using "atomic" code by A. Dal Corso  v.5.1
     Shape of augmentation charge: PSQ
     Using radial grid of 1233 points,  6 beta functions with:
                l(1) =   0
                l(2) =   0
                l(3) =   1
                l(4) =   1
                l(5) =   2
                l(6) =   2
     Q(r) pseudized with 0 coefficients

     atomic species   valence    mass     pseudopotential
        Ru            16.00   101.07000     Ru( 1.00)

     48 Sym. Ops., with inversion, found

   Cartesian axes

     site n.     atom                  positions (alat units)
         1           Ru  tau(   1) = (   0.0000000   0.0000000   0.0000000  )
         2           Ru  tau(   2) = (   0.2750000   0.2750000   0.2750000  )
         3           Ru  tau(   3) = (   0.0000000   0.0000000   0.5500000  )
         4           Ru  tau(   4) = (   0.2750000   0.2750000   0.8250000  )
         5           Ru  tau(   5) = (   0.0000000   0.5500000   0.0000000  )
         6           Ru  tau(   6) = (   0.2750000   0.8250000   0.2750000  )
         7           Ru  tau(   7) = (   0.0000000   0.5500000   0.5500000  )
         8           Ru  tau(   8) = (   0.2750000   0.8250000   0.8250000  )
         9           Ru  tau(   9) = (   0.5500000   0.0000000   0.0000000  )
        10           Ru  tau(  10) = (   0.8250000   0.2750000   0.2750000  )
        11           Ru  tau(  11) = (   0.5500000   0.0000000   0.5500000  )
        12           Ru  tau(  12) = (   0.8250000   0.2750000   0.8250000  )
        13           Ru  tau(  13) = (   0.5500000   0.5500000   0.0000000  )
        14           Ru  tau(  14) = (   0.8250000   0.8250000   0.2750000  )
        15           Ru  tau(  15) = (   0.5500000   0.5500000   0.5500000  )
        16           Ru  tau(  16) = (   0.8250000   0.8250000   0.8250000  )

     number of k points=    35  Marzari-Vanderbilt smearing, width (Ry)=  0.0400
                       cart. coord. in units 2pi/alat
        k(    1) = (   0.0505051   0.0505051   0.0505051), wk =   0.0219479
        k(    2) = (   0.0505051   0.0505051   0.1515152), wk =   0.0658436
        k(    3) = (   0.0505051   0.0505051   0.2525253), wk =   0.0658436
        k(    4) = (   0.0505051   0.0505051   0.3535354), wk =   0.0658436
        k(    5) = (   0.0505051   0.0505051  -0.4545455), wk =   0.0329218
        k(    6) = (   0.0505051   0.1515152   0.1515152), wk =   0.0658436
        k(    7) = (   0.0505051   0.1515152   0.2525253), wk =   0.1316872
        k(    8) = (   0.0505051   0.1515152   0.3535354), wk =   0.1316872
        k(    9) = (   0.0505051   0.1515152  -0.4545455), wk =   0.0658436
        k(   10) = (   0.0505051   0.2525253   0.2525253), wk =   0.0658436
        k(   11) = (   0.0505051   0.2525253   0.3535354), wk =   0.1316872
        k(   12) = (   0.0505051   0.2525253  -0.4545455), wk =   0.0658436
        k(   13) = (   0.0505051   0.3535354   0.3535354), wk =   0.0658436
        k(   14) = (   0.0505051   0.3535354  -0.4545455), wk =   0.0658436
        k(   15) = (   0.0505051  -0.4545455  -0.4545455), wk =   0.0164609
        k(   16) = (   0.1515152   0.1515152   0.1515152), wk =   0.0219479
        k(   17) = (   0.1515152   0.1515152   0.2525253), wk =   0.0658436
        k(   18) = (   0.1515152   0.1515152   0.3535354), wk =   0.0658436
        k(   19) = (   0.1515152   0.1515152  -0.4545455), wk =   0.0329218
        k(   20) = (   0.1515152   0.2525253   0.2525253), wk =   0.0658436
        k(   21) = (   0.1515152   0.2525253   0.3535354), wk =   0.1316872
        k(   22) = (   0.1515152   0.2525253  -0.4545455), wk =   0.0658436
        k(   23) = (   0.1515152   0.3535354   0.3535354), wk =   0.0658436
        k(   24) = (   0.1515152   0.3535354  -0.4545455), wk =   0.0658436
        k(   25) = (   0.1515152  -0.4545455  -0.4545455), wk =   0.0164609
        k(   26) = (   0.2525253   0.2525253   0.2525253), wk =   0.0219479
        k(   27) = (   0.2525253   0.2525253   0.3535354), wk =   0.0658436
        k(   28) = (   0.2525253   0.2525253  -0.4545455), wk =   0.0329218
        k(   29) = (   0.2525253   0.3535354   0.3535354), wk =   0.0658436
        k(   30) = (   0.2525253   0.3535354  -0.4545455), wk =   0.0658436
        k(   31) = (   0.2525253  -0.4545455  -0.4545455), wk =   0.0164609
        k(   32) = (   0.3535354   0.3535354   0.3535354), wk =   0.0219479
        k(   33) = (   0.3535354   0.3535354  -0.4545455), wk =   0.0329218
        k(   34) = (   0.3535354  -0.4545455  -0.4545455), wk =   0.0164609
        k(   35) = (  -0.4545455  -0.4545455  -0.4545455), wk =   0.0027435

     Check: negative core charge=   -0.000002

     Initial potential from superposition of free atoms

     starting charge  255.98980, renormalised to  256.00000
     Starting wfcs are  160 randomized atomic wfcs
     Checking if some PAW data can be deallocated...

     Self-consistent Calculation

     iteration #  1     ecut=    71.00 Ry     beta= 0.10
     Davidson diagonalization with overlap
     ethr =  1.00E-02,  avg # of iterations =  3.4

     Threshold (ethr) on eigenvalues was too large:
     Diagonalizing with lowered threshold

     Davidson diagonalization with overlap
     ethr =  1.28E-05,  avg # of iterations =  5.7

     total energy              =   -6905.35246066 Ry
     estimated scf accuracy    <       0.09793973 Ry

[...]

     total energy              =   -6905.33757663 Ry
     estimated scf accuracy    <       0.00001125 Ry

     iteration #  9     ecut=    71.00 Ry     beta= 0.10
     Davidson diagonalization with overlap
     ethr =  4.39E-09,  avg # of iterations =  1.0

     End of self-consistent calculation

          k = 0.0505 0.0505 0.0505 ( 20098 PWs)   bands (ev):

   -56.4578 -56.4137 -56.4137 -56.4136 -56.4070 -56.4070 -56.4070 -56.4062
   -56.4062 -56.4062 -56.4057 -56.4057 -56.4057 -56.4038 -56.4035 -56.3673
   -26.5654 -26.5654 -26.5654 -26.5634 -26.5634 -26.5634 -26.4671 -26.4671
   -26.4628 -26.4060 -26.4028 -26.4028 -26.4028 -26.3898 -26.3898 -26.3787
   -26.3787 -26.3787 -26.3566 -26.3566 -26.3402 -26.3364 -26.3364 -26.3364
   -26.3279 -26.3279 -26.3279 -26.3206 -26.3206 -26.3206 -26.3184 -26.3183
   -26.3183 -26.3119 -26.3119 -26.3119 -26.3039 -26.3039 -26.3039 -26.1920
   -26.1884 -26.1884 -26.1884 -26.1875 -26.1875 -26.1863 -26.1863 -26.1863
     9.9177  11.9636  11.9636  11.9636  11.9767  11.9767  11.9767  12.1111
    12.1111  12.6412  12.6412  12.6412  12.9071  12.9071  12.9071  13.1800
    13.1800  13.1800  13.1937  13.1937  13.1937  13.4041  13.5111  13.5111
    13.6989  13.6989  13.7237  13.7237  13.7237  13.7751  14.0534  14.0534
    14.0534  14.3129  14.3129  14.3576  14.7196  14.7196  14.7196  14.8171
    14.8171  14.8171  14.9121  14.9121  14.9121  15.0040  15.0040  15.0040
    15.6595  15.6595  15.6595  15.9187  15.9187  15.9187  16.0731  16.0731
    16.0731  16.0872  16.0872  16.0872  16.1481  16.1481  16.2021  16.2021
    16.2021  16.3996  16.3996  16.3996  16.4469  16.4469  16.4471  16.4471
    17.0831  17.0831  17.0831  17.1759  17.1759  17.1759  17.2383  17.3261
    17.3261  17.3304  17.3304  17.3304  17.6064  17.6064  17.6064  17.8706
    17.8706  17.8706

[...]

          k = 0.3535-0.4545-0.4545 ( 20096 PWs)   bands (ev):

[...]

          k =-0.4545-0.4545-0.4545 ( 19952 PWs)   bands (ev):

   -56.4243 -56.4243 -56.4243 -56.4243 -56.4243 -56.4243 -56.4243 -56.4243
   -56.3920 -56.3920 -56.3920 -56.3919 -56.3919 -56.3919 -56.3919 -56.3919
   -26.4672 -26.4672 -26.4672 -26.4672 -26.4672 -26.4672 -26.4672 -26.4672
   -26.4671 -26.4671 -26.4671 -26.4671 -26.4671 -26.4671 -26.4671 -26.4671
   -26.4366 -26.4366 -26.4366 -26.4366 -26.4366 -26.4366 -26.4366 -26.4366
   -26.2649 -26.2649 -26.2649 -26.2649 -26.2649 -26.2649 -26.2649 -26.2649
   -26.2330 -26.2330 -26.2330 -26.2330 -26.2330 -26.2330 -26.2330 -26.2330
   -26.2330 -26.2330 -26.2330 -26.2330 -26.2330 -26.2330 -26.2330 -26.2330
    12.3747  12.3748  12.3748  12.3748  12.3748  12.3748  12.3748  12.3748
    13.4574  13.4574  13.4575  13.4575  13.4575  13.4575  13.4575  13.4575
    13.4575  13.4575  13.4575  13.4575  13.4575  13.4575  13.4575  13.4575
    13.5549  13.5549  13.5549  13.5549  13.5549  13.5550  13.5550  13.5550
    13.5743  13.5743  13.5743  13.5743  13.5743  13.5743  13.5743  13.5743
    13.5744  13.5744  13.5744  13.5744  13.5744  13.5744  13.5744  13.5744
    16.1362  16.1362  16.1362  16.1362  16.1362  16.1362  16.1362  16.1362
    16.1363  16.1363  16.1363  16.1363  16.1363  16.1363  16.1363  16.1363
    16.5161  16.5161  16.5161  16.5161  16.5161  16.5161  16.5161  16.5161
    16.5161  16.5161  16.5161  16.5161  16.5161  16.5161  16.5161  16.5161
    17.1596  17.1596  17.1596  17.1596  17.1596  17.1596  17.1596  17.1596
    23.5475  23.5475

     the Fermi energy is    16.2114 ev

!    total energy              =   -6905.33757892 Ry

     total all-electron energy =   -144993.532749 Ry
     estimated scf accuracy    <       0.00000071 Ry
     smearing contrib. (-TS)   =      -0.11362300 Ry
     internal energy E=F+TS    =   -6905.22395593 Ry

     The total energy is F=E-TS. E is the sum of the following terms:
     one-electron contribution =    -852.35779857 Ry
     hartree contribution      =     573.05235345 Ry
     xc contribution           =    -460.03108114 Ry
     ewald contribution        =   -2371.30983025 Ry
     one-center paw contrib.   =   -3794.57759942 Ry

     convergence has been achieved in   9 iterations

     Forces acting on atoms (cartesian axes, Ry/au):

     atom    1 type  1   force =     0.00000000    0.00000000    0.00000000
     atom    2 type  1   force =    -0.00001918   -0.00001918   -0.00001918
     atom    3 type  1   force =     0.00000000    0.00000000    0.00000000
     atom    4 type  1   force =    -0.00001918   -0.00001918    0.00001918
     atom    5 type  1   force =     0.00000000    0.00000000    0.00000000
     atom    6 type  1   force =    -0.00001918    0.00001918   -0.00001918
     atom    7 type  1   force =     0.00000000    0.00000000    0.00000000
     atom    8 type  1   force =    -0.00001918    0.00001918    0.00001918
     atom    9 type  1   force =     0.00000000    0.00000000    0.00000000
     atom   10 type  1   force =     0.00001918   -0.00001918   -0.00001918
     atom   11 type  1   force =     0.00000000    0.00000000    0.00000000
     atom   12 type  1   force =     0.00001918   -0.00001918    0.00001918
     atom   13 type  1   force =     0.00000000    0.00000000    0.00000000
     atom   14 type  1   force =     0.00001918    0.00001918   -0.00001918
     atom   15 type  1   force =     0.00000000    0.00000000    0.00000000
     atom   16 type  1   force =     0.00001918    0.00001918    0.00001918

     Total force =     0.000094     Total SCF correction =     0.000185
     SCF correction compared to forces is large: reduce conv_thr to get better values

     Computing stress (Cartesian axis) and pressure

          total   stress  (Ry/bohr**3)                   (kbar)     P=     -376.19
  -0.00255731   0.00000000   0.00000000         -376.19        0.00        0.00
   0.00000000  -0.00255731   0.00000000            0.00     -376.19        0.00
   0.00000000   0.00000000  -0.00255731            0.00        0.00     -376.19

     Writing output data file /scratch/noHBYOTUYcQaCdpC.save/

     General routines

     Parallel routines

   This run was terminated on:  23:46:39  25Nov2021

   JOB DONE.