     Program PWSCF v.6.7MaX starts on 26Nov2021 at  0: 7:27

     R & G space division:  proc/nbgrp/npool/nimage =      72
     Reading input from bcc_7.in
Warning: card &CELL ignored
Warning: card CELL_DYNAMICS = 'BFGS', ignored
Warning: card CELL_FACTOR = 2.0, ignored
Warning: card PRESS = 0.0, ignored
Warning: card / ignored

     Current dimensions of program PWSCF are:
     Max number of different atomic species (ntypx) = 10
     Max number of k-points (npk) =  40000
     Max angular momentum in pseudopotentials (lmaxx) =  3
     file Ru.pbe-spn-kjpaw_psl.1.0.0.UPF: wavefunction(s)  4D renormalized

     Subspace diagonalization in iterative solution of the eigenvalue problem:
     one sub-group per band group will be used

     Found symmetry operation: I + (  0.2500  0.2500  0.2500)
     This is a supercell, fractional translations are disabled
     Message from routine setup:
     using ibrav=0 with symmetry is DISCOURAGED, use correct ibrav instead

     bravais-lattice index     =            0
     lattice parameter (alat)  =      11.4293  a.u.
     unit-cell volume          =    6115.2831 (a.u.)^3
     number of atoms/cell      =           16
     number of atomic types    =            1
     number of electrons       =       256.00
     number of Kohn-Sham states=          154
     kinetic-energy cutoff     =      71.0000  Ry
     charge density cutoff     =     430.0000  Ry
     scf convergence threshold =      1.0E-06
     mixing beta               =       0.1000
     number of iterations used =           10  TF        mixing
     Exchange-correlation= SLA  PW   PBX  PBC
                           (   1   4   3   4   0   0   0)

     celldm(1)=  11.429280  celldm(2)=   0.000000  celldm(3)=   0.000000
     celldm(4)=   0.000000  celldm(5)=   0.000000  celldm(6)=   0.000000

     crystal axes: (cart. coord. in units of alat)
               a(1) = (   1.600000   0.000000   0.000000 )
               a(2) = (   0.000000   1.600000   0.000000 )
               a(3) = (   0.000000   0.000000   1.600000 )

     reciprocal axes: (cart. coord. in units 2 pi/alat)
               b(1) = (  0.625000  0.000000  0.000000 )
               b(2) = (  0.000000  0.625000  0.000000 )
               b(3) = (  0.000000  0.000000  0.625000 )

     PseudoPot. # 1 for Ru read from file:
     /rds/homes/b/bxp912/pp/Ru.pbe-spn-kjpaw_psl.1.0.0.UPF
     MD5 check sum: 0ae1f594dea09af7be8575c3a481d1ae
     Pseudo is Projector augmented-wave + core cor, Zval = 16.0
     Generated using "atomic" code by A. Dal Corso  v.5.1
     Shape of augmentation charge: PSQ
     Using radial grid of 1233 points,  6 beta functions with:
                l(1) =   0
                l(2) =   0
                l(3) =   1
                l(4) =   1
                l(5) =   2
                l(6) =   2
     Q(r) pseudized with 0 coefficients

     atomic species   valence    mass     pseudopotential
        Ru            16.00   101.07000     Ru( 1.00)

     48 Sym. Ops., with inversion, found

   Cartesian axes

     site n.     atom                  positions (alat units)
         1           Ru  tau(   1) = (   0.0000000   0.0000000   0.0000000  )
         2           Ru  tau(   2) = (   0.4000000   0.4000000   0.4000000  )
         3           Ru  tau(   3) = (   0.0000000   0.0000000   0.8000000  )
         4           Ru  tau(   4) = (   0.4000000   0.4000000   1.2000000  )
         5           Ru  tau(   5) = (   0.0000000   0.8000000   0.0000000  )
         6           Ru  tau(   6) = (   0.4000000   1.2000000   0.4000000  )
         7           Ru  tau(   7) = (   0.0000000   0.8000000   0.8000000  )
         8           Ru  tau(   8) = (   0.4000000   1.2000000   1.2000000  )
         9           Ru  tau(   9) = (   0.8000000   0.0000000   0.0000000  )
        10           Ru  tau(  10) = (   1.2000000   0.4000000   0.4000000  )
        11           Ru  tau(  11) = (   0.8000000   0.0000000   0.8000000  )
        12           Ru  tau(  12) = (   1.2000000   0.4000000   1.2000000  )
        13           Ru  tau(  13) = (   0.8000000   0.8000000   0.0000000  )
        14           Ru  tau(  14) = (   1.2000000   1.2000000   0.4000000  )
        15           Ru  tau(  15) = (   0.8000000   0.8000000   0.8000000  )
        16           Ru  tau(  16) = (   1.2000000   1.2000000   1.2000000  )

     number of k points=    35  Marzari-Vanderbilt smearing, width (Ry)=  0.0400
                       cart. coord. in units 2pi/alat
        k(    1) = (   0.0347222   0.0347222   0.0347222), wk =   0.0219479
        k(    2) = (   0.0347222   0.0347222   0.1041667), wk =   0.0658436
        k(    3) = (   0.0347222   0.0347222   0.1736111), wk =   0.0658436
        k(    4) = (   0.0347222   0.0347222   0.2430556), wk =   0.0658436
        k(    5) = (   0.0347222   0.0347222  -0.3125000), wk =   0.0329218
        k(    6) = (   0.0347222   0.1041667   0.1041667), wk =   0.0658436
        k(    7) = (   0.0347222   0.1041667   0.1736111), wk =   0.1316872
        k(    8) = (   0.0347222   0.1041667   0.2430556), wk =   0.1316872
        k(    9) = (   0.0347222   0.1041667  -0.3125000), wk =   0.0658436
        k(   10) = (   0.0347222   0.1736111   0.1736111), wk =   0.0658436
        k(   11) = (   0.0347222   0.1736111   0.2430556), wk =   0.1316872
        k(   12) = (   0.0347222   0.1736111  -0.3125000), wk =   0.0658436
        k(   13) = (   0.0347222   0.2430556   0.2430556), wk =   0.0658436
        k(   14) = (   0.0347222   0.2430556  -0.3125000), wk =   0.0658436
        k(   15) = (   0.0347222  -0.3125000  -0.3125000), wk =   0.0164609
        k(   16) = (   0.1041667   0.1041667   0.1041667), wk =   0.0219479
        k(   17) = (   0.1041667   0.1041667   0.1736111), wk =   0.0658436
        k(   18) = (   0.1041667   0.1041667   0.2430556), wk =   0.0658436
        k(   19) = (   0.1041667   0.1041667  -0.3125000), wk =   0.0329218
        k(   20) = (   0.1041667   0.1736111   0.1736111), wk =   0.0658436
        k(   21) = (   0.1041667   0.1736111   0.2430556), wk =   0.1316872
        k(   22) = (   0.1041667   0.1736111  -0.3125000), wk =   0.0658436
        k(   23) = (   0.1041667   0.2430556   0.2430556), wk =   0.0658436
        k(   24) = (   0.1041667   0.2430556  -0.3125000), wk =   0.0658436
        k(   25) = (   0.1041667  -0.3125000  -0.3125000), wk =   0.0164609
        k(   26) = (   0.1736111   0.1736111   0.1736111), wk =   0.0219479
        k(   27) = (   0.1736111   0.1736111   0.2430556), wk =   0.0658436
        k(   28) = (   0.1736111   0.1736111  -0.3125000), wk =   0.0329218
        k(   29) = (   0.1736111   0.2430556   0.2430556), wk =   0.0658436
        k(   30) = (   0.1736111   0.2430556  -0.3125000), wk =   0.0658436
        k(   31) = (   0.1736111  -0.3125000  -0.3125000), wk =   0.0164609
        k(   32) = (   0.2430556   0.2430556   0.2430556), wk =   0.0219479
        k(   33) = (   0.2430556   0.2430556  -0.3125000), wk =   0.0329218
        k(   34) = (   0.2430556  -0.3125000  -0.3125000), wk =   0.0164609
        k(   35) = (  -0.3125000  -0.3125000  -0.3125000), wk =   0.0027435

     Check: negative core charge=   -0.000001

     Initial potential from superposition of free atoms

     starting charge  255.98980, renormalised to  256.00000
     Starting wfcs are  160 randomized atomic wfcs
     Checking if some PAW data can be deallocated...

     Self-consistent Calculation

     iteration #  1     ecut=    71.00 Ry     beta= 0.10
     Davidson diagonalization with overlap
     ethr =  1.00E-02,  avg # of iterations =  2.0

     total energy              =   -6899.46065205 Ry
     estimated scf accuracy    <       6.80006089 Ry

[...]

     total energy              =   -6898.88810475 Ry
     estimated scf accuracy    <       0.00000509 Ry

     iteration # 18     ecut=    71.00 Ry     beta= 0.10
     Davidson diagonalization with overlap
     ethr =  1.99E-09,  avg # of iterations =  3.8

     End of self-consistent calculation

          k = 0.0347 0.0347 0.0347 ( 61850 PWs)   bands (ev):

   -69.3482 -69.3481 -69.3480 -69.3480 -69.3480 -69.3480 -69.3480 -69.3480
   -69.3480 -69.3480 -69.3480 -69.3480 -69.3480 -69.3480 -69.3479 -69.3475
   -39.3849 -39.3849 -39.3849 -39.3849 -39.3849 -39.3849 -39.3844 -39.3844
   -39.3844 -39.3835 -39.3835 -39.3835 -39.3834 -39.3834 -39.3834 -39.3832
   -39.3832 -39.3832 -39.3831 -39.3831 -39.3831 -39.3830 -39.3830 -39.3830
   -39.3830 -39.3830 -39.3830 -39.3830 -39.3830 -39.3830 -39.3829 -39.3829
   -39.3829 -39.3829 -39.3828 -39.3828 -39.3828 -39.3828 -39.3827 -39.3817
   -39.3817 -39.3817 -39.3816 -39.3816 -39.3816 -39.3815 -39.3815 -39.3815
     0.1688   1.2907   1.2907   1.2908   1.2964   1.2964   1.2964   1.4208
     1.4208   1.4208   1.4292   1.4292   1.5442   1.5442   1.5442   1.5445
     1.5446   1.5446   1.5470   1.5470   1.5470   1.6267   1.6521   1.6521
     1.6965   1.6965   1.7019   1.7019   1.7019   1.7128   1.7128   1.7144
     1.7201   1.7495   1.7495   1.7495   1.8156   1.8156   1.8156   1.8317
     1.8317   1.8317   1.8502   1.8502   1.8502   1.8651   1.8651   1.8651
     1.9453   1.9453   1.9453   1.9864   1.9864   1.9864   1.9926   1.9926
     1.9926   1.9945   1.9945   1.9945   2.0201   2.0201   2.0296   2.0296
     2.0296   2.0374   2.0374   2.0375   2.0420   2.0420   2.0421   2.0421
     2.1797   2.1897   2.1897   2.2336   2.2336   2.2336   2.2381   2.2382
     2.2382   2.2679   2.2680   2.2680   2.4903   2.4904   2.4904   3.6114
     3.6114   3.6114

[...]

          k = 0.2431-0.3125-0.3125 ( 61724 PWs)   bands (ev):

[...]

          k =-0.3125-0.3125-0.3125 ( 61624 PWs)   bands (ev):

   -69.3482 -69.3481 -69.3481 -69.3481 -69.3481 -69.3481 -69.3481 -69.3480
   -69.3480 -69.3480 -69.3480 -69.3480 -69.3479 -69.3479 -69.3479 -69.3475
   -39.3842 -39.3842 -39.3842 -39.3842 -39.3841 -39.3841 -39.3841 -39.3841
   -39.3841 -39.3841 -39.3841 -39.3841 -39.3841 -39.3840 -39.3840 -39.3840
   -39.3838 -39.3838 -39.3838 -39.3838 -39.3838 -39.3837 -39.3837 -39.3837
   -39.3824 -39.3824 -39.3824 -39.3824 -39.3823 -39.3823 -39.3823 -39.3823
   -39.3822 -39.3822 -39.3821 -39.3821 -39.3821 -39.3821 -39.3821 -39.3821
   -39.3821 -39.3821 -39.3821 -39.3821 -39.3821 -39.3819 -39.3819 -39.3819
     1.2389   1.2390   1.2390   1.2390   1.2390   1.2390   1.2390   1.2391
     1.6090   1.6090   1.6090   1.6090   1.6090   1.6090   1.6090   1.6090
     1.6253   1.6253   1.6253   1.6253   1.6253   1.6253   1.6253   1.6253
     1.6253   1.6253   1.6253   1.6253   1.6253   1.6253   1.6253   1.6253
     1.6755   1.6755   1.6755   1.6755   1.6755   1.6755   1.6755   1.6755
     1.6755   1.6755   1.6755   1.6755   1.6755   1.6755   1.6755   1.6755
     2.0103   2.0103   2.0103   2.0103   2.0103   2.0103   2.0103   2.0103
     2.0103   2.0103   2.0103   2.0103   2.0103   2.0103   2.0103   2.0103
     2.0884   2.0884   2.0884   2.0884   2.0884   2.0884   2.0884   2.0884
     2.0884   2.0884   2.0884   2.0884   2.0884   2.0884   2.0884   2.0884
     2.2861   2.2861   2.2861   2.2861   2.2861   2.2861   2.2861   2.2861
     4.4075   4.4075

     the Fermi energy is     2.1268 ev

!    total energy              =   -6898.88810753 Ry

     total all-electron energy =   -144987.083277 Ry
     estimated scf accuracy    <       0.00000085 Ry
     smearing contrib. (-TS)   =      -0.25376108 Ry
     internal energy E=F+TS    =   -6898.63434645 Ry

     The total energy is F=E-TS. E is the sum of the following terms:
     one-electron contribution =   -2083.76937755 Ry
     hartree contribution      =    1067.15358865 Ry
     xc contribution           =    -457.30403269 Ry
     ewald contribution        =   -1630.27550830 Ry
     one-center paw contrib.   =   -3794.43901657 Ry

     convergence has been achieved in  18 iterations

     Forces acting on atoms (cartesian axes, Ry/au):

     atom    1 type  1   force =     0.00000000    0.00000000    0.00000000
     atom    2 type  1   force =    -0.00000691   -0.00000691   -0.00000691
     atom    3 type  1   force =     0.00000000    0.00000000    0.00000000
     atom    4 type  1   force =    -0.00000691   -0.00000691    0.00000691
     atom    5 type  1   force =     0.00000000    0.00000000    0.00000000
     atom    6 type  1   force =    -0.00000691    0.00000691   -0.00000691
     atom    7 type  1   force =     0.00000000    0.00000000    0.00000000
     atom    8 type  1   force =    -0.00000691    0.00000691    0.00000691
     atom    9 type  1   force =     0.00000000    0.00000000    0.00000000
     atom   10 type  1   force =     0.00000691   -0.00000691   -0.00000691
     atom   11 type  1   force =     0.00000000    0.00000000    0.00000000
     atom   12 type  1   force =     0.00000691   -0.00000691    0.00000691
     atom   13 type  1   force =     0.00000000    0.00000000    0.00000000
     atom   14 type  1   force =     0.00000691    0.00000691   -0.00000691
     atom   15 type  1   force =     0.00000000    0.00000000    0.00000000
     atom   16 type  1   force =     0.00000691    0.00000691    0.00000691

     Total force =     0.000034     Total SCF correction =     0.000167
     SCF correction compared to forces is large: reduce conv_thr to get better values

     Computing stress (Cartesian axis) and pressure

          total   stress  (Ry/bohr**3)                   (kbar)     P=      -87.84
  -0.00059709   0.00000000   0.00000000          -87.84        0.00        0.00
   0.00000000  -0.00059709   0.00000000            0.00      -87.84        0.00
   0.00000000   0.00000000  -0.00059709            0.00        0.00      -87.84

     Writing output data file /scratch/HfxmsJJcGRKhZpKD.save/

     General routines

     Parallel routines

   This run was terminated on:   0:14:11  26Nov2021

   JOB DONE.