     Program PWSCF v.6.7MaX starts on 26Nov2021 at  0:36:47

     R & G space division:  proc/nbgrp/npool/nimage =      72
     Reading input from bcc_10.in
Warning: card &CELL ignored
Warning: card CELL_DYNAMICS = 'BFGS', ignored
Warning: card CELL_FACTOR = 2.0, ignored
Warning: card PRESS = 0.0, ignored
Warning: card / ignored

     Current dimensions of program PWSCF are:
     Max number of different atomic species (ntypx) = 10
     Max number of k-points (npk) =  40000
     Max angular momentum in pseudopotentials (lmaxx) =  3
     file Ru.pbe-spn-kjpaw_psl.1.0.0.UPF: wavefunction(s)  4D renormalized

     Subspace diagonalization in iterative solution of the eigenvalue problem:
     one sub-group per band group will be used

     Found symmetry operation: I + (  0.2500  0.2500  0.2500)
     This is a supercell, fractional translations are disabled
     Message from routine setup:
     using ibrav=0 with symmetry is DISCOURAGED, use correct ibrav instead

     bravais-lattice index     =            0
     lattice parameter (alat)  =      11.4293  a.u.
     unit-cell volume          =   10240.4118 (a.u.)^3
     number of atoms/cell      =           16
     number of atomic types    =            1
     number of electrons       =       256.00
     number of Kohn-Sham states=          154
     kinetic-energy cutoff     =      71.0000  Ry
     charge density cutoff     =     430.0000  Ry
     scf convergence threshold =      1.0E-06
     mixing beta               =       0.1000
     number of iterations used =           10  TF        mixing
     Exchange-correlation= SLA  PW   PBX  PBC
                           (   1   4   3   4   0   0   0)

     celldm(1)=  11.429280  celldm(2)=   0.000000  celldm(3)=   0.000000
     celldm(4)=   0.000000  celldm(5)=   0.000000  celldm(6)=   0.000000

     crystal axes: (cart. coord. in units of alat)
               a(1) = (   1.900000   0.000000   0.000000 )
               a(2) = (   0.000000   1.900000   0.000000 )
               a(3) = (   0.000000   0.000000   1.900000 )

     reciprocal axes: (cart. coord. in units 2 pi/alat)
               b(1) = (  0.526316  0.000000  0.000000 )
               b(2) = (  0.000000  0.526316  0.000000 )
               b(3) = (  0.000000  0.000000  0.526316 )

     PseudoPot. # 1 for Ru read from file:
     /rds/homes/b/bxp912/pp/Ru.pbe-spn-kjpaw_psl.1.0.0.UPF
     MD5 check sum: 0ae1f594dea09af7be8575c3a481d1ae
     Pseudo is Projector augmented-wave + core cor, Zval = 16.0
     Generated using "atomic" code by A. Dal Corso  v.5.1
     Shape of augmentation charge: PSQ
     Using radial grid of 1233 points,  6 beta functions with:
                l(1) =   0
                l(2) =   0
                l(3) =   1
                l(4) =   1
                l(5) =   2
                l(6) =   2
     Q(r) pseudized with 0 coefficients

     atomic species   valence    mass     pseudopotential
        Ru            16.00   101.07000     Ru( 1.00)

     48 Sym. Ops., with inversion, found

   Cartesian axes

     site n.     atom                  positions (alat units)
         1           Ru  tau(   1) = (   0.0000000   0.0000000   0.0000000  )
         2           Ru  tau(   2) = (   0.4750000   0.4750000   0.4750000  )
         3           Ru  tau(   3) = (   0.0000000   0.0000000   0.9500000  )
         4           Ru  tau(   4) = (   0.4750000   0.4750000   1.4250000  )
         5           Ru  tau(   5) = (   0.0000000   0.9500000   0.0000000  )
         6           Ru  tau(   6) = (   0.4750000   1.4250000   0.4750000  )
         7           Ru  tau(   7) = (   0.0000000   0.9500000   0.9500000  )
         8           Ru  tau(   8) = (   0.4750000   1.4250000   1.4250000  )
         9           Ru  tau(   9) = (   0.9500000   0.0000000   0.0000000  )
        10           Ru  tau(  10) = (   1.4250000   0.4750000   0.4750000  )
        11           Ru  tau(  11) = (   0.9500000   0.0000000   0.9500000  )
        12           Ru  tau(  12) = (   1.4250000   0.4750000   1.4250000  )
        13           Ru  tau(  13) = (   0.9500000   0.9500000   0.0000000  )
        14           Ru  tau(  14) = (   1.4250000   1.4250000   0.4750000  )
        15           Ru  tau(  15) = (   0.9500000   0.9500000   0.9500000  )
        16           Ru  tau(  16) = (   1.4250000   1.4250000   1.4250000  )

     number of k points=    35  Marzari-Vanderbilt smearing, width (Ry)=  0.0400
                       cart. coord. in units 2pi/alat
        k(    1) = (   0.0292398   0.0292398   0.0292398), wk =   0.0219479
        k(    2) = (   0.0292398   0.0292398   0.0877193), wk =   0.0658436
        k(    3) = (   0.0292398   0.0292398   0.1461988), wk =   0.0658436
        k(    4) = (   0.0292398   0.0292398   0.2046784), wk =   0.0658436
        k(    5) = (   0.0292398   0.0292398  -0.2631579), wk =   0.0329218
        k(    6) = (   0.0292398   0.0877193   0.0877193), wk =   0.0658436
        k(    7) = (   0.0292398   0.0877193   0.1461988), wk =   0.1316872
        k(    8) = (   0.0292398   0.0877193   0.2046784), wk =   0.1316872
        k(    9) = (   0.0292398   0.0877193  -0.2631579), wk =   0.0658436
        k(   10) = (   0.0292398   0.1461988   0.1461988), wk =   0.0658436
        k(   11) = (   0.0292398   0.1461988   0.2046784), wk =   0.1316872
        k(   12) = (   0.0292398   0.1461988  -0.2631579), wk =   0.0658436
        k(   13) = (   0.0292398   0.2046784   0.2046784), wk =   0.0658436
        k(   14) = (   0.0292398   0.2046784  -0.2631579), wk =   0.0658436
        k(   15) = (   0.0292398  -0.2631579  -0.2631579), wk =   0.0164609
        k(   16) = (   0.0877193   0.0877193   0.0877193), wk =   0.0219479
        k(   17) = (   0.0877193   0.0877193   0.1461988), wk =   0.0658436
        k(   18) = (   0.0877193   0.0877193   0.2046784), wk =   0.0658436
        k(   19) = (   0.0877193   0.0877193  -0.2631579), wk =   0.0329218
        k(   20) = (   0.0877193   0.1461988   0.1461988), wk =   0.0658436
        k(   21) = (   0.0877193   0.1461988   0.2046784), wk =   0.1316872
        k(   22) = (   0.0877193   0.1461988  -0.2631579), wk =   0.0658436
        k(   23) = (   0.0877193   0.2046784   0.2046784), wk =   0.0658436
        k(   24) = (   0.0877193   0.2046784  -0.2631579), wk =   0.0658436
        k(   25) = (   0.0877193  -0.2631579  -0.2631579), wk =   0.0164609
        k(   26) = (   0.1461988   0.1461988   0.1461988), wk =   0.0219479
        k(   27) = (   0.1461988   0.1461988   0.2046784), wk =   0.0658436
        k(   28) = (   0.1461988   0.1461988  -0.2631579), wk =   0.0329218
        k(   29) = (   0.1461988   0.2046784   0.2046784), wk =   0.0658436
        k(   30) = (   0.1461988   0.2046784  -0.2631579), wk =   0.0658436
        k(   31) = (   0.1461988  -0.2631579  -0.2631579), wk =   0.0164609
        k(   32) = (   0.2046784   0.2046784   0.2046784), wk =   0.0219479
        k(   33) = (   0.2046784   0.2046784  -0.2631579), wk =   0.0329218
        k(   34) = (   0.2046784  -0.2631579  -0.2631579), wk =   0.0164609
        k(   35) = (  -0.2631579  -0.2631579  -0.2631579), wk =   0.0027435

     Initial potential from superposition of free atoms

     starting charge  255.98980, renormalised to  256.00000
     Starting wfcs are  160 randomized atomic wfcs
     Checking if some PAW data can be deallocated...

     Self-consistent Calculation

     iteration #  1     ecut=    71.00 Ry     beta= 0.10
     Davidson diagonalization with overlap
     ethr =  1.00E-02,  avg # of iterations =  2.0

     total energy              =   -6899.21383980 Ry
     estimated scf accuracy    <       9.73265617 Ry

[...]

     total energy              =   -6897.64681959 Ry
     estimated scf accuracy    <       0.00000247 Ry

     iteration # 27     ecut=    71.00 Ry     beta= 0.10
     Davidson diagonalization with overlap
     ethr =  9.64E-10,  avg # of iterations =  1.0

     End of self-consistent calculation

          k = 0.0292 0.0292 0.0292 (103404 PWs)   bands (ev):

   -71.3918 -71.3918 -71.3918 -71.3918 -71.3918 -71.3918 -71.3918 -71.3918
   -71.3918 -71.3917 -71.3917 -71.3917 -71.3917 -71.3917 -71.3917 -71.3917
   -41.4729 -41.4729 -41.4729 -41.4728 -41.4728 -41.4728 -41.4728 -41.4728
   -41.4728 -41.4728 -41.4728 -41.4728 -41.4728 -41.4728 -41.4728 -41.4728
   -41.4728 -41.4728 -41.4728 -41.4728 -41.4727 -41.4727 -41.4727 -41.4727
   -41.4727 -41.4727 -41.4727 -41.4727 -41.4727 -41.4727 -41.4727 -41.4727
   -41.4727 -41.4727 -41.4727 -41.4727 -41.4727 -41.4727 -41.4727 -41.4727
   -41.4727 -41.4727 -41.4726 -41.4726 -41.4726 -41.4726 -41.4726 -41.4726
    -1.2868  -0.6513  -0.6512  -0.6512  -0.6487  -0.6487  -0.6487  -0.5857
    -0.5857  -0.5577  -0.5577  -0.5577  -0.5565  -0.5565  -0.5565  -0.5321
    -0.5321  -0.5321  -0.5071  -0.5004  -0.5004  -0.5004  -0.4964  -0.4964
    -0.4955  -0.4955  -0.4935  -0.4858  -0.4858  -0.4858  -0.4751  -0.4751
    -0.4689  -0.4688  -0.4688  -0.4667  -0.4460  -0.4460  -0.4460  -0.4412
    -0.4412  -0.4412  -0.4329  -0.4329  -0.4329  -0.4272  -0.4272  -0.4272
    -0.4025  -0.4025  -0.4025  -0.3864  -0.3864  -0.3864  -0.3861  -0.3861
    -0.3861  -0.3854  -0.3854  -0.3854  -0.3731  -0.3731  -0.3715  -0.3715
    -0.3715  -0.3694  -0.3694  -0.3694  -0.3679  -0.3679  -0.3678  -0.3678
    -0.3113  -0.3078  -0.3078  -0.2903  -0.2903  -0.2903  -0.2886  -0.2886
    -0.2886  -0.1819  -0.1819  -0.1819   0.0035   0.0035   0.0035   0.5562
     0.5562   0.5562

[...]

          k = 0.2047-0.2632-0.2632 (103452 PWs)   bands (ev):

[...]

          k =-0.2632-0.2632-0.2632 (103384 PWs)   bands (ev):

   -71.3918 -71.3918 -71.3918 -71.3918 -71.3918 -71.3917 -71.3917 -71.3917
   -71.3917 -71.3917 -71.3917 -71.3917 -71.3917 -71.3917 -71.3917 -71.3917
   -41.4728 -41.4728 -41.4728 -41.4728 -41.4728 -41.4728 -41.4728 -41.4728
   -41.4728 -41.4728 -41.4728 -41.4728 -41.4728 -41.4728 -41.4728 -41.4728
   -41.4727 -41.4727 -41.4727 -41.4727 -41.4727 -41.4727 -41.4727 -41.4727
   -41.4727 -41.4727 -41.4727 -41.4727 -41.4727 -41.4727 -41.4727 -41.4727
   -41.4727 -41.4727 -41.4727 -41.4727 -41.4727 -41.4727 -41.4727 -41.4727
   -41.4727 -41.4727 -41.4727 -41.4727 -41.4727 -41.4727 -41.4727 -41.4727
    -0.6344  -0.6344  -0.6344  -0.6344  -0.6344  -0.6344  -0.6344  -0.6344
    -0.5295  -0.5295  -0.5295  -0.5295  -0.5295  -0.5295  -0.5295  -0.5295
    -0.5219  -0.5219  -0.5219  -0.5219  -0.5219  -0.5219  -0.5219  -0.5219
    -0.5219  -0.5219  -0.5219  -0.5219  -0.5219  -0.5219  -0.5219  -0.5219
    -0.4863  -0.4863  -0.4863  -0.4863  -0.4863  -0.4863  -0.4863  -0.4863
    -0.4863  -0.4863  -0.4863  -0.4863  -0.4863  -0.4863  -0.4863  -0.4863
    -0.3782  -0.3782  -0.3782  -0.3782  -0.3782  -0.3782  -0.3782  -0.3782
    -0.3782  -0.3782  -0.3782  -0.3782  -0.3782  -0.3782  -0.3782  -0.3782
    -0.3429  -0.3429  -0.3429  -0.3429  -0.3429  -0.3429  -0.3429  -0.3429
    -0.3429  -0.3429  -0.3429  -0.3429  -0.3429  -0.3429  -0.3429  -0.3429
    -0.2003  -0.2003  -0.2003  -0.2003  -0.2003  -0.2003  -0.2003  -0.2003
     0.8936   0.8936

     the Fermi energy is    -0.1778 ev

!    total energy              =   -6897.64682046 Ry

     total all-electron energy =   -144985.841990 Ry
     estimated scf accuracy    <       0.00000061 Ry
     smearing contrib. (-TS)   =      -0.51654264 Ry
     internal energy E=F+TS    =   -6897.13027782 Ry

     The total energy is F=E-TS. E is the sum of the following terms:
     one-electron contribution =   -2554.61481642 Ry
     hartree contribution      =    1283.24893055 Ry
     xc contribution           =    -458.47688925 Ry
     ewald contribution        =   -1372.86358594 Ry
     one-center paw contrib.   =   -3794.42391677 Ry

     convergence has been achieved in  27 iterations

     Forces acting on atoms (cartesian axes, Ry/au):

     atom    1 type  1   force =     0.00000000    0.00000000    0.00000000
     atom    2 type  1   force =    -0.00001939   -0.00001939   -0.00001939
     atom    3 type  1   force =     0.00000000    0.00000000    0.00000000
     atom    4 type  1   force =    -0.00001939   -0.00001939    0.00001939
     atom    5 type  1   force =     0.00000000    0.00000000    0.00000000
     atom    6 type  1   force =    -0.00001939    0.00001939   -0.00001939
     atom    7 type  1   force =     0.00000000    0.00000000    0.00000000
     atom    8 type  1   force =    -0.00001939    0.00001939    0.00001939
     atom    9 type  1   force =     0.00000000    0.00000000    0.00000000
     atom   10 type  1   force =     0.00001939   -0.00001939   -0.00001939
     atom   11 type  1   force =     0.00000000    0.00000000    0.00000000
     atom   12 type  1   force =     0.00001939   -0.00001939    0.00001939
     atom   13 type  1   force =     0.00000000    0.00000000    0.00000000
     atom   14 type  1   force =     0.00001939    0.00001939   -0.00001939
     atom   15 type  1   force =     0.00000000    0.00000000    0.00000000
     atom   16 type  1   force =     0.00001939    0.00001939    0.00001939

     Total force =     0.000095     Total SCF correction =     0.000620
     SCF correction compared to forces is large: reduce conv_thr to get better values

     Computing stress (Cartesian axis) and pressure

          total   stress  (Ry/bohr**3)                   (kbar)     P=      -22.46
  -0.00015269   0.00000000   0.00000000          -22.46        0.00        0.00
   0.00000000  -0.00015269   0.00000000            0.00      -22.46        0.00
   0.00000000   0.00000000  -0.00015269            0.00        0.00      -22.46

     Writing output data file /scratch/bYcGKzpQOiYRKMUa.save/

     General routines

     Parallel routines

   This run was terminated on:   0:53:12  26Nov2021

   JOB DONE.