     Program PWSCF v.6.7MaX starts on 29Nov2021 at 23:13: 2

     R & G space division:  proc/nbgrp/npool/nimage =      72
     Reading input from bcc_2.in
Warning: card &CELL ignored
Warning: card CELL_DYNAMICS = 'BFGS', ignored
Warning: card CELL_FACTOR = 2.0, ignored
Warning: card PRESS = 0.0, ignored
Warning: card / ignored

     Current dimensions of program PWSCF are:
     Max number of different atomic species (ntypx) = 10
     Max number of k-points (npk) =  40000
     Max angular momentum in pseudopotentials (lmaxx) =  3
     file Pd.pbe-spn-kjpaw_psl.1.0.0.UPF: wavefunction(s)  4S 5S 4D renormalized

     Subspace diagonalization in iterative solution of the eigenvalue problem:
     one sub-group per band group will be used

     Found symmetry operation: I + (  0.2500  0.2500  0.2500)
     This is a supercell, fractional translations are disabled
     Message from routine setup:
     using ibrav=0 with symmetry is DISCOURAGED, use correct ibrav instead

     bravais-lattice index     =            0
     lattice parameter (alat)  =      11.4293  a.u.
     unit-cell volume          =     810.5707 (a.u.)^3
     number of atoms/cell      =           16
     number of atomic types    =            1
     number of electrons       =       288.00
     number of Kohn-Sham states=          173
     kinetic-energy cutoff     =      71.0000  Ry
     charge density cutoff     =     430.0000  Ry
     scf convergence threshold =      1.0E-06
     mixing beta               =       0.1000
     number of iterations used =           10  TF        mixing
     Exchange-correlation= SLA  PW   PBX  PBC
                           (   1   4   3   4   0   0   0)

     celldm(1)=  11.429280  celldm(2)=   0.000000  celldm(3)=   0.000000
     celldm(4)=   0.000000  celldm(5)=   0.000000  celldm(6)=   0.000000

     crystal axes: (cart. coord. in units of alat)
               a(1) = (   0.815789   0.000000   0.000000 )
               a(2) = (   0.000000   0.815789   0.000000 )
               a(3) = (   0.000000   0.000000   0.815789 )

     reciprocal axes: (cart. coord. in units 2 pi/alat)
               b(1) = (  1.225806  0.000000  0.000000 )
               b(2) = (  0.000000  1.225806  0.000000 )
               b(3) = (  0.000000  0.000000  1.225806 )

     PseudoPot. # 1 for Pd read from file:
     /rds/homes/b/bxp912/pp/Pd.pbe-spn-kjpaw_psl.1.0.0.UPF
     MD5 check sum: 790f2ebce206edfd9790dcb9844eca51
     Pseudo is Projector augmented-wave + core cor, Zval = 18.0
     Generated using &quot;atomic&quot; code by A. Dal Corso  v.6.3
     Shape of augmentation charge: PSQ
     Using radial grid of 1235 points,  6 beta functions with:
                l(1) =   0
                l(2) =   0
                l(3) =   1
                l(4) =   1
                l(5) =   2
                l(6) =   2
     Q(r) pseudized with 0 coefficients

     atomic species   valence    mass     pseudopotential
        Pd            18.00   106.42000     Pd( 1.00)

     48 Sym. Ops., with inversion, found

   Cartesian axes

     site n.     atom                  positions (alat units)
         1           Pd  tau(   1) = (   0.0000000   0.0000000   0.0000000  )
         2           Pd  tau(   2) = (   0.2039474   0.2039474   0.2039474  )
         3           Pd  tau(   3) = (   0.0000000   0.0000000   0.4078947  )
         4           Pd  tau(   4) = (   0.2039474   0.2039474   0.6118421  )
         5           Pd  tau(   5) = (   0.0000000   0.4078947   0.0000000  )
         6           Pd  tau(   6) = (   0.2039474   0.6118421   0.2039474  )
         7           Pd  tau(   7) = (   0.0000000   0.4078947   0.4078947  )
         8           Pd  tau(   8) = (   0.2039474   0.6118421   0.6118421  )
         9           Pd  tau(   9) = (   0.4078947   0.0000000   0.0000000  )
        10           Pd  tau(  10) = (   0.6118421   0.2039474   0.2039474  )
        11           Pd  tau(  11) = (   0.4078947   0.0000000   0.4078947  )
        12           Pd  tau(  12) = (   0.6118421   0.2039474   0.6118421  )
        13           Pd  tau(  13) = (   0.4078947   0.4078947   0.0000000  )
        14           Pd  tau(  14) = (   0.6118421   0.6118421   0.2039474  )
        15           Pd  tau(  15) = (   0.4078947   0.4078947   0.4078947  )
        16           Pd  tau(  16) = (   0.6118421   0.6118421   0.6118421  )

     number of k points=    35  Marzari-Vanderbilt smearing, width (Ry)=  0.0400
                       cart. coord. in units 2pi/alat
        k(    1) = (   0.0681004   0.0681004   0.0681004), wk =   0.0219479
        k(    2) = (   0.0681004   0.0681004   0.2043011), wk =   0.0658436
        k(    3) = (   0.0681004   0.0681004   0.3405018), wk =   0.0658436
        k(    4) = (   0.0681004   0.0681004   0.4767025), wk =   0.0658436
        k(    5) = (   0.0681004   0.0681004  -0.6129032), wk =   0.0329218
        k(    6) = (   0.0681004   0.2043011   0.2043011), wk =   0.0658436
        k(    7) = (   0.0681004   0.2043011   0.3405018), wk =   0.1316872
        k(    8) = (   0.0681004   0.2043011   0.4767025), wk =   0.1316872
        k(    9) = (   0.0681004   0.2043011  -0.6129032), wk =   0.0658436
        k(   10) = (   0.0681004   0.3405018   0.3405018), wk =   0.0658436
        k(   11) = (   0.0681004   0.3405018   0.4767025), wk =   0.1316872
        k(   12) = (   0.0681004   0.3405018  -0.6129032), wk =   0.0658436
        k(   13) = (   0.0681004   0.4767025   0.4767025), wk =   0.0658436
        k(   14) = (   0.0681004   0.4767025  -0.6129032), wk =   0.0658436
        k(   15) = (   0.0681004  -0.6129032  -0.6129032), wk =   0.0164609
        k(   16) = (   0.2043011   0.2043011   0.2043011), wk =   0.0219479
        k(   17) = (   0.2043011   0.2043011   0.3405018), wk =   0.0658436
        k(   18) = (   0.2043011   0.2043011   0.4767025), wk =   0.0658436
        k(   19) = (   0.2043011   0.2043011  -0.6129032), wk =   0.0329218
        k(   20) = (   0.2043011   0.3405018   0.3405018), wk =   0.0658436
        k(   21) = (   0.2043011   0.3405018   0.4767025), wk =   0.1316872
        k(   22) = (   0.2043011   0.3405018  -0.6129032), wk =   0.0658436
        k(   23) = (   0.2043011   0.4767025   0.4767025), wk =   0.0658436
        k(   24) = (   0.2043011   0.4767025  -0.6129032), wk =   0.0658436
        k(   25) = (   0.2043011  -0.6129032  -0.6129032), wk =   0.0164609
        k(   26) = (   0.3405018   0.3405018   0.3405018), wk =   0.0219479
        k(   27) = (   0.3405018   0.3405018   0.4767025), wk =   0.0658436
        k(   28) = (   0.3405018   0.3405018  -0.6129032), wk =   0.0329218
        k(   29) = (   0.3405018   0.4767025   0.4767025), wk =   0.0658436
        k(   30) = (   0.3405018   0.4767025  -0.6129032), wk =   0.0658436
        k(   31) = (   0.3405018  -0.6129032  -0.6129032), wk =   0.0164609
        k(   32) = (   0.4767025   0.4767025   0.4767025), wk =   0.0219479
        k(   33) = (   0.4767025   0.4767025  -0.6129032), wk =   0.0329218
        k(   34) = (   0.4767025  -0.6129032  -0.6129032), wk =   0.0164609
        k(   35) = (  -0.6129032  -0.6129032  -0.6129032), wk =   0.0027435

     Check: negative core charge=   -0.000002

     Initial potential from superposition of free atoms

     starting charge  287.99388, renormalised to  288.00000
     Starting wfcs are  160 randomized atomic wfcs +   13 random wfcs
     Checking if some PAW data can be deallocated...

     Self-consistent Calculation

     iteration #  1     ecut=    71.00 Ry     beta= 0.10
     Davidson diagonalization with overlap
     ethr =  1.00E-02,  avg # of iterations =  4.4

     Threshold (ethr) on eigenvalues was too large:
     Diagonalizing with lowered threshold

     Davidson diagonalization with overlap
     ethr =  3.58E-05,  avg # of iterations =  8.3

     total energy              =   -8181.45509096 Ry
     estimated scf accuracy    <       0.08310109 Ry

[...]

     iteration #  4     ecut=    71.00 Ry     beta= 0.10
     Davidson diagonalization with overlap
     c_bands:  2 eigenvalues not converged
     c_bands:  1 eigenvalues not converged
     ethr =  1.19E-06,  avg # of iterations =  6.8

[...]

     total energy              =   -8181.42294864 Ry
     estimated scf accuracy    <       0.00001062 Ry

     iteration # 10     ecut=    71.00 Ry     beta= 0.10
     Davidson diagonalization with overlap
     ethr =  3.69E-09,  avg # of iterations =  2.0

     End of self-consistent calculation

          k = 0.0681 0.0681 0.0681 (  8247 PWs)   bands (ev):

   -42.2356 -41.4482 -41.4482 -41.4481 -41.3070 -41.3070 -41.3070 -41.2861
   -41.2861 -41.2861 -41.2736 -41.2736 -41.2736 -41.1923 -41.1911 -40.6377
    -9.5893  -9.5892  -9.5892  -9.5716  -9.5716  -9.5716  -8.3665  -8.3665
    -8.3251  -8.1183  -8.0349  -8.0349  -8.0349  -7.9628  -7.9628  -7.8203
    -7.8203  -7.8203  -7.6383  -7.6383  -7.4748  -7.2043  -7.2043  -7.2043
    -7.1363  -7.1363  -7.1362  -7.0081  -7.0081  -7.0081  -6.9878  -6.9878
    -6.9878  -6.9809  -6.9809  -6.9809  -6.9170  -6.9170  -6.9170  -5.9021
    -5.9021  -5.9021  -5.8816  -5.8816  -5.8816  -5.8705  -5.8239  -5.8239
    31.0551  31.0551  32.2182  32.2182  32.2182  32.2270  32.2270  32.2270
    33.0449  34.2915  34.2915  34.2915  34.3335  34.3335  34.3335  35.0801
    35.0801  35.0801  35.9912  35.9912  35.9912  36.1076  36.4764  36.4764
    36.4964  36.4964  36.4964  36.7433  36.7433  36.7433  37.1875  37.1875
    37.5262  37.5908  37.5908  37.7262  38.8877  38.8877  38.8877  39.0992
    39.0992  39.0992  39.4104  39.4104  39.4104  39.6835  39.6835  39.6835
    41.2935  41.2935  41.2935  42.0407  42.0407  42.0407  42.6883  42.6883
    42.8798  42.8798  42.8798  42.9491  42.9491  42.9491  43.3824  43.3824
    43.3824  43.8148  43.8148  43.8148  44.0211  44.0211  44.0215  44.0215
    46.2948  46.5397  46.5397  46.5397  46.5899  46.5899  47.0224  47.0224
    47.0224  47.2700  47.2700  47.2700  48.2890  48.2890  48.2890  48.5403
    48.5403  48.5403  48.5920  48.5920  48.5920  58.8648  58.8648  58.9656
    59.7093  60.5066  60.5066  60.5758  60.5758  60.5758  60.6577  60.6577
    60.6577  60.9946  61.5652  61.6197  61.6197

[...]

          k = 0.4767-0.6129-0.6129 (  8176 PWs)   bands (ev):

[...]

          k =-0.6129-0.6129-0.6129 (  8144 PWs)   bands (ev):

   -41.6160 -41.6159 -41.6159 -41.6159 -41.6158 -41.6158 -41.6158 -41.6157
   -41.0352 -41.0352 -41.0352 -41.0352 -41.0351 -41.0351 -41.0351 -41.0350
    -8.5572  -8.5572  -8.5572  -8.5572  -8.5572  -8.5572  -8.5572  -8.5572
    -8.5571  -8.5571  -8.5571  -8.5571  -8.5571  -8.5571  -8.5571  -8.5571
    -8.3108  -8.3108  -8.3108  -8.3107  -8.3107  -8.3106  -8.3106  -8.3106
    -6.5254  -6.5254  -6.5254  -6.5254  -6.5253  -6.5253  -6.5253  -6.5253
    -6.3204  -6.3204  -6.3204  -6.3204  -6.3204  -6.3204  -6.3203  -6.3203
    -6.3203  -6.3203  -6.3203  -6.3203  -6.3203  -6.3202  -6.3202  -6.3202
    35.5428  35.5428  35.5428  35.5428  35.5428  35.5428  35.5428  35.5428
    35.5428  35.5428  35.5428  35.5428  35.5428  35.5428  35.5428  35.5428
    35.5635  35.5635  35.5635  35.5635  35.5635  35.5635  35.5635  35.5635
    35.5636  35.5636  35.5636  35.5636  35.5636  35.5636  35.5636  35.5636
    35.6990  35.6990  35.6990  35.6990  35.6990  35.6990  35.6990  35.6990
    37.0582  37.0583  37.0583  37.0583  37.0583  37.0583  37.0583  37.0583
    42.7640  42.7640  42.7640  42.7640  42.7640  42.7640  42.7640  42.7640
    42.7641  42.7641  42.7641  42.7641  42.7641  42.7641  42.7641  42.7641
    44.1959  44.1959  44.1959  44.1959  44.1959  44.1959  44.1959  44.1959
    44.1959  44.1959  44.1959  44.1960  44.1960  44.1960  44.1960  44.1960
    46.5541  46.5541  46.5541  46.5541  46.5541  46.5541  46.5541  46.5541
    60.6162  60.6162  60.6162  60.6162  60.6162  60.6163  60.6163  60.6163
    60.6163  60.6163  60.6163  60.6163  60.6163  60.6163  60.6163  60.6163
    60.8314  60.8314  60.8314  60.8314  60.8314

     the Fermi energy is    45.9178 ev

!    total energy              =   -8181.42295293 Ry

     total all-electron energy =   -161461.849807 Ry
     estimated scf accuracy    <       0.00000057 Ry
     smearing contrib. (-TS)   =       0.00768816 Ry
     internal energy E=F+TS    =   -8181.43064109 Ry

     The total energy is F=E-TS. E is the sum of the following terms:
     one-electron contribution =      -0.23506360 Ry
     hartree contribution      =     460.79916782 Ry
     xc contribution           =    -510.87396441 Ry
     ewald contribution        =   -4046.76452786 Ry
     one-center paw contrib.   =   -4084.35625305 Ry

     convergence has been achieved in  10 iterations

     Forces acting on atoms (cartesian axes, Ry/au):

     atom    1 type  1   force =     0.00000000    0.00000000    0.00000000
     atom    2 type  1   force =     0.00000191    0.00000191    0.00000191
     atom    3 type  1   force =     0.00000000    0.00000000    0.00000000
     atom    4 type  1   force =     0.00000191    0.00000191   -0.00000191
     atom    5 type  1   force =     0.00000000    0.00000000    0.00000000
     atom    6 type  1   force =     0.00000191   -0.00000191    0.00000191
     atom    7 type  1   force =     0.00000000    0.00000000    0.00000000
     atom    8 type  1   force =     0.00000191   -0.00000191   -0.00000191
     atom    9 type  1   force =     0.00000000    0.00000000    0.00000000
     atom   10 type  1   force =    -0.00000191    0.00000191    0.00000191
     atom   11 type  1   force =     0.00000000    0.00000000    0.00000000
     atom   12 type  1   force =    -0.00000191    0.00000191   -0.00000191
     atom   13 type  1   force =     0.00000000    0.00000000    0.00000000
     atom   14 type  1   force =    -0.00000191   -0.00000191    0.00000191
     atom   15 type  1   force =     0.00000000    0.00000000    0.00000000
     atom   16 type  1   force =    -0.00000191   -0.00000191   -0.00000191

     Total force =     0.000009     Total SCF correction =     0.000297
     SCF correction compared to forces is large: reduce conv_thr to get better values

     Computing stress (Cartesian axis) and pressure

          total   stress  (Ry/bohr**3)                   (kbar)     P=     7662.67
   0.05208974   0.00000000   0.00000000         7662.67        0.00        0.00
   0.00000000   0.05208974   0.00000000            0.00     7662.67        0.00
   0.00000000   0.00000000   0.05208974            0.00        0.00     7662.67

     Writing output data file /scratch/VHDtQpmfGdNWwAWb.save/

     General routines

     Parallel routines

   This run was terminated on:  23:15: 9  29Nov2021

   JOB DONE.