     Program PWSCF v.6.7MaX starts on 30Nov2021 at  3: 0:38

     R & G space division:  proc/nbgrp/npool/nimage =      72
     Reading input from bcc_20.in
Warning: card &CELL ignored
Warning: card CELL_DYNAMICS = 'BFGS', ignored
Warning: card CELL_FACTOR = 2.0, ignored
Warning: card PRESS = 0.0, ignored
Warning: card / ignored

     Current dimensions of program PWSCF are:
     Max number of different atomic species (ntypx) = 10
     Max number of k-points (npk) =  40000
     Max angular momentum in pseudopotentials (lmaxx) =  3
     file Pd.pbe-spn-kjpaw_psl.1.0.0.UPF: wavefunction(s)  4S 5S 4D renormalized

     Subspace diagonalization in iterative solution of the eigenvalue problem:
     one sub-group per band group will be used

     Found symmetry operation: I + (  0.2500  0.2500  0.2500)
     This is a supercell, fractional translations are disabled
     Message from routine setup:
     using ibrav=0 with symmetry is DISCOURAGED, use correct ibrav instead

     bravais-lattice index     =            0
     lattice parameter (alat)  =      11.4293  a.u.
     unit-cell volume          =   11943.9123 (a.u.)^3
     number of atoms/cell      =           16
     number of atomic types    =            1
     number of electrons       =       288.00
     number of Kohn-Sham states=          173
     kinetic-energy cutoff     =      71.0000  Ry
     charge density cutoff     =     430.0000  Ry
     scf convergence threshold =      1.0E-06
     mixing beta               =       0.1000
     number of iterations used =           10  TF        mixing
     Exchange-correlation= SLA  PW   PBX  PBC
                           (   1   4   3   4   0   0   0)

     celldm(1)=  11.429280  celldm(2)=   0.000000  celldm(3)=   0.000000
     celldm(4)=   0.000000  celldm(5)=   0.000000  celldm(6)=   0.000000

     crystal axes: (cart. coord. in units of alat)
               a(1) = (   2.000000   0.000000   0.000000 )
               a(2) = (   0.000000   2.000000   0.000000 )
               a(3) = (   0.000000   0.000000   2.000000 )

     reciprocal axes: (cart. coord. in units 2 pi/alat)
               b(1) = (  0.500000  0.000000  0.000000 )
               b(2) = (  0.000000  0.500000  0.000000 )
               b(3) = (  0.000000  0.000000  0.500000 )

     PseudoPot. # 1 for Pd read from file:
     /rds/homes/b/bxp912/pp/Pd.pbe-spn-kjpaw_psl.1.0.0.UPF
     MD5 check sum: 790f2ebce206edfd9790dcb9844eca51
     Pseudo is Projector augmented-wave + core cor, Zval = 18.0
     Generated using &quot;atomic&quot; code by A. Dal Corso  v.6.3
     Shape of augmentation charge: PSQ
     Using radial grid of 1235 points,  6 beta functions with:
                l(1) =   0
                l(2) =   0
                l(3) =   1
                l(4) =   1
                l(5) =   2
                l(6) =   2
     Q(r) pseudized with 0 coefficients

     atomic species   valence    mass     pseudopotential
        Pd            18.00   106.42000     Pd( 1.00)

     48 Sym. Ops., with inversion, found

   Cartesian axes

     site n.     atom                  positions (alat units)
         1           Pd  tau(   1) = (   0.0000000   0.0000000   0.0000000  )
         2           Pd  tau(   2) = (   0.5000000   0.5000000   0.5000000  )
         3           Pd  tau(   3) = (   0.0000000   0.0000000   1.0000000  )
         4           Pd  tau(   4) = (   0.5000000   0.5000000   1.5000000  )
         5           Pd  tau(   5) = (   0.0000000   1.0000000   0.0000000  )
         6           Pd  tau(   6) = (   0.5000000   1.5000000   0.5000000  )
         7           Pd  tau(   7) = (   0.0000000   1.0000000   1.0000000  )
         8           Pd  tau(   8) = (   0.5000000   1.5000000   1.5000000  )
         9           Pd  tau(   9) = (   1.0000000   0.0000000   0.0000000  )
        10           Pd  tau(  10) = (   1.5000000   0.5000000   0.5000000  )
        11           Pd  tau(  11) = (   1.0000000   0.0000000   1.0000000  )
        12           Pd  tau(  12) = (   1.5000000   0.5000000   1.5000000  )
        13           Pd  tau(  13) = (   1.0000000   1.0000000   0.0000000  )
        14           Pd  tau(  14) = (   1.5000000   1.5000000   0.5000000  )
        15           Pd  tau(  15) = (   1.0000000   1.0000000   1.0000000  )
        16           Pd  tau(  16) = (   1.5000000   1.5000000   1.5000000  )

     number of k points=    35  Marzari-Vanderbilt smearing, width (Ry)=  0.0400
                       cart. coord. in units 2pi/alat
        k(    1) = (   0.0277778   0.0277778   0.0277778), wk =   0.0219479
        k(    2) = (   0.0277778   0.0277778   0.0833333), wk =   0.0658436
        k(    3) = (   0.0277778   0.0277778   0.1388889), wk =   0.0658436
        k(    4) = (   0.0277778   0.0277778   0.1944444), wk =   0.0658436
        k(    5) = (   0.0277778   0.0277778  -0.2500000), wk =   0.0329218
        k(    6) = (   0.0277778   0.0833333   0.0833333), wk =   0.0658436
        k(    7) = (   0.0277778   0.0833333   0.1388889), wk =   0.1316872
        k(    8) = (   0.0277778   0.0833333   0.1944444), wk =   0.1316872
        k(    9) = (   0.0277778   0.0833333  -0.2500000), wk =   0.0658436
        k(   10) = (   0.0277778   0.1388889   0.1388889), wk =   0.0658436
        k(   11) = (   0.0277778   0.1388889   0.1944444), wk =   0.1316872
        k(   12) = (   0.0277778   0.1388889  -0.2500000), wk =   0.0658436
        k(   13) = (   0.0277778   0.1944444   0.1944444), wk =   0.0658436
        k(   14) = (   0.0277778   0.1944444  -0.2500000), wk =   0.0658436
        k(   15) = (   0.0277778  -0.2500000  -0.2500000), wk =   0.0164609
        k(   16) = (   0.0833333   0.0833333   0.0833333), wk =   0.0219479
        k(   17) = (   0.0833333   0.0833333   0.1388889), wk =   0.0658436
        k(   18) = (   0.0833333   0.0833333   0.1944444), wk =   0.0658436
        k(   19) = (   0.0833333   0.0833333  -0.2500000), wk =   0.0329218
        k(   20) = (   0.0833333   0.1388889   0.1388889), wk =   0.0658436
        k(   21) = (   0.0833333   0.1388889   0.1944444), wk =   0.1316872
        k(   22) = (   0.0833333   0.1388889  -0.2500000), wk =   0.0658436
        k(   23) = (   0.0833333   0.1944444   0.1944444), wk =   0.0658436
        k(   24) = (   0.0833333   0.1944444  -0.2500000), wk =   0.0658436
        k(   25) = (   0.0833333  -0.2500000  -0.2500000), wk =   0.0164609
        k(   26) = (   0.1388889   0.1388889   0.1388889), wk =   0.0219479
        k(   27) = (   0.1388889   0.1388889   0.1944444), wk =   0.0658436
        k(   28) = (   0.1388889   0.1388889  -0.2500000), wk =   0.0329218
        k(   29) = (   0.1388889   0.1944444   0.1944444), wk =   0.0658436
        k(   30) = (   0.1388889   0.1944444  -0.2500000), wk =   0.0658436
        k(   31) = (   0.1388889  -0.2500000  -0.2500000), wk =   0.0164609
        k(   32) = (   0.1944444   0.1944444   0.1944444), wk =   0.0219479
        k(   33) = (   0.1944444   0.1944444  -0.2500000), wk =   0.0329218
        k(   34) = (   0.1944444  -0.2500000  -0.2500000), wk =   0.0164609
        k(   35) = (  -0.2500000  -0.2500000  -0.2500000), wk =   0.0027435

     Initial potential from superposition of free atoms

     starting charge  287.99388, renormalised to  288.00000
     Starting wfcs are  160 randomized atomic wfcs +   13 random wfcs
     Checking if some PAW data can be deallocated...

     Self-consistent Calculation

     iteration #  1     ecut=    71.00 Ry     beta= 0.10
     Davidson diagonalization with overlap
     ethr =  1.00E-02,  avg # of iterations =  6.3

     total energy              =   -8190.73566200 Ry
     estimated scf accuracy    <      12.55497597 Ry

[...]

     iteration # 20     ecut=    71.00 Ry     beta= 0.10
     Davidson diagonalization with overlap
     c_bands:  1 eigenvalues not converged
     ethr =  2.18E-05,  avg # of iterations =  6.5

[...]

     total energy              =   -8187.78826727 Ry
     estimated scf accuracy    <       0.00000265 Ry

     iteration # 59     ecut=    71.00 Ry     beta= 0.10
     Davidson diagonalization with overlap
     ethr =  5.93E-10,  avg # of iterations =  2.8

     End of self-consistent calculation

          k = 0.0278 0.0278 0.0278 (120722 PWs)   bands (ev):

   -82.8901 -82.8900 -82.8900 -82.8900 -82.8899 -82.8899 -82.8899 -82.8899
   -82.8899 -82.8899 -82.8899 -82.8899 -82.8899 -82.8898 -82.8898 -82.8898
   -48.7320 -48.7320 -48.7319 -48.7319 -48.7319 -48.7319 -48.7319 -48.7319
   -48.7319 -48.7319 -48.7319 -48.7319 -48.7319 -48.7319 -48.7319 -48.7319
   -48.7319 -48.7319 -48.7319 -48.7318 -48.7318 -48.7318 -48.7318 -48.7318
   -48.7318 -48.7318 -48.7318 -48.7318 -48.7318 -48.7318 -48.7318 -48.7318
   -48.7318 -48.7318 -48.7318 -48.7318 -48.7318 -48.7318 -48.7318 -48.7318
   -48.7318 -48.7318 -48.7317 -48.7317 -48.7317 -48.7317 -48.7317 -48.7317
    -1.5023  -1.5023  -1.5023  -1.5020  -1.5020  -1.5020  -1.5006  -1.5006
    -1.4939  -1.4939  -1.4939  -1.4932  -1.4932  -1.4932  -1.4676  -1.4676
    -1.4664  -1.4624  -1.4576  -1.4576  -1.4576  -1.4571  -1.4571  -1.4503
    -1.4503  -1.4503  -1.4470  -1.4470  -1.4443  -1.4442  -1.4442  -1.4420
    -1.4404  -1.4404  -1.4404  -1.4383  -1.4383  -1.4383  -1.4334  -1.4334
    -1.4334  -1.4314  -1.4314  -1.4314  -1.4297  -1.4297  -1.4297  -1.4292
    -1.4227  -1.4227  -1.4227  -1.4154  -1.4154  -1.4154  -1.4139  -1.4139
    -1.4139  -1.4137  -1.4137  -1.4137  -1.4095  -1.4095  -1.4095  -1.4095
    -1.4095  -1.4087  -1.4087  -1.4087  -1.4082  -1.4082  -1.4081  -1.4081
    -1.3806  -1.3791  -1.3791  -1.3708  -1.3708  -1.3708  -1.3701  -1.3701
    -1.3701  -0.6315  -0.6315  -0.6314  -0.4513  -0.4513  -0.4513  -0.1346
    -0.1345  -0.1345  -0.1083  -0.1082  -0.1082   0.0864   0.0891   0.6612
     1.7106   1.7113   1.7113   1.7376   1.7376   1.7383   2.6199   2.7224
     2.7224   2.9605   2.9605   3.0930   3.1073

[...]

          k = 0.1944-0.2500-0.2500 (120648 PWs)   bands (ev):

[...]

          k =-0.2500-0.2500-0.2500 (120648 PWs)   bands (ev):

   -82.8901 -82.8900 -82.8900 -82.8900 -82.8899 -82.8899 -82.8899 -82.8899
   -82.8899 -82.8899 -82.8899 -82.8899 -82.8899 -82.8898 -82.8898 -82.8898
   -48.7319 -48.7319 -48.7319 -48.7319 -48.7319 -48.7319 -48.7319 -48.7319
   -48.7319 -48.7319 -48.7319 -48.7319 -48.7318 -48.7318 -48.7318 -48.7318
   -48.7318 -48.7318 -48.7318 -48.7318 -48.7318 -48.7318 -48.7318 -48.7318
   -48.7318 -48.7318 -48.7318 -48.7318 -48.7318 -48.7318 -48.7318 -48.7318
   -48.7318 -48.7318 -48.7318 -48.7318 -48.7318 -48.7318 -48.7318 -48.7318
   -48.7318 -48.7318 -48.7317 -48.7317 -48.7317 -48.7317 -48.7317 -48.7317
    -1.4757  -1.4757  -1.4757  -1.4757  -1.4757  -1.4757  -1.4757  -1.4757
    -1.4757  -1.4757  -1.4757  -1.4756  -1.4756  -1.4756  -1.4756  -1.4756
    -1.4714  -1.4714  -1.4714  -1.4714  -1.4714  -1.4714  -1.4714  -1.4714
    -1.4548  -1.4548  -1.4548  -1.4548  -1.4548  -1.4548  -1.4548  -1.4548
    -1.4548  -1.4548  -1.4548  -1.4548  -1.4548  -1.4548  -1.4548  -1.4548
    -1.4257  -1.4257  -1.4257  -1.4257  -1.4256  -1.4256  -1.4256  -1.4256
    -1.4123  -1.4123  -1.4123  -1.4123  -1.4123  -1.4123  -1.4123  -1.4123
    -1.4123  -1.4123  -1.4123  -1.4123  -1.4123  -1.4122  -1.4122  -1.4122
    -1.3936  -1.3936  -1.3936  -1.3936  -1.3936  -1.3936  -1.3936  -1.3936
    -1.3936  -1.3936  -1.3936  -1.3936  -1.3936  -1.3936  -1.3936  -1.3936
    -0.7531  -0.7531  -0.7531  -0.7530  -0.7530  -0.7530  -0.7530  -0.7530
     0.1644   0.1646   0.1647   0.1647   0.1647   0.1649   0.1649   0.1649
     2.5092   2.5092   2.5093   2.5095   2.5095   2.5095   2.5098   2.5098
     2.5098   2.5098   2.5099   2.5100   2.5101

     the Fermi energy is    -0.9604 ev

!    total energy              =   -8187.78826814 Ry

     total all-electron energy =   -161468.215122 Ry
     estimated scf accuracy    <       0.00000098 Ry
     smearing contrib. (-TS)   =       0.36141502 Ry
     internal energy E=F+TS    =   -8188.14968316 Ry

     The total energy is F=E-TS. E is the sum of the following terms:
     one-electron contribution =   -3954.44084417 Ry
     hartree contribution      =    1993.16933398 Ry
     xc contribution           =    -492.96977834 Ry
     ewald contribution        =   -1650.65395215 Ry
     one-center paw contrib.   =   -4083.25444247 Ry

     convergence has been achieved in  59 iterations

     Forces acting on atoms (cartesian axes, Ry/au):

     atom    1 type  1   force =     0.00000000    0.00000000    0.00000000
     atom    2 type  1   force =    -0.00005976   -0.00005976   -0.00005976
     atom    3 type  1   force =     0.00000000    0.00000000    0.00000000
     atom    4 type  1   force =    -0.00005976   -0.00005976    0.00005976
     atom    5 type  1   force =     0.00000000    0.00000000    0.00000000
     atom    6 type  1   force =    -0.00005976    0.00005976   -0.00005976
     atom    7 type  1   force =     0.00000000    0.00000000    0.00000000
     atom    8 type  1   force =    -0.00005976    0.00005976    0.00005976
     atom    9 type  1   force =     0.00000000    0.00000000    0.00000000
     atom   10 type  1   force =     0.00005976   -0.00005976   -0.00005976
     atom   11 type  1   force =     0.00000000    0.00000000    0.00000000
     atom   12 type  1   force =     0.00005976   -0.00005976    0.00005976
     atom   13 type  1   force =     0.00000000    0.00000000    0.00000000
     atom   14 type  1   force =     0.00005976    0.00005976   -0.00005976
     atom   15 type  1   force =     0.00000000    0.00000000    0.00000000
     atom   16 type  1   force =     0.00005976    0.00005976    0.00005976

     Total force =     0.000293     Total SCF correction =     0.001721
     SCF correction compared to forces is large: reduce conv_thr to get better values

     Computing stress (Cartesian axis) and pressure

          total   stress  (Ry/bohr**3)                   (kbar)     P=       -7.82
  -0.00005317   0.00000000   0.00000000           -7.82        0.00        0.00
   0.00000000  -0.00005317   0.00000000            0.00       -7.82        0.00
   0.00000000   0.00000000  -0.00005317            0.00        0.00       -7.82

     Writing output data file /scratch/dtMCavhztgrGwvEk.save/

     General routines

     Parallel routines

   This run was terminated on:   3:37:50  30Nov2021

   JOB DONE.