     Program PWSCF v.6.7MaX starts on 29Nov2021 at 23:50:34

     R & G space division:  proc/nbgrp/npool/nimage =      72
     Reading input from bcc_12.in
Warning: card &CELL ignored
Warning: card CELL_DYNAMICS = 'BFGS', ignored
Warning: card CELL_FACTOR = 2.0, ignored
Warning: card PRESS = 0.0, ignored
Warning: card / ignored

     Current dimensions of program PWSCF are:
     Max number of different atomic species (ntypx) = 10
     Max number of k-points (npk) =  40000
     Max angular momentum in pseudopotentials (lmaxx) =  3
     file Pd.pbe-spn-kjpaw_psl.1.0.0.UPF: wavefunction(s)  4S 5S 4D renormalized

     Subspace diagonalization in iterative solution of the eigenvalue problem:
     one sub-group per band group will be used

     Found symmetry operation: I + (  0.2500  0.2500  0.2500)
     This is a supercell, fractional translations are disabled
     Message from routine setup:
     using ibrav=0 with symmetry is DISCOURAGED, use correct ibrav instead

     bravais-lattice index     =            0
     lattice parameter (alat)  =      11.4293  a.u.
     unit-cell volume          =    4778.2614 (a.u.)^3
     number of atoms/cell      =           16
     number of atomic types    =            1
     number of electrons       =       288.00
     number of Kohn-Sham states=          173
     kinetic-energy cutoff     =      71.0000  Ry
     charge density cutoff     =     430.0000  Ry
     scf convergence threshold =      1.0E-06
     mixing beta               =       0.1000
     number of iterations used =           10  TF        mixing
     Exchange-correlation= SLA  PW   PBX  PBC
                           (   1   4   3   4   0   0   0)

     celldm(1)=  11.429280  celldm(2)=   0.000000  celldm(3)=   0.000000
     celldm(4)=   0.000000  celldm(5)=   0.000000  celldm(6)=   0.000000

     crystal axes: (cart. coord. in units of alat)
               a(1) = (   1.473684   0.000000   0.000000 )
               a(2) = (   0.000000   1.473684   0.000000 )
               a(3) = (   0.000000   0.000000   1.473684 )

     reciprocal axes: (cart. coord. in units 2 pi/alat)
               b(1) = (  0.678571  0.000000  0.000000 )
               b(2) = (  0.000000  0.678571  0.000000 )
               b(3) = (  0.000000  0.000000  0.678571 )

     PseudoPot. # 1 for Pd read from file:
     /rds/homes/b/bxp912/pp/Pd.pbe-spn-kjpaw_psl.1.0.0.UPF
     MD5 check sum: 790f2ebce206edfd9790dcb9844eca51
     Pseudo is Projector augmented-wave + core cor, Zval = 18.0
     Generated using &quot;atomic&quot; code by A. Dal Corso  v.6.3
     Shape of augmentation charge: PSQ
     Using radial grid of 1235 points,  6 beta functions with:
                l(1) =   0
                l(2) =   0
                l(3) =   1
                l(4) =   1
                l(5) =   2
                l(6) =   2
     Q(r) pseudized with 0 coefficients

     atomic species   valence    mass     pseudopotential
        Pd            18.00   106.42000     Pd( 1.00)

     48 Sym. Ops., with inversion, found

   Cartesian axes

     site n.     atom                  positions (alat units)
         1           Pd  tau(   1) = (   0.0000000   0.0000000   0.0000000  )
         2           Pd  tau(   2) = (   0.3684211   0.3684211   0.3684211  )
         3           Pd  tau(   3) = (   0.0000000   0.0000000   0.7368421  )
         4           Pd  tau(   4) = (   0.3684211   0.3684211   1.1052632  )
         5           Pd  tau(   5) = (   0.0000000   0.7368421   0.0000000  )
         6           Pd  tau(   6) = (   0.3684211   1.1052632   0.3684211  )
         7           Pd  tau(   7) = (   0.0000000   0.7368421   0.7368421  )
         8           Pd  tau(   8) = (   0.3684211   1.1052632   1.1052632  )
         9           Pd  tau(   9) = (   0.7368421   0.0000000   0.0000000  )
        10           Pd  tau(  10) = (   1.1052632   0.3684211   0.3684211  )
        11           Pd  tau(  11) = (   0.7368421   0.0000000   0.7368421  )
        12           Pd  tau(  12) = (   1.1052632   0.3684211   1.1052632  )
        13           Pd  tau(  13) = (   0.7368421   0.7368421   0.0000000  )
        14           Pd  tau(  14) = (   1.1052632   1.1052632   0.3684211  )
        15           Pd  tau(  15) = (   0.7368421   0.7368421   0.7368421  )
        16           Pd  tau(  16) = (   1.1052632   1.1052632   1.1052632  )

     number of k points=    35  Marzari-Vanderbilt smearing, width (Ry)=  0.0400
                       cart. coord. in units 2pi/alat
        k(    1) = (   0.0376984   0.0376984   0.0376984), wk =   0.0219479
        k(    2) = (   0.0376984   0.0376984   0.1130952), wk =   0.0658436
        k(    3) = (   0.0376984   0.0376984   0.1884921), wk =   0.0658436
        k(    4) = (   0.0376984   0.0376984   0.2638889), wk =   0.0658436
        k(    5) = (   0.0376984   0.0376984  -0.3392857), wk =   0.0329218
        k(    6) = (   0.0376984   0.1130952   0.1130952), wk =   0.0658436
        k(    7) = (   0.0376984   0.1130952   0.1884921), wk =   0.1316872
        k(    8) = (   0.0376984   0.1130952   0.2638889), wk =   0.1316872
        k(    9) = (   0.0376984   0.1130952  -0.3392857), wk =   0.0658436
        k(   10) = (   0.0376984   0.1884921   0.1884921), wk =   0.0658436
        k(   11) = (   0.0376984   0.1884921   0.2638889), wk =   0.1316872
        k(   12) = (   0.0376984   0.1884921  -0.3392857), wk =   0.0658436
        k(   13) = (   0.0376984   0.2638889   0.2638889), wk =   0.0658436
        k(   14) = (   0.0376984   0.2638889  -0.3392857), wk =   0.0658436
        k(   15) = (   0.0376984  -0.3392857  -0.3392857), wk =   0.0164609
        k(   16) = (   0.1130952   0.1130952   0.1130952), wk =   0.0219479
        k(   17) = (   0.1130952   0.1130952   0.1884921), wk =   0.0658436
        k(   18) = (   0.1130952   0.1130952   0.2638889), wk =   0.0658436
        k(   19) = (   0.1130952   0.1130952  -0.3392857), wk =   0.0329218
        k(   20) = (   0.1130952   0.1884921   0.1884921), wk =   0.0658436
        k(   21) = (   0.1130952   0.1884921   0.2638889), wk =   0.1316872
        k(   22) = (   0.1130952   0.1884921  -0.3392857), wk =   0.0658436
        k(   23) = (   0.1130952   0.2638889   0.2638889), wk =   0.0658436
        k(   24) = (   0.1130952   0.2638889  -0.3392857), wk =   0.0658436
        k(   25) = (   0.1130952  -0.3392857  -0.3392857), wk =   0.0164609
        k(   26) = (   0.1884921   0.1884921   0.1884921), wk =   0.0219479
        k(   27) = (   0.1884921   0.1884921   0.2638889), wk =   0.0658436
        k(   28) = (   0.1884921   0.1884921  -0.3392857), wk =   0.0329218
        k(   29) = (   0.1884921   0.2638889   0.2638889), wk =   0.0658436
        k(   30) = (   0.1884921   0.2638889  -0.3392857), wk =   0.0658436
        k(   31) = (   0.1884921  -0.3392857  -0.3392857), wk =   0.0164609
        k(   32) = (   0.2638889   0.2638889   0.2638889), wk =   0.0219479
        k(   33) = (   0.2638889   0.2638889  -0.3392857), wk =   0.0329218
        k(   34) = (   0.2638889  -0.3392857  -0.3392857), wk =   0.0164609
        k(   35) = (  -0.3392857  -0.3392857  -0.3392857), wk =   0.0027435

     Initial potential from superposition of free atoms

     starting charge  287.99388, renormalised to  288.00000
     Starting wfcs are  160 randomized atomic wfcs +   13 random wfcs
     Checking if some PAW data can be deallocated...

     Self-consistent Calculation

     iteration #  1     ecut=    71.00 Ry     beta= 0.10
     Davidson diagonalization with overlap
     ethr =  1.00E-02,  avg # of iterations =  4.0

     total energy              =   -8190.58058635 Ry
     estimated scf accuracy    <      10.38000774 Ry

[...]

     total energy              =   -8189.07846554 Ry
     estimated scf accuracy    <       0.00000117 Ry

     iteration # 20     ecut=    71.00 Ry     beta= 0.10
     Davidson diagonalization with overlap
     ethr =  4.06E-10,  avg # of iterations =  2.0

     End of self-consistent calculation

          k = 0.0377 0.0377 0.0377 ( 48269 PWs)   bands (ev):

   -79.3000 -79.2999 -79.2999 -79.2999 -79.2999 -79.2999 -79.2999 -79.2999
   -79.2999 -79.2999 -79.2999 -79.2998 -79.2998 -79.2998 -79.2998 -79.2997
   -45.0823 -45.0823 -45.0823 -45.0823 -45.0823 -45.0823 -45.0815 -45.0815
   -45.0814 -45.0806 -45.0806 -45.0805 -45.0804 -45.0803 -45.0803 -45.0802
   -45.0802 -45.0802 -45.0801 -45.0801 -45.0801 -45.0800 -45.0800 -45.0800
   -45.0800 -45.0800 -45.0800 -45.0800 -45.0800 -45.0799 -45.0799 -45.0799
   -45.0797 -45.0797 -45.0797 -45.0797 -45.0796 -45.0796 -45.0796 -45.0785
   -45.0784 -45.0784 -45.0782 -45.0782 -45.0782 -45.0782 -45.0782 -45.0782
     1.1810   1.9979   1.9979   1.9979   2.0011   2.0011   2.0012   2.0649
     2.0649   2.1766   2.1766   2.1766   2.1796   2.1796   2.1796   2.2827
     2.3091   2.3091   2.3168   2.3168   2.3168   2.3359   2.3359   2.3359
     2.3495   2.3495   2.3495   2.3510   2.3510   2.3587   2.3589   2.3589
     2.3818   2.3989   2.3989   2.3989   2.4701   2.4701   2.4701   2.4826
     2.4826   2.4826   2.5031   2.5031   2.5031   2.5183   2.5183   2.5183
     2.5957   2.5957   2.5957   2.6386   2.6386   2.6386   2.6542   2.6542
     2.6542   2.6560   2.6560   2.6560   2.6782   2.6782   2.6884   2.6884
     2.6884   2.6957   2.6957   2.6957   2.7004   2.7004   2.7005   2.7005
     2.8396   2.8496   2.8496   2.8963   2.8963   2.8963   2.9008   2.9008
     2.9008   3.3179   3.3179   3.3179   3.7208   3.7208   3.7208   5.1419
     5.1419   5.1419   5.5410   5.5410   5.5410   5.6826   5.6826   5.6826
     6.0808   6.0808   6.0808   6.1770   6.2039   7.8952   8.0740   8.0740
     8.1743   8.5730   8.5730   8.8401   8.8654

[...]

          k = 0.2639-0.3393-0.3393 ( 48200 PWs)   bands (ev):

[...]

          k =-0.3393-0.3393-0.3393 ( 48056 PWs)   bands (ev):

   -79.2999 -79.2999 -79.2999 -79.2999 -79.2999 -79.2999 -79.2999 -79.2999
   -79.2998 -79.2998 -79.2998 -79.2998 -79.2998 -79.2998 -79.2998 -79.2998
   -45.0813 -45.0813 -45.0813 -45.0813 -45.0813 -45.0813 -45.0813 -45.0813
   -45.0813 -45.0813 -45.0813 -45.0813 -45.0813 -45.0813 -45.0813 -45.0813
   -45.0810 -45.0810 -45.0810 -45.0810 -45.0810 -45.0810 -45.0810 -45.0810
   -45.0791 -45.0791 -45.0791 -45.0791 -45.0791 -45.0791 -45.0791 -45.0791
   -45.0787 -45.0787 -45.0787 -45.0787 -45.0787 -45.0787 -45.0787 -45.0787
   -45.0787 -45.0787 -45.0787 -45.0787 -45.0787 -45.0787 -45.0787 -45.0787
     2.2375   2.2376   2.2376   2.2376   2.2376   2.2376   2.2376   2.2376
     2.2656   2.2656   2.2656   2.2656   2.2656   2.2656   2.2656   2.2656
     2.2656   2.2656   2.2656   2.2656   2.2656   2.2657   2.2657   2.2657
     2.2724   2.2724   2.2724   2.2724   2.2724   2.2724   2.2724   2.2724
     2.3331   2.3331   2.3331   2.3331   2.3331   2.3331   2.3331   2.3331
     2.3331   2.3331   2.3331   2.3331   2.3331   2.3331   2.3331   2.3331
     2.6675   2.6675   2.6675   2.6675   2.6675   2.6675   2.6675   2.6675
     2.6675   2.6675   2.6675   2.6675   2.6675   2.6675   2.6675   2.6675
     2.7497   2.7497   2.7497   2.7497   2.7497   2.7497   2.7497   2.7497
     2.7497   2.7497   2.7497   2.7497   2.7497   2.7497   2.7497   2.7497
     3.1887   3.1887   3.1887   3.1887   3.1887   3.1887   3.1887   3.1887
     6.3026   6.3026   6.3026   6.3026   6.3026   6.3026   6.3026   6.3027
     7.6108   7.6109   7.6109   7.6109   7.6109   7.6109   7.6109   7.6109
     7.6109   7.6109   7.6109   7.6109   7.6109

     the Fermi energy is     3.0451 ev

!    total energy              =   -8189.07847074 Ry

     total all-electron energy =   -161469.505324 Ry
     estimated scf accuracy    <       0.00000015 Ry
     smearing contrib. (-TS)   =       0.42630002 Ry
     internal energy E=F+TS    =   -8189.50477076 Ry

     The total energy is F=E-TS. E is the sum of the following terms:
     one-electron contribution =   -2859.59158628 Ry
     hartree contribution      =    1484.22230010 Ry
     xc contribution           =    -490.59394960 Ry
     ewald contribution        =   -2240.17322077 Ry
     one-center paw contrib.   =   -4083.36831421 Ry

     convergence has been achieved in  20 iterations

     Forces acting on atoms (cartesian axes, Ry/au):

     atom    1 type  1   force =     0.00000000    0.00000000    0.00000000
     atom    2 type  1   force =     0.00001218    0.00001218    0.00001218
     atom    3 type  1   force =     0.00000000    0.00000000    0.00000000
     atom    4 type  1   force =     0.00001218    0.00001218   -0.00001218
     atom    5 type  1   force =     0.00000000    0.00000000    0.00000000
     atom    6 type  1   force =     0.00001218   -0.00001218    0.00001218
     atom    7 type  1   force =     0.00000000    0.00000000    0.00000000
     atom    8 type  1   force =     0.00001218   -0.00001218   -0.00001218
     atom    9 type  1   force =     0.00000000    0.00000000    0.00000000
     atom   10 type  1   force =    -0.00001218    0.00001218    0.00001218
     atom   11 type  1   force =     0.00000000    0.00000000    0.00000000
     atom   12 type  1   force =    -0.00001218    0.00001218   -0.00001218
     atom   13 type  1   force =     0.00000000    0.00000000    0.00000000
     atom   14 type  1   force =    -0.00001218   -0.00001218    0.00001218
     atom   15 type  1   force =     0.00000000    0.00000000    0.00000000
     atom   16 type  1   force =    -0.00001218   -0.00001218   -0.00001218

     Total force =     0.000060     Total SCF correction =     0.000535
     SCF correction compared to forces is large: reduce conv_thr to get better values

     Computing stress (Cartesian axis) and pressure

          total   stress  (Ry/bohr**3)                   (kbar)     P=      -90.52
  -0.00061535   0.00000000   0.00000000          -90.52        0.00        0.00
   0.00000000  -0.00061535   0.00000000            0.00      -90.52        0.00
   0.00000000   0.00000000  -0.00061535            0.00        0.00      -90.52

     Writing output data file /scratch/EYtdRxvVkMKuwCMW.save/

     General routines

     Parallel routines

   This run was terminated on:  23:57:51  29Nov2021

   JOB DONE.