     Program PWSCF v.6.7MaX starts on 29Nov2021 at 23:15:14

     R & G space division:  proc/nbgrp/npool/nimage =      72
     Reading input from bcc_3.in
Warning: card &CELL ignored
Warning: card CELL_DYNAMICS = 'BFGS', ignored
Warning: card CELL_FACTOR = 2.0, ignored
Warning: card PRESS = 0.0, ignored
Warning: card / ignored

     Current dimensions of program PWSCF are:
     Max number of different atomic species (ntypx) = 10
     Max number of k-points (npk) =  40000
     Max angular momentum in pseudopotentials (lmaxx) =  3
     file Pd.pbe-spn-kjpaw_psl.1.0.0.UPF: wavefunction(s)  4S 5S 4D renormalized

     Subspace diagonalization in iterative solution of the eigenvalue problem:
     one sub-group per band group will be used

     Found symmetry operation: I + (  0.2500  0.2500  0.2500)
     This is a supercell, fractional translations are disabled
     Message from routine setup:
     using ibrav=0 with symmetry is DISCOURAGED, use correct ibrav instead

     bravais-lattice index     =            0
     lattice parameter (alat)  =      11.4293  a.u.
     unit-cell volume          =    1022.9167 (a.u.)^3
     number of atoms/cell      =           16
     number of atomic types    =            1
     number of electrons       =       288.00
     number of Kohn-Sham states=          173
     kinetic-energy cutoff     =      71.0000  Ry
     charge density cutoff     =     430.0000  Ry
     scf convergence threshold =      1.0E-06
     mixing beta               =       0.1000
     number of iterations used =           10  TF        mixing
     Exchange-correlation= SLA  PW   PBX  PBC
                           (   1   4   3   4   0   0   0)

     celldm(1)=  11.429280  celldm(2)=   0.000000  celldm(3)=   0.000000
     celldm(4)=   0.000000  celldm(5)=   0.000000  celldm(6)=   0.000000

     crystal axes: (cart. coord. in units of alat)
               a(1) = (   0.881579   0.000000   0.000000 )
               a(2) = (   0.000000   0.881579   0.000000 )
               a(3) = (   0.000000   0.000000   0.881579 )

     reciprocal axes: (cart. coord. in units 2 pi/alat)
               b(1) = (  1.134328  0.000000  0.000000 )
               b(2) = (  0.000000  1.134328  0.000000 )
               b(3) = (  0.000000  0.000000  1.134328 )

     PseudoPot. # 1 for Pd read from file:
     /rds/homes/b/bxp912/pp/Pd.pbe-spn-kjpaw_psl.1.0.0.UPF
     MD5 check sum: 790f2ebce206edfd9790dcb9844eca51
     Pseudo is Projector augmented-wave + core cor, Zval = 18.0
     Generated using &quot;atomic&quot; code by A. Dal Corso  v.6.3
     Shape of augmentation charge: PSQ
     Using radial grid of 1235 points,  6 beta functions with:
                l(1) =   0
                l(2) =   0
                l(3) =   1
                l(4) =   1
                l(5) =   2
                l(6) =   2
     Q(r) pseudized with 0 coefficients

     atomic species   valence    mass     pseudopotential
        Pd            18.00   106.42000     Pd( 1.00)

     48 Sym. Ops., with inversion, found

   Cartesian axes

     site n.     atom                  positions (alat units)
         1           Pd  tau(   1) = (   0.0000000   0.0000000   0.0000000  )
         2           Pd  tau(   2) = (   0.2203947   0.2203947   0.2203947  )
         3           Pd  tau(   3) = (   0.0000000   0.0000000   0.4407895  )
         4           Pd  tau(   4) = (   0.2203947   0.2203947   0.6611842  )
         5           Pd  tau(   5) = (   0.0000000   0.4407895   0.0000000  )
         6           Pd  tau(   6) = (   0.2203947   0.6611842   0.2203947  )
         7           Pd  tau(   7) = (   0.0000000   0.4407895   0.4407895  )
         8           Pd  tau(   8) = (   0.2203947   0.6611842   0.6611842  )
         9           Pd  tau(   9) = (   0.4407895   0.0000000   0.0000000  )
        10           Pd  tau(  10) = (   0.6611842   0.2203947   0.2203947  )
        11           Pd  tau(  11) = (   0.4407895   0.0000000   0.4407895  )
        12           Pd  tau(  12) = (   0.6611842   0.2203947   0.6611842  )
        13           Pd  tau(  13) = (   0.4407895   0.4407895   0.0000000  )
        14           Pd  tau(  14) = (   0.6611842   0.6611842   0.2203947  )
        15           Pd  tau(  15) = (   0.4407895   0.4407895   0.4407895  )
        16           Pd  tau(  16) = (   0.6611842   0.6611842   0.6611842  )

     number of k points=    35  Marzari-Vanderbilt smearing, width (Ry)=  0.0400
                       cart. coord. in units 2pi/alat
        k(    1) = (   0.0630182   0.0630182   0.0630182), wk =   0.0219479
        k(    2) = (   0.0630182   0.0630182   0.1890547), wk =   0.0658436
        k(    3) = (   0.0630182   0.0630182   0.3150912), wk =   0.0658436
        k(    4) = (   0.0630182   0.0630182   0.4411277), wk =   0.0658436
        k(    5) = (   0.0630182   0.0630182  -0.5671642), wk =   0.0329218
        k(    6) = (   0.0630182   0.1890547   0.1890547), wk =   0.0658436
        k(    7) = (   0.0630182   0.1890547   0.3150912), wk =   0.1316872
        k(    8) = (   0.0630182   0.1890547   0.4411277), wk =   0.1316872
        k(    9) = (   0.0630182   0.1890547  -0.5671642), wk =   0.0658436
        k(   10) = (   0.0630182   0.3150912   0.3150912), wk =   0.0658436
        k(   11) = (   0.0630182   0.3150912   0.4411277), wk =   0.1316872
        k(   12) = (   0.0630182   0.3150912  -0.5671642), wk =   0.0658436
        k(   13) = (   0.0630182   0.4411277   0.4411277), wk =   0.0658436
        k(   14) = (   0.0630182   0.4411277  -0.5671642), wk =   0.0658436
        k(   15) = (   0.0630182  -0.5671642  -0.5671642), wk =   0.0164609
        k(   16) = (   0.1890547   0.1890547   0.1890547), wk =   0.0219479
        k(   17) = (   0.1890547   0.1890547   0.3150912), wk =   0.0658436
        k(   18) = (   0.1890547   0.1890547   0.4411277), wk =   0.0658436
        k(   19) = (   0.1890547   0.1890547  -0.5671642), wk =   0.0329218
        k(   20) = (   0.1890547   0.3150912   0.3150912), wk =   0.0658436
        k(   21) = (   0.1890547   0.3150912   0.4411277), wk =   0.1316872
        k(   22) = (   0.1890547   0.3150912  -0.5671642), wk =   0.0658436
        k(   23) = (   0.1890547   0.4411277   0.4411277), wk =   0.0658436
        k(   24) = (   0.1890547   0.4411277  -0.5671642), wk =   0.0658436
        k(   25) = (   0.1890547  -0.5671642  -0.5671642), wk =   0.0164609
        k(   26) = (   0.3150912   0.3150912   0.3150912), wk =   0.0219479
        k(   27) = (   0.3150912   0.3150912   0.4411277), wk =   0.0658436
        k(   28) = (   0.3150912   0.3150912  -0.5671642), wk =   0.0329218
        k(   29) = (   0.3150912   0.4411277   0.4411277), wk =   0.0658436
        k(   30) = (   0.3150912   0.4411277  -0.5671642), wk =   0.0658436
        k(   31) = (   0.3150912  -0.5671642  -0.5671642), wk =   0.0164609
        k(   32) = (   0.4411277   0.4411277   0.4411277), wk =   0.0219479
        k(   33) = (   0.4411277   0.4411277  -0.5671642), wk =   0.0329218
        k(   34) = (   0.4411277  -0.5671642  -0.5671642), wk =   0.0164609
        k(   35) = (  -0.5671642  -0.5671642  -0.5671642), wk =   0.0027435

     Check: negative core charge=   -0.000002

     Initial potential from superposition of free atoms

     starting charge  287.99388, renormalised to  288.00000
     Starting wfcs are  160 randomized atomic wfcs +   13 random wfcs
     Checking if some PAW data can be deallocated...

     Self-consistent Calculation

     iteration #  1     ecut=    71.00 Ry     beta= 0.10
     Davidson diagonalization with overlap
     ethr =  1.00E-02,  avg # of iterations =  3.5

     Threshold (ethr) on eigenvalues was too large:
     Diagonalizing with lowered threshold

     Davidson diagonalization with overlap
     ethr =  1.90E-05,  avg # of iterations =  5.7

     total energy              =   -8188.52720751 Ry
     estimated scf accuracy    <       0.04637799 Ry

[...]

     iteration #  4     ecut=    71.00 Ry     beta= 0.10
     Davidson diagonalization with overlap
     c_bands:  2 eigenvalues not converged
     c_bands:  1 eigenvalues not converged
     ethr =  9.86E-07,  avg # of iterations =  3.8

[...]

     total energy              =   -8188.51459202 Ry
     estimated scf accuracy    <       0.00000336 Ry

     iteration # 10     ecut=    71.00 Ry     beta= 0.10
     Davidson diagonalization with overlap
     ethr =  1.17E-09,  avg # of iterations =  2.4

     End of self-consistent calculation

          k = 0.0630 0.0630 0.0630 ( 10335 PWs)   bands (ev):

   -51.1963 -50.8664 -50.8664 -50.8664 -50.8078 -50.8078 -50.8078 -50.8070
   -50.8070 -50.8070 -50.8018 -50.8018 -50.8018 -50.7738 -50.7733 -50.5294
   -17.7910 -17.7910 -17.7910 -17.7817 -17.7817 -17.7817 -17.2229 -17.2229
   -17.2022 -17.0295 -17.0064 -17.0064 -17.0064 -16.9505 -16.9505 -16.8959
   -16.8959 -16.8959 -16.7881 -16.7881 -16.7072 -16.6182 -16.6182 -16.6182
   -16.5826 -16.5826 -16.5826 -16.5300 -16.5300 -16.5300 -16.5198 -16.5198
   -16.5198 -16.5041 -16.5041 -16.5041 -16.4705 -16.4705 -16.4705 -15.9473
   -15.9473 -15.9473 -15.9445 -15.9371 -15.9371 -15.9371 -15.9216 -15.9216
    24.0599  24.4242  24.4242  24.9070  24.9070  24.9070  24.9168  24.9168
    24.9168  26.6904  26.6904  26.6904  26.7197  26.7197  26.7197  27.5141
    27.5141  27.5141  27.6386  27.6582  27.6582  27.6582  27.6696  27.6696
    27.6696  27.8842  27.8842  28.1879  28.1879  28.1879  28.3501  28.3501
    28.5659  29.0495  29.0495  29.1444  29.9421  29.9421  29.9421  30.1177
    30.1177  30.1177  30.3332  30.3332  30.3332  30.5258  30.5258  30.5258
    31.7682  31.7682  31.7682  32.3067  32.3067  32.3067  32.8161  32.8161
    32.8189  32.8189  32.8189  32.8596  32.8596  32.8596  33.1550  33.1550
    33.1550  33.4909  33.4909  33.4909  33.6142  33.6142  33.6143  33.6143
    35.2163  35.2968  35.2968  35.2968  35.4123  35.4123  35.6682  35.6682
    35.6682  35.7243  35.7243  35.7243  36.6328  36.6328  36.6328  36.7248
    36.7248  36.7248  36.8474  36.8474  36.8474  46.3406  46.3406  46.4084
    46.4581  47.3076  47.3076  47.5486  47.9261  47.9261  47.9261  48.0393
    48.1065  48.1065  48.1065  48.4637  48.4637

[...]

          k = 0.4411-0.5672-0.5672 ( 10268 PWs)   bands (ev):

[...]

          k =-0.5672-0.5672-0.5672 ( 10144 PWs)   bands (ev):

   -50.9403 -50.9402 -50.9402 -50.9402 -50.9402 -50.9402 -50.9402 -50.9401
   -50.7003 -50.7002 -50.7002 -50.7002 -50.7002 -50.7002 -50.7002 -50.7001
   -17.2801 -17.2801 -17.2801 -17.2800 -17.2800 -17.2800 -17.2800 -17.2800
   -17.2800 -17.2800 -17.2800 -17.2800 -17.2800 -17.2800 -17.2800 -17.2800
   -17.1548 -17.1548 -17.1548 -17.1548 -17.1548 -17.1548 -17.1548 -17.1548
   -16.2798 -16.2798 -16.2798 -16.2798 -16.2798 -16.2798 -16.2798 -16.2798
   -16.1560 -16.1560 -16.1560 -16.1560 -16.1560 -16.1560 -16.1560 -16.1560
   -16.1560 -16.1560 -16.1560 -16.1560 -16.1560 -16.1559 -16.1559 -16.1559
    27.4892  27.4892  27.4892  27.4892  27.4892  27.4892  27.4892  27.4892
    27.4893  27.4893  27.4893  27.4893  27.4893  27.4893  27.4893  27.4893
    27.5609  27.5609  27.5609  27.5609  27.5609  27.5609  27.5609  27.5609
    27.5609  27.5609  27.5609  27.5609  27.5609  27.5610  27.5610  27.5610
    27.6492  27.6492  27.6492  27.6492  27.6492  27.6492  27.6492  27.6492
    27.6528  27.6528  27.6528  27.6528  27.6528  27.6528  27.6528  27.6528
    32.8306  32.8306  32.8307  32.8307  32.8307  32.8307  32.8307  32.8307
    32.8307  32.8307  32.8307  32.8307  32.8307  32.8307  32.8307  32.8307
    33.7276  33.7276  33.7276  33.7276  33.7276  33.7276  33.7276  33.7276
    33.7276  33.7276  33.7276  33.7276  33.7276  33.7276  33.7276  33.7276
    35.2990  35.2990  35.2990  35.2990  35.2990  35.2990  35.2990  35.2990
    46.6094  46.6094  46.6094  46.6094  46.6094  46.6094  46.6094  46.6094
    46.6094  46.6094  46.6094  46.6094  46.6094  46.6094  46.6094  46.6094
    47.5714  47.5714  47.5714  47.5714  47.5714

     the Fermi energy is    34.8848 ev

!    total energy              =   -8188.51459689 Ry

     total all-electron energy =   -161468.941450 Ry
     estimated scf accuracy    <       0.00000008 Ry
     smearing contrib. (-TS)   =       0.02410870 Ry
     internal energy E=F+TS    =   -8188.53870559 Ry

     The total energy is F=E-TS. E is the sum of the following terms:
     one-electron contribution =    -430.25357106 Ry
     hartree contribution      =     573.29053269 Ry
     xc contribution           =    -502.74410764 Ry
     ewald contribution        =   -3744.76717503 Ry
     one-center paw contrib.   =   -4084.06438454 Ry

     convergence has been achieved in  10 iterations

     Forces acting on atoms (cartesian axes, Ry/au):

     atom    1 type  1   force =     0.00000000    0.00000000    0.00000000
     atom    2 type  1   force =    -0.00001048   -0.00001048   -0.00001048
     atom    3 type  1   force =     0.00000000    0.00000000    0.00000000
     atom    4 type  1   force =    -0.00001048   -0.00001048    0.00001048
     atom    5 type  1   force =     0.00000000    0.00000000    0.00000000
     atom    6 type  1   force =    -0.00001048    0.00001048   -0.00001048
     atom    7 type  1   force =     0.00000000    0.00000000    0.00000000
     atom    8 type  1   force =    -0.00001048    0.00001048    0.00001048
     atom    9 type  1   force =     0.00000000    0.00000000    0.00000000
     atom   10 type  1   force =     0.00001048   -0.00001048   -0.00001048
     atom   11 type  1   force =     0.00000000    0.00000000    0.00000000
     atom   12 type  1   force =     0.00001048   -0.00001048    0.00001048
     atom   13 type  1   force =     0.00000000    0.00000000    0.00000000
     atom   14 type  1   force =     0.00001048    0.00001048   -0.00001048
     atom   15 type  1   force =     0.00000000    0.00000000    0.00000000
     atom   16 type  1   force =     0.00001048    0.00001048    0.00001048

     Total force =     0.000051     Total SCF correction =     0.000178
     SCF correction compared to forces is large: reduce conv_thr to get better values

     Computing stress (Cartesian axis) and pressure

          total   stress  (Ry/bohr**3)                   (kbar)     P=     2903.73
   0.01973918   0.00000000   0.00000000         2903.73        0.00        0.00
   0.00000000   0.01973918   0.00000000            0.00     2903.73        0.00
   0.00000000   0.00000000   0.01973918            0.00        0.00     2903.73

     Writing output data file /scratch/mXQZYjHUcKeHVCGI.save/

     General routines

     Parallel routines

   This run was terminated on:  23:17:12  29Nov2021

   JOB DONE.