     Program PWSCF v.6.7MaX starts on 29Nov2021 at 23:38: 9

     R & G space division:  proc/nbgrp/npool/nimage =      72
     Reading input from bcc_10.in
Warning: card &CELL ignored
Warning: card CELL_DYNAMICS = 'BFGS', ignored
Warning: card CELL_FACTOR = 2.0, ignored
Warning: card PRESS = 0.0, ignored
Warning: card / ignored

     Current dimensions of program PWSCF are:
     Max number of different atomic species (ntypx) = 10
     Max number of k-points (npk) =  40000
     Max angular momentum in pseudopotentials (lmaxx) =  3
     file Pd.pbe-spn-kjpaw_psl.1.0.0.UPF: wavefunction(s)  4S 5S 4D renormalized

     Subspace diagonalization in iterative solution of the eigenvalue problem:
     one sub-group per band group will be used

     Found symmetry operation: I + (  0.2500  0.2500  0.2500)
     This is a supercell, fractional translations are disabled
     Message from routine setup:
     using ibrav=0 with symmetry is DISCOURAGED, use correct ibrav instead

     bravais-lattice index     =            0
     lattice parameter (alat)  =      11.4293  a.u.
     unit-cell volume          =    3609.2449 (a.u.)^3
     number of atoms/cell      =           16
     number of atomic types    =            1
     number of electrons       =       288.00
     number of Kohn-Sham states=          173
     kinetic-energy cutoff     =      71.0000  Ry
     charge density cutoff     =     430.0000  Ry
     scf convergence threshold =      1.0E-06
     mixing beta               =       0.1000
     number of iterations used =           10  TF        mixing
     Exchange-correlation= SLA  PW   PBX  PBC
                           (   1   4   3   4   0   0   0)

     celldm(1)=  11.429280  celldm(2)=   0.000000  celldm(3)=   0.000000
     celldm(4)=   0.000000  celldm(5)=   0.000000  celldm(6)=   0.000000

     crystal axes: (cart. coord. in units of alat)
               a(1) = (   1.342105   0.000000   0.000000 )
               a(2) = (   0.000000   1.342105   0.000000 )
               a(3) = (   0.000000   0.000000   1.342105 )

     reciprocal axes: (cart. coord. in units 2 pi/alat)
               b(1) = (  0.745098  0.000000  0.000000 )
               b(2) = (  0.000000  0.745098  0.000000 )
               b(3) = (  0.000000  0.000000  0.745098 )

     PseudoPot. # 1 for Pd read from file:
     /rds/homes/b/bxp912/pp/Pd.pbe-spn-kjpaw_psl.1.0.0.UPF
     MD5 check sum: 790f2ebce206edfd9790dcb9844eca51
     Pseudo is Projector augmented-wave + core cor, Zval = 18.0
     Generated using &quot;atomic&quot; code by A. Dal Corso  v.6.3
     Shape of augmentation charge: PSQ
     Using radial grid of 1235 points,  6 beta functions with:
                l(1) =   0
                l(2) =   0
                l(3) =   1
                l(4) =   1
                l(5) =   2
                l(6) =   2
     Q(r) pseudized with 0 coefficients

     atomic species   valence    mass     pseudopotential
        Pd            18.00   106.42000     Pd( 1.00)

     48 Sym. Ops., with inversion, found

   Cartesian axes

     site n.     atom                  positions (alat units)
         1           Pd  tau(   1) = (   0.0000000   0.0000000   0.0000000  )
         2           Pd  tau(   2) = (   0.3355263   0.3355263   0.3355263  )
         3           Pd  tau(   3) = (   0.0000000   0.0000000   0.6710526  )
         4           Pd  tau(   4) = (   0.3355263   0.3355263   1.0065789  )
         5           Pd  tau(   5) = (   0.0000000   0.6710526   0.0000000  )
         6           Pd  tau(   6) = (   0.3355263   1.0065789   0.3355263  )
         7           Pd  tau(   7) = (   0.0000000   0.6710526   0.6710526  )
         8           Pd  tau(   8) = (   0.3355263   1.0065789   1.0065789  )
         9           Pd  tau(   9) = (   0.6710526   0.0000000   0.0000000  )
        10           Pd  tau(  10) = (   1.0065789   0.3355263   0.3355263  )
        11           Pd  tau(  11) = (   0.6710526   0.0000000   0.6710526  )
        12           Pd  tau(  12) = (   1.0065789   0.3355263   1.0065789  )
        13           Pd  tau(  13) = (   0.6710526   0.6710526   0.0000000  )
        14           Pd  tau(  14) = (   1.0065789   1.0065789   0.3355263  )
        15           Pd  tau(  15) = (   0.6710526   0.6710526   0.6710526  )
        16           Pd  tau(  16) = (   1.0065789   1.0065789   1.0065789  )

     number of k points=    35  Marzari-Vanderbilt smearing, width (Ry)=  0.0400
                       cart. coord. in units 2pi/alat
        k(    1) = (   0.0413943   0.0413943   0.0413943), wk =   0.0219479
        k(    2) = (   0.0413943   0.0413943   0.1241830), wk =   0.0658436
        k(    3) = (   0.0413943   0.0413943   0.2069717), wk =   0.0658436
        k(    4) = (   0.0413943   0.0413943   0.2897603), wk =   0.0658436
        k(    5) = (   0.0413943   0.0413943  -0.3725490), wk =   0.0329218
        k(    6) = (   0.0413943   0.1241830   0.1241830), wk =   0.0658436
        k(    7) = (   0.0413943   0.1241830   0.2069717), wk =   0.1316872
        k(    8) = (   0.0413943   0.1241830   0.2897603), wk =   0.1316872
        k(    9) = (   0.0413943   0.1241830  -0.3725490), wk =   0.0658436
        k(   10) = (   0.0413943   0.2069717   0.2069717), wk =   0.0658436
        k(   11) = (   0.0413943   0.2069717   0.2897603), wk =   0.1316872
        k(   12) = (   0.0413943   0.2069717  -0.3725490), wk =   0.0658436
        k(   13) = (   0.0413943   0.2897603   0.2897603), wk =   0.0658436
        k(   14) = (   0.0413943   0.2897603  -0.3725490), wk =   0.0658436
        k(   15) = (   0.0413943  -0.3725490  -0.3725490), wk =   0.0164609
        k(   16) = (   0.1241830   0.1241830   0.1241830), wk =   0.0219479
        k(   17) = (   0.1241830   0.1241830   0.2069717), wk =   0.0658436
        k(   18) = (   0.1241830   0.1241830   0.2897603), wk =   0.0658436
        k(   19) = (   0.1241830   0.1241830  -0.3725490), wk =   0.0329218
        k(   20) = (   0.1241830   0.2069717   0.2069717), wk =   0.0658436
        k(   21) = (   0.1241830   0.2069717   0.2897603), wk =   0.1316872
        k(   22) = (   0.1241830   0.2069717  -0.3725490), wk =   0.0658436
        k(   23) = (   0.1241830   0.2897603   0.2897603), wk =   0.0658436
        k(   24) = (   0.1241830   0.2897603  -0.3725490), wk =   0.0658436
        k(   25) = (   0.1241830  -0.3725490  -0.3725490), wk =   0.0164609
        k(   26) = (   0.2069717   0.2069717   0.2069717), wk =   0.0219479
        k(   27) = (   0.2069717   0.2069717   0.2897603), wk =   0.0658436
        k(   28) = (   0.2069717   0.2069717  -0.3725490), wk =   0.0329218
        k(   29) = (   0.2069717   0.2897603   0.2897603), wk =   0.0658436
        k(   30) = (   0.2069717   0.2897603  -0.3725490), wk =   0.0658436
        k(   31) = (   0.2069717  -0.3725490  -0.3725490), wk =   0.0164609
        k(   32) = (   0.2897603   0.2897603   0.2897603), wk =   0.0219479
        k(   33) = (   0.2897603   0.2897603  -0.3725490), wk =   0.0329218
        k(   34) = (   0.2897603  -0.3725490  -0.3725490), wk =   0.0164609
        k(   35) = (  -0.3725490  -0.3725490  -0.3725490), wk =   0.0027435

     Check: negative core charge=   -0.000001

     Initial potential from superposition of free atoms

     starting charge  287.99388, renormalised to  288.00000
     Starting wfcs are  160 randomized atomic wfcs +   13 random wfcs
     Checking if some PAW data can be deallocated...

     Self-consistent Calculation

     iteration #  1     ecut=    71.00 Ry     beta= 0.10
     Davidson diagonalization with overlap
     ethr =  1.00E-02,  avg # of iterations =  3.6

     total energy              =   -8190.83870002 Ry
     estimated scf accuracy    <       6.82541856 Ry

[...]

     total energy              =   -8189.98157311 Ry
     estimated scf accuracy    <       0.00000142 Ry

     iteration # 18     ecut=    71.00 Ry     beta= 0.10
     Davidson diagonalization with overlap
     ethr =  4.94E-10,  avg # of iterations =  2.1

     End of self-consistent calculation

          k = 0.0414 0.0414 0.0414 ( 36479 PWs)   bands (ev):

   -77.0549 -77.0541 -77.0541 -77.0541 -77.0540 -77.0540 -77.0540 -77.0540
   -77.0540 -77.0540 -77.0540 -77.0540 -77.0540 -77.0540 -77.0540 -77.0533
   -42.8161 -42.8160 -42.8160 -42.8160 -42.8160 -42.8160 -42.8134 -42.8134
   -42.8132 -42.8099 -42.8093 -42.8093 -42.8093 -42.8091 -42.8091 -42.8082
   -42.8082 -42.8082 -42.8078 -42.8078 -42.8075 -42.8075 -42.8075 -42.8071
   -42.8070 -42.8070 -42.8070 -42.8068 -42.8068 -42.8068 -42.8068 -42.8068
   -42.8068 -42.8064 -42.8064 -42.8064 -42.8059 -42.8059 -42.8059 -42.8010
   -42.8008 -42.8008 -42.8005 -42.8005 -42.8005 -42.8004 -42.8004 -42.8004
     2.8493   4.0109   4.0109   4.0109   4.0162   4.0162   4.0162   4.1189
     4.1189   4.3298   4.3298   4.3298   4.3344   4.3344   4.3344   4.4081
     4.4081   4.4081   4.4670   4.4803   4.4803   4.4803   4.5070   4.5070
     4.5813   4.5813   4.5933   4.5933   4.5933   4.6147   4.6234   4.6234
     4.6360   4.6772   4.6772   4.6772   4.7955   4.7955   4.7955   4.8214
     4.8214   4.8214   4.8523   4.8523   4.8523   4.8777   4.8777   4.8777
     5.0177   5.0177   5.0177   5.0879   5.0879   5.0880   5.1217   5.1217
     5.1217   5.1250   5.1250   5.1250   5.1600   5.1600   5.1811   5.1812
     5.1812   5.1959   5.1959   5.1959   5.2042   5.2042   5.2043   5.2043
     5.4207   5.4380   5.4380   5.5139   5.5139   5.5139   5.5219   5.5219
     5.5219   5.8126   5.8126   5.8126   6.2520   6.2520   6.2520   7.7531
     7.7531   7.7531   8.0501   8.0501   8.0501   8.9040   8.9041   8.9041
     9.1964   9.1964   9.1964   9.6843   9.7456  11.0497  11.2336  11.2336
    11.8492  11.8492  11.8702  12.0609  12.2181

[...]

          k = 0.2898-0.3725-0.3725 ( 36428 PWs)   bands (ev):

[...]

          k =-0.3725-0.3725-0.3725 ( 36552 PWs)   bands (ev):

   -77.0543 -77.0543 -77.0543 -77.0543 -77.0543 -77.0543 -77.0543 -77.0543
   -77.0537 -77.0537 -77.0537 -77.0537 -77.0537 -77.0537 -77.0537 -77.0537
   -42.8128 -42.8128 -42.8128 -42.8128 -42.8128 -42.8128 -42.8128 -42.8128
   -42.8128 -42.8128 -42.8128 -42.8128 -42.8128 -42.8128 -42.8128 -42.8128
   -42.8110 -42.8110 -42.8110 -42.8109 -42.8109 -42.8109 -42.8109 -42.8109
   -42.8042 -42.8042 -42.8042 -42.8042 -42.8042 -42.8042 -42.8042 -42.8042
   -42.8026 -42.8026 -42.8026 -42.8026 -42.8026 -42.8026 -42.8026 -42.8026
   -42.8026 -42.8026 -42.8026 -42.8026 -42.8026 -42.8026 -42.8026 -42.8026
     4.2622   4.2622   4.2622   4.2622   4.2622   4.2622   4.2622   4.2622
     4.4669   4.4669   4.4669   4.4669   4.4669   4.4669   4.4669   4.4669
     4.4669   4.4669   4.4670   4.4670   4.4670   4.4670   4.4670   4.4670
     4.4740   4.4740   4.4740   4.4740   4.4740   4.4740   4.4740   4.4740
     4.5454   4.5454   4.5454   4.5454   4.5454   4.5454   4.5454   4.5454
     4.5454   4.5454   4.5454   4.5454   4.5454   4.5454   4.5454   4.5454
     5.1447   5.1447   5.1447   5.1447   5.1447   5.1447   5.1447   5.1447
     5.1447   5.1447   5.1447   5.1447   5.1447   5.1447   5.1447   5.1447
     5.2652   5.2652   5.2652   5.2652   5.2652   5.2652   5.2652   5.2652
     5.2652   5.2652   5.2652   5.2652   5.2652   5.2652   5.2652   5.2652
     5.7103   5.7103   5.7103   5.7103   5.7103   5.7103   5.7103   5.7103
     9.8321   9.8321   9.8321   9.8321   9.8321   9.8321   9.8321   9.8321
    10.6450  10.6450  10.6450  10.6450  10.6450  10.6450  10.6450  10.6450
    10.6450  10.6450  10.6450  10.6450  10.6450

     the Fermi energy is     5.5606 ev

!    total energy              =   -8189.98157765 Ry

     total all-electron energy =   -161470.408431 Ry
     estimated scf accuracy    <       0.00000009 Ry
     smearing contrib. (-TS)   =       0.32028662 Ry
     internal energy E=F+TS    =   -8190.30186428 Ry

     The total energy is F=E-TS. E is the sum of the following terms:
     one-electron contribution =   -2470.78999855 Ry
     hartree contribution      =    1313.87146361 Ry
     xc contribution           =    -490.16148047 Ry
     ewald contribution        =   -2459.79804634 Ry
     one-center paw contrib.   =   -4083.42380252 Ry

     convergence has been achieved in  18 iterations

     Forces acting on atoms (cartesian axes, Ry/au):

     atom    1 type  1   force =     0.00000000    0.00000000    0.00000000
     atom    2 type  1   force =     0.00000196    0.00000196    0.00000196
     atom    3 type  1   force =     0.00000000    0.00000000    0.00000000
     atom    4 type  1   force =     0.00000196    0.00000196   -0.00000196
     atom    5 type  1   force =     0.00000000    0.00000000    0.00000000
     atom    6 type  1   force =     0.00000196   -0.00000196    0.00000196
     atom    7 type  1   force =     0.00000000    0.00000000    0.00000000
     atom    8 type  1   force =     0.00000196   -0.00000196   -0.00000196
     atom    9 type  1   force =     0.00000000    0.00000000    0.00000000
     atom   10 type  1   force =    -0.00000196    0.00000196    0.00000196
     atom   11 type  1   force =     0.00000000    0.00000000    0.00000000
     atom   12 type  1   force =    -0.00000196    0.00000196   -0.00000196
     atom   13 type  1   force =     0.00000000    0.00000000    0.00000000
     atom   14 type  1   force =    -0.00000196   -0.00000196    0.00000196
     atom   15 type  1   force =     0.00000000    0.00000000    0.00000000
     atom   16 type  1   force =    -0.00000196   -0.00000196   -0.00000196

     Total force =     0.000010     Total SCF correction =     0.000178
     SCF correction compared to forces is large: reduce conv_thr to get better values

     Computing stress (Cartesian axis) and pressure

          total   stress  (Ry/bohr**3)                   (kbar)     P=     -152.75
  -0.00103837   0.00000000   0.00000000         -152.75        0.00        0.00
   0.00000000  -0.00103837   0.00000000            0.00     -152.75        0.00
   0.00000000   0.00000000  -0.00103837            0.00        0.00     -152.75

     Writing output data file /scratch/UFlkEggQIGCaVIHv.save/

     General routines

     Parallel routines

   This run was terminated on:  23:43:53  29Nov2021

   JOB DONE.