     Program PWSCF v.6.7MaX starts on 30Nov2021 at  0: 6:56

     R & G space division:  proc/nbgrp/npool/nimage =      72
     Reading input from bcc_14.in
Warning: card &CELL ignored
Warning: card CELL_DYNAMICS = 'BFGS', ignored
Warning: card CELL_FACTOR = 2.0, ignored
Warning: card PRESS = 0.0, ignored
Warning: card / ignored

     Current dimensions of program PWSCF are:
     Max number of different atomic species (ntypx) = 10
     Max number of k-points (npk) =  40000
     Max angular momentum in pseudopotentials (lmaxx) =  3
     file Pd.pbe-spn-kjpaw_psl.1.0.0.UPF: wavefunction(s)  4S 5S 4D renormalized

     Subspace diagonalization in iterative solution of the eigenvalue problem:
     one sub-group per band group will be used

     Found symmetry operation: I + (  0.2500  0.2500  0.2500)
     This is a supercell, fractional translations are disabled
     Message from routine setup:
     using ibrav=0 with symmetry is DISCOURAGED, use correct ibrav instead

     bravais-lattice index     =            0
     lattice parameter (alat)  =      11.4293  a.u.
     unit-cell volume          =    6175.8300 (a.u.)^3
     number of atoms/cell      =           16
     number of atomic types    =            1
     number of electrons       =       288.00
     number of Kohn-Sham states=          173
     kinetic-energy cutoff     =      71.0000  Ry
     charge density cutoff     =     430.0000  Ry
     scf convergence threshold =      1.0E-06
     mixing beta               =       0.1000
     number of iterations used =           10  TF        mixing
     Exchange-correlation= SLA  PW   PBX  PBC
                           (   1   4   3   4   0   0   0)

     celldm(1)=  11.429280  celldm(2)=   0.000000  celldm(3)=   0.000000
     celldm(4)=   0.000000  celldm(5)=   0.000000  celldm(6)=   0.000000

     crystal axes: (cart. coord. in units of alat)
               a(1) = (   1.605263   0.000000   0.000000 )
               a(2) = (   0.000000   1.605263   0.000000 )
               a(3) = (   0.000000   0.000000   1.605263 )

     reciprocal axes: (cart. coord. in units 2 pi/alat)
               b(1) = (  0.622951  0.000000  0.000000 )
               b(2) = (  0.000000  0.622951  0.000000 )
               b(3) = (  0.000000  0.000000  0.622951 )

     PseudoPot. # 1 for Pd read from file:
     /rds/homes/b/bxp912/pp/Pd.pbe-spn-kjpaw_psl.1.0.0.UPF
     MD5 check sum: 790f2ebce206edfd9790dcb9844eca51
     Pseudo is Projector augmented-wave + core cor, Zval = 18.0
     Generated using &quot;atomic&quot; code by A. Dal Corso  v.6.3
     Shape of augmentation charge: PSQ
     Using radial grid of 1235 points,  6 beta functions with:
                l(1) =   0
                l(2) =   0
                l(3) =   1
                l(4) =   1
                l(5) =   2
                l(6) =   2
     Q(r) pseudized with 0 coefficients

     atomic species   valence    mass     pseudopotential
        Pd            18.00   106.42000     Pd( 1.00)

     48 Sym. Ops., with inversion, found

   Cartesian axes

     site n.     atom                  positions (alat units)
         1           Pd  tau(   1) = (   0.0000000   0.0000000   0.0000000  )
         2           Pd  tau(   2) = (   0.4013158   0.4013158   0.4013158  )
         3           Pd  tau(   3) = (   0.0000000   0.0000000   0.8026316  )
         4           Pd  tau(   4) = (   0.4013158   0.4013158   1.2039474  )
         5           Pd  tau(   5) = (   0.0000000   0.8026316   0.0000000  )
         6           Pd  tau(   6) = (   0.4013158   1.2039474   0.4013158  )
         7           Pd  tau(   7) = (   0.0000000   0.8026316   0.8026316  )
         8           Pd  tau(   8) = (   0.4013158   1.2039474   1.2039474  )
         9           Pd  tau(   9) = (   0.8026316   0.0000000   0.0000000  )
        10           Pd  tau(  10) = (   1.2039474   0.4013158   0.4013158  )
        11           Pd  tau(  11) = (   0.8026316   0.0000000   0.8026316  )
        12           Pd  tau(  12) = (   1.2039474   0.4013158   1.2039474  )
        13           Pd  tau(  13) = (   0.8026316   0.8026316   0.0000000  )
        14           Pd  tau(  14) = (   1.2039474   1.2039474   0.4013158  )
        15           Pd  tau(  15) = (   0.8026316   0.8026316   0.8026316  )
        16           Pd  tau(  16) = (   1.2039474   1.2039474   1.2039474  )

     number of k points=    35  Marzari-Vanderbilt smearing, width (Ry)=  0.0400
                       cart. coord. in units 2pi/alat
        k(    1) = (   0.0346084   0.0346084   0.0346084), wk =   0.0219479
        k(    2) = (   0.0346084   0.0346084   0.1038251), wk =   0.0658436
        k(    3) = (   0.0346084   0.0346084   0.1730419), wk =   0.0658436
        k(    4) = (   0.0346084   0.0346084   0.2422587), wk =   0.0658436
        k(    5) = (   0.0346084   0.0346084  -0.3114754), wk =   0.0329218
        k(    6) = (   0.0346084   0.1038251   0.1038251), wk =   0.0658436
        k(    7) = (   0.0346084   0.1038251   0.1730419), wk =   0.1316872
        k(    8) = (   0.0346084   0.1038251   0.2422587), wk =   0.1316872
        k(    9) = (   0.0346084   0.1038251  -0.3114754), wk =   0.0658436
        k(   10) = (   0.0346084   0.1730419   0.1730419), wk =   0.0658436
        k(   11) = (   0.0346084   0.1730419   0.2422587), wk =   0.1316872
        k(   12) = (   0.0346084   0.1730419  -0.3114754), wk =   0.0658436
        k(   13) = (   0.0346084   0.2422587   0.2422587), wk =   0.0658436
        k(   14) = (   0.0346084   0.2422587  -0.3114754), wk =   0.0658436
        k(   15) = (   0.0346084  -0.3114754  -0.3114754), wk =   0.0164609
        k(   16) = (   0.1038251   0.1038251   0.1038251), wk =   0.0219479
        k(   17) = (   0.1038251   0.1038251   0.1730419), wk =   0.0658436
        k(   18) = (   0.1038251   0.1038251   0.2422587), wk =   0.0658436
        k(   19) = (   0.1038251   0.1038251  -0.3114754), wk =   0.0329218
        k(   20) = (   0.1038251   0.1730419   0.1730419), wk =   0.0658436
        k(   21) = (   0.1038251   0.1730419   0.2422587), wk =   0.1316872
        k(   22) = (   0.1038251   0.1730419  -0.3114754), wk =   0.0658436
        k(   23) = (   0.1038251   0.2422587   0.2422587), wk =   0.0658436
        k(   24) = (   0.1038251   0.2422587  -0.3114754), wk =   0.0658436
        k(   25) = (   0.1038251  -0.3114754  -0.3114754), wk =   0.0164609
        k(   26) = (   0.1730419   0.1730419   0.1730419), wk =   0.0219479
        k(   27) = (   0.1730419   0.1730419   0.2422587), wk =   0.0658436
        k(   28) = (   0.1730419   0.1730419  -0.3114754), wk =   0.0329218
        k(   29) = (   0.1730419   0.2422587   0.2422587), wk =   0.0658436
        k(   30) = (   0.1730419   0.2422587  -0.3114754), wk =   0.0658436
        k(   31) = (   0.1730419  -0.3114754  -0.3114754), wk =   0.0164609
        k(   32) = (   0.2422587   0.2422587   0.2422587), wk =   0.0219479
        k(   33) = (   0.2422587   0.2422587  -0.3114754), wk =   0.0329218
        k(   34) = (   0.2422587  -0.3114754  -0.3114754), wk =   0.0164609
        k(   35) = (  -0.3114754  -0.3114754  -0.3114754), wk =   0.0027435

     Initial potential from superposition of free atoms

     starting charge  287.99388, renormalised to  288.00000
     Starting wfcs are  160 randomized atomic wfcs +   13 random wfcs
     Checking if some PAW data can be deallocated...

     Self-consistent Calculation

     iteration #  1     ecut=    71.00 Ry     beta= 0.10
     Davidson diagonalization with overlap
     ethr =  1.00E-02,  avg # of iterations =  4.6

     total energy              =   -8190.61950809 Ry
     estimated scf accuracy    <      11.65651332 Ry

[...]

     iteration # 15     ecut=    71.00 Ry     beta= 0.10
     Davidson diagonalization with overlap
     c_bands:  1 eigenvalues not converged
     ethr =  7.66E-06,  avg # of iterations =  5.1

[...]

     total energy              =   -8188.48139044 Ry
     estimated scf accuracy    <       0.00002018 Ry

     iteration # 27     ecut=    71.00 Ry     beta= 0.10
     Davidson diagonalization with overlap
     ethr =  6.03E-10,  avg # of iterations =  3.0

     End of self-consistent calculation

          k = 0.0346 0.0346 0.0346 ( 62450 PWs)   bands (ev):

   -80.7367 -80.7367 -80.7367 -80.7367 -80.7367 -80.7367 -80.7367 -80.7367
   -80.7367 -80.7367 -80.7367 -80.7367 -80.7367 -80.7367 -80.7367 -80.7366
   -46.5407 -46.5407 -46.5407 -46.5406 -46.5406 -46.5406 -46.5404 -46.5404
   -46.5404 -46.5402 -46.5402 -46.5402 -46.5402 -46.5402 -46.5402 -46.5401
   -46.5401 -46.5401 -46.5401 -46.5401 -46.5401 -46.5401 -46.5401 -46.5401
   -46.5401 -46.5401 -46.5400 -46.5400 -46.5400 -46.5400 -46.5400 -46.5400
   -46.5400 -46.5400 -46.5400 -46.5400 -46.5400 -46.5400 -46.5399 -46.5398
   -46.5397 -46.5397 -46.5395 -46.5395 -46.5395 -46.5395 -46.5395 -46.5395
     0.1133   0.6449   0.6449   0.6449   0.6469   0.6469   0.6469   0.6833
     0.6833   0.7424   0.7424   0.7424   0.7444   0.7444   0.7444   0.8225
     0.8402   0.8402   0.8487   0.8487   0.8536   0.8576   0.8576   0.8576
     0.8736   0.8736   0.8782   0.8782   0.8782   0.8793   0.8793   0.8793
     0.8875   0.8875   0.8875   0.8892   0.9346   0.9346   0.9346   0.9377
     0.9377   0.9377   0.9516   0.9516   0.9516   0.9610   0.9610   0.9610
     1.0048   1.0048   1.0048   1.0317   1.0317   1.0317   1.0395   1.0395
     1.0395   1.0406   1.0406   1.0406   1.0550   1.0550   1.0598   1.0598
     1.0598   1.0637   1.0637   1.0637   1.0664   1.0664   1.0665   1.0665
     1.1575   1.1635   1.1635   1.1931   1.1931   1.1931   1.1958   1.1958
     1.1958   1.7287   1.7287   1.7287   2.0783   2.0783   2.0783   3.1585
     3.1586   3.1586   3.3088   3.3088   3.3088   3.7963   3.8096   4.1117
     4.1117   4.1117   4.2620   4.2620   4.2620   5.2872   5.8121   5.9713
     5.9713   6.3797   6.3797   6.6147   6.6381

[...]

          k = 0.2423-0.3115-0.3115 ( 62352 PWs)   bands (ev):

[...]

          k =-0.3115-0.3115-0.3115 ( 62368 PWs)   bands (ev):

   -80.7367 -80.7367 -80.7367 -80.7367 -80.7367 -80.7367 -80.7367 -80.7367
   -80.7367 -80.7367 -80.7367 -80.7367 -80.7367 -80.7367 -80.7367 -80.7366
   -46.5404 -46.5404 -46.5404 -46.5404 -46.5404 -46.5404 -46.5404 -46.5404
   -46.5404 -46.5404 -46.5404 -46.5404 -46.5404 -46.5404 -46.5404 -46.5404
   -46.5402 -46.5402 -46.5402 -46.5402 -46.5402 -46.5402 -46.5402 -46.5402
   -46.5399 -46.5399 -46.5399 -46.5399 -46.5399 -46.5399 -46.5399 -46.5398
   -46.5398 -46.5398 -46.5398 -46.5398 -46.5398 -46.5397 -46.5397 -46.5397
   -46.5397 -46.5397 -46.5397 -46.5397 -46.5397 -46.5397 -46.5397 -46.5397
     0.8014   0.8014   0.8014   0.8014   0.8014   0.8014   0.8014   0.8014
     0.8014   0.8014   0.8014   0.8014   0.8014   0.8014   0.8014   0.8014
     0.8075   0.8075   0.8075   0.8075   0.8075   0.8075   0.8075   0.8075
     0.8539   0.8539   0.8539   0.8539   0.8539   0.8539   0.8539   0.8539
     0.8543   0.8543   0.8543   0.8543   0.8543   0.8543   0.8543   0.8543
     0.8543   0.8543   0.8543   0.8543   0.8543   0.8543   0.8543   0.8543
     1.0474   1.0474   1.0474   1.0474   1.0474   1.0474   1.0474   1.0474
     1.0474   1.0474   1.0474   1.0474   1.0474   1.0474   1.0474   1.0474
     1.1038   1.1038   1.1038   1.1038   1.1038   1.1038   1.1038   1.1038
     1.1038   1.1038   1.1038   1.1038   1.1038   1.1038   1.1038   1.1038
     1.5777   1.5777   1.5777   1.5777   1.5777   1.5777   1.5777   1.5777
     3.9114   3.9114   3.9115   3.9115   3.9115   3.9115   3.9115   3.9115
     5.6007   5.6007   5.6007   5.6007   5.6007   5.6007   5.6007   5.6007
     5.6007   5.6007   5.6007   5.6007   5.6007

     the Fermi energy is     1.4368 ev

!    total energy              =   -8188.48139508 Ry

     total all-electron energy =   -161468.908249 Ry
     estimated scf accuracy    <       0.00000007 Ry
     smearing contrib. (-TS)   =       0.40475185 Ry
     internal energy E=F+TS    =   -8188.88614693 Ry

     The total energy is F=E-TS. E is the sum of the following terms:
     one-electron contribution =   -3193.50364061 Ry
     hartree contribution      =    1635.77565104 Ry
     xc contribution           =    -491.27863059 Ry
     ewald contribution        =   -2056.55246498 Ry
     one-center paw contrib.   =   -4083.32706179 Ry

     convergence has been achieved in  27 iterations

     Forces acting on atoms (cartesian axes, Ry/au):

     atom    1 type  1   force =     0.00000000    0.00000000    0.00000000
     atom    2 type  1   force =     0.00006896    0.00006896    0.00006896
     atom    3 type  1   force =     0.00000000    0.00000000    0.00000000
     atom    4 type  1   force =     0.00006896    0.00006896   -0.00006896
     atom    5 type  1   force =     0.00000000    0.00000000    0.00000000
     atom    6 type  1   force =     0.00006896   -0.00006896    0.00006896
     atom    7 type  1   force =     0.00000000    0.00000000    0.00000000
     atom    8 type  1   force =     0.00006896   -0.00006896   -0.00006896
     atom    9 type  1   force =     0.00000000    0.00000000    0.00000000
     atom   10 type  1   force =    -0.00006896    0.00006896    0.00006896
     atom   11 type  1   force =     0.00000000    0.00000000    0.00000000
     atom   12 type  1   force =    -0.00006896    0.00006896   -0.00006896
     atom   13 type  1   force =     0.00000000    0.00000000    0.00000000
     atom   14 type  1   force =    -0.00006896   -0.00006896    0.00006896
     atom   15 type  1   force =     0.00000000    0.00000000    0.00000000
     atom   16 type  1   force =    -0.00006896   -0.00006896   -0.00006896

     Total force =     0.000338     Total SCF correction =     0.000230
     SCF correction compared to forces is large: reduce conv_thr to get better values

     Computing stress (Cartesian axis) and pressure

          total   stress  (Ry/bohr**3)                   (kbar)     P=      -48.53
  -0.00032993   0.00000000   0.00000000          -48.53        0.00        0.00
   0.00000000  -0.00032993   0.00000000            0.00      -48.53        0.00
   0.00000000   0.00000000  -0.00032993            0.00        0.00      -48.53

     Writing output data file /scratch/eIbRXpscAWvHfLIs.save/

     General routines

     Parallel routines

   This run was terminated on:   0:18:25  30Nov2021

   JOB DONE.