     Program PWSCF v.6.7MaX starts on 29Nov2021 at 23:22: 5

     R & G space division:  proc/nbgrp/npool/nimage =      72
     Reading input from bcc_6.in
Warning: card &CELL ignored
Warning: card CELL_DYNAMICS = 'BFGS', ignored
Warning: card CELL_FACTOR = 2.0, ignored
Warning: card PRESS = 0.0, ignored
Warning: card / ignored

     Current dimensions of program PWSCF are:
     Max number of different atomic species (ntypx) = 10
     Max number of k-points (npk) =  40000
     Max angular momentum in pseudopotentials (lmaxx) =  3
     file Pd.pbe-spn-kjpaw_psl.1.0.0.UPF: wavefunction(s)  4S 5S 4D renormalized

     Subspace diagonalization in iterative solution of the eigenvalue problem:
     one sub-group per band group will be used

     Found symmetry operation: I + (  0.2500  0.2500  0.2500)
     This is a supercell, fractional translations are disabled
     Message from routine setup:
     using ibrav=0 with symmetry is DISCOURAGED, use correct ibrav instead

     bravais-lattice index     =            0
     lattice parameter (alat)  =      11.4293  a.u.
     unit-cell volume          =    1875.2423 (a.u.)^3
     number of atoms/cell      =           16
     number of atomic types    =            1
     number of electrons       =       288.00
     number of Kohn-Sham states=          173
     kinetic-energy cutoff     =      71.0000  Ry
     charge density cutoff     =     430.0000  Ry
     scf convergence threshold =      1.0E-06
     mixing beta               =       0.1000
     number of iterations used =           10  TF        mixing
     Exchange-correlation= SLA  PW   PBX  PBC
                           (   1   4   3   4   0   0   0)

     celldm(1)=  11.429280  celldm(2)=   0.000000  celldm(3)=   0.000000
     celldm(4)=   0.000000  celldm(5)=   0.000000  celldm(6)=   0.000000

     crystal axes: (cart. coord. in units of alat)
               a(1) = (   1.078947   0.000000   0.000000 )
               a(2) = (   0.000000   1.078947   0.000000 )
               a(3) = (   0.000000   0.000000   1.078947 )

     reciprocal axes: (cart. coord. in units 2 pi/alat)
               b(1) = (  0.926829  0.000000  0.000000 )
               b(2) = (  0.000000  0.926829  0.000000 )
               b(3) = (  0.000000  0.000000  0.926829 )

     PseudoPot. # 1 for Pd read from file:
     /rds/homes/b/bxp912/pp/Pd.pbe-spn-kjpaw_psl.1.0.0.UPF
     MD5 check sum: 790f2ebce206edfd9790dcb9844eca51
     Pseudo is Projector augmented-wave + core cor, Zval = 18.0
     Generated using &quot;atomic&quot; code by A. Dal Corso  v.6.3
     Shape of augmentation charge: PSQ
     Using radial grid of 1235 points,  6 beta functions with:
                l(1) =   0
                l(2) =   0
                l(3) =   1
                l(4) =   1
                l(5) =   2
                l(6) =   2
     Q(r) pseudized with 0 coefficients

     atomic species   valence    mass     pseudopotential
        Pd            18.00   106.42000     Pd( 1.00)

     48 Sym. Ops., with inversion, found

   Cartesian axes

     site n.     atom                  positions (alat units)
         1           Pd  tau(   1) = (   0.0000000   0.0000000   0.0000000  )
         2           Pd  tau(   2) = (   0.2697368   0.2697368   0.2697368  )
         3           Pd  tau(   3) = (   0.0000000   0.0000000   0.5394737  )
         4           Pd  tau(   4) = (   0.2697368   0.2697368   0.8092105  )
         5           Pd  tau(   5) = (   0.0000000   0.5394737   0.0000000  )
         6           Pd  tau(   6) = (   0.2697368   0.8092105   0.2697368  )
         7           Pd  tau(   7) = (   0.0000000   0.5394737   0.5394737  )
         8           Pd  tau(   8) = (   0.2697368   0.8092105   0.8092105  )
         9           Pd  tau(   9) = (   0.5394737   0.0000000   0.0000000  )
        10           Pd  tau(  10) = (   0.8092105   0.2697368   0.2697368  )
        11           Pd  tau(  11) = (   0.5394737   0.0000000   0.5394737  )
        12           Pd  tau(  12) = (   0.8092105   0.2697368   0.8092105  )
        13           Pd  tau(  13) = (   0.5394737   0.5394737   0.0000000  )
        14           Pd  tau(  14) = (   0.8092105   0.8092105   0.2697368  )
        15           Pd  tau(  15) = (   0.5394737   0.5394737   0.5394737  )
        16           Pd  tau(  16) = (   0.8092105   0.8092105   0.8092105  )

     number of k points=    35  Marzari-Vanderbilt smearing, width (Ry)=  0.0400
                       cart. coord. in units 2pi/alat
        k(    1) = (   0.0514905   0.0514905   0.0514905), wk =   0.0219479
        k(    2) = (   0.0514905   0.0514905   0.1544715), wk =   0.0658436
        k(    3) = (   0.0514905   0.0514905   0.2574526), wk =   0.0658436
        k(    4) = (   0.0514905   0.0514905   0.3604336), wk =   0.0658436
        k(    5) = (   0.0514905   0.0514905  -0.4634146), wk =   0.0329218
        k(    6) = (   0.0514905   0.1544715   0.1544715), wk =   0.0658436
        k(    7) = (   0.0514905   0.1544715   0.2574526), wk =   0.1316872
        k(    8) = (   0.0514905   0.1544715   0.3604336), wk =   0.1316872
        k(    9) = (   0.0514905   0.1544715  -0.4634146), wk =   0.0658436
        k(   10) = (   0.0514905   0.2574526   0.2574526), wk =   0.0658436
        k(   11) = (   0.0514905   0.2574526   0.3604336), wk =   0.1316872
        k(   12) = (   0.0514905   0.2574526  -0.4634146), wk =   0.0658436
        k(   13) = (   0.0514905   0.3604336   0.3604336), wk =   0.0658436
        k(   14) = (   0.0514905   0.3604336  -0.4634146), wk =   0.0658436
        k(   15) = (   0.0514905  -0.4634146  -0.4634146), wk =   0.0164609
        k(   16) = (   0.1544715   0.1544715   0.1544715), wk =   0.0219479
        k(   17) = (   0.1544715   0.1544715   0.2574526), wk =   0.0658436
        k(   18) = (   0.1544715   0.1544715   0.3604336), wk =   0.0658436
        k(   19) = (   0.1544715   0.1544715  -0.4634146), wk =   0.0329218
        k(   20) = (   0.1544715   0.2574526   0.2574526), wk =   0.0658436
        k(   21) = (   0.1544715   0.2574526   0.3604336), wk =   0.1316872
        k(   22) = (   0.1544715   0.2574526  -0.4634146), wk =   0.0658436
        k(   23) = (   0.1544715   0.3604336   0.3604336), wk =   0.0658436
        k(   24) = (   0.1544715   0.3604336  -0.4634146), wk =   0.0658436
        k(   25) = (   0.1544715  -0.4634146  -0.4634146), wk =   0.0164609
        k(   26) = (   0.2574526   0.2574526   0.2574526), wk =   0.0219479
        k(   27) = (   0.2574526   0.2574526   0.3604336), wk =   0.0658436
        k(   28) = (   0.2574526   0.2574526  -0.4634146), wk =   0.0329218
        k(   29) = (   0.2574526   0.3604336   0.3604336), wk =   0.0658436
        k(   30) = (   0.2574526   0.3604336  -0.4634146), wk =   0.0658436
        k(   31) = (   0.2574526  -0.4634146  -0.4634146), wk =   0.0164609
        k(   32) = (   0.3604336   0.3604336   0.3604336), wk =   0.0219479
        k(   33) = (   0.3604336   0.3604336  -0.4634146), wk =   0.0329218
        k(   34) = (   0.3604336  -0.4634146  -0.4634146), wk =   0.0164609
        k(   35) = (  -0.4634146  -0.4634146  -0.4634146), wk =   0.0027435

     Check: negative core charge=   -0.000001

     Initial potential from superposition of free atoms

     starting charge  287.99388, renormalised to  288.00000
     Starting wfcs are  160 randomized atomic wfcs +   13 random wfcs
     Checking if some PAW data can be deallocated...

     Self-consistent Calculation

     iteration #  1     ecut=    71.00 Ry     beta= 0.10
     Davidson diagonalization with overlap
     ethr =  1.00E-02,  avg # of iterations =  3.1

     Threshold (ethr) on eigenvalues was too large:
     Diagonalizing with lowered threshold

     Davidson diagonalization with overlap
     ethr =  2.35E-04,  avg # of iterations =  2.0

     total energy              =   -8192.36405138 Ry
     estimated scf accuracy    <       0.65008406 Ry

[...]

     total energy              =   -8192.25039623 Ry
     estimated scf accuracy    <       0.00000487 Ry

     iteration # 13     ecut=    71.00 Ry     beta= 0.10
     Davidson diagonalization with overlap
     ethr =  1.69E-09,  avg # of iterations =  2.0

     End of self-consistent calculation

          k = 0.0515 0.0515 0.0515 ( 18991 PWs)   bands (ev):

   -67.7753 -67.7513 -67.7513 -67.7513 -67.7479 -67.7479 -67.7479 -67.7475
   -67.7475 -67.7475 -67.7470 -67.7470 -67.7470 -67.7463 -67.7462 -67.7259
   -33.5936 -33.5936 -33.5936 -33.5923 -33.5923 -33.5923 -33.5376 -33.5376
   -33.5351 -33.4964 -33.4940 -33.4940 -33.4940 -33.4862 -33.4862 -33.4792
   -33.4792 -33.4792 -33.4660 -33.4660 -33.4568 -33.4568 -33.4568 -33.4562
   -33.4513 -33.4513 -33.4513 -33.4475 -33.4475 -33.4475 -33.4462 -33.4462
   -33.4462 -33.4417 -33.4417 -33.4417 -33.4365 -33.4364 -33.4364 -33.3671
   -33.3646 -33.3646 -33.3639 -33.3639 -33.3639 -33.3626 -33.3626 -33.3626
     9.9657  11.7583  11.7583  11.7583  11.7688  11.7688  11.7688  11.8857
    11.8857  12.5659  12.5659  12.5659  12.6749  12.6749  12.6749  12.6870
    12.6870  12.6870  12.7528  12.7528  12.7528  12.9376  13.0349  13.0349
    13.2135  13.2135  13.2590  13.2590  13.2590  13.2916  13.5261  13.5261
    13.5261  13.5871  13.5871  13.6239  13.9836  13.9836  13.9836  14.0654
    14.0654  14.0654  14.1473  14.1473  14.1473  14.2239  14.2239  14.2239
    14.7131  14.7131  14.7131  14.9240  14.9240  14.9240  15.0728  15.0728
    15.0728  15.0849  15.0849  15.0849  15.1546  15.1546  15.2398  15.2398
    15.2398  15.3245  15.3245  15.3246  15.3579  15.3579  15.3579  15.3579
    15.9677  16.0301  16.0301  16.2250  16.2250  16.2250  16.2642  16.2642
    16.2642  16.2778  16.2778  16.2778  16.8533  16.8533  16.8533  17.5167
    17.5167  17.5167  17.7551  17.7551  17.7551  22.5801  22.5801  22.5801
    22.7667  22.7667  22.7667  23.1185  23.5591  24.0442  24.0442  24.1468
    24.5085  24.5101  24.5101  24.9843  24.9843

[...]

          k = 0.3604-0.4634-0.4634 ( 18932 PWs)   bands (ev):

[...]

          k =-0.4634-0.4634-0.4634 ( 19064 PWs)   bands (ev):

   -67.7574 -67.7573 -67.7573 -67.7573 -67.7573 -67.7573 -67.7573 -67.7572
   -67.7397 -67.7396 -67.7396 -67.7396 -67.7396 -67.7396 -67.7396 -67.7395
   -33.5355 -33.5355 -33.5355 -33.5355 -33.5355 -33.5355 -33.5355 -33.5355
   -33.5354 -33.5354 -33.5354 -33.5354 -33.5354 -33.5354 -33.5354 -33.5354
   -33.5159 -33.5158 -33.5158 -33.5158 -33.5158 -33.5158 -33.5158 -33.5158
   -33.4123 -33.4123 -33.4123 -33.4123 -33.4122 -33.4122 -33.4122 -33.4122
   -33.3921 -33.3921 -33.3920 -33.3920 -33.3920 -33.3920 -33.3920 -33.3920
   -33.3920 -33.3920 -33.3920 -33.3919 -33.3919 -33.3919 -33.3919 -33.3919
    12.3421  12.3421  12.3421  12.3421  12.3421  12.3421  12.3421  12.3421
    13.0313  13.0313  13.0313  13.0313  13.0313  13.0313  13.0313  13.0313
    13.0313  13.0313  13.0313  13.0313  13.0313  13.0313  13.0314  13.0314
    13.0514  13.0514  13.0514  13.0514  13.0514  13.0514  13.0514  13.0514
    13.0591  13.0591  13.0591  13.0591  13.0591  13.0591  13.0591  13.0591
    13.0591  13.0591  13.0591  13.0591  13.0591  13.0591  13.0591  13.0591
    15.1295  15.1295  15.1295  15.1295  15.1295  15.1295  15.1295  15.1295
    15.1295  15.1295  15.1295  15.1295  15.1295  15.1295  15.1295  15.1295
    15.4382  15.4382  15.4382  15.4382  15.4382  15.4382  15.4382  15.4382
    15.4382  15.4382  15.4382  15.4382  15.4382  15.4382  15.4382  15.4382
    16.1404  16.1404  16.1404  16.1404  16.1404  16.1404  16.1404  16.1404
    23.1129  23.1129  23.1129  23.1129  23.1129  23.1130  23.1130  23.1130
    23.1130  23.1130  23.1130  23.1130  23.1130  23.1130  23.1130  23.1130
    23.6199  23.6199  23.6199  23.6199  23.6199

     the Fermi energy is    15.8697 ev

!    total energy              =   -8192.25040077 Ry

     total all-electron energy =   -161472.677254 Ry
     estimated scf accuracy    <       0.00000010 Ry
     smearing contrib. (-TS)   =       0.15598175 Ry
     internal energy E=F+TS    =   -8192.40638252 Ry

     The total energy is F=E-TS. E is the sum of the following terms:
     one-electron contribution =   -1469.35941652 Ry
     hartree contribution      =     912.40623523 Ry
     xc contribution           =    -492.07277564 Ry
     ewald contribution        =   -3059.74878936 Ry
     one-center paw contrib.   =   -4083.63163623 Ry

     convergence has been achieved in  13 iterations

     Forces acting on atoms (cartesian axes, Ry/au):

     atom    1 type  1   force =     0.00000000    0.00000000    0.00000000
     atom    2 type  1   force =     0.00015117    0.00015117    0.00015117
     atom    3 type  1   force =     0.00000000    0.00000000    0.00000000
     atom    4 type  1   force =     0.00015117    0.00015117   -0.00015117
     atom    5 type  1   force =     0.00000000    0.00000000    0.00000000
     atom    6 type  1   force =     0.00015117   -0.00015117    0.00015117
     atom    7 type  1   force =     0.00000000    0.00000000    0.00000000
     atom    8 type  1   force =     0.00015117   -0.00015117   -0.00015117
     atom    9 type  1   force =     0.00000000    0.00000000    0.00000000
     atom   10 type  1   force =    -0.00015117    0.00015117    0.00015117
     atom   11 type  1   force =     0.00000000    0.00000000    0.00000000
     atom   12 type  1   force =    -0.00015117    0.00015117   -0.00015117
     atom   13 type  1   force =     0.00000000    0.00000000    0.00000000
     atom   14 type  1   force =    -0.00015117   -0.00015117    0.00015117
     atom   15 type  1   force =     0.00000000    0.00000000    0.00000000
     atom   16 type  1   force =    -0.00015117   -0.00015117   -0.00015117

     Total force =     0.000741     Total SCF correction =     0.000039

     Computing stress (Cartesian axis) and pressure

          total   stress  (Ry/bohr**3)                   (kbar)     P=     -165.49
  -0.00112495   0.00000000   0.00000000         -165.49        0.00        0.00
   0.00000000  -0.00112495   0.00000000            0.00     -165.49        0.00
   0.00000000   0.00000000  -0.00112495            0.00        0.00     -165.49

     Writing output data file /scratch/mNyjTBZZYRnoVlUV.save/

     General routines

     Parallel routines

   This run was terminated on:  23:25:36  29Nov2021

   JOB DONE.