     Program PWSCF v.6.7MaX starts on 29Nov2021 at 23:25:41

     R & G space division:  proc/nbgrp/npool/nimage =      72
     Reading input from bcc_7.in
Warning: card &CELL ignored
Warning: card CELL_DYNAMICS = 'BFGS', ignored
Warning: card CELL_FACTOR = 2.0, ignored
Warning: card PRESS = 0.0, ignored
Warning: card / ignored

     Current dimensions of program PWSCF are:
     Max number of different atomic species (ntypx) = 10
     Max number of k-points (npk) =  40000
     Max angular momentum in pseudopotentials (lmaxx) =  3
     file Pd.pbe-spn-kjpaw_psl.1.0.0.UPF: wavefunction(s)  4S 5S 4D renormalized

     Subspace diagonalization in iterative solution of the eigenvalue problem:
     one sub-group per band group will be used

     Found symmetry operation: I + (  0.2500  0.2500  0.2500)
     This is a supercell, fractional translations are disabled
     Message from routine setup:
     using ibrav=0 with symmetry is DISCOURAGED, use correct ibrav instead

     bravais-lattice index     =            0
     lattice parameter (alat)  =      11.4293  a.u.
     unit-cell volume          =    2239.6162 (a.u.)^3
     number of atoms/cell      =           16
     number of atomic types    =            1
     number of electrons       =       288.00
     number of Kohn-Sham states=          173
     kinetic-energy cutoff     =      71.0000  Ry
     charge density cutoff     =     430.0000  Ry
     scf convergence threshold =      1.0E-06
     mixing beta               =       0.1000
     number of iterations used =           10  TF        mixing
     Exchange-correlation= SLA  PW   PBX  PBC
                           (   1   4   3   4   0   0   0)

     celldm(1)=  11.429280  celldm(2)=   0.000000  celldm(3)=   0.000000
     celldm(4)=   0.000000  celldm(5)=   0.000000  celldm(6)=   0.000000

     crystal axes: (cart. coord. in units of alat)
               a(1) = (   1.144737   0.000000   0.000000 )
               a(2) = (   0.000000   1.144737   0.000000 )
               a(3) = (   0.000000   0.000000   1.144737 )

     reciprocal axes: (cart. coord. in units 2 pi/alat)
               b(1) = (  0.873563  0.000000  0.000000 )
               b(2) = (  0.000000  0.873563  0.000000 )
               b(3) = (  0.000000  0.000000  0.873563 )

     PseudoPot. # 1 for Pd read from file:
     /rds/homes/b/bxp912/pp/Pd.pbe-spn-kjpaw_psl.1.0.0.UPF
     MD5 check sum: 790f2ebce206edfd9790dcb9844eca51
     Pseudo is Projector augmented-wave + core cor, Zval = 18.0
     Generated using &quot;atomic&quot; code by A. Dal Corso  v.6.3
     Shape of augmentation charge: PSQ
     Using radial grid of 1235 points,  6 beta functions with:
                l(1) =   0
                l(2) =   0
                l(3) =   1
                l(4) =   1
                l(5) =   2
                l(6) =   2
     Q(r) pseudized with 0 coefficients

     atomic species   valence    mass     pseudopotential
        Pd            18.00   106.42000     Pd( 1.00)

     48 Sym. Ops., with inversion, found

   Cartesian axes

     site n.     atom                  positions (alat units)
         1           Pd  tau(   1) = (   0.0000000   0.0000000   0.0000000  )
         2           Pd  tau(   2) = (   0.2861842   0.2861842   0.2861842  )
         3           Pd  tau(   3) = (   0.0000000   0.0000000   0.5723684  )
         4           Pd  tau(   4) = (   0.2861842   0.2861842   0.8585526  )
         5           Pd  tau(   5) = (   0.0000000   0.5723684   0.0000000  )
         6           Pd  tau(   6) = (   0.2861842   0.8585526   0.2861842  )
         7           Pd  tau(   7) = (   0.0000000   0.5723684   0.5723684  )
         8           Pd  tau(   8) = (   0.2861842   0.8585526   0.8585526  )
         9           Pd  tau(   9) = (   0.5723684   0.0000000   0.0000000  )
        10           Pd  tau(  10) = (   0.8585526   0.2861842   0.2861842  )
        11           Pd  tau(  11) = (   0.5723684   0.0000000   0.5723684  )
        12           Pd  tau(  12) = (   0.8585526   0.2861842   0.8585526  )
        13           Pd  tau(  13) = (   0.5723684   0.5723684   0.0000000  )
        14           Pd  tau(  14) = (   0.8585526   0.8585526   0.2861842  )
        15           Pd  tau(  15) = (   0.5723684   0.5723684   0.5723684  )
        16           Pd  tau(  16) = (   0.8585526   0.8585526   0.8585526  )

     number of k points=    35  Marzari-Vanderbilt smearing, width (Ry)=  0.0400
                       cart. coord. in units 2pi/alat
        k(    1) = (   0.0485313   0.0485313   0.0485313), wk =   0.0219479
        k(    2) = (   0.0485313   0.0485313   0.1455939), wk =   0.0658436
        k(    3) = (   0.0485313   0.0485313   0.2426564), wk =   0.0658436
        k(    4) = (   0.0485313   0.0485313   0.3397190), wk =   0.0658436
        k(    5) = (   0.0485313   0.0485313  -0.4367816), wk =   0.0329218
        k(    6) = (   0.0485313   0.1455939   0.1455939), wk =   0.0658436
        k(    7) = (   0.0485313   0.1455939   0.2426564), wk =   0.1316872
        k(    8) = (   0.0485313   0.1455939   0.3397190), wk =   0.1316872
        k(    9) = (   0.0485313   0.1455939  -0.4367816), wk =   0.0658436
        k(   10) = (   0.0485313   0.2426564   0.2426564), wk =   0.0658436
        k(   11) = (   0.0485313   0.2426564   0.3397190), wk =   0.1316872
        k(   12) = (   0.0485313   0.2426564  -0.4367816), wk =   0.0658436
        k(   13) = (   0.0485313   0.3397190   0.3397190), wk =   0.0658436
        k(   14) = (   0.0485313   0.3397190  -0.4367816), wk =   0.0658436
        k(   15) = (   0.0485313  -0.4367816  -0.4367816), wk =   0.0164609
        k(   16) = (   0.1455939   0.1455939   0.1455939), wk =   0.0219479
        k(   17) = (   0.1455939   0.1455939   0.2426564), wk =   0.0658436
        k(   18) = (   0.1455939   0.1455939   0.3397190), wk =   0.0658436
        k(   19) = (   0.1455939   0.1455939  -0.4367816), wk =   0.0329218
        k(   20) = (   0.1455939   0.2426564   0.2426564), wk =   0.0658436
        k(   21) = (   0.1455939   0.2426564   0.3397190), wk =   0.1316872
        k(   22) = (   0.1455939   0.2426564  -0.4367816), wk =   0.0658436
        k(   23) = (   0.1455939   0.3397190   0.3397190), wk =   0.0658436
        k(   24) = (   0.1455939   0.3397190  -0.4367816), wk =   0.0658436
        k(   25) = (   0.1455939  -0.4367816  -0.4367816), wk =   0.0164609
        k(   26) = (   0.2426564   0.2426564   0.2426564), wk =   0.0219479
        k(   27) = (   0.2426564   0.2426564   0.3397190), wk =   0.0658436
        k(   28) = (   0.2426564   0.2426564  -0.4367816), wk =   0.0329218
        k(   29) = (   0.2426564   0.3397190   0.3397190), wk =   0.0658436
        k(   30) = (   0.2426564   0.3397190  -0.4367816), wk =   0.0658436
        k(   31) = (   0.2426564  -0.4367816  -0.4367816), wk =   0.0164609
        k(   32) = (   0.3397190   0.3397190   0.3397190), wk =   0.0219479
        k(   33) = (   0.3397190   0.3397190  -0.4367816), wk =   0.0329218
        k(   34) = (   0.3397190  -0.4367816  -0.4367816), wk =   0.0164609
        k(   35) = (  -0.4367816  -0.4367816  -0.4367816), wk =   0.0027435

     Check: negative core charge=   -0.000001

     Initial potential from superposition of free atoms

     starting charge  287.99388, renormalised to  288.00000
     Starting wfcs are  160 randomized atomic wfcs +   13 random wfcs
     Checking if some PAW data can be deallocated...

     Self-consistent Calculation

     iteration #  1     ecut=    71.00 Ry     beta= 0.10
     Davidson diagonalization with overlap
     ethr =  1.00E-02,  avg # of iterations =  3.3

     Threshold (ethr) on eigenvalues was too large:
     Diagonalizing with lowered threshold

     Davidson diagonalization with overlap
     ethr =  5.30E-04,  avg # of iterations =  1.1

     total energy              =   -8191.99647633 Ry
     estimated scf accuracy    <       1.48090986 Ry

[...]

     total energy              =   -8191.76039603 Ry
     estimated scf accuracy    <       0.00000185 Ry

     iteration # 13     ecut=    71.00 Ry     beta= 0.10
     Davidson diagonalization with overlap
     ethr =  6.41E-10,  avg # of iterations =  2.0

     End of self-consistent calculation

          k = 0.0485 0.0485 0.0485 ( 22680 PWs)   bands (ev):

   -71.0003 -70.9902 -70.9902 -70.9902 -70.9888 -70.9888 -70.9888 -70.9886
   -70.9886 -70.9886 -70.9883 -70.9883 -70.9883 -70.9882 -70.9882 -70.9793
   -36.7701 -36.7701 -36.7701 -36.7695 -36.7695 -36.7695 -36.7442 -36.7442
   -36.7429 -36.7212 -36.7202 -36.7202 -36.7202 -36.7163 -36.7163 -36.7123
   -36.7123 -36.7123 -36.7061 -36.7061 -36.7027 -36.7027 -36.7027 -36.7010
   -36.6998 -36.6998 -36.6998 -36.6981 -36.6981 -36.6981 -36.6973 -36.6973
   -36.6973 -36.6950 -36.6950 -36.6950 -36.6920 -36.6920 -36.6920 -36.6567
   -36.6553 -36.6553 -36.6544 -36.6544 -36.6544 -36.6538 -36.6538 -36.6538
     7.4498   9.1345   9.1345   9.1345   9.1439   9.1439   9.1439   9.2851
     9.2851   9.7527   9.7527   9.7527   9.8474   9.8474   9.8474   9.8568
     9.8568   9.8568   9.9224   9.9224   9.9224  10.0587  10.1352  10.1352
    10.2754  10.2754  10.3337  10.3337  10.3338  10.3367  10.5256  10.5256
    10.5313  10.5313  10.5314  10.5533  10.8427  10.8427  10.8428  10.9051
    10.9051  10.9051  10.9675  10.9675  10.9675  11.0250  11.0250  11.0250
    11.3806  11.3806  11.3806  11.5383  11.5383  11.5383  11.6410  11.6410
    11.6410  11.6495  11.6495  11.6495  11.7121  11.7121  11.7727  11.7727
    11.7727  11.8249  11.8249  11.8249  11.8477  11.8477  11.8478  11.8478
    12.3066  12.3508  12.3508  12.5106  12.5106  12.5106  12.5336  12.5336
    12.5336  12.6262  12.6262  12.6262  13.1451  13.1451  13.1451  14.1312
    14.1312  14.1312  14.3559  14.3559  14.3559  17.8261  17.8261  17.8261
    18.0203  18.0203  18.0203  18.5747  18.8469  19.5595  19.6013  19.6013
    20.2418  20.2672  20.2672  20.4499  20.4499

[...]

          k = 0.3397-0.4368-0.4368 ( 22572 PWs)   bands (ev):

[...]

          k =-0.4368-0.4368-0.4368 ( 22496 PWs)   bands (ev):

   -70.9928 -70.9928 -70.9928 -70.9928 -70.9927 -70.9927 -70.9927 -70.9927
   -70.9853 -70.9852 -70.9852 -70.9852 -70.9852 -70.9852 -70.9852 -70.9852
   -36.7419 -36.7419 -36.7419 -36.7419 -36.7419 -36.7419 -36.7419 -36.7419
   -36.7419 -36.7419 -36.7419 -36.7419 -36.7419 -36.7419 -36.7419 -36.7419
   -36.7308 -36.7307 -36.7307 -36.7307 -36.7307 -36.7307 -36.7307 -36.7307
   -36.6799 -36.6799 -36.6799 -36.6799 -36.6799 -36.6799 -36.6799 -36.6799
   -36.6688 -36.6688 -36.6688 -36.6688 -36.6688 -36.6688 -36.6688 -36.6688
   -36.6688 -36.6688 -36.6688 -36.6688 -36.6688 -36.6688 -36.6688 -36.6688
     9.5345   9.5345   9.5345   9.5345   9.5345   9.5345   9.5345   9.5346
    10.1239  10.1239  10.1239  10.1239  10.1239  10.1239  10.1239  10.1239
    10.1239  10.1240  10.1240  10.1240  10.1240  10.1240  10.1240  10.1240
    10.1367  10.1367  10.1367  10.1368  10.1368  10.1368  10.1368  10.1368
    10.1797  10.1797  10.1797  10.1797  10.1797  10.1797  10.1797  10.1797
    10.1797  10.1797  10.1797  10.1797  10.1797  10.1797  10.1797  10.1797
    11.6886  11.6886  11.6886  11.6886  11.6886  11.6886  11.6886  11.6886
    11.6886  11.6886  11.6886  11.6886  11.6886  11.6886  11.6886  11.6886
    11.9239  11.9239  11.9239  11.9240  11.9240  11.9240  11.9240  11.9240
    11.9240  11.9240  11.9240  11.9240  11.9240  11.9240  11.9240  11.9240
    12.5158  12.5158  12.5158  12.5158  12.5158  12.5158  12.5158  12.5158
    18.7571  18.7571  18.7571  18.7571  18.7571  18.7571  18.7571  18.7571
    18.7571  18.7571  18.7571  18.7571  18.7571  18.9096  18.9096  18.9096
    18.9096  18.9096  18.9096  18.9096  18.9096

     the Fermi energy is    12.2901 ev

!    total energy              =   -8191.76040137 Ry

     total all-electron energy =   -161472.187255 Ry
     estimated scf accuracy    <       0.00000019 Ry
     smearing contrib. (-TS)   =       0.16827356 Ry
     internal energy E=F+TS    =   -8191.92867492 Ry

     The total energy is F=E-TS. E is the sum of the following terms:
     one-electron contribution =   -1753.57863306 Ry
     hartree contribution      =    1020.04241865 Ry
     xc contribution           =    -490.93113862 Ry
     ewald contribution        =   -2883.90115777 Ry
     one-center paw contrib.   =   -4083.56016412 Ry

     convergence has been achieved in  13 iterations

     Forces acting on atoms (cartesian axes, Ry/au):

     atom    1 type  1   force =     0.00000000    0.00000000    0.00000000
     atom    2 type  1   force =     0.00000091    0.00000091    0.00000091
     atom    3 type  1   force =     0.00000000    0.00000000    0.00000000
     atom    4 type  1   force =     0.00000091    0.00000091   -0.00000091
     atom    5 type  1   force =     0.00000000    0.00000000    0.00000000
     atom    6 type  1   force =     0.00000091   -0.00000091    0.00000091
     atom    7 type  1   force =     0.00000000    0.00000000    0.00000000
     atom    8 type  1   force =     0.00000091   -0.00000091   -0.00000091
     atom    9 type  1   force =     0.00000000    0.00000000    0.00000000
     atom   10 type  1   force =    -0.00000091    0.00000091    0.00000091
     atom   11 type  1   force =     0.00000000    0.00000000    0.00000000
     atom   12 type  1   force =    -0.00000091    0.00000091   -0.00000091
     atom   13 type  1   force =     0.00000000    0.00000000    0.00000000
     atom   14 type  1   force =    -0.00000091   -0.00000091    0.00000091
     atom   15 type  1   force =     0.00000000    0.00000000    0.00000000
     atom   16 type  1   force =    -0.00000091   -0.00000091   -0.00000091

     Total force =     0.000004     Total SCF correction =     0.000281
     SCF correction compared to forces is large: reduce conv_thr to get better values

     Computing stress (Cartesian axis) and pressure

          total   stress  (Ry/bohr**3)                   (kbar)     P=     -231.99
  -0.00157706   0.00000000   0.00000000         -231.99        0.00        0.00
   0.00000000  -0.00157706   0.00000000            0.00     -231.99        0.00
   0.00000000   0.00000000  -0.00157706            0.00        0.00     -231.99

     Writing output data file /scratch/BNZJBVpAQnzvccok.save/

     General routines

     Parallel routines

   This run was terminated on:  23:29:16  29Nov2021

   JOB DONE.