     Program PWSCF v.6.7MaX starts on 29Nov2021 at 23:10:42

     R & G space division:  proc/nbgrp/npool/nimage =      72
     Reading input from bcc_1.in
Warning: card &CELL ignored
Warning: card CELL_DYNAMICS = 'BFGS', ignored
Warning: card CELL_FACTOR = 2.0, ignored
Warning: card PRESS = 0.0, ignored
Warning: card / ignored

     Current dimensions of program PWSCF are:
     Max number of different atomic species (ntypx) = 10
     Max number of k-points (npk) =  40000
     Max angular momentum in pseudopotentials (lmaxx) =  3
     file Pd.pbe-spn-kjpaw_psl.1.0.0.UPF: wavefunction(s)  4S 5S 4D renormalized

     Subspace diagonalization in iterative solution of the eigenvalue problem:
     one sub-group per band group will be used

     Found symmetry operation: I + (  0.2500  0.2500  0.2500)
     This is a supercell, fractional translations are disabled
     Message from routine setup:
     using ibrav=0 with symmetry is DISCOURAGED, use correct ibrav instead

     bravais-lattice index     =            0
     lattice parameter (alat)  =      11.4293  a.u.
     unit-cell volume          =     629.8547 (a.u.)^3
     number of atoms/cell      =           16
     number of atomic types    =            1
     number of electrons       =       288.00
     number of Kohn-Sham states=          173
     kinetic-energy cutoff     =      71.0000  Ry
     charge density cutoff     =     430.0000  Ry
     scf convergence threshold =      1.0E-06
     mixing beta               =       0.1000
     number of iterations used =           10  TF        mixing
     Exchange-correlation= SLA  PW   PBX  PBC
                           (   1   4   3   4   0   0   0)

     celldm(1)=  11.429280  celldm(2)=   0.000000  celldm(3)=   0.000000
     celldm(4)=   0.000000  celldm(5)=   0.000000  celldm(6)=   0.000000

     crystal axes: (cart. coord. in units of alat)
               a(1) = (   0.750000   0.000000   0.000000 )
               a(2) = (   0.000000   0.750000   0.000000 )
               a(3) = (   0.000000   0.000000   0.750000 )

     reciprocal axes: (cart. coord. in units 2 pi/alat)
               b(1) = (  1.333333  0.000000  0.000000 )
               b(2) = (  0.000000  1.333333  0.000000 )
               b(3) = (  0.000000  0.000000  1.333333 )

     PseudoPot. # 1 for Pd read from file:
     /rds/homes/b/bxp912/pp/Pd.pbe-spn-kjpaw_psl.1.0.0.UPF
     MD5 check sum: 790f2ebce206edfd9790dcb9844eca51
     Pseudo is Projector augmented-wave + core cor, Zval = 18.0
     Generated using &quot;atomic&quot; code by A. Dal Corso  v.6.3
     Shape of augmentation charge: PSQ
     Using radial grid of 1235 points,  6 beta functions with:
                l(1) =   0
                l(2) =   0
                l(3) =   1
                l(4) =   1
                l(5) =   2
                l(6) =   2
     Q(r) pseudized with 0 coefficients

     atomic species   valence    mass     pseudopotential
        Pd            18.00   106.42000     Pd( 1.00)

     48 Sym. Ops., with inversion, found

   Cartesian axes

     site n.     atom                  positions (alat units)
         1           Pd  tau(   1) = (   0.0000000   0.0000000   0.0000000  )
         2           Pd  tau(   2) = (   0.1875000   0.1875000   0.1875000  )
         3           Pd  tau(   3) = (   0.0000000   0.0000000   0.3750000  )
         4           Pd  tau(   4) = (   0.1875000   0.1875000   0.5625000  )
         5           Pd  tau(   5) = (   0.0000000   0.3750000   0.0000000  )
         6           Pd  tau(   6) = (   0.1875000   0.5625000   0.1875000  )
         7           Pd  tau(   7) = (   0.0000000   0.3750000   0.3750000  )
         8           Pd  tau(   8) = (   0.1875000   0.5625000   0.5625000  )
         9           Pd  tau(   9) = (   0.3750000   0.0000000   0.0000000  )
        10           Pd  tau(  10) = (   0.5625000   0.1875000   0.1875000  )
        11           Pd  tau(  11) = (   0.3750000   0.0000000   0.3750000  )
        12           Pd  tau(  12) = (   0.5625000   0.1875000   0.5625000  )
        13           Pd  tau(  13) = (   0.3750000   0.3750000   0.0000000  )
        14           Pd  tau(  14) = (   0.5625000   0.5625000   0.1875000  )
        15           Pd  tau(  15) = (   0.3750000   0.3750000   0.3750000  )
        16           Pd  tau(  16) = (   0.5625000   0.5625000   0.5625000  )

     number of k points=    35  Marzari-Vanderbilt smearing, width (Ry)=  0.0400
                       cart. coord. in units 2pi/alat
        k(    1) = (   0.0740741   0.0740741   0.0740741), wk =   0.0219479
        k(    2) = (   0.0740741   0.0740741   0.2222222), wk =   0.0658436
        k(    3) = (   0.0740741   0.0740741   0.3703704), wk =   0.0658436
        k(    4) = (   0.0740741   0.0740741   0.5185185), wk =   0.0658436
        k(    5) = (   0.0740741   0.0740741  -0.6666667), wk =   0.0329218
        k(    6) = (   0.0740741   0.2222222   0.2222222), wk =   0.0658436
        k(    7) = (   0.0740741   0.2222222   0.3703704), wk =   0.1316872
        k(    8) = (   0.0740741   0.2222222   0.5185185), wk =   0.1316872
        k(    9) = (   0.0740741   0.2222222  -0.6666667), wk =   0.0658436
        k(   10) = (   0.0740741   0.3703704   0.3703704), wk =   0.0658436
        k(   11) = (   0.0740741   0.3703704   0.5185185), wk =   0.1316872
        k(   12) = (   0.0740741   0.3703704  -0.6666667), wk =   0.0658436
        k(   13) = (   0.0740741   0.5185185   0.5185185), wk =   0.0658436
        k(   14) = (   0.0740741   0.5185185  -0.6666667), wk =   0.0658436
        k(   15) = (   0.0740741  -0.6666667  -0.6666667), wk =   0.0164609
        k(   16) = (   0.2222222   0.2222222   0.2222222), wk =   0.0219479
        k(   17) = (   0.2222222   0.2222222   0.3703704), wk =   0.0658436
        k(   18) = (   0.2222222   0.2222222   0.5185185), wk =   0.0658436
        k(   19) = (   0.2222222   0.2222222  -0.6666667), wk =   0.0329218
        k(   20) = (   0.2222222   0.3703704   0.3703704), wk =   0.0658436
        k(   21) = (   0.2222222   0.3703704   0.5185185), wk =   0.1316872
        k(   22) = (   0.2222222   0.3703704  -0.6666667), wk =   0.0658436
        k(   23) = (   0.2222222   0.5185185   0.5185185), wk =   0.0658436
        k(   24) = (   0.2222222   0.5185185  -0.6666667), wk =   0.0658436
        k(   25) = (   0.2222222  -0.6666667  -0.6666667), wk =   0.0164609
        k(   26) = (   0.3703704   0.3703704   0.3703704), wk =   0.0219479
        k(   27) = (   0.3703704   0.3703704   0.5185185), wk =   0.0658436
        k(   28) = (   0.3703704   0.3703704  -0.6666667), wk =   0.0329218
        k(   29) = (   0.3703704   0.5185185   0.5185185), wk =   0.0658436
        k(   30) = (   0.3703704   0.5185185  -0.6666667), wk =   0.0658436
        k(   31) = (   0.3703704  -0.6666667  -0.6666667), wk =   0.0164609
        k(   32) = (   0.5185185   0.5185185   0.5185185), wk =   0.0219479
        k(   33) = (   0.5185185   0.5185185  -0.6666667), wk =   0.0329218
        k(   34) = (   0.5185185  -0.6666667  -0.6666667), wk =   0.0164609
        k(   35) = (  -0.6666667  -0.6666667  -0.6666667), wk =   0.0027435

     Check: negative core charge=   -0.000002

     Initial potential from superposition of free atoms

     starting charge  287.99388, renormalised to  288.00000
     Starting wfcs are  160 randomized atomic wfcs +   13 random wfcs
     Checking if some PAW data can be deallocated...

     Self-consistent Calculation

     iteration #  1     ecut=    71.00 Ry     beta= 0.10
     Davidson diagonalization with overlap
     ethr =  1.00E-02,  avg # of iterations =  4.8

     Threshold (ethr) on eigenvalues was too large:
     Diagonalizing with lowered threshold

     Davidson diagonalization with overlap
     ethr =  1.25E-04,  avg # of iterations =  8.3

     total energy              =   -8166.41095091 Ry
     estimated scf accuracy    <       0.30390173 Ry

[...]

     iteration #  4     ecut=    71.00 Ry     beta= 0.10
     Davidson diagonalization with overlap
     c_bands:  1 eigenvalues not converged
     c_bands:  1 eigenvalues not converged
     c_bands:  1 eigenvalues not converged
     c_bands:  2 eigenvalues not converged
     ethr =  2.23E-06,  avg # of iterations = 11.1

[...]

     total energy              =   -8166.27964871 Ry
     estimated scf accuracy    <       0.00000691 Ry

     iteration # 10     ecut=    71.00 Ry     beta= 0.10
     Davidson diagonalization with overlap
     ethr =  2.40E-09,  avg # of iterations =  2.0

     End of self-consistent calculation

          k = 0.0741 0.0741 0.0741 (  6379 PWs)   bands (ev):

   -31.0497 -29.2293 -29.2293 -29.2293 -28.8912 -28.8912 -28.8912 -28.7717
   -28.7717 -28.7717 -28.7410 -28.7410 -28.7409 -28.5023 -28.4995 -27.2593
     0.4580   0.4580   0.4580   0.4931   0.4931   0.4931   2.9921   2.9921
     3.0749   3.1560   3.4525   3.4525   3.5169   3.5169   3.5169   3.9360
     3.9360   3.9360   4.0814   4.0814   4.4052   5.1733   5.1733   5.1733
     5.3095   5.3095   5.3095   5.6064   5.6064   5.6064   5.6229   5.6229
     5.6229   5.6627   5.6627   5.6627   5.7350   5.7350   5.7351   7.6971
     7.6971   7.6971   7.7384   7.7384   7.7384   7.8296   7.9242   7.9242
    39.6137  39.6137  42.0561  42.0561  42.0561  42.0668  42.0668  42.0668
    44.2445  44.2445  44.2445  44.3078  44.3078  44.3078  44.8290  44.8290
    44.8290  46.0486  46.0486  46.0486  46.4917  47.9468  48.5247  48.5247
    48.7687  48.7687  48.7687  48.8947  48.8947  49.0947  49.4006  49.4006
    49.4006  49.6502  49.6502  50.1976  51.0280  51.0280  51.0280  51.1794
    51.1794  51.1794  51.6294  51.6294  51.6294  52.0369  52.0369  52.0369
    53.9728  53.9728  53.9728  55.0075  55.0075  55.0075  55.7732  55.7732
    56.4274  56.4274  56.4274  56.5548  56.5548  56.5548  57.2042  57.2042
    57.2042  57.6989  57.6989  57.6989  58.0596  58.0596  58.0607  58.0607
    61.3311  61.7766  61.7766  62.4981  62.4981  62.4981  62.9893  62.9893
    62.9893  63.5976  63.5976  63.5976  64.4529  64.4529  64.4529  64.8349
    64.8349  64.8349  65.3689  65.3689  65.3689  73.6662  73.6662  73.6662
    73.8292  73.8292  73.8292  75.9354  75.9354  76.0753  76.8574  77.0644
    77.0644  77.2877  77.9286  77.9286  78.7169

[...]

          k = 0.5185-0.6667-0.6667 (  6328 PWs)   bands (ev):

[...]

          k =-0.6667-0.6667-0.6667 (  6272 PWs)   bands (ev):

   -29.5961 -29.5961 -29.5961 -29.5961 -29.5961 -29.5961 -29.5961 -29.5960
   -28.1850 -28.1850 -28.1850 -28.1850 -28.1850 -28.1850 -28.1850 -28.1850
     2.4463   2.4463   2.4463   2.4463   2.4463   2.4463   2.4463   2.4463
     2.4463   2.4463   2.4463   2.4463   2.4463   2.4463   2.4463   2.4463
     3.0164   3.0164   3.0164   3.0164   3.0164   3.0164   3.0164   3.0164
     6.5647   6.5647   6.5647   6.5647   6.5647   6.5647   6.5647   6.5647
     6.8379   6.8379   6.8379   6.8379   6.8379   6.8379   6.8380   6.8380
     6.8380   6.8380   6.8380   6.8380   6.8380   6.8380   6.8380   6.8380
    46.2462  46.2462  46.2462  46.2462  46.2462  46.2462  46.2462  46.2462
    46.2462  46.2462  46.2462  46.2462  46.2462  46.2462  46.2462  46.2462
    46.3700  46.3700  46.3700  46.3700  46.3700  46.3700  46.3700  46.3700
    46.3700  46.3700  46.3700  46.3700  46.3700  46.3700  46.3700  46.3700
    46.3917  46.3917  46.3917  46.3917  46.3917  46.3917  46.3917  46.3917
    50.4923  50.4923  50.4923  50.4923  50.4923  50.4923  50.4923  50.4923
    55.9775  55.9775  55.9775  55.9775  55.9775  55.9775  55.9775  55.9775
    55.9775  55.9775  55.9775  55.9775  55.9775  55.9775  55.9776  55.9776
    58.4386  58.4386  58.4386  58.4386  58.4386  58.4386  58.4386  58.4386
    58.4386  58.4386  58.4386  58.4386  58.4386  58.4386  58.4386  58.4386
    62.3581  62.3581  62.3581  62.3581  62.3582  62.3582  62.3582  62.3582
    78.1696  78.1696  78.1696  78.1696  78.1696  78.1696  78.1696  78.1696
    80.1167  80.1167  80.1167  80.1167  80.1167  80.1167  80.1167  80.1167
    80.1167  80.1167  80.1167  80.1167  80.1167

     the Fermi energy is    61.0494 ev

!    total energy              =   -8166.27965317 Ry

     total all-electron energy =   -161446.706507 Ry
     estimated scf accuracy    <       0.00000029 Ry
     smearing contrib. (-TS)   =       0.00505549 Ry
     internal energy E=F+TS    =   -8166.28470867 Ry

     The total energy is F=E-TS. E is the sum of the following terms:
     one-electron contribution =     490.84364524 Ry
     hartree contribution      =     352.37153049 Ry
     xc contribution           =    -522.96019591 Ry
     ewald contribution        =   -4401.74387241 Ry
     one-center paw contrib.   =   -4084.79581607 Ry

     convergence has been achieved in  10 iterations

     Forces acting on atoms (cartesian axes, Ry/au):

     atom    1 type  1   force =     0.00000000    0.00000000    0.00000000
     atom    2 type  1   force =    -0.00000269   -0.00000269   -0.00000269
     atom    3 type  1   force =     0.00000000    0.00000000    0.00000000
     atom    4 type  1   force =    -0.00000269   -0.00000269    0.00000269
     atom    5 type  1   force =     0.00000000    0.00000000    0.00000000
     atom    6 type  1   force =    -0.00000269    0.00000269   -0.00000269
     atom    7 type  1   force =     0.00000000    0.00000000    0.00000000
     atom    8 type  1   force =    -0.00000269    0.00000269    0.00000269
     atom    9 type  1   force =     0.00000000    0.00000000    0.00000000
     atom   10 type  1   force =     0.00000269   -0.00000269   -0.00000269
     atom   11 type  1   force =     0.00000000    0.00000000    0.00000000
     atom   12 type  1   force =     0.00000269   -0.00000269    0.00000269
     atom   13 type  1   force =     0.00000000    0.00000000    0.00000000
     atom   14 type  1   force =     0.00000269    0.00000269   -0.00000269
     atom   15 type  1   force =     0.00000000    0.00000000    0.00000000
     atom   16 type  1   force =     0.00000269    0.00000269    0.00000269

     Total force =     0.000013     Total SCF correction =     0.000109
     SCF correction compared to forces is large: reduce conv_thr to get better values

     Computing stress (Cartesian axis) and pressure

          total   stress  (Ry/bohr**3)                   (kbar)     P=    18785.92
   0.12770411   0.00000000   0.00000000        18785.92        0.00        0.00
   0.00000000   0.12770411   0.00000000            0.00    18785.92        0.00
   0.00000000   0.00000000   0.12770411            0.00        0.00    18785.92

     Writing output data file /scratch/ACXCvuiIjmrCDvSH.save/

     General routines

     Parallel routines

   This run was terminated on:  23:12:57  29Nov2021

   JOB DONE.