     Program PWSCF v.6.7MaX starts on 29Nov2021 at 23:29:21

     R & G space division:  proc/nbgrp/npool/nimage =      72
     Reading input from bcc_8.in
Warning: card &CELL ignored
Warning: card CELL_DYNAMICS = 'BFGS', ignored
Warning: card CELL_FACTOR = 2.0, ignored
Warning: card PRESS = 0.0, ignored
Warning: card / ignored

     Current dimensions of program PWSCF are:
     Max number of different atomic species (ntypx) = 10
     Max number of k-points (npk) =  40000
     Max angular momentum in pseudopotentials (lmaxx) =  3
     file Pd.pbe-spn-kjpaw_psl.1.0.0.UPF: wavefunction(s)  4S 5S 4D renormalized

     Subspace diagonalization in iterative solution of the eigenvalue problem:
     one sub-group per band group will be used

     Found symmetry operation: I + (  0.2500  0.2500  0.2500)
     This is a supercell, fractional translations are disabled
     Message from routine setup:
     using ibrav=0 with symmetry is DISCOURAGED, use correct ibrav instead

     bravais-lattice index     =            0
     lattice parameter (alat)  =      11.4293  a.u.
     unit-cell volume          =    2648.3740 (a.u.)^3
     number of atoms/cell      =           16
     number of atomic types    =            1
     number of electrons       =       288.00
     number of Kohn-Sham states=          173
     kinetic-energy cutoff     =      71.0000  Ry
     charge density cutoff     =     430.0000  Ry
     scf convergence threshold =      1.0E-06
     mixing beta               =       0.1000
     number of iterations used =           10  TF        mixing
     Exchange-correlation= SLA  PW   PBX  PBC
                           (   1   4   3   4   0   0   0)

     celldm(1)=  11.429280  celldm(2)=   0.000000  celldm(3)=   0.000000
     celldm(4)=   0.000000  celldm(5)=   0.000000  celldm(6)=   0.000000

     crystal axes: (cart. coord. in units of alat)
               a(1) = (   1.210526   0.000000   0.000000 )
               a(2) = (   0.000000   1.210526   0.000000 )
               a(3) = (   0.000000   0.000000   1.210526 )

     reciprocal axes: (cart. coord. in units 2 pi/alat)
               b(1) = (  0.826087  0.000000  0.000000 )
               b(2) = (  0.000000  0.826087  0.000000 )
               b(3) = (  0.000000  0.000000  0.826087 )

     PseudoPot. # 1 for Pd read from file:
     /rds/homes/b/bxp912/pp/Pd.pbe-spn-kjpaw_psl.1.0.0.UPF
     MD5 check sum: 790f2ebce206edfd9790dcb9844eca51
     Pseudo is Projector augmented-wave + core cor, Zval = 18.0
     Generated using &quot;atomic&quot; code by A. Dal Corso  v.6.3
     Shape of augmentation charge: PSQ
     Using radial grid of 1235 points,  6 beta functions with:
                l(1) =   0
                l(2) =   0
                l(3) =   1
                l(4) =   1
                l(5) =   2
                l(6) =   2
     Q(r) pseudized with 0 coefficients

     atomic species   valence    mass     pseudopotential
        Pd            18.00   106.42000     Pd( 1.00)

     48 Sym. Ops., with inversion, found

   Cartesian axes

     site n.     atom                  positions (alat units)
         1           Pd  tau(   1) = (   0.0000000   0.0000000   0.0000000  )
         2           Pd  tau(   2) = (   0.3026316   0.3026316   0.3026316  )
         3           Pd  tau(   3) = (   0.0000000   0.0000000   0.6052632  )
         4           Pd  tau(   4) = (   0.3026316   0.3026316   0.9078947  )
         5           Pd  tau(   5) = (   0.0000000   0.6052632   0.0000000  )
         6           Pd  tau(   6) = (   0.3026316   0.9078947   0.3026316  )
         7           Pd  tau(   7) = (   0.0000000   0.6052632   0.6052632  )
         8           Pd  tau(   8) = (   0.3026316   0.9078947   0.9078947  )
         9           Pd  tau(   9) = (   0.6052632   0.0000000   0.0000000  )
        10           Pd  tau(  10) = (   0.9078947   0.3026316   0.3026316  )
        11           Pd  tau(  11) = (   0.6052632   0.0000000   0.6052632  )
        12           Pd  tau(  12) = (   0.9078947   0.3026316   0.9078947  )
        13           Pd  tau(  13) = (   0.6052632   0.6052632   0.0000000  )
        14           Pd  tau(  14) = (   0.9078947   0.9078947   0.3026316  )
        15           Pd  tau(  15) = (   0.6052632   0.6052632   0.6052632  )
        16           Pd  tau(  16) = (   0.9078947   0.9078947   0.9078947  )

     number of k points=    35  Marzari-Vanderbilt smearing, width (Ry)=  0.0400
                       cart. coord. in units 2pi/alat
        k(    1) = (   0.0458937   0.0458937   0.0458937), wk =   0.0219479
        k(    2) = (   0.0458937   0.0458937   0.1376812), wk =   0.0658436
        k(    3) = (   0.0458937   0.0458937   0.2294686), wk =   0.0658436
        k(    4) = (   0.0458937   0.0458937   0.3212560), wk =   0.0658436
        k(    5) = (   0.0458937   0.0458937  -0.4130435), wk =   0.0329218
        k(    6) = (   0.0458937   0.1376812   0.1376812), wk =   0.0658436
        k(    7) = (   0.0458937   0.1376812   0.2294686), wk =   0.1316872
        k(    8) = (   0.0458937   0.1376812   0.3212560), wk =   0.1316872
        k(    9) = (   0.0458937   0.1376812  -0.4130435), wk =   0.0658436
        k(   10) = (   0.0458937   0.2294686   0.2294686), wk =   0.0658436
        k(   11) = (   0.0458937   0.2294686   0.3212560), wk =   0.1316872
        k(   12) = (   0.0458937   0.2294686  -0.4130435), wk =   0.0658436
        k(   13) = (   0.0458937   0.3212560   0.3212560), wk =   0.0658436
        k(   14) = (   0.0458937   0.3212560  -0.4130435), wk =   0.0658436
        k(   15) = (   0.0458937  -0.4130435  -0.4130435), wk =   0.0164609
        k(   16) = (   0.1376812   0.1376812   0.1376812), wk =   0.0219479
        k(   17) = (   0.1376812   0.1376812   0.2294686), wk =   0.0658436
        k(   18) = (   0.1376812   0.1376812   0.3212560), wk =   0.0658436
        k(   19) = (   0.1376812   0.1376812  -0.4130435), wk =   0.0329218
        k(   20) = (   0.1376812   0.2294686   0.2294686), wk =   0.0658436
        k(   21) = (   0.1376812   0.2294686   0.3212560), wk =   0.1316872
        k(   22) = (   0.1376812   0.2294686  -0.4130435), wk =   0.0658436
        k(   23) = (   0.1376812   0.3212560   0.3212560), wk =   0.0658436
        k(   24) = (   0.1376812   0.3212560  -0.4130435), wk =   0.0658436
        k(   25) = (   0.1376812  -0.4130435  -0.4130435), wk =   0.0164609
        k(   26) = (   0.2294686   0.2294686   0.2294686), wk =   0.0219479
        k(   27) = (   0.2294686   0.2294686   0.3212560), wk =   0.0658436
        k(   28) = (   0.2294686   0.2294686  -0.4130435), wk =   0.0329218
        k(   29) = (   0.2294686   0.3212560   0.3212560), wk =   0.0658436
        k(   30) = (   0.2294686   0.3212560  -0.4130435), wk =   0.0658436
        k(   31) = (   0.2294686  -0.4130435  -0.4130435), wk =   0.0164609
        k(   32) = (   0.3212560   0.3212560   0.3212560), wk =   0.0219479
        k(   33) = (   0.3212560   0.3212560  -0.4130435), wk =   0.0329218
        k(   34) = (   0.3212560  -0.4130435  -0.4130435), wk =   0.0164609
        k(   35) = (  -0.4130435  -0.4130435  -0.4130435), wk =   0.0027435

     Check: negative core charge=   -0.000001

     Initial potential from superposition of free atoms

     starting charge  287.99388, renormalised to  288.00000
     Starting wfcs are  160 randomized atomic wfcs +   13 random wfcs
     Checking if some PAW data can be deallocated...

     Self-consistent Calculation

     iteration #  1     ecut=    71.00 Ry     beta= 0.10
     Davidson diagonalization with overlap
     ethr =  1.00E-02,  avg # of iterations =  3.5

     Threshold (ethr) on eigenvalues was too large:
     Diagonalizing with lowered threshold

     Davidson diagonalization with overlap
     ethr =  9.94E-04,  avg # of iterations =  1.0

     total energy              =   -8191.55937476 Ry
     estimated scf accuracy    <       2.79830480 Ry

[...]

     iteration #  6     ecut=    71.00 Ry     beta= 0.10
     Davidson diagonalization with overlap
     c_bands:  2 eigenvalues not converged
     ethr =  1.25E-06,  avg # of iterations =  4.8

[...]

     total energy              =   -8191.14883069 Ry
     estimated scf accuracy    <       0.00000118 Ry

     iteration # 14     ecut=    71.00 Ry     beta= 0.10
     Davidson diagonalization with overlap
     ethr =  4.10E-10,  avg # of iterations =  1.0

     End of self-consistent calculation

          k = 0.0459 0.0459 0.0459 ( 26850 PWs)   bands (ev):

   -73.5129 -73.5086 -73.5086 -73.5086 -73.5081 -73.5081 -73.5081 -73.5080
   -73.5080 -73.5080 -73.5078 -73.5078 -73.5078 -73.5078 -73.5078 -73.5039
   -39.2673 -39.2673 -39.2673 -39.2669 -39.2669 -39.2668 -39.2549 -39.2549
   -39.2542 -39.2423 -39.2417 -39.2417 -39.2417 -39.2395 -39.2395 -39.2377
   -39.2377 -39.2377 -39.2344 -39.2344 -39.2334 -39.2334 -39.2334 -39.2319
   -39.2318 -39.2318 -39.2318 -39.2311 -39.2311 -39.2311 -39.2307 -39.2307
   -39.2307 -39.2294 -39.2294 -39.2294 -39.2278 -39.2278 -39.2278 -39.2093
   -39.2087 -39.2087 -39.2078 -39.2078 -39.2078 -39.2075 -39.2075 -39.2075
     5.5211   7.0470   7.0470   7.0470   7.0550   7.0550   7.0550   7.1937
     7.1937   7.5556   7.5556   7.5556   7.5970   7.5970   7.5970   7.6043
     7.6043   7.6043   7.6967   7.6967   7.6967   7.7761   7.8372   7.8372
     7.9495   7.9495   7.9963   7.9963   7.9963   7.9989   8.1060   8.1060
     8.1270   8.1436   8.1436   8.1436   8.3623   8.3623   8.3623   8.4095
     8.4095   8.4095   8.4579   8.4580   8.4580   8.5015   8.5015   8.5015
     8.7609   8.7609   8.7609   8.8802   8.8802   8.8802   8.9515   8.9515
     8.9515   8.9576   8.9576   8.9576   9.0106   9.0106   9.0534   9.0534
     9.0534   9.0866   9.0866   9.0866   9.1027   9.1027   9.1028   9.1028
     9.4542   9.4860   9.4860   9.6113   9.6113   9.6113   9.6266   9.6266
     9.6266   9.7906   9.7906   9.7906  10.2723  10.2723  10.2724  11.5083
    11.5083  11.5083  11.7352  11.7352  11.7352  14.1291  14.1291  14.1291
    14.3392  14.3392  14.3392  14.9584  15.1205  16.0092  16.1373  16.1373
    16.8557  16.9002  16.9002  16.9125  17.3705

[...]

          k = 0.3213-0.4130-0.4130 ( 26716 PWs)   bands (ev):

[...]

          k =-0.4130-0.4130-0.4130 ( 26632 PWs)   bands (ev):

   -73.5097 -73.5097 -73.5097 -73.5097 -73.5097 -73.5097 -73.5097 -73.5097
   -73.5065 -73.5065 -73.5065 -73.5065 -73.5065 -73.5065 -73.5065 -73.5065
   -39.2532 -39.2532 -39.2532 -39.2532 -39.2532 -39.2532 -39.2532 -39.2532
   -39.2532 -39.2532 -39.2532 -39.2532 -39.2532 -39.2532 -39.2532 -39.2532
   -39.2472 -39.2472 -39.2472 -39.2472 -39.2472 -39.2472 -39.2472 -39.2471
   -39.2216 -39.2216 -39.2216 -39.2216 -39.2216 -39.2216 -39.2216 -39.2216
   -39.2153 -39.2153 -39.2153 -39.2153 -39.2153 -39.2153 -39.2153 -39.2153
   -39.2153 -39.2153 -39.2153 -39.2153 -39.2153 -39.2153 -39.2153 -39.2153
     7.3547   7.3547   7.3547   7.3547   7.3547   7.3547   7.3547   7.3547
     7.8140   7.8140   7.8140   7.8140   7.8140   7.8140   7.8140   7.8140
     7.8140   7.8140   7.8140   7.8140   7.8140   7.8140   7.8140   7.8140
     7.8232   7.8232   7.8232   7.8232   7.8232   7.8232   7.8232   7.8232
     7.8860   7.8860   7.8860   7.8860   7.8860   7.8860   7.8860   7.8860
     7.8860   7.8860   7.8860   7.8860   7.8860   7.8860   7.8860   7.8860
     8.9897   8.9897   8.9897   8.9897   8.9897   8.9897   8.9897   8.9897
     8.9897   8.9897   8.9897   8.9897   8.9897   8.9897   8.9897   8.9897
     9.1740   9.1740   9.1740   9.1740   9.1740   9.1740   9.1740   9.1740
     9.1740   9.1740   9.1740   9.1740   9.1740   9.1740   9.1740   9.1740
     9.6926   9.6926   9.6926   9.6926   9.6926   9.6926   9.6926   9.6926
    15.1899  15.1899  15.1899  15.1899  15.1899  15.1899  15.1899  15.1899
    15.3849  15.3849  15.3849  15.3849  15.3849  15.3849  15.3849  15.3849
    15.3849  15.3849  15.3849  15.3849  15.3849

     the Fermi energy is     9.5064 ev

!    total energy              =   -8191.14883605 Ry

     total all-electron energy =   -161471.575690 Ry
     estimated scf accuracy    <       0.00000022 Ry
     smearing contrib. (-TS)   =       0.18671255 Ry
     internal energy E=F+TS    =   -8191.33554860 Ry

     The total energy is F=E-TS. E is the sum of the following terms:
     one-electron contribution =   -2013.43330523 Ry
     hartree contribution      =    1123.13277181 Ry
     xc contribution           =    -490.36189977 Ry
     ewald contribution        =   -2727.16739921 Ry
     one-center paw contrib.   =   -4083.50571622 Ry

     convergence has been achieved in  14 iterations

     Forces acting on atoms (cartesian axes, Ry/au):

     atom    1 type  1   force =     0.00000000    0.00000000    0.00000000
     atom    2 type  1   force =    -0.00000192   -0.00000192   -0.00000192
     atom    3 type  1   force =     0.00000000    0.00000000    0.00000000
     atom    4 type  1   force =    -0.00000192   -0.00000192    0.00000192
     atom    5 type  1   force =     0.00000000    0.00000000    0.00000000
     atom    6 type  1   force =    -0.00000192    0.00000192   -0.00000192
     atom    7 type  1   force =     0.00000000    0.00000000    0.00000000
     atom    8 type  1   force =    -0.00000192    0.00000192    0.00000192
     atom    9 type  1   force =     0.00000000    0.00000000    0.00000000
     atom   10 type  1   force =     0.00000192   -0.00000192   -0.00000192
     atom   11 type  1   force =     0.00000000    0.00000000    0.00000000
     atom   12 type  1   force =     0.00000192   -0.00000192    0.00000192
     atom   13 type  1   force =     0.00000000    0.00000000    0.00000000
     atom   14 type  1   force =     0.00000192    0.00000192   -0.00000192
     atom   15 type  1   force =     0.00000000    0.00000000    0.00000000
     atom   16 type  1   force =     0.00000192    0.00000192    0.00000192

     Total force =     0.000009     Total SCF correction =     0.000008
     SCF correction compared to forces is large: reduce conv_thr to get better values

     Computing stress (Cartesian axis) and pressure

          total   stress  (Ry/bohr**3)                   (kbar)     P=     -220.30
  -0.00149757   0.00000000   0.00000000         -220.30        0.00        0.00
   0.00000000  -0.00149757   0.00000000            0.00     -220.30        0.00
   0.00000000   0.00000000  -0.00149757            0.00        0.00     -220.30

     Writing output data file /scratch/rBiwHfiWpBYOdmLK.save/

     General routines

     Parallel routines

   This run was terminated on:  23:33:53  29Nov2021

   JOB DONE.