     Program PWSCF v.6.7MaX starts on 30Nov2021 at  0:31: 7

     R & G space division:  proc/nbgrp/npool/nimage =      72
     Reading input from bcc_16.in
Warning: card &CELL ignored
Warning: card CELL_DYNAMICS = 'BFGS', ignored
Warning: card CELL_FACTOR = 2.0, ignored
Warning: card PRESS = 0.0, ignored
Warning: card / ignored

     Current dimensions of program PWSCF are:
     Max number of different atomic species (ntypx) = 10
     Max number of k-points (npk) =  40000
     Max angular momentum in pseudopotentials (lmaxx) =  3
     file Pd.pbe-spn-kjpaw_psl.1.0.0.UPF: wavefunction(s)  4S 5S 4D renormalized

     Subspace diagonalization in iterative solution of the eigenvalue problem:
     one sub-group per band group will be used

     Found symmetry operation: I + (  0.2500  0.2500  0.2500)
     This is a supercell, fractional translations are disabled
     Message from routine setup:
     using ibrav=0 with symmetry is DISCOURAGED, use correct ibrav instead

     bravais-lattice index     =            0
     lattice parameter (alat)  =      11.4293  a.u.
     unit-cell volume          =    7822.3570 (a.u.)^3
     number of atoms/cell      =           16
     number of atomic types    =            1
     number of electrons       =       288.00
     number of Kohn-Sham states=          173
     kinetic-energy cutoff     =      71.0000  Ry
     charge density cutoff     =     430.0000  Ry
     scf convergence threshold =      1.0E-06
     mixing beta               =       0.1000
     number of iterations used =           10  TF        mixing
     Exchange-correlation= SLA  PW   PBX  PBC
                           (   1   4   3   4   0   0   0)

     celldm(1)=  11.429280  celldm(2)=   0.000000  celldm(3)=   0.000000
     celldm(4)=   0.000000  celldm(5)=   0.000000  celldm(6)=   0.000000

     crystal axes: (cart. coord. in units of alat)
               a(1) = (   1.736842   0.000000   0.000000 )
               a(2) = (   0.000000   1.736842   0.000000 )
               a(3) = (   0.000000   0.000000   1.736842 )

     reciprocal axes: (cart. coord. in units 2 pi/alat)
               b(1) = (  0.575758  0.000000  0.000000 )
               b(2) = (  0.000000  0.575758  0.000000 )
               b(3) = (  0.000000  0.000000  0.575758 )

     PseudoPot. # 1 for Pd read from file:
     /rds/homes/b/bxp912/pp/Pd.pbe-spn-kjpaw_psl.1.0.0.UPF
     MD5 check sum: 790f2ebce206edfd9790dcb9844eca51
     Pseudo is Projector augmented-wave + core cor, Zval = 18.0
     Generated using &quot;atomic&quot; code by A. Dal Corso  v.6.3
     Shape of augmentation charge: PSQ
     Using radial grid of 1235 points,  6 beta functions with:
                l(1) =   0
                l(2) =   0
                l(3) =   1
                l(4) =   1
                l(5) =   2
                l(6) =   2
     Q(r) pseudized with 0 coefficients

     atomic species   valence    mass     pseudopotential
        Pd            18.00   106.42000     Pd( 1.00)

     48 Sym. Ops., with inversion, found

   Cartesian axes

     site n.     atom                  positions (alat units)
         1           Pd  tau(   1) = (   0.0000000   0.0000000   0.0000000  )
         2           Pd  tau(   2) = (   0.4342105   0.4342105   0.4342105  )
         3           Pd  tau(   3) = (   0.0000000   0.0000000   0.8684211  )
         4           Pd  tau(   4) = (   0.4342105   0.4342105   1.3026316  )
         5           Pd  tau(   5) = (   0.0000000   0.8684211   0.0000000  )
         6           Pd  tau(   6) = (   0.4342105   1.3026316   0.4342105  )
         7           Pd  tau(   7) = (   0.0000000   0.8684211   0.8684211  )
         8           Pd  tau(   8) = (   0.4342105   1.3026316   1.3026316  )
         9           Pd  tau(   9) = (   0.8684211   0.0000000   0.0000000  )
        10           Pd  tau(  10) = (   1.3026316   0.4342105   0.4342105  )
        11           Pd  tau(  11) = (   0.8684211   0.0000000   0.8684211  )
        12           Pd  tau(  12) = (   1.3026316   0.4342105   1.3026316  )
        13           Pd  tau(  13) = (   0.8684211   0.8684211   0.0000000  )
        14           Pd  tau(  14) = (   1.3026316   1.3026316   0.4342105  )
        15           Pd  tau(  15) = (   0.8684211   0.8684211   0.8684211  )
        16           Pd  tau(  16) = (   1.3026316   1.3026316   1.3026316  )

     number of k points=    35  Marzari-Vanderbilt smearing, width (Ry)=  0.0400
                       cart. coord. in units 2pi/alat
        k(    1) = (   0.0319865   0.0319865   0.0319865), wk =   0.0219479
        k(    2) = (   0.0319865   0.0319865   0.0959596), wk =   0.0658436
        k(    3) = (   0.0319865   0.0319865   0.1599327), wk =   0.0658436
        k(    4) = (   0.0319865   0.0319865   0.2239057), wk =   0.0658436
        k(    5) = (   0.0319865   0.0319865  -0.2878788), wk =   0.0329218
        k(    6) = (   0.0319865   0.0959596   0.0959596), wk =   0.0658436
        k(    7) = (   0.0319865   0.0959596   0.1599327), wk =   0.1316872
        k(    8) = (   0.0319865   0.0959596   0.2239057), wk =   0.1316872
        k(    9) = (   0.0319865   0.0959596  -0.2878788), wk =   0.0658436
        k(   10) = (   0.0319865   0.1599327   0.1599327), wk =   0.0658436
        k(   11) = (   0.0319865   0.1599327   0.2239057), wk =   0.1316872
        k(   12) = (   0.0319865   0.1599327  -0.2878788), wk =   0.0658436
        k(   13) = (   0.0319865   0.2239057   0.2239057), wk =   0.0658436
        k(   14) = (   0.0319865   0.2239057  -0.2878788), wk =   0.0658436
        k(   15) = (   0.0319865  -0.2878788  -0.2878788), wk =   0.0164609
        k(   16) = (   0.0959596   0.0959596   0.0959596), wk =   0.0219479
        k(   17) = (   0.0959596   0.0959596   0.1599327), wk =   0.0658436
        k(   18) = (   0.0959596   0.0959596   0.2239057), wk =   0.0658436
        k(   19) = (   0.0959596   0.0959596  -0.2878788), wk =   0.0329218
        k(   20) = (   0.0959596   0.1599327   0.1599327), wk =   0.0658436
        k(   21) = (   0.0959596   0.1599327   0.2239057), wk =   0.1316872
        k(   22) = (   0.0959596   0.1599327  -0.2878788), wk =   0.0658436
        k(   23) = (   0.0959596   0.2239057   0.2239057), wk =   0.0658436
        k(   24) = (   0.0959596   0.2239057  -0.2878788), wk =   0.0658436
        k(   25) = (   0.0959596  -0.2878788  -0.2878788), wk =   0.0164609
        k(   26) = (   0.1599327   0.1599327   0.1599327), wk =   0.0219479
        k(   27) = (   0.1599327   0.1599327   0.2239057), wk =   0.0658436
        k(   28) = (   0.1599327   0.1599327  -0.2878788), wk =   0.0329218
        k(   29) = (   0.1599327   0.2239057   0.2239057), wk =   0.0658436
        k(   30) = (   0.1599327   0.2239057  -0.2878788), wk =   0.0658436
        k(   31) = (   0.1599327  -0.2878788  -0.2878788), wk =   0.0164609
        k(   32) = (   0.2239057   0.2239057   0.2239057), wk =   0.0219479
        k(   33) = (   0.2239057   0.2239057  -0.2878788), wk =   0.0329218
        k(   34) = (   0.2239057  -0.2878788  -0.2878788), wk =   0.0164609
        k(   35) = (  -0.2878788  -0.2878788  -0.2878788), wk =   0.0027435

     Initial potential from superposition of free atoms

     starting charge  287.99388, renormalised to  288.00000
     Starting wfcs are  160 randomized atomic wfcs +   13 random wfcs
     Checking if some PAW data can be deallocated...

     Self-consistent Calculation

     iteration #  1     ecut=    71.00 Ry     beta= 0.10
     Davidson diagonalization with overlap
     ethr =  1.00E-02,  avg # of iterations =  5.1

     total energy              =   -8190.68252738 Ry
     estimated scf accuracy    <      12.21341962 Ry

[...]

     iteration # 25     ecut=    71.00 Ry     beta= 0.10
     Davidson diagonalization with overlap
     c_bands:  1 eigenvalues not converged
     c_bands:  1 eigenvalues not converged
     c_bands:  1 eigenvalues not converged
     ethr =  2.17E-06,  avg # of iterations =  8.6

[...]

     total energy              =   -8188.12126623 Ry
     estimated scf accuracy    <       0.00000215 Ry

     iteration # 38     ecut=    71.00 Ry     beta= 0.10
     Davidson diagonalization with overlap
     ethr =  7.46E-10,  avg # of iterations =  1.9

     End of self-consistent calculation

          k = 0.0320 0.0320 0.0320 ( 79093 PWs)   bands (ev):

   -81.6985 -81.6985 -81.6985 -81.6985 -81.6984 -81.6984 -81.6984 -81.6984
   -81.6984 -81.6984 -81.6984 -81.6984 -81.6984 -81.6984 -81.6984 -81.6984
   -47.5194 -47.5194 -47.5194 -47.5194 -47.5194 -47.5194 -47.5194 -47.5194
   -47.5194 -47.5194 -47.5194 -47.5194 -47.5194 -47.5194 -47.5194 -47.5193
   -47.5193 -47.5193 -47.5193 -47.5193 -47.5193 -47.5193 -47.5193 -47.5193
   -47.5193 -47.5193 -47.5193 -47.5193 -47.5193 -47.5193 -47.5193 -47.5193
   -47.5193 -47.5193 -47.5193 -47.5193 -47.5193 -47.5193 -47.5193 -47.5192
   -47.5192 -47.5192 -47.5192 -47.5192 -47.5192 -47.5192 -47.5191 -47.5191
    -0.5912  -0.2963  -0.2963  -0.2963  -0.2951  -0.2951  -0.2951  -0.2765
    -0.2765  -0.2461  -0.2460  -0.2460  -0.2447  -0.2447  -0.2447  -0.1865
    -0.1800  -0.1800  -0.1768  -0.1748  -0.1748  -0.1683  -0.1683  -0.1683
    -0.1522  -0.1522  -0.1498  -0.1498  -0.1498  -0.1416  -0.1416  -0.1416
    -0.1416  -0.1405  -0.1405  -0.1405  -0.1191  -0.1191  -0.1191  -0.1143
    -0.1143  -0.1143  -0.1094  -0.1094  -0.1094  -0.1037  -0.1037  -0.1037
    -0.0784  -0.0784  -0.0784  -0.0611  -0.0611  -0.0611  -0.0570  -0.0570
    -0.0570  -0.0563  -0.0563  -0.0563  -0.0467  -0.0467  -0.0448  -0.0448
    -0.0448  -0.0425  -0.0425  -0.0425  -0.0409  -0.0409  -0.0409  -0.0409
     0.0196   0.0233   0.0233   0.0424   0.0424   0.0424   0.0441   0.0442
     0.0442   0.6710   0.6710   0.6710   0.9594   0.9594   0.9594   1.7024
     1.7025   1.7025   1.7758   1.7759   1.7759   2.1385   2.1458   3.0369
     3.0370   3.0370   3.1107   3.1107   3.1108   3.2174   4.3856   4.5237
     4.5237   4.8614   4.8614   5.0530   5.0867

[...]

          k = 0.2239-0.2879-0.2879 ( 79024 PWs)   bands (ev):

[...]

          k =-0.2879-0.2879-0.2879 ( 78792 PWs)   bands (ev):

   -81.6985 -81.6985 -81.6985 -81.6985 -81.6984 -81.6984 -81.6984 -81.6984
   -81.6984 -81.6984 -81.6984 -81.6984 -81.6984 -81.6984 -81.6984 -81.6984
   -47.5194 -47.5193 -47.5193 -47.5193 -47.5193 -47.5193 -47.5193 -47.5193
   -47.5193 -47.5193 -47.5193 -47.5193 -47.5193 -47.5193 -47.5193 -47.5193
   -47.5193 -47.5193 -47.5193 -47.5193 -47.5193 -47.5193 -47.5193 -47.5193
   -47.5192 -47.5192 -47.5192 -47.5192 -47.5192 -47.5192 -47.5192 -47.5192
   -47.5192 -47.5192 -47.5192 -47.5192 -47.5192 -47.5192 -47.5192 -47.5192
   -47.5192 -47.5192 -47.5192 -47.5192 -47.5192 -47.5191 -47.5191 -47.5191
    -0.2065  -0.2065  -0.2065  -0.2065  -0.2065  -0.2065  -0.2065  -0.2065
    -0.2065  -0.2065  -0.2065  -0.2065  -0.2065  -0.2064  -0.2064  -0.2064
    -0.2009  -0.2009  -0.2009  -0.2009  -0.2009  -0.2009  -0.2009  -0.2009
    -0.1667  -0.1667  -0.1667  -0.1667  -0.1667  -0.1667  -0.1667  -0.1667
    -0.1667  -0.1667  -0.1667  -0.1667  -0.1667  -0.1667  -0.1666  -0.1666
    -0.1346  -0.1346  -0.1346  -0.1346  -0.1346  -0.1346  -0.1346  -0.1346
    -0.0522  -0.0522  -0.0522  -0.0522  -0.0522  -0.0522  -0.0522  -0.0522
    -0.0522  -0.0522  -0.0522  -0.0522  -0.0522  -0.0522  -0.0521  -0.0521
    -0.0133  -0.0133  -0.0133  -0.0133  -0.0133  -0.0133  -0.0133  -0.0133
    -0.0133  -0.0133  -0.0133  -0.0133  -0.0133  -0.0133  -0.0133  -0.0133
     0.5179   0.5179   0.5179   0.5179   0.5179   0.5179   0.5179   0.5180
     2.2429   2.2430   2.2430   2.2430   2.2430   2.2431   2.2431   2.2431
     4.2210   4.2210   4.2210   4.2210   4.2210   4.2210   4.2210   4.2210
     4.2211   4.2211   4.2211   4.2211   4.2212

     the Fermi energy is     0.3613 ev

!    total energy              =   -8188.12126640 Ry

     total all-electron energy =   -161468.548120 Ry
     estimated scf accuracy    <       0.00000042 Ry
     smearing contrib. (-TS)   =       0.37527164 Ry
     internal energy E=F+TS    =   -8188.49653803 Ry

     The total energy is F=E-TS. E is the sum of the following terms:
     one-electron contribution =   -3482.38610155 Ry
     hartree contribution      =    1769.89726391 Ry
     xc contribution           =    -491.95932614 Ry
     ewald contribution        =   -1900.75303581 Ry
     one-center paw contrib.   =   -4083.29533844 Ry

     convergence has been achieved in  38 iterations

     Forces acting on atoms (cartesian axes, Ry/au):

     atom    1 type  1   force =     0.00000000    0.00000000    0.00000000
     atom    2 type  1   force =    -0.00008715   -0.00008715   -0.00008715
     atom    3 type  1   force =     0.00000000    0.00000000    0.00000000
     atom    4 type  1   force =    -0.00008715   -0.00008715    0.00008715
     atom    5 type  1   force =     0.00000000    0.00000000    0.00000000
     atom    6 type  1   force =    -0.00008715    0.00008715   -0.00008715
     atom    7 type  1   force =     0.00000000    0.00000000    0.00000000
     atom    8 type  1   force =    -0.00008715    0.00008715    0.00008715
     atom    9 type  1   force =     0.00000000    0.00000000    0.00000000
     atom   10 type  1   force =     0.00008715   -0.00008715   -0.00008715
     atom   11 type  1   force =     0.00000000    0.00000000    0.00000000
     atom   12 type  1   force =     0.00008715   -0.00008715    0.00008715
     atom   13 type  1   force =     0.00000000    0.00000000    0.00000000
     atom   14 type  1   force =     0.00008715    0.00008715   -0.00008715
     atom   15 type  1   force =     0.00000000    0.00000000    0.00000000
     atom   16 type  1   force =     0.00008715    0.00008715    0.00008715

     Total force =     0.000427     Total SCF correction =     0.000020

     Computing stress (Cartesian axis) and pressure

          total   stress  (Ry/bohr**3)                   (kbar)     P=      -25.64
  -0.00017426   0.00000000   0.00000000          -25.64        0.00        0.00
   0.00000000  -0.00017426   0.00000000            0.00      -25.64        0.00
   0.00000000   0.00000000  -0.00017426            0.00        0.00      -25.64

     Writing output data file /scratch/GTwOTlMIyQAzXkbV.save/

     General routines

     Parallel routines

   This run was terminated on:   0:46:40  30Nov2021

   JOB DONE.