     Program PWSCF v.6.7MaX starts on 29Nov2021 at 23:19:19

     R & G space division:  proc/nbgrp/npool/nimage =      72
     Reading input from bcc_5.in
Warning: card &CELL ignored
Warning: card CELL_DYNAMICS = 'BFGS', ignored
Warning: card CELL_FACTOR = 2.0, ignored
Warning: card PRESS = 0.0, ignored
Warning: card / ignored

     Current dimensions of program PWSCF are:
     Max number of different atomic species (ntypx) = 10
     Max number of k-points (npk) =  40000
     Max angular momentum in pseudopotentials (lmaxx) =  3
     file Pd.pbe-spn-kjpaw_psl.1.0.0.UPF: wavefunction(s)  4S 5S 4D renormalized

     Subspace diagonalization in iterative solution of the eigenvalue problem:
     one sub-group per band group will be used

     Found symmetry operation: I + (  0.2500  0.2500  0.2500)
     This is a supercell, fractional translations are disabled
     Message from routine setup:
     using ibrav=0 with symmetry is DISCOURAGED, use correct ibrav instead

     bravais-lattice index     =            0
     lattice parameter (alat)  =      11.4293  a.u.
     unit-cell volume          =    1552.7017 (a.u.)^3
     number of atoms/cell      =           16
     number of atomic types    =            1
     number of electrons       =       288.00
     number of Kohn-Sham states=          173
     kinetic-energy cutoff     =      71.0000  Ry
     charge density cutoff     =     430.0000  Ry
     scf convergence threshold =      1.0E-06
     mixing beta               =       0.1000
     number of iterations used =           10  TF        mixing
     Exchange-correlation= SLA  PW   PBX  PBC
                           (   1   4   3   4   0   0   0)

     celldm(1)=  11.429280  celldm(2)=   0.000000  celldm(3)=   0.000000
     celldm(4)=   0.000000  celldm(5)=   0.000000  celldm(6)=   0.000000

     crystal axes: (cart. coord. in units of alat)
               a(1) = (   1.013158   0.000000   0.000000 )
               a(2) = (   0.000000   1.013158   0.000000 )
               a(3) = (   0.000000   0.000000   1.013158 )

     reciprocal axes: (cart. coord. in units 2 pi/alat)
               b(1) = (  0.987013  0.000000  0.000000 )
               b(2) = (  0.000000  0.987013  0.000000 )
               b(3) = (  0.000000  0.000000  0.987013 )

     PseudoPot. # 1 for Pd read from file:
     /rds/homes/b/bxp912/pp/Pd.pbe-spn-kjpaw_psl.1.0.0.UPF
     MD5 check sum: 790f2ebce206edfd9790dcb9844eca51
     Pseudo is Projector augmented-wave + core cor, Zval = 18.0
     Generated using &quot;atomic&quot; code by A. Dal Corso  v.6.3
     Shape of augmentation charge: PSQ
     Using radial grid of 1235 points,  6 beta functions with:
                l(1) =   0
                l(2) =   0
                l(3) =   1
                l(4) =   1
                l(5) =   2
                l(6) =   2
     Q(r) pseudized with 0 coefficients

     atomic species   valence    mass     pseudopotential
        Pd            18.00   106.42000     Pd( 1.00)

     48 Sym. Ops., with inversion, found

   Cartesian axes

     site n.     atom                  positions (alat units)
         1           Pd  tau(   1) = (   0.0000000   0.0000000   0.0000000  )
         2           Pd  tau(   2) = (   0.2532895   0.2532895   0.2532895  )
         3           Pd  tau(   3) = (   0.0000000   0.0000000   0.5065789  )
         4           Pd  tau(   4) = (   0.2532895   0.2532895   0.7598684  )
         5           Pd  tau(   5) = (   0.0000000   0.5065789   0.0000000  )
         6           Pd  tau(   6) = (   0.2532895   0.7598684   0.2532895  )
         7           Pd  tau(   7) = (   0.0000000   0.5065789   0.5065789  )
         8           Pd  tau(   8) = (   0.2532895   0.7598684   0.7598684  )
         9           Pd  tau(   9) = (   0.5065789   0.0000000   0.0000000  )
        10           Pd  tau(  10) = (   0.7598684   0.2532895   0.2532895  )
        11           Pd  tau(  11) = (   0.5065789   0.0000000   0.5065789  )
        12           Pd  tau(  12) = (   0.7598684   0.2532895   0.7598684  )
        13           Pd  tau(  13) = (   0.5065789   0.5065789   0.0000000  )
        14           Pd  tau(  14) = (   0.7598684   0.7598684   0.2532895  )
        15           Pd  tau(  15) = (   0.5065789   0.5065789   0.5065789  )
        16           Pd  tau(  16) = (   0.7598684   0.7598684   0.7598684  )

     number of k points=    35  Marzari-Vanderbilt smearing, width (Ry)=  0.0400
                       cart. coord. in units 2pi/alat
        k(    1) = (   0.0548341   0.0548341   0.0548341), wk =   0.0219479
        k(    2) = (   0.0548341   0.0548341   0.1645022), wk =   0.0658436
        k(    3) = (   0.0548341   0.0548341   0.2741703), wk =   0.0658436
        k(    4) = (   0.0548341   0.0548341   0.3838384), wk =   0.0658436
        k(    5) = (   0.0548341   0.0548341  -0.4935065), wk =   0.0329218
        k(    6) = (   0.0548341   0.1645022   0.1645022), wk =   0.0658436
        k(    7) = (   0.0548341   0.1645022   0.2741703), wk =   0.1316872
        k(    8) = (   0.0548341   0.1645022   0.3838384), wk =   0.1316872
        k(    9) = (   0.0548341   0.1645022  -0.4935065), wk =   0.0658436
        k(   10) = (   0.0548341   0.2741703   0.2741703), wk =   0.0658436
        k(   11) = (   0.0548341   0.2741703   0.3838384), wk =   0.1316872
        k(   12) = (   0.0548341   0.2741703  -0.4935065), wk =   0.0658436
        k(   13) = (   0.0548341   0.3838384   0.3838384), wk =   0.0658436
        k(   14) = (   0.0548341   0.3838384  -0.4935065), wk =   0.0658436
        k(   15) = (   0.0548341  -0.4935065  -0.4935065), wk =   0.0164609
        k(   16) = (   0.1645022   0.1645022   0.1645022), wk =   0.0219479
        k(   17) = (   0.1645022   0.1645022   0.2741703), wk =   0.0658436
        k(   18) = (   0.1645022   0.1645022   0.3838384), wk =   0.0658436
        k(   19) = (   0.1645022   0.1645022  -0.4935065), wk =   0.0329218
        k(   20) = (   0.1645022   0.2741703   0.2741703), wk =   0.0658436
        k(   21) = (   0.1645022   0.2741703   0.3838384), wk =   0.1316872
        k(   22) = (   0.1645022   0.2741703  -0.4935065), wk =   0.0658436
        k(   23) = (   0.1645022   0.3838384   0.3838384), wk =   0.0658436
        k(   24) = (   0.1645022   0.3838384  -0.4935065), wk =   0.0658436
        k(   25) = (   0.1645022  -0.4935065  -0.4935065), wk =   0.0164609
        k(   26) = (   0.2741703   0.2741703   0.2741703), wk =   0.0219479
        k(   27) = (   0.2741703   0.2741703   0.3838384), wk =   0.0658436
        k(   28) = (   0.2741703   0.2741703  -0.4935065), wk =   0.0329218
        k(   29) = (   0.2741703   0.3838384   0.3838384), wk =   0.0658436
        k(   30) = (   0.2741703   0.3838384  -0.4935065), wk =   0.0658436
        k(   31) = (   0.2741703  -0.4935065  -0.4935065), wk =   0.0164609
        k(   32) = (   0.3838384   0.3838384   0.3838384), wk =   0.0219479
        k(   33) = (   0.3838384   0.3838384  -0.4935065), wk =   0.0329218
        k(   34) = (   0.3838384  -0.4935065  -0.4935065), wk =   0.0164609
        k(   35) = (  -0.4935065  -0.4935065  -0.4935065), wk =   0.0027435

     Check: negative core charge=   -0.000002

     Initial potential from superposition of free atoms

     starting charge  287.99388, renormalised to  288.00000
     Starting wfcs are  160 randomized atomic wfcs +   13 random wfcs
     Checking if some PAW data can be deallocated...

     Self-consistent Calculation

     iteration #  1     ecut=    71.00 Ry     beta= 0.10
     Davidson diagonalization with overlap
     ethr =  1.00E-02,  avg # of iterations =  3.1

     Threshold (ethr) on eigenvalues was too large:
     Diagonalizing with lowered threshold

     Davidson diagonalization with overlap
     ethr =  8.64E-05,  avg # of iterations =  3.7

     total energy              =   -8192.38542580 Ry
     estimated scf accuracy    <       0.23040417 Ry

[...]

     total energy              =   -8192.33984934 Ry
     estimated scf accuracy    <       0.00001013 Ry

     iteration # 14     ecut=    71.00 Ry     beta= 0.10
     Davidson diagonalization with overlap
     ethr =  1.53E-09,  avg # of iterations =  2.0

     End of self-consistent calculation

          k = 0.0548 0.0548 0.0548 ( 15672 PWs)   bands (ev):

   -63.6056 -63.5485 -63.5485 -63.5484 -63.5398 -63.5398 -63.5397 -63.5389
   -63.5389 -63.5388 -63.5382 -63.5382 -63.5382 -63.5354 -63.5353 -63.4887
   -29.5350 -29.5350 -29.5350 -29.5325 -29.5325 -29.5325 -29.4146 -29.4146
   -29.4096 -29.3412 -29.3375 -29.3375 -29.3375 -29.3214 -29.3214 -29.3084
   -29.3084 -29.3084 -29.2811 -29.2811 -29.2616 -29.2564 -29.2564 -29.2564
   -29.2463 -29.2462 -29.2462 -29.2372 -29.2372 -29.2372 -29.2345 -29.2345
   -29.2345 -29.2269 -29.2269 -29.2269 -29.2172 -29.2172 -29.2172 -29.0814
   -29.0777 -29.0777 -29.0777 -29.0760 -29.0760 -29.0751 -29.0751 -29.0751
    13.2995  15.0892  15.0893  15.0893  15.1003  15.1003  15.1003  15.1395
    15.1395  16.2283  16.2284  16.2284  16.2555  16.2555  16.2555  16.2713
    16.2713  16.2713  16.4104  16.4104  16.4104  16.6128  16.7401  16.7401
    16.9409  16.9409  16.9409  16.9747  16.9747  17.0783  17.3040  17.3040
    17.3040  17.4951  17.4951  17.5447  17.9992  17.9992  17.9992  18.1056
    18.1056  18.1056  18.2159  18.2159  18.2159  18.3187  18.3187  18.3187
    18.9927  18.9927  18.9927  19.2780  19.2780  19.2780  19.4960  19.4960
    19.4960  19.5134  19.5134  19.5134  19.5812  19.5812  19.7029  19.7029
    19.7029  19.8431  19.8431  19.8431  19.8931  19.8931  19.8931  19.8931
    20.7199  20.8097  20.8097  21.0091  21.0091  21.0091  21.0334  21.0334
    21.0334  21.0926  21.0926  21.0926  21.6946  21.6946  21.6946  22.0021
    22.0022  22.0022  22.2588  22.2588  22.2588  28.7745  28.7746  28.7746
    28.9277  28.9583  28.9583  28.9583  29.5820  29.8050  29.8050  29.9461
    29.9461  29.9656  30.0989  30.8372  30.8372

[...]

          k = 0.3838-0.4935-0.4935 ( 15624 PWs)   bands (ev):

[...]

          k =-0.4935-0.4935-0.4935 ( 15624 PWs)   bands (ev):

   -63.5623 -63.5623 -63.5623 -63.5623 -63.5623 -63.5623 -63.5622 -63.5621
   -63.5204 -63.5204 -63.5204 -63.5204 -63.5204 -63.5204 -63.5203 -63.5203
   -29.4149 -29.4149 -29.4149 -29.4149 -29.4149 -29.4149 -29.4149 -29.4149
   -29.4149 -29.4149 -29.4149 -29.4149 -29.4149 -29.4148 -29.4148 -29.4148
   -29.3789 -29.3789 -29.3788 -29.3788 -29.3788 -29.3788 -29.3788 -29.3788
   -29.1698 -29.1698 -29.1698 -29.1698 -29.1698 -29.1697 -29.1697 -29.1697
   -29.1317 -29.1317 -29.1317 -29.1317 -29.1317 -29.1317 -29.1317 -29.1317
   -29.1317 -29.1317 -29.1317 -29.1317 -29.1317 -29.1317 -29.1317 -29.1317
    16.0200  16.0202  16.0202  16.0202  16.0202  16.0202  16.0202  16.0202
    16.7114  16.7114  16.7114  16.7114  16.7114  16.7114  16.7114  16.7114
    16.7114  16.7114  16.7114  16.7114  16.7114  16.7115  16.7115  16.7115
    16.7228  16.7228  16.7228  16.7228  16.7228  16.7228  16.7228  16.7228
    16.7228  16.7228  16.7228  16.7228  16.7228  16.7228  16.7228  16.7228
    16.7562  16.7562  16.7562  16.7562  16.7562  16.7562  16.7562  16.7562
    19.5580  19.5580  19.5580  19.5580  19.5580  19.5580  19.5580  19.5580
    19.5580  19.5580  19.5580  19.5580  19.5580  19.5580  19.5580  19.5580
    19.9780  19.9780  19.9780  19.9780  19.9780  19.9780  19.9780  19.9780
    19.9780  19.9780  19.9780  19.9780  19.9781  19.9781  19.9781  19.9781
    20.8480  20.8480  20.8481  20.8481  20.8481  20.8481  20.8481  20.8481
    28.8163  28.8163  28.8163  28.8163  28.8163  28.8164  28.8164  28.8164
    28.8164  28.8164  28.8164  28.8164  28.8164  28.8164  28.8164  28.8164
    29.6468  29.6468  29.6468  29.6468  29.6469

     the Fermi energy is    20.5367 ev

!    total energy              =   -8192.33985334 Ry

     total all-electron energy =   -161472.766707 Ry
     estimated scf accuracy    <       0.00000093 Ry
     smearing contrib. (-TS)   =       0.12342562 Ry
     internal energy E=F+TS    =   -8192.46327897 Ry

     The total energy is F=E-TS. E is the sum of the following terms:
     one-electron contribution =   -1157.36132426 Ry
     hartree contribution      =     801.16549039 Ry
     xc contribution           =    -494.10386515 Ry
     ewald contribution        =   -3258.43377567 Ry
     one-center paw contrib.   =   -4083.72980427 Ry

     convergence has been achieved in  14 iterations

     Forces acting on atoms (cartesian axes, Ry/au):

     atom    1 type  1   force =     0.00000000    0.00000000    0.00000000
     atom    2 type  1   force =     0.00002935    0.00002935    0.00002935
     atom    3 type  1   force =     0.00000000    0.00000000    0.00000000
     atom    4 type  1   force =     0.00002935    0.00002935   -0.00002935
     atom    5 type  1   force =     0.00000000    0.00000000    0.00000000
     atom    6 type  1   force =     0.00002935   -0.00002935    0.00002935
     atom    7 type  1   force =     0.00000000    0.00000000    0.00000000
     atom    8 type  1   force =     0.00002935   -0.00002935   -0.00002935
     atom    9 type  1   force =     0.00000000    0.00000000    0.00000000
     atom   10 type  1   force =    -0.00002935    0.00002935    0.00002935
     atom   11 type  1   force =     0.00000000    0.00000000    0.00000000
     atom   12 type  1   force =    -0.00002935    0.00002935   -0.00002935
     atom   13 type  1   force =     0.00000000    0.00000000    0.00000000
     atom   14 type  1   force =    -0.00002935   -0.00002935    0.00002935
     atom   15 type  1   force =     0.00000000    0.00000000    0.00000000
     atom   16 type  1   force =    -0.00002935   -0.00002935   -0.00002935

     Total force =     0.000144     Total SCF correction =     0.001031
     SCF correction compared to forces is large: reduce conv_thr to get better values

     Computing stress (Cartesian axis) and pressure

          total   stress  (Ry/bohr**3)                   (kbar)     P=      116.26
   0.00079035   0.00000000   0.00000000          116.26        0.00        0.00
   0.00000000   0.00079035   0.00000000            0.00      116.26        0.00
   0.00000000   0.00000000   0.00079035            0.00        0.00      116.26

     Writing output data file /scratch/yRXmwxiubMRtVihk.save/

     General routines

     Parallel routines

   This run was terminated on:  23:22: 0  29Nov2021

   JOB DONE.