     Program PWSCF v.6.7MaX starts on 29Nov2021 at 23:17:17

     R & G space division:  proc/nbgrp/npool/nimage =      72
     Reading input from bcc_4.in
Warning: card &CELL ignored
Warning: card CELL_DYNAMICS = 'BFGS', ignored
Warning: card CELL_FACTOR = 2.0, ignored
Warning: card PRESS = 0.0, ignored
Warning: card / ignored

     Current dimensions of program PWSCF are:
     Max number of different atomic species (ntypx) = 10
     Max number of k-points (npk) =  40000
     Max angular momentum in pseudopotentials (lmaxx) =  3
     file Pd.pbe-spn-kjpaw_psl.1.0.0.UPF: wavefunction(s)  4S 5S 4D renormalized

     Subspace diagonalization in iterative solution of the eigenvalue problem:
     one sub-group per band group will be used

     Found symmetry operation: I + (  0.2500  0.2500  0.2500)
     This is a supercell, fractional translations are disabled
     Message from routine setup:
     using ibrav=0 with symmetry is DISCOURAGED, use correct ibrav instead

     bravais-lattice index     =            0
     lattice parameter (alat)  =      11.4293  a.u.
     unit-cell volume          =    1269.4434 (a.u.)^3
     number of atoms/cell      =           16
     number of atomic types    =            1
     number of electrons       =       288.00
     number of Kohn-Sham states=          173
     kinetic-energy cutoff     =      71.0000  Ry
     charge density cutoff     =     430.0000  Ry
     scf convergence threshold =      1.0E-06
     mixing beta               =       0.1000
     number of iterations used =           10  TF        mixing
     Exchange-correlation= SLA  PW   PBX  PBC
                           (   1   4   3   4   0   0   0)

     celldm(1)=  11.429280  celldm(2)=   0.000000  celldm(3)=   0.000000
     celldm(4)=   0.000000  celldm(5)=   0.000000  celldm(6)=   0.000000

     crystal axes: (cart. coord. in units of alat)
               a(1) = (   0.947368   0.000000   0.000000 )
               a(2) = (   0.000000   0.947368   0.000000 )
               a(3) = (   0.000000   0.000000   0.947368 )

     reciprocal axes: (cart. coord. in units 2 pi/alat)
               b(1) = (  1.055556  0.000000  0.000000 )
               b(2) = (  0.000000  1.055556  0.000000 )
               b(3) = (  0.000000  0.000000  1.055556 )

     PseudoPot. # 1 for Pd read from file:
     /rds/homes/b/bxp912/pp/Pd.pbe-spn-kjpaw_psl.1.0.0.UPF
     MD5 check sum: 790f2ebce206edfd9790dcb9844eca51
     Pseudo is Projector augmented-wave + core cor, Zval = 18.0
     Generated using &quot;atomic&quot; code by A. Dal Corso  v.6.3
     Shape of augmentation charge: PSQ
     Using radial grid of 1235 points,  6 beta functions with:
                l(1) =   0
                l(2) =   0
                l(3) =   1
                l(4) =   1
                l(5) =   2
                l(6) =   2
     Q(r) pseudized with 0 coefficients

     atomic species   valence    mass     pseudopotential
        Pd            18.00   106.42000     Pd( 1.00)

     48 Sym. Ops., with inversion, found

   Cartesian axes

     site n.     atom                  positions (alat units)
         1           Pd  tau(   1) = (   0.0000000   0.0000000   0.0000000  )
         2           Pd  tau(   2) = (   0.2368421   0.2368421   0.2368421  )
         3           Pd  tau(   3) = (   0.0000000   0.0000000   0.4736842  )
         4           Pd  tau(   4) = (   0.2368421   0.2368421   0.7105263  )
         5           Pd  tau(   5) = (   0.0000000   0.4736842   0.0000000  )
         6           Pd  tau(   6) = (   0.2368421   0.7105263   0.2368421  )
         7           Pd  tau(   7) = (   0.0000000   0.4736842   0.4736842  )
         8           Pd  tau(   8) = (   0.2368421   0.7105263   0.7105263  )
         9           Pd  tau(   9) = (   0.4736842   0.0000000   0.0000000  )
        10           Pd  tau(  10) = (   0.7105263   0.2368421   0.2368421  )
        11           Pd  tau(  11) = (   0.4736842   0.0000000   0.4736842  )
        12           Pd  tau(  12) = (   0.7105263   0.2368421   0.7105263  )
        13           Pd  tau(  13) = (   0.4736842   0.4736842   0.0000000  )
        14           Pd  tau(  14) = (   0.7105263   0.7105263   0.2368421  )
        15           Pd  tau(  15) = (   0.4736842   0.4736842   0.4736842  )
        16           Pd  tau(  16) = (   0.7105263   0.7105263   0.7105263  )

     number of k points=    35  Marzari-Vanderbilt smearing, width (Ry)=  0.0400
                       cart. coord. in units 2pi/alat
        k(    1) = (   0.0586420   0.0586420   0.0586420), wk =   0.0219479
        k(    2) = (   0.0586420   0.0586420   0.1759259), wk =   0.0658436
        k(    3) = (   0.0586420   0.0586420   0.2932099), wk =   0.0658436
        k(    4) = (   0.0586420   0.0586420   0.4104938), wk =   0.0658436
        k(    5) = (   0.0586420   0.0586420  -0.5277778), wk =   0.0329218
        k(    6) = (   0.0586420   0.1759259   0.1759259), wk =   0.0658436
        k(    7) = (   0.0586420   0.1759259   0.2932099), wk =   0.1316872
        k(    8) = (   0.0586420   0.1759259   0.4104938), wk =   0.1316872
        k(    9) = (   0.0586420   0.1759259  -0.5277778), wk =   0.0658436
        k(   10) = (   0.0586420   0.2932099   0.2932099), wk =   0.0658436
        k(   11) = (   0.0586420   0.2932099   0.4104938), wk =   0.1316872
        k(   12) = (   0.0586420   0.2932099  -0.5277778), wk =   0.0658436
        k(   13) = (   0.0586420   0.4104938   0.4104938), wk =   0.0658436
        k(   14) = (   0.0586420   0.4104938  -0.5277778), wk =   0.0658436
        k(   15) = (   0.0586420  -0.5277778  -0.5277778), wk =   0.0164609
        k(   16) = (   0.1759259   0.1759259   0.1759259), wk =   0.0219479
        k(   17) = (   0.1759259   0.1759259   0.2932099), wk =   0.0658436
        k(   18) = (   0.1759259   0.1759259   0.4104938), wk =   0.0658436
        k(   19) = (   0.1759259   0.1759259  -0.5277778), wk =   0.0329218
        k(   20) = (   0.1759259   0.2932099   0.2932099), wk =   0.0658436
        k(   21) = (   0.1759259   0.2932099   0.4104938), wk =   0.1316872
        k(   22) = (   0.1759259   0.2932099  -0.5277778), wk =   0.0658436
        k(   23) = (   0.1759259   0.4104938   0.4104938), wk =   0.0658436
        k(   24) = (   0.1759259   0.4104938  -0.5277778), wk =   0.0658436
        k(   25) = (   0.1759259  -0.5277778  -0.5277778), wk =   0.0164609
        k(   26) = (   0.2932099   0.2932099   0.2932099), wk =   0.0219479
        k(   27) = (   0.2932099   0.2932099   0.4104938), wk =   0.0658436
        k(   28) = (   0.2932099   0.2932099  -0.5277778), wk =   0.0329218
        k(   29) = (   0.2932099   0.4104938   0.4104938), wk =   0.0658436
        k(   30) = (   0.2932099   0.4104938  -0.5277778), wk =   0.0658436
        k(   31) = (   0.2932099  -0.5277778  -0.5277778), wk =   0.0164609
        k(   32) = (   0.4104938   0.4104938   0.4104938), wk =   0.0219479
        k(   33) = (   0.4104938   0.4104938  -0.5277778), wk =   0.0329218
        k(   34) = (   0.4104938  -0.5277778  -0.5277778), wk =   0.0164609
        k(   35) = (  -0.5277778  -0.5277778  -0.5277778), wk =   0.0027435

     Check: negative core charge=   -0.000002

     Initial potential from superposition of free atoms

     starting charge  287.99388, renormalised to  288.00000
     Starting wfcs are  160 randomized atomic wfcs +   13 random wfcs
     Checking if some PAW data can be deallocated...

     Self-consistent Calculation

     iteration #  1     ecut=    71.00 Ry     beta= 0.10
     Davidson diagonalization with overlap
     ethr =  1.00E-02,  avg # of iterations =  3.0

     Threshold (ethr) on eigenvalues was too large:
     Diagonalizing with lowered threshold

     Davidson diagonalization with overlap
     ethr =  3.10E-05,  avg # of iterations =  4.5

     total energy              =   -8191.47814368 Ry
     estimated scf accuracy    <       0.07980638 Ry

[...]

     total energy              =   -8191.46090768 Ry
     estimated scf accuracy    <       0.00000122 Ry

     iteration # 10     ecut=    71.00 Ry     beta= 0.10
     Davidson diagonalization with overlap
     ethr =  4.23E-10,  avg # of iterations =  1.9

     End of self-consistent calculation

          k = 0.0586 0.0586 0.0586 ( 12866 PWs)   bands (ev):

   -58.1974 -58.0602 -58.0602 -58.0602 -58.0378 -58.0378 -58.0377 -58.0358
   -58.0358 -58.0358 -58.0356 -58.0356 -58.0356 -58.0258 -58.0256 -57.9188
   -24.3561 -24.3561 -24.3561 -24.3513 -24.3513 -24.3513 -24.0944 -24.0944
   -24.0845 -23.9708 -23.9622 -23.9622 -23.9622 -23.9312 -23.9312 -23.9059
   -23.9058 -23.9058 -23.8504 -23.8504 -23.8106 -23.7852 -23.7851 -23.7851
   -23.7661 -23.7661 -23.7661 -23.7443 -23.7443 -23.7443 -23.7392 -23.7392
   -23.7392 -23.7271 -23.7270 -23.7270 -23.7090 -23.7090 -23.7090 -23.4424
   -23.4391 -23.4391 -23.4391 -23.4341 -23.4341 -23.4341 -23.4315 -23.4315
    17.8054  19.2344  19.2344  19.3607  19.3607  19.3607  19.3715  19.3715
    19.3715  20.8222  20.8222  20.8222  20.8435  20.8435  20.8435  21.0837
    21.0837  21.0837  21.2194  21.2194  21.2194  21.3694  21.5418  21.5418
    21.5961  21.5962  21.5962  21.8638  21.8638  22.0089  22.0913  22.0913
    22.0913  22.5239  22.5239  22.5920  23.1809  23.1809  23.1810  23.3185
    23.3185  23.3185  23.4709  23.4709  23.4709  23.6103  23.6103  23.6103
    24.5334  24.5334  24.5334  24.9235  24.9235  24.9235  25.2510  25.2510
    25.2510  25.2768  25.2768  25.2768  25.3182  25.3182  25.5055  25.5056
    25.5056  25.7324  25.7324  25.7324  25.8095  25.8095  25.8095  25.8095
    26.9524  27.0839  27.0839  27.1680  27.1680  27.1680  27.3066  27.3066
    27.3066  27.3726  27.3726  27.3726  28.1003  28.1003  28.1003  28.1414
    28.1414  28.1414  28.3816  28.3817  28.3817  36.4864  36.9569  36.9569
    36.9570  37.0111  37.0111  37.0526  37.1401  37.1401  37.1401  37.3482
    37.3482  37.3672  37.8539  38.4611  38.4611

[...]

          k = 0.4105-0.5278-0.5278 ( 12808 PWs)   bands (ev):

[...]

          k =-0.5278-0.5278-0.5278 ( 12856 PWs)   bands (ev):

   -58.0923 -58.0923 -58.0923 -58.0922 -58.0921 -58.0921 -58.0921 -58.0921
   -57.9924 -57.9924 -57.9924 -57.9923 -57.9923 -57.9923 -57.9923 -57.9923
   -24.1086 -24.1086 -24.1086 -24.1086 -24.1086 -24.1085 -24.1085 -24.1085
   -24.1085 -24.1085 -24.1085 -24.1085 -24.1085 -24.1085 -24.1085 -24.1085
   -24.0408 -24.0407 -24.0407 -24.0407 -24.0407 -24.0407 -24.0407 -24.0406
   -23.6148 -23.6148 -23.6148 -23.6148 -23.6147 -23.6147 -23.6147 -23.6147
   -23.5448 -23.5448 -23.5448 -23.5448 -23.5448 -23.5447 -23.5447 -23.5447
   -23.5447 -23.5447 -23.5447 -23.5447 -23.5447 -23.5447 -23.5447 -23.5447
    20.9330  20.9330  20.9330  20.9330  20.9330  20.9330  20.9330  20.9330
    21.3956  21.3956  21.3956  21.3956  21.3956  21.3956  21.3956  21.3956
    21.3956  21.3956  21.3956  21.3956  21.3956  21.3956  21.3956  21.3956
    21.4492  21.4492  21.4492  21.4492  21.4492  21.4492  21.4492  21.4492
    21.4492  21.4492  21.4492  21.4492  21.4492  21.4493  21.4493  21.4493
    21.5052  21.5052  21.5052  21.5052  21.5052  21.5052  21.5052  21.5052
    25.3050  25.3050  25.3050  25.3050  25.3050  25.3050  25.3051  25.3051
    25.3051  25.3051  25.3051  25.3051  25.3051  25.3051  25.3051  25.3051
    25.9027  25.9027  25.9027  25.9027  25.9027  25.9028  25.9028  25.9028
    25.9028  25.9028  25.9028  25.9028  25.9028  25.9028  25.9028  25.9028
    27.0369  27.0369  27.0369  27.0369  27.0370  27.0370  27.0370  27.0370
    36.3910  36.3910  36.3910  36.3910  36.3910  36.3910  36.3910  36.3910
    36.3910  36.3910  36.3910  36.3910  36.3910  36.3910  36.3910  36.3910
    37.4320  37.4320  37.4320  37.4320  37.4320

     the Fermi energy is    26.6901 ev

!    total energy              =   -8191.46091279 Ry

     total all-electron energy =   -161471.887766 Ry
     estimated scf accuracy    <       0.00000031 Ry
     smearing contrib. (-TS)   =       0.07208937 Ry
     internal energy E=F+TS    =   -8191.53300216 Ry

     The total energy is F=E-TS. E is the sum of the following terms:
     one-electron contribution =    -813.01723899 Ry
     hartree contribution      =     687.51257581 Ry
     xc contribution           =    -497.44785376 Ry
     ewald contribution        =   -3484.71389899 Ry
     one-center paw contrib.   =   -4083.86658622 Ry

     convergence has been achieved in  10 iterations

     Forces acting on atoms (cartesian axes, Ry/au):

     atom    1 type  1   force =     0.00000000    0.00000000    0.00000000
     atom    2 type  1   force =     0.00000068    0.00000068    0.00000068
     atom    3 type  1   force =     0.00000000    0.00000000    0.00000000
     atom    4 type  1   force =     0.00000068    0.00000068   -0.00000068
     atom    5 type  1   force =     0.00000000    0.00000000    0.00000000
     atom    6 type  1   force =     0.00000068   -0.00000068    0.00000068
     atom    7 type  1   force =     0.00000000    0.00000000    0.00000000
     atom    8 type  1   force =     0.00000068   -0.00000068   -0.00000068
     atom    9 type  1   force =     0.00000000    0.00000000    0.00000000
     atom   10 type  1   force =    -0.00000068    0.00000068    0.00000068
     atom   11 type  1   force =     0.00000000    0.00000000    0.00000000
     atom   12 type  1   force =    -0.00000068    0.00000068   -0.00000068
     atom   13 type  1   force =     0.00000000    0.00000000    0.00000000
     atom   14 type  1   force =    -0.00000068   -0.00000068    0.00000068
     atom   15 type  1   force =     0.00000000    0.00000000    0.00000000
     atom   16 type  1   force =    -0.00000068   -0.00000068   -0.00000068

     Total force =     0.000003     Total SCF correction =     0.000464
     SCF correction compared to forces is large: reduce conv_thr to get better values

     Computing stress (Cartesian axis) and pressure

          total   stress  (Ry/bohr**3)                   (kbar)     P=      909.75
   0.00618437   0.00000000   0.00000000          909.75        0.00        0.00
   0.00000000   0.00618437   0.00000000            0.00      909.75        0.00
   0.00000000   0.00000000   0.00618437            0.00        0.00      909.75

     Writing output data file /scratch/wWlTeMLBXEYbWIil.save/

     General routines

     Parallel routines

   This run was terminated on:  23:19:14  29Nov2021

   JOB DONE.