     Program PWSCF v.6.7MaX starts on 30Nov2021 at  0:18:30

     R & G space division:  proc/nbgrp/npool/nimage =      72
     Reading input from bcc_15.in
Warning: card &CELL ignored
Warning: card CELL_DYNAMICS = 'BFGS', ignored
Warning: card CELL_FACTOR = 2.0, ignored
Warning: card PRESS = 0.0, ignored
Warning: card / ignored

     Current dimensions of program PWSCF are:
     Max number of different atomic species (ntypx) = 10
     Max number of k-points (npk) =  40000
     Max angular momentum in pseudopotentials (lmaxx) =  3
     file Pd.pbe-spn-kjpaw_psl.1.0.0.UPF: wavefunction(s)  4S 5S 4D renormalized

     Subspace diagonalization in iterative solution of the eigenvalue problem:
     one sub-group per band group will be used

     Found symmetry operation: I + (  0.2500  0.2500  0.2500)
     This is a supercell, fractional translations are disabled
     Message from routine setup:
     using ibrav=0 with symmetry is DISCOURAGED, use correct ibrav instead

     bravais-lattice index     =            0
     lattice parameter (alat)  =      11.4293  a.u.
     unit-cell volume          =    6966.6983 (a.u.)^3
     number of atoms/cell      =           16
     number of atomic types    =            1
     number of electrons       =       288.00
     number of Kohn-Sham states=          173
     kinetic-energy cutoff     =      71.0000  Ry
     charge density cutoff     =     430.0000  Ry
     scf convergence threshold =      1.0E-06
     mixing beta               =       0.1000
     number of iterations used =           10  TF        mixing
     Exchange-correlation= SLA  PW   PBX  PBC
                           (   1   4   3   4   0   0   0)

     celldm(1)=  11.429280  celldm(2)=   0.000000  celldm(3)=   0.000000
     celldm(4)=   0.000000  celldm(5)=   0.000000  celldm(6)=   0.000000

     crystal axes: (cart. coord. in units of alat)
               a(1) = (   1.671053   0.000000   0.000000 )
               a(2) = (   0.000000   1.671053   0.000000 )
               a(3) = (   0.000000   0.000000   1.671053 )

     reciprocal axes: (cart. coord. in units 2 pi/alat)
               b(1) = (  0.598425  0.000000  0.000000 )
               b(2) = (  0.000000  0.598425  0.000000 )
               b(3) = (  0.000000  0.000000  0.598425 )

     PseudoPot. # 1 for Pd read from file:
     /rds/homes/b/bxp912/pp/Pd.pbe-spn-kjpaw_psl.1.0.0.UPF
     MD5 check sum: 790f2ebce206edfd9790dcb9844eca51
     Pseudo is Projector augmented-wave + core cor, Zval = 18.0
     Generated using &quot;atomic&quot; code by A. Dal Corso  v.6.3
     Shape of augmentation charge: PSQ
     Using radial grid of 1235 points,  6 beta functions with:
                l(1) =   0
                l(2) =   0
                l(3) =   1
                l(4) =   1
                l(5) =   2
                l(6) =   2
     Q(r) pseudized with 0 coefficients

     atomic species   valence    mass     pseudopotential
        Pd            18.00   106.42000     Pd( 1.00)

     48 Sym. Ops., with inversion, found

   Cartesian axes

     site n.     atom                  positions (alat units)
         1           Pd  tau(   1) = (   0.0000000   0.0000000   0.0000000  )
         2           Pd  tau(   2) = (   0.4177632   0.4177632   0.4177632  )
         3           Pd  tau(   3) = (   0.0000000   0.0000000   0.8355263  )
         4           Pd  tau(   4) = (   0.4177632   0.4177632   1.2532895  )
         5           Pd  tau(   5) = (   0.0000000   0.8355263   0.0000000  )
         6           Pd  tau(   6) = (   0.4177632   1.2532895   0.4177632  )
         7           Pd  tau(   7) = (   0.0000000   0.8355263   0.8355263  )
         8           Pd  tau(   8) = (   0.4177632   1.2532895   1.2532895  )
         9           Pd  tau(   9) = (   0.8355263   0.0000000   0.0000000  )
        10           Pd  tau(  10) = (   1.2532895   0.4177632   0.4177632  )
        11           Pd  tau(  11) = (   0.8355263   0.0000000   0.8355263  )
        12           Pd  tau(  12) = (   1.2532895   0.4177632   1.2532895  )
        13           Pd  tau(  13) = (   0.8355263   0.8355263   0.0000000  )
        14           Pd  tau(  14) = (   1.2532895   1.2532895   0.4177632  )
        15           Pd  tau(  15) = (   0.8355263   0.8355263   0.8355263  )
        16           Pd  tau(  16) = (   1.2532895   1.2532895   1.2532895  )

     number of k points=    35  Marzari-Vanderbilt smearing, width (Ry)=  0.0400
                       cart. coord. in units 2pi/alat
        k(    1) = (   0.0332458   0.0332458   0.0332458), wk =   0.0219479
        k(    2) = (   0.0332458   0.0332458   0.0997375), wk =   0.0658436
        k(    3) = (   0.0332458   0.0332458   0.1662292), wk =   0.0658436
        k(    4) = (   0.0332458   0.0332458   0.2327209), wk =   0.0658436
        k(    5) = (   0.0332458   0.0332458  -0.2992126), wk =   0.0329218
        k(    6) = (   0.0332458   0.0997375   0.0997375), wk =   0.0658436
        k(    7) = (   0.0332458   0.0997375   0.1662292), wk =   0.1316872
        k(    8) = (   0.0332458   0.0997375   0.2327209), wk =   0.1316872
        k(    9) = (   0.0332458   0.0997375  -0.2992126), wk =   0.0658436
        k(   10) = (   0.0332458   0.1662292   0.1662292), wk =   0.0658436
        k(   11) = (   0.0332458   0.1662292   0.2327209), wk =   0.1316872
        k(   12) = (   0.0332458   0.1662292  -0.2992126), wk =   0.0658436
        k(   13) = (   0.0332458   0.2327209   0.2327209), wk =   0.0658436
        k(   14) = (   0.0332458   0.2327209  -0.2992126), wk =   0.0658436
        k(   15) = (   0.0332458  -0.2992126  -0.2992126), wk =   0.0164609
        k(   16) = (   0.0997375   0.0997375   0.0997375), wk =   0.0219479
        k(   17) = (   0.0997375   0.0997375   0.1662292), wk =   0.0658436
        k(   18) = (   0.0997375   0.0997375   0.2327209), wk =   0.0658436
        k(   19) = (   0.0997375   0.0997375  -0.2992126), wk =   0.0329218
        k(   20) = (   0.0997375   0.1662292   0.1662292), wk =   0.0658436
        k(   21) = (   0.0997375   0.1662292   0.2327209), wk =   0.1316872
        k(   22) = (   0.0997375   0.1662292  -0.2992126), wk =   0.0658436
        k(   23) = (   0.0997375   0.2327209   0.2327209), wk =   0.0658436
        k(   24) = (   0.0997375   0.2327209  -0.2992126), wk =   0.0658436
        k(   25) = (   0.0997375  -0.2992126  -0.2992126), wk =   0.0164609
        k(   26) = (   0.1662292   0.1662292   0.1662292), wk =   0.0219479
        k(   27) = (   0.1662292   0.1662292   0.2327209), wk =   0.0658436
        k(   28) = (   0.1662292   0.1662292  -0.2992126), wk =   0.0329218
        k(   29) = (   0.1662292   0.2327209   0.2327209), wk =   0.0658436
        k(   30) = (   0.1662292   0.2327209  -0.2992126), wk =   0.0658436
        k(   31) = (   0.1662292  -0.2992126  -0.2992126), wk =   0.0164609
        k(   32) = (   0.2327209   0.2327209   0.2327209), wk =   0.0219479
        k(   33) = (   0.2327209   0.2327209  -0.2992126), wk =   0.0329218
        k(   34) = (   0.2327209  -0.2992126  -0.2992126), wk =   0.0164609
        k(   35) = (  -0.2992126  -0.2992126  -0.2992126), wk =   0.0027435

     Initial potential from superposition of free atoms

     starting charge  287.99388, renormalised to  288.00000
     Starting wfcs are  160 randomized atomic wfcs +   13 random wfcs
     Checking if some PAW data can be deallocated...

     Self-consistent Calculation

     iteration #  1     ecut=    71.00 Ry     beta= 0.10
     Davidson diagonalization with overlap
     ethr =  1.00E-02,  avg # of iterations =  4.8

     total energy              =   -8190.65239918 Ry
     estimated scf accuracy    <      11.99251530 Ry

[...]

     iteration # 19     ecut=    71.00 Ry     beta= 0.10
     Davidson diagonalization with overlap
     c_bands:  1 eigenvalues not converged
     ethr =  3.02E-06,  avg # of iterations =  4.0

[...]

     total energy              =   -8188.27756447 Ry
     estimated scf accuracy    <       0.00000243 Ry

     iteration # 32     ecut=    71.00 Ry     beta= 0.10
     Davidson diagonalization with overlap
     ethr =  8.43E-10,  avg # of iterations =  2.0

     End of self-consistent calculation

          k = 0.0332 0.0332 0.0332 ( 70418 PWs)   bands (ev):

   -81.2618 -81.2618 -81.2618 -81.2618 -81.2618 -81.2618 -81.2617 -81.2617
   -81.2617 -81.2617 -81.2617 -81.2617 -81.2617 -81.2617 -81.2614 -81.2611
   -47.0751 -47.0751 -47.0751 -47.0750 -47.0750 -47.0750 -47.0750 -47.0750
   -47.0750 -47.0749 -47.0748 -47.0748 -47.0748 -47.0748 -47.0748 -47.0748
   -47.0748 -47.0747 -47.0747 -47.0747 -47.0747 -47.0747 -47.0747 -47.0747
   -47.0747 -47.0747 -47.0747 -47.0747 -47.0746 -47.0746 -47.0746 -47.0746
   -47.0746 -47.0746 -47.0746 -47.0746 -47.0744 -47.0744 -47.0744 -47.0744
   -47.0744 -47.0744 -47.0743 -47.0743 -47.0743 -47.0741 -47.0741 -47.0741
    -0.2735   0.1346   0.1346   0.1346   0.1361   0.1361   0.1361   0.1626
     0.1626   0.2053   0.2053   0.2053   0.2069   0.2069   0.2069   0.2744
     0.2889   0.2889   0.2890   0.2890   0.2929   0.2997   0.2997   0.2997
     0.3163   0.3163   0.3232   0.3232   0.3232   0.3254   0.3254   0.3254
     0.3279   0.3279   0.3279   0.3292   0.3624   0.3624   0.3625   0.3635
     0.3635   0.3635   0.3740   0.3740   0.3740   0.3813   0.3813   0.3813
     0.4146   0.4146   0.4146   0.4361   0.4361   0.4361   0.4417   0.4417
     0.4417   0.4425   0.4425   0.4425   0.4543   0.4543   0.4574   0.4574
     0.4574   0.4603   0.4604   0.4604   0.4624   0.4624   0.4625   0.4625
     0.5365   0.5412   0.5412   0.5649   0.5649   0.5649   0.5671   0.5671
     0.5671   1.1501   1.1502   1.1502   1.4693   1.4694   1.4694   2.3715
     2.3717   2.3717   2.4738   2.4739   2.4739   2.8953   2.9051   3.5262
     3.5262   3.5262   3.6286   3.6287   3.6287   4.1637   5.0353   5.1838
     5.1838   5.5546   5.5546   5.7664   5.7974

[...]

          k = 0.2327-0.2992-0.2992 ( 70320 PWs)   bands (ev):

[...]

          k =-0.2992-0.2992-0.2992 ( 70320 PWs)   bands (ev):

   -81.2618 -81.2618 -81.2618 -81.2618 -81.2618 -81.2618 -81.2617 -81.2617
   -81.2617 -81.2617 -81.2617 -81.2617 -81.2617 -81.2617 -81.2614 -81.2611
   -47.0750 -47.0750 -47.0750 -47.0749 -47.0749 -47.0749 -47.0749 -47.0749
   -47.0749 -47.0749 -47.0749 -47.0749 -47.0749 -47.0749 -47.0749 -47.0749
   -47.0748 -47.0748 -47.0748 -47.0748 -47.0748 -47.0748 -47.0748 -47.0748
   -47.0746 -47.0746 -47.0746 -47.0746 -47.0746 -47.0746 -47.0746 -47.0746
   -47.0744 -47.0744 -47.0744 -47.0744 -47.0744 -47.0744 -47.0743 -47.0743
   -47.0743 -47.0743 -47.0743 -47.0743 -47.0743 -47.0741 -47.0741 -47.0741
     0.2535   0.2535   0.2535   0.2535   0.2535   0.2535   0.2535   0.2535
     0.2535   0.2535   0.2535   0.2536   0.2536   0.2536   0.2536   0.2536
     0.2593   0.2593   0.2593   0.2593   0.2593   0.2593   0.2593   0.2593
     0.2995   0.2995   0.2995   0.2995   0.2995   0.2995   0.2995   0.2996
     0.2996   0.2996   0.2996   0.2996   0.2996   0.2996   0.2996   0.2996
     0.3208   0.3208   0.3209   0.3209   0.3209   0.3209   0.3209   0.3209
     0.4478   0.4478   0.4478   0.4478   0.4478   0.4478   0.4478   0.4479
     0.4479   0.4479   0.4479   0.4479   0.4479   0.4479   0.4479   0.4479
     0.4945   0.4945   0.4945   0.4946   0.4946   0.4946   0.4946   0.4946
     0.4946   0.4946   0.4946   0.4946   0.4946   0.4946   0.4946   0.4946
     0.9956   0.9957   0.9957   0.9957   0.9957   0.9957   0.9957   0.9957
     3.0052   3.0052   3.0055   3.0055   3.0055   3.0055   3.0055   3.0055
     4.8497   4.8497   4.8497   4.8497   4.8497   4.8497   4.8497   4.8497
     4.8498   4.8498   4.8498   4.8498   4.8498

     the Fermi energy is     0.8491 ev

!    total energy              =   -8188.27756516 Ry

     total all-electron energy =   -161468.704419 Ry
     estimated scf accuracy    <       0.00000081 Ry
     smearing contrib. (-TS)   =       0.38782475 Ry
     internal energy E=F+TS    =   -8188.66538991 Ry

     The total energy is F=E-TS. E is the sum of the following terms:
     one-electron contribution =   -3343.02854693 Ry
     hartree contribution      =    1704.88400007 Ry
     xc contribution           =    -491.62512296 Ry
     ewald contribution        =   -1975.58583250 Ry
     one-center paw contrib.   =   -4083.30988760 Ry

     convergence has been achieved in  32 iterations

     Forces acting on atoms (cartesian axes, Ry/au):

     atom    1 type  1   force =     0.00000000    0.00000000    0.00000000
     atom    2 type  1   force =     0.00002919    0.00002919    0.00002919
     atom    3 type  1   force =     0.00000000    0.00000000    0.00000000
     atom    4 type  1   force =     0.00002919    0.00002919   -0.00002919
     atom    5 type  1   force =     0.00000000    0.00000000    0.00000000
     atom    6 type  1   force =     0.00002919   -0.00002919    0.00002919
     atom    7 type  1   force =     0.00000000    0.00000000    0.00000000
     atom    8 type  1   force =     0.00002919   -0.00002919   -0.00002919
     atom    9 type  1   force =     0.00000000    0.00000000    0.00000000
     atom   10 type  1   force =    -0.00002919    0.00002919    0.00002919
     atom   11 type  1   force =     0.00000000    0.00000000    0.00000000
     atom   12 type  1   force =    -0.00002919    0.00002919   -0.00002919
     atom   13 type  1   force =     0.00000000    0.00000000    0.00000000
     atom   14 type  1   force =    -0.00002919   -0.00002919    0.00002919
     atom   15 type  1   force =     0.00000000    0.00000000    0.00000000
     atom   16 type  1   force =    -0.00002919   -0.00002919   -0.00002919

     Total force =     0.000143     Total SCF correction =     0.001501
     SCF correction compared to forces is large: reduce conv_thr to get better values

     Computing stress (Cartesian axis) and pressure

          total   stress  (Ry/bohr**3)                   (kbar)     P=      -35.49
  -0.00024125   0.00000000   0.00000000          -35.49        0.00        0.00
   0.00000000  -0.00024125   0.00000000            0.00      -35.49        0.00
   0.00000000   0.00000000  -0.00024125            0.00        0.00      -35.49

     Writing output data file /scratch/VCBVNwMEiFBsgwyv.save/

     General routines

     Parallel routines

   This run was terminated on:   0:31: 2  30Nov2021

   JOB DONE.