     Program PWSCF v.6.7MaX starts on 29Nov2021 at 23:43:58

     R & G space division:  proc/nbgrp/npool/nimage =      72
     Reading input from bcc_11.in
Warning: card &CELL ignored
Warning: card CELL_DYNAMICS = 'BFGS', ignored
Warning: card CELL_FACTOR = 2.0, ignored
Warning: card PRESS = 0.0, ignored
Warning: card / ignored

     Current dimensions of program PWSCF are:
     Max number of different atomic species (ntypx) = 10
     Max number of k-points (npk) =  40000
     Max angular momentum in pseudopotentials (lmaxx) =  3
     file Pd.pbe-spn-kjpaw_psl.1.0.0.UPF: wavefunction(s)  4S 5S 4D renormalized

     Subspace diagonalization in iterative solution of the eigenvalue problem:
     one sub-group per band group will be used

     Found symmetry operation: I + (  0.2500  0.2500  0.2500)
     This is a supercell, fractional translations are disabled
     Message from routine setup:
     using ibrav=0 with symmetry is DISCOURAGED, use correct ibrav instead

     bravais-lattice index     =            0
     lattice parameter (alat)  =      11.4293  a.u.
     unit-cell volume          =    4166.4596 (a.u.)^3
     number of atoms/cell      =           16
     number of atomic types    =            1
     number of electrons       =       288.00
     number of Kohn-Sham states=          173
     kinetic-energy cutoff     =      71.0000  Ry
     charge density cutoff     =     430.0000  Ry
     scf convergence threshold =      1.0E-06
     mixing beta               =       0.1000
     number of iterations used =           10  TF        mixing
     Exchange-correlation= SLA  PW   PBX  PBC
                           (   1   4   3   4   0   0   0)

     celldm(1)=  11.429280  celldm(2)=   0.000000  celldm(3)=   0.000000
     celldm(4)=   0.000000  celldm(5)=   0.000000  celldm(6)=   0.000000

     crystal axes: (cart. coord. in units of alat)
               a(1) = (   1.407895   0.000000   0.000000 )
               a(2) = (   0.000000   1.407895   0.000000 )
               a(3) = (   0.000000   0.000000   1.407895 )

     reciprocal axes: (cart. coord. in units 2 pi/alat)
               b(1) = (  0.710280  0.000000  0.000000 )
               b(2) = (  0.000000  0.710280  0.000000 )
               b(3) = (  0.000000  0.000000  0.710280 )

     PseudoPot. # 1 for Pd read from file:
     /rds/homes/b/bxp912/pp/Pd.pbe-spn-kjpaw_psl.1.0.0.UPF
     MD5 check sum: 790f2ebce206edfd9790dcb9844eca51
     Pseudo is Projector augmented-wave + core cor, Zval = 18.0
     Generated using &quot;atomic&quot; code by A. Dal Corso  v.6.3
     Shape of augmentation charge: PSQ
     Using radial grid of 1235 points,  6 beta functions with:
                l(1) =   0
                l(2) =   0
                l(3) =   1
                l(4) =   1
                l(5) =   2
                l(6) =   2
     Q(r) pseudized with 0 coefficients

     atomic species   valence    mass     pseudopotential
        Pd            18.00   106.42000     Pd( 1.00)

     48 Sym. Ops., with inversion, found

   Cartesian axes

     site n.     atom                  positions (alat units)
         1           Pd  tau(   1) = (   0.0000000   0.0000000   0.0000000  )
         2           Pd  tau(   2) = (   0.3519737   0.3519737   0.3519737  )
         3           Pd  tau(   3) = (   0.0000000   0.0000000   0.7039474  )
         4           Pd  tau(   4) = (   0.3519737   0.3519737   1.0559211  )
         5           Pd  tau(   5) = (   0.0000000   0.7039474   0.0000000  )
         6           Pd  tau(   6) = (   0.3519737   1.0559211   0.3519737  )
         7           Pd  tau(   7) = (   0.0000000   0.7039474   0.7039474  )
         8           Pd  tau(   8) = (   0.3519737   1.0559211   1.0559211  )
         9           Pd  tau(   9) = (   0.7039474   0.0000000   0.0000000  )
        10           Pd  tau(  10) = (   1.0559211   0.3519737   0.3519737  )
        11           Pd  tau(  11) = (   0.7039474   0.0000000   0.7039474  )
        12           Pd  tau(  12) = (   1.0559211   0.3519737   1.0559211  )
        13           Pd  tau(  13) = (   0.7039474   0.7039474   0.0000000  )
        14           Pd  tau(  14) = (   1.0559211   1.0559211   0.3519737  )
        15           Pd  tau(  15) = (   0.7039474   0.7039474   0.7039474  )
        16           Pd  tau(  16) = (   1.0559211   1.0559211   1.0559211  )

     number of k points=    35  Marzari-Vanderbilt smearing, width (Ry)=  0.0400
                       cart. coord. in units 2pi/alat
        k(    1) = (   0.0394600   0.0394600   0.0394600), wk =   0.0219479
        k(    2) = (   0.0394600   0.0394600   0.1183801), wk =   0.0658436
        k(    3) = (   0.0394600   0.0394600   0.1973001), wk =   0.0658436
        k(    4) = (   0.0394600   0.0394600   0.2762201), wk =   0.0658436
        k(    5) = (   0.0394600   0.0394600  -0.3551402), wk =   0.0329218
        k(    6) = (   0.0394600   0.1183801   0.1183801), wk =   0.0658436
        k(    7) = (   0.0394600   0.1183801   0.1973001), wk =   0.1316872
        k(    8) = (   0.0394600   0.1183801   0.2762201), wk =   0.1316872
        k(    9) = (   0.0394600   0.1183801  -0.3551402), wk =   0.0658436
        k(   10) = (   0.0394600   0.1973001   0.1973001), wk =   0.0658436
        k(   11) = (   0.0394600   0.1973001   0.2762201), wk =   0.1316872
        k(   12) = (   0.0394600   0.1973001  -0.3551402), wk =   0.0658436
        k(   13) = (   0.0394600   0.2762201   0.2762201), wk =   0.0658436
        k(   14) = (   0.0394600   0.2762201  -0.3551402), wk =   0.0658436
        k(   15) = (   0.0394600  -0.3551402  -0.3551402), wk =   0.0164609
        k(   16) = (   0.1183801   0.1183801   0.1183801), wk =   0.0219479
        k(   17) = (   0.1183801   0.1183801   0.1973001), wk =   0.0658436
        k(   18) = (   0.1183801   0.1183801   0.2762201), wk =   0.0658436
        k(   19) = (   0.1183801   0.1183801  -0.3551402), wk =   0.0329218
        k(   20) = (   0.1183801   0.1973001   0.1973001), wk =   0.0658436
        k(   21) = (   0.1183801   0.1973001   0.2762201), wk =   0.1316872
        k(   22) = (   0.1183801   0.1973001  -0.3551402), wk =   0.0658436
        k(   23) = (   0.1183801   0.2762201   0.2762201), wk =   0.0658436
        k(   24) = (   0.1183801   0.2762201  -0.3551402), wk =   0.0658436
        k(   25) = (   0.1183801  -0.3551402  -0.3551402), wk =   0.0164609
        k(   26) = (   0.1973001   0.1973001   0.1973001), wk =   0.0219479
        k(   27) = (   0.1973001   0.1973001   0.2762201), wk =   0.0658436
        k(   28) = (   0.1973001   0.1973001  -0.3551402), wk =   0.0329218
        k(   29) = (   0.1973001   0.2762201   0.2762201), wk =   0.0658436
        k(   30) = (   0.1973001   0.2762201  -0.3551402), wk =   0.0658436
        k(   31) = (   0.1973001  -0.3551402  -0.3551402), wk =   0.0164609
        k(   32) = (   0.2762201   0.2762201   0.2762201), wk =   0.0219479
        k(   33) = (   0.2762201   0.2762201  -0.3551402), wk =   0.0329218
        k(   34) = (   0.2762201  -0.3551402  -0.3551402), wk =   0.0164609
        k(   35) = (  -0.3551402  -0.3551402  -0.3551402), wk =   0.0027435

     Check: negative core charge=   -0.000001

     Initial potential from superposition of free atoms

     starting charge  287.99388, renormalised to  288.00000
     Starting wfcs are  160 randomized atomic wfcs +   13 random wfcs
     Checking if some PAW data can be deallocated...

     Self-consistent Calculation

     iteration #  1     ecut=    71.00 Ry     beta= 0.10
     Davidson diagonalization with overlap
     ethr =  1.00E-02,  avg # of iterations =  3.7

     total energy              =   -8190.63763729 Ry
     estimated scf accuracy    <       9.03041664 Ry

[...]

     total energy              =   -8189.49124424 Ry
     estimated scf accuracy    <       0.00000109 Ry

     iteration # 19     ecut=    71.00 Ry     beta= 0.10
     Davidson diagonalization with overlap
     ethr =  3.79E-10,  avg # of iterations =  2.0

     End of self-consistent calculation

          k = 0.0395 0.0395 0.0395 ( 42166 PWs)   bands (ev):

   -78.3050 -78.3046 -78.3046 -78.3046 -78.3046 -78.3046 -78.3046 -78.3046
   -78.3045 -78.3045 -78.3045 -78.3045 -78.3045 -78.3045 -78.3045 -78.3042
   -44.0761 -44.0761 -44.0761 -44.0761 -44.0761 -44.0761 -44.0749 -44.0747
   -44.0747 -44.0729 -44.0729 -44.0729 -44.0729 -44.0725 -44.0725 -44.0722
   -44.0722 -44.0722 -44.0719 -44.0719 -44.0718 -44.0718 -44.0718 -44.0717
   -44.0716 -44.0716 -44.0716 -44.0716 -44.0716 -44.0716 -44.0715 -44.0715
   -44.0715 -44.0713 -44.0713 -44.0713 -44.0710 -44.0710 -44.0710 -44.0685
   -44.0685 -44.0685 -44.0684 -44.0683 -44.0683 -44.0683 -44.0683 -44.0683
     1.9201   2.9023   2.9024   2.9024   2.9065   2.9066   2.9066   2.9885
     2.9885   3.1418   3.1418   3.1419   3.1456   3.1456   3.1456   3.2610
     3.2610   3.2610   3.2628   3.2953   3.2953   3.3026   3.3026   3.3026
     3.3550   3.3550   3.3550   3.3561   3.3561   3.3673   3.3673   3.3771
     3.3837   3.4191   3.4191   3.4191   3.5098   3.5098   3.5098   3.5283
     3.5283   3.5283   3.5534   3.5534   3.5534   3.5730   3.5730   3.5730
     3.6768   3.6768   3.6768   3.7314   3.7314   3.7314   3.7542   3.7543
     3.7543   3.7567   3.7567   3.7567   3.7846   3.7846   3.7993   3.7993
     3.7993   3.8096   3.8096   3.8096   3.8157   3.8157   3.8158   3.8158
     3.9887   4.0018   4.0018   4.0612   4.0612   4.0612   4.0671   4.0671
     4.0671   4.4214   4.4214   4.4214   4.8443   4.8444   4.8444   6.3521
     6.3522   6.3522   6.7412   6.7412   6.7412   7.0446   7.0446   7.0446
     7.4314   7.4314   7.4314   7.7569   7.7967   9.3026   9.4874   9.4874
     9.9276  10.0411  10.0411  10.3690  10.9621

[...]

          k = 0.2762-0.3551-0.3551 ( 42060 PWs)   bands (ev):

[...]

          k =-0.3551-0.3551-0.3551 ( 42168 PWs)   bands (ev):

   -78.3047 -78.3047 -78.3047 -78.3047 -78.3047 -78.3047 -78.3047 -78.3047
   -78.3045 -78.3045 -78.3045 -78.3045 -78.3045 -78.3045 -78.3044 -78.3044
   -44.0744 -44.0744 -44.0744 -44.0744 -44.0744 -44.0744 -44.0744 -44.0744
   -44.0744 -44.0744 -44.0744 -44.0744 -44.0744 -44.0744 -44.0744 -44.0744
   -44.0736 -44.0736 -44.0736 -44.0736 -44.0736 -44.0736 -44.0736 -44.0736
   -44.0702 -44.0702 -44.0702 -44.0702 -44.0702 -44.0702 -44.0702 -44.0702
   -44.0695 -44.0695 -44.0695 -44.0695 -44.0695 -44.0695 -44.0695 -44.0695
   -44.0695 -44.0695 -44.0695 -44.0695 -44.0695 -44.0695 -44.0695 -44.0695
     3.1486   3.1486   3.1487   3.1487   3.1487   3.1487   3.1487   3.1487
     3.2520   3.2520   3.2520   3.2520   3.2520   3.2520   3.2520   3.2520
     3.2520   3.2520   3.2520   3.2520   3.2520   3.2520   3.2520   3.2520
     3.2589   3.2589   3.2589   3.2589   3.2589   3.2589   3.2589   3.2589
     3.3260   3.3260   3.3260   3.3260   3.3260   3.3260   3.3260   3.3260
     3.3260   3.3260   3.3260   3.3260   3.3260   3.3260   3.3260   3.3260
     3.7717   3.7717   3.7717   3.7717   3.7717   3.7717   3.7717   3.7717
     3.7717   3.7717   3.7717   3.7717   3.7717   3.7717   3.7717   3.7717
     3.8711   3.8711   3.8711   3.8711   3.8711   3.8711   3.8711   3.8711
     3.8711   3.8711   3.8711   3.8711   3.8711   3.8711   3.8711   3.8711
     4.3068   4.3068   4.3068   4.3068   4.3068   4.3068   4.3068   4.3068
     7.8903   7.8903   7.8904   7.8904   7.8904   7.8904   7.8904   7.8904
     8.9662   8.9662   8.9662   8.9662   8.9662   8.9662   8.9662   8.9662
     8.9662   8.9662   8.9662   8.9662   8.9662

     the Fermi energy is     4.1599 ev

!    total energy              =   -8189.49124899 Ry

     total all-electron energy =   -161469.918103 Ry
     estimated scf accuracy    <       0.00000030 Ry
     smearing contrib. (-TS)   =       0.39540216 Ry
     internal energy E=F+TS    =   -8189.88665116 Ry

     The total energy is F=E-TS. E is the sum of the following terms:
     one-electron contribution =   -2672.81615985 Ry
     hartree contribution      =    1401.50461682 Ry
     xc contribution           =    -490.32743244 Ry
     ewald contribution        =   -2344.85421241 Ry
     one-center paw contrib.   =   -4083.39346328 Ry

     convergence has been achieved in  19 iterations

     Forces acting on atoms (cartesian axes, Ry/au):

     atom    1 type  1   force =     0.00000000    0.00000000    0.00000000
     atom    2 type  1   force =     0.00000633    0.00000633    0.00000633
     atom    3 type  1   force =     0.00000000    0.00000000    0.00000000
     atom    4 type  1   force =     0.00000633    0.00000633   -0.00000633
     atom    5 type  1   force =     0.00000000    0.00000000    0.00000000
     atom    6 type  1   force =     0.00000633   -0.00000633    0.00000633
     atom    7 type  1   force =     0.00000000    0.00000000    0.00000000
     atom    8 type  1   force =     0.00000633   -0.00000633   -0.00000633
     atom    9 type  1   force =     0.00000000    0.00000000    0.00000000
     atom   10 type  1   force =    -0.00000633    0.00000633    0.00000633
     atom   11 type  1   force =     0.00000000    0.00000000    0.00000000
     atom   12 type  1   force =    -0.00000633    0.00000633   -0.00000633
     atom   13 type  1   force =     0.00000000    0.00000000    0.00000000
     atom   14 type  1   force =    -0.00000633   -0.00000633    0.00000633
     atom   15 type  1   force =     0.00000000    0.00000000    0.00000000
     atom   16 type  1   force =    -0.00000633   -0.00000633   -0.00000633

     Total force =     0.000031     Total SCF correction =     0.000420
     SCF correction compared to forces is large: reduce conv_thr to get better values

     Computing stress (Cartesian axis) and pressure

          total   stress  (Ry/bohr**3)                   (kbar)     P=     -119.60
  -0.00081301   0.00000000   0.00000000         -119.60        0.00        0.00
   0.00000000  -0.00081301   0.00000000            0.00     -119.60        0.00
   0.00000000   0.00000000  -0.00081301            0.00        0.00     -119.60

     Writing output data file /scratch/WbzMCVwMFCsTarmx.save/

     General routines

     Parallel routines

   This run was terminated on:  23:50:29  29Nov2021

   JOB DONE.