     Program PWSCF v.6.7MaX starts on 29Nov2021 at 23:57:56

     R & G space division:  proc/nbgrp/npool/nimage =      72
     Reading input from bcc_13.in
Warning: card &CELL ignored
Warning: card CELL_DYNAMICS = 'BFGS', ignored
Warning: card CELL_FACTOR = 2.0, ignored
Warning: card PRESS = 0.0, ignored
Warning: card / ignored

     Current dimensions of program PWSCF are:
     Max number of different atomic species (ntypx) = 10
     Max number of k-points (npk) =  40000
     Max angular momentum in pseudopotentials (lmaxx) =  3
     file Pd.pbe-spn-kjpaw_psl.1.0.0.UPF: wavefunction(s)  4S 5S 4D renormalized

     Subspace diagonalization in iterative solution of the eigenvalue problem:
     one sub-group per band group will be used

     Found symmetry operation: I + (  0.2500  0.2500  0.2500)
     This is a supercell, fractional translations are disabled
     Message from routine setup:
     using ibrav=0 with symmetry is DISCOURAGED, use correct ibrav instead

     bravais-lattice index     =            0
     lattice parameter (alat)  =      11.4293  a.u.
     unit-cell volume          =    5447.2013 (a.u.)^3
     number of atoms/cell      =           16
     number of atomic types    =            1
     number of electrons       =       288.00
     number of Kohn-Sham states=          173
     kinetic-energy cutoff     =      71.0000  Ry
     charge density cutoff     =     430.0000  Ry
     scf convergence threshold =      1.0E-06
     mixing beta               =       0.1000
     number of iterations used =           10  TF        mixing
     Exchange-correlation= SLA  PW   PBX  PBC
                           (   1   4   3   4   0   0   0)

     celldm(1)=  11.429280  celldm(2)=   0.000000  celldm(3)=   0.000000
     celldm(4)=   0.000000  celldm(5)=   0.000000  celldm(6)=   0.000000

     crystal axes: (cart. coord. in units of alat)
               a(1) = (   1.539474   0.000000   0.000000 )
               a(2) = (   0.000000   1.539474   0.000000 )
               a(3) = (   0.000000   0.000000   1.539474 )

     reciprocal axes: (cart. coord. in units 2 pi/alat)
               b(1) = (  0.649573  0.000000  0.000000 )
               b(2) = (  0.000000  0.649573  0.000000 )
               b(3) = (  0.000000  0.000000  0.649573 )

     PseudoPot. # 1 for Pd read from file:
     /rds/homes/b/bxp912/pp/Pd.pbe-spn-kjpaw_psl.1.0.0.UPF
     MD5 check sum: 790f2ebce206edfd9790dcb9844eca51
     Pseudo is Projector augmented-wave + core cor, Zval = 18.0
     Generated using &quot;atomic&quot; code by A. Dal Corso  v.6.3
     Shape of augmentation charge: PSQ
     Using radial grid of 1235 points,  6 beta functions with:
                l(1) =   0
                l(2) =   0
                l(3) =   1
                l(4) =   1
                l(5) =   2
                l(6) =   2
     Q(r) pseudized with 0 coefficients

     atomic species   valence    mass     pseudopotential
        Pd            18.00   106.42000     Pd( 1.00)

     48 Sym. Ops., with inversion, found

   Cartesian axes

     site n.     atom                  positions (alat units)
         1           Pd  tau(   1) = (   0.0000000   0.0000000   0.0000000  )
         2           Pd  tau(   2) = (   0.3848684   0.3848684   0.3848684  )
         3           Pd  tau(   3) = (   0.0000000   0.0000000   0.7697368  )
         4           Pd  tau(   4) = (   0.3848684   0.3848684   1.1546053  )
         5           Pd  tau(   5) = (   0.0000000   0.7697368   0.0000000  )
         6           Pd  tau(   6) = (   0.3848684   1.1546053   0.3848684  )
         7           Pd  tau(   7) = (   0.0000000   0.7697368   0.7697368  )
         8           Pd  tau(   8) = (   0.3848684   1.1546053   1.1546053  )
         9           Pd  tau(   9) = (   0.7697368   0.0000000   0.0000000  )
        10           Pd  tau(  10) = (   1.1546053   0.3848684   0.3848684  )
        11           Pd  tau(  11) = (   0.7697368   0.0000000   0.7697368  )
        12           Pd  tau(  12) = (   1.1546053   0.3848684   1.1546053  )
        13           Pd  tau(  13) = (   0.7697368   0.7697368   0.0000000  )
        14           Pd  tau(  14) = (   1.1546053   1.1546053   0.3848684  )
        15           Pd  tau(  15) = (   0.7697368   0.7697368   0.7697368  )
        16           Pd  tau(  16) = (   1.1546053   1.1546053   1.1546053  )

     number of k points=    35  Marzari-Vanderbilt smearing, width (Ry)=  0.0400
                       cart. coord. in units 2pi/alat
        k(    1) = (   0.0360874   0.0360874   0.0360874), wk =   0.0219479
        k(    2) = (   0.0360874   0.0360874   0.1082621), wk =   0.0658436
        k(    3) = (   0.0360874   0.0360874   0.1804368), wk =   0.0658436
        k(    4) = (   0.0360874   0.0360874   0.2526116), wk =   0.0658436
        k(    5) = (   0.0360874   0.0360874  -0.3247863), wk =   0.0329218
        k(    6) = (   0.0360874   0.1082621   0.1082621), wk =   0.0658436
        k(    7) = (   0.0360874   0.1082621   0.1804368), wk =   0.1316872
        k(    8) = (   0.0360874   0.1082621   0.2526116), wk =   0.1316872
        k(    9) = (   0.0360874   0.1082621  -0.3247863), wk =   0.0658436
        k(   10) = (   0.0360874   0.1804368   0.1804368), wk =   0.0658436
        k(   11) = (   0.0360874   0.1804368   0.2526116), wk =   0.1316872
        k(   12) = (   0.0360874   0.1804368  -0.3247863), wk =   0.0658436
        k(   13) = (   0.0360874   0.2526116   0.2526116), wk =   0.0658436
        k(   14) = (   0.0360874   0.2526116  -0.3247863), wk =   0.0658436
        k(   15) = (   0.0360874  -0.3247863  -0.3247863), wk =   0.0164609
        k(   16) = (   0.1082621   0.1082621   0.1082621), wk =   0.0219479
        k(   17) = (   0.1082621   0.1082621   0.1804368), wk =   0.0658436
        k(   18) = (   0.1082621   0.1082621   0.2526116), wk =   0.0658436
        k(   19) = (   0.1082621   0.1082621  -0.3247863), wk =   0.0329218
        k(   20) = (   0.1082621   0.1804368   0.1804368), wk =   0.0658436
        k(   21) = (   0.1082621   0.1804368   0.2526116), wk =   0.1316872
        k(   22) = (   0.1082621   0.1804368  -0.3247863), wk =   0.0658436
        k(   23) = (   0.1082621   0.2526116   0.2526116), wk =   0.0658436
        k(   24) = (   0.1082621   0.2526116  -0.3247863), wk =   0.0658436
        k(   25) = (   0.1082621  -0.3247863  -0.3247863), wk =   0.0164609
        k(   26) = (   0.1804368   0.1804368   0.1804368), wk =   0.0219479
        k(   27) = (   0.1804368   0.1804368   0.2526116), wk =   0.0658436
        k(   28) = (   0.1804368   0.1804368  -0.3247863), wk =   0.0329218
        k(   29) = (   0.1804368   0.2526116   0.2526116), wk =   0.0658436
        k(   30) = (   0.1804368   0.2526116  -0.3247863), wk =   0.0658436
        k(   31) = (   0.1804368  -0.3247863  -0.3247863), wk =   0.0164609
        k(   32) = (   0.2526116   0.2526116   0.2526116), wk =   0.0219479
        k(   33) = (   0.2526116   0.2526116  -0.3247863), wk =   0.0329218
        k(   34) = (   0.2526116  -0.3247863  -0.3247863), wk =   0.0164609
        k(   35) = (  -0.3247863  -0.3247863  -0.3247863), wk =   0.0027435

     Initial potential from superposition of free atoms

     starting charge  287.99388, renormalised to  288.00000
     Starting wfcs are  160 randomized atomic wfcs +   13 random wfcs
     Checking if some PAW data can be deallocated...

     Self-consistent Calculation

     iteration #  1     ecut=    71.00 Ry     beta= 0.10
     Davidson diagonalization with overlap
     ethr =  1.00E-02,  avg # of iterations =  4.4

     total energy              =   -8190.59030948 Ry
     estimated scf accuracy    <      11.14858163 Ry

[...]

     total energy              =   -8188.74423166 Ry
     estimated scf accuracy    <       0.00003096 Ry

     iteration # 24     ecut=    71.00 Ry     beta= 0.10
     Davidson diagonalization with overlap
     ethr =  7.61E-10,  avg # of iterations =  3.0

     End of self-consistent calculation

          k = 0.0361 0.0361 0.0361 ( 55068 PWs)   bands (ev):

   -80.0940 -80.0940 -80.0940 -80.0939 -80.0939 -80.0939 -80.0939 -80.0939
   -80.0939 -80.0939 -80.0939 -80.0939 -80.0939 -80.0939 -80.0938 -80.0938
   -45.8877 -45.8877 -45.8877 -45.8877 -45.8877 -45.8877 -45.8873 -45.8873
   -45.8872 -45.8867 -45.8867 -45.8867 -45.8866 -45.8866 -45.8866 -45.8865
   -45.8865 -45.8865 -45.8865 -45.8865 -45.8865 -45.8864 -45.8864 -45.8864
   -45.8864 -45.8864 -45.8864 -45.8864 -45.8864 -45.8863 -45.8863 -45.8863
   -45.8863 -45.8863 -45.8863 -45.8863 -45.8862 -45.8862 -45.8862 -45.8857
   -45.8857 -45.8857 -45.8855 -45.8855 -45.8855 -45.8855 -45.8855 -45.8855
     0.5897   1.2572   1.2572   1.2572   1.2598   1.2598   1.2598   1.3085
     1.3085   1.3900   1.3900   1.3900   1.3924   1.3924   1.3924   1.4823
     1.5039   1.5039   1.5257   1.5257   1.5307   1.5307   1.5307   1.5318
     1.5342   1.5342   1.5342   1.5396   1.5396   1.5396   1.5447   1.5447
     1.5636   1.5690   1.5690   1.5690   1.6262   1.6262   1.6262   1.6337
     1.6337   1.6337   1.6506   1.6506   1.6506   1.6625   1.6625   1.6625
     1.7206   1.7206   1.7206   1.7544   1.7544   1.7544   1.7653   1.7653
     1.7653   1.7667   1.7667   1.7667   1.7845   1.7845   1.7916   1.7916
     1.7916   1.7969   1.7969   1.7969   1.8004   1.8004   1.8005   1.8005
     1.9128   1.9205   1.9205   1.9576   1.9576   1.9576   1.9610   1.9611
     1.9611   2.4380   2.4380   2.4380   2.8160   2.8161   2.8161   4.0796
     4.0796   4.0796   4.3159   4.3160   4.3160   4.8201   4.8201   4.8201
     4.8755   4.8942   5.0561   5.0561   5.0561   6.6183   6.7511   6.9207
     6.9207   7.3715   7.3715   7.6332   7.8646

[...]

          k = 0.2526-0.3248-0.3248 ( 55032 PWs)   bands (ev):

[...]

          k =-0.3248-0.3248-0.3248 ( 55192 PWs)   bands (ev):

   -80.0940 -80.0940 -80.0940 -80.0939 -80.0939 -80.0939 -80.0939 -80.0939
   -80.0939 -80.0939 -80.0939 -80.0939 -80.0939 -80.0939 -80.0939 -80.0938
   -45.8873 -45.8873 -45.8873 -45.8873 -45.8873 -45.8873 -45.8873 -45.8872
   -45.8872 -45.8872 -45.8872 -45.8872 -45.8872 -45.8872 -45.8872 -45.8872
   -45.8869 -45.8869 -45.8869 -45.8869 -45.8869 -45.8869 -45.8869 -45.8869
   -45.8862 -45.8861 -45.8861 -45.8861 -45.8861 -45.8861 -45.8861 -45.8861
   -45.8858 -45.8858 -45.8858 -45.8858 -45.8858 -45.8858 -45.8858 -45.8858
   -45.8858 -45.8858 -45.8858 -45.8858 -45.8858 -45.8858 -45.8858 -45.8858
     1.4622   1.4622   1.4622   1.4622   1.4622   1.4622   1.4622   1.4622
     1.4623   1.4623   1.4623   1.4623   1.4623   1.4623   1.4623   1.4623
     1.4687   1.4687   1.4687   1.4687   1.4687   1.4687   1.4687   1.4687
     1.4845   1.4845   1.4845   1.4845   1.4845   1.4845   1.4845   1.4845
     1.5223   1.5223   1.5223   1.5223   1.5223   1.5223   1.5223   1.5223
     1.5223   1.5223   1.5223   1.5223   1.5223   1.5224   1.5224   1.5224
     1.7755   1.7755   1.7755   1.7755   1.7755   1.7755   1.7755   1.7755
     1.7755   1.7755   1.7755   1.7755   1.7755   1.7756   1.7756   1.7756
     1.8435   1.8435   1.8435   1.8435   1.8435   1.8435   1.8435   1.8435
     1.8436   1.8436   1.8436   1.8436   1.8436   1.8436   1.8436   1.8436
     2.2958   2.2958   2.2958   2.2958   2.2958   2.2958   2.2958   2.2958
     4.9956   4.9956   4.9957   4.9957   4.9957   4.9957   4.9957   4.9957
     6.5074   6.5074   6.5074   6.5074   6.5074   6.5074   6.5074   6.5074
     6.5074   6.5074   6.5074   6.5074   6.5074

     the Fermi energy is     2.1556 ev

!    total energy              =   -8188.74423747 Ry

     total all-electron energy =   -161469.171091 Ry
     estimated scf accuracy    <       0.00000067 Ry
     smearing contrib. (-TS)   =       0.42177955 Ry
     internal energy E=F+TS    =   -8189.16601702 Ry

     The total energy is F=E-TS. E is the sum of the following terms:
     one-electron contribution =   -3032.68665877 Ry
     hartree contribution      =    1562.22412925 Ry
     xc contribution           =    -490.91848683 Ry
     ewald contribution        =   -2144.43932245 Ry
     one-center paw contrib.   =   -4083.34567821 Ry

     convergence has been achieved in  24 iterations

     Forces acting on atoms (cartesian axes, Ry/au):

     atom    1 type  1   force =     0.00000000    0.00000000    0.00000000
     atom    2 type  1   force =    -0.00001485   -0.00001485   -0.00001485
     atom    3 type  1   force =     0.00000000    0.00000000    0.00000000
     atom    4 type  1   force =    -0.00001485   -0.00001485    0.00001485
     atom    5 type  1   force =     0.00000000    0.00000000    0.00000000
     atom    6 type  1   force =    -0.00001485    0.00001485   -0.00001485
     atom    7 type  1   force =     0.00000000    0.00000000    0.00000000
     atom    8 type  1   force =    -0.00001485    0.00001485    0.00001485
     atom    9 type  1   force =     0.00000000    0.00000000    0.00000000
     atom   10 type  1   force =     0.00001485   -0.00001485   -0.00001485
     atom   11 type  1   force =     0.00000000    0.00000000    0.00000000
     atom   12 type  1   force =     0.00001485   -0.00001485    0.00001485
     atom   13 type  1   force =     0.00000000    0.00000000    0.00000000
     atom   14 type  1   force =     0.00001485    0.00001485   -0.00001485
     atom   15 type  1   force =     0.00000000    0.00000000    0.00000000
     atom   16 type  1   force =     0.00001485    0.00001485    0.00001485

     Total force =     0.000073     Total SCF correction =     0.000432
     SCF correction compared to forces is large: reduce conv_thr to get better values

     Computing stress (Cartesian axis) and pressure

          total   stress  (Ry/bohr**3)                   (kbar)     P=      -67.36
  -0.00045791   0.00000000   0.00000000          -67.36        0.00        0.00
   0.00000000  -0.00045791   0.00000000            0.00      -67.36        0.00
   0.00000000   0.00000000  -0.00045791            0.00        0.00      -67.36

     Writing output data file /scratch/QibZsZaXymDqczuz.save/

     General routines

     Parallel routines

   This run was terminated on:   0: 6:51  30Nov2021

   JOB DONE.