     Program PWSCF v.6.7MaX starts on 29Nov2021 at 23:33:58

     R & G space division:  proc/nbgrp/npool/nimage =      72
     Reading input from bcc_9.in
Warning: card &CELL ignored
Warning: card CELL_DYNAMICS = 'BFGS', ignored
Warning: card CELL_FACTOR = 2.0, ignored
Warning: card PRESS = 0.0, ignored
Warning: card / ignored

     Current dimensions of program PWSCF are:
     Max number of different atomic species (ntypx) = 10
     Max number of k-points (npk) =  40000
     Max angular momentum in pseudopotentials (lmaxx) =  3
     file Pd.pbe-spn-kjpaw_psl.1.0.0.UPF: wavefunction(s)  4S 5S 4D renormalized

     Subspace diagonalization in iterative solution of the eigenvalue problem:
     one sub-group per band group will be used

     Found symmetry operation: I + (  0.2500  0.2500  0.2500)
     This is a supercell, fractional translations are disabled
     Message from routine setup:
     using ibrav=0 with symmetry is DISCOURAGED, use correct ibrav instead

     bravais-lattice index     =            0
     lattice parameter (alat)  =      11.4293  a.u.
     unit-cell volume          =    3104.0667 (a.u.)^3
     number of atoms/cell      =           16
     number of atomic types    =            1
     number of electrons       =       288.00
     number of Kohn-Sham states=          173
     kinetic-energy cutoff     =      71.0000  Ry
     charge density cutoff     =     430.0000  Ry
     scf convergence threshold =      1.0E-06
     mixing beta               =       0.1000
     number of iterations used =           10  TF        mixing
     Exchange-correlation= SLA  PW   PBX  PBC
                           (   1   4   3   4   0   0   0)

     celldm(1)=  11.429280  celldm(2)=   0.000000  celldm(3)=   0.000000
     celldm(4)=   0.000000  celldm(5)=   0.000000  celldm(6)=   0.000000

     crystal axes: (cart. coord. in units of alat)
               a(1) = (   1.276316   0.000000   0.000000 )
               a(2) = (   0.000000   1.276316   0.000000 )
               a(3) = (   0.000000   0.000000   1.276316 )

     reciprocal axes: (cart. coord. in units 2 pi/alat)
               b(1) = (  0.783505  0.000000  0.000000 )
               b(2) = (  0.000000  0.783505  0.000000 )
               b(3) = (  0.000000  0.000000  0.783505 )

     PseudoPot. # 1 for Pd read from file:
     /rds/homes/b/bxp912/pp/Pd.pbe-spn-kjpaw_psl.1.0.0.UPF
     MD5 check sum: 790f2ebce206edfd9790dcb9844eca51
     Pseudo is Projector augmented-wave + core cor, Zval = 18.0
     Generated using &quot;atomic&quot; code by A. Dal Corso  v.6.3
     Shape of augmentation charge: PSQ
     Using radial grid of 1235 points,  6 beta functions with:
                l(1) =   0
                l(2) =   0
                l(3) =   1
                l(4) =   1
                l(5) =   2
                l(6) =   2
     Q(r) pseudized with 0 coefficients

     atomic species   valence    mass     pseudopotential
        Pd            18.00   106.42000     Pd( 1.00)

     48 Sym. Ops., with inversion, found

   Cartesian axes

     site n.     atom                  positions (alat units)
         1           Pd  tau(   1) = (   0.0000000   0.0000000   0.0000000  )
         2           Pd  tau(   2) = (   0.3190789   0.3190789   0.3190789  )
         3           Pd  tau(   3) = (   0.0000000   0.0000000   0.6381579  )
         4           Pd  tau(   4) = (   0.3190789   0.3190789   0.9572368  )
         5           Pd  tau(   5) = (   0.0000000   0.6381579   0.0000000  )
         6           Pd  tau(   6) = (   0.3190789   0.9572368   0.3190789  )
         7           Pd  tau(   7) = (   0.0000000   0.6381579   0.6381579  )
         8           Pd  tau(   8) = (   0.3190789   0.9572368   0.9572368  )
         9           Pd  tau(   9) = (   0.6381579   0.0000000   0.0000000  )
        10           Pd  tau(  10) = (   0.9572368   0.3190789   0.3190789  )
        11           Pd  tau(  11) = (   0.6381579   0.0000000   0.6381579  )
        12           Pd  tau(  12) = (   0.9572368   0.3190789   0.9572368  )
        13           Pd  tau(  13) = (   0.6381579   0.6381579   0.0000000  )
        14           Pd  tau(  14) = (   0.9572368   0.9572368   0.3190789  )
        15           Pd  tau(  15) = (   0.6381579   0.6381579   0.6381579  )
        16           Pd  tau(  16) = (   0.9572368   0.9572368   0.9572368  )

     number of k points=    35  Marzari-Vanderbilt smearing, width (Ry)=  0.0400
                       cart. coord. in units 2pi/alat
        k(    1) = (   0.0435281   0.0435281   0.0435281), wk =   0.0219479
        k(    2) = (   0.0435281   0.0435281   0.1305842), wk =   0.0658436
        k(    3) = (   0.0435281   0.0435281   0.2176403), wk =   0.0658436
        k(    4) = (   0.0435281   0.0435281   0.3046964), wk =   0.0658436
        k(    5) = (   0.0435281   0.0435281  -0.3917526), wk =   0.0329218
        k(    6) = (   0.0435281   0.1305842   0.1305842), wk =   0.0658436
        k(    7) = (   0.0435281   0.1305842   0.2176403), wk =   0.1316872
        k(    8) = (   0.0435281   0.1305842   0.3046964), wk =   0.1316872
        k(    9) = (   0.0435281   0.1305842  -0.3917526), wk =   0.0658436
        k(   10) = (   0.0435281   0.2176403   0.2176403), wk =   0.0658436
        k(   11) = (   0.0435281   0.2176403   0.3046964), wk =   0.1316872
        k(   12) = (   0.0435281   0.2176403  -0.3917526), wk =   0.0658436
        k(   13) = (   0.0435281   0.3046964   0.3046964), wk =   0.0658436
        k(   14) = (   0.0435281   0.3046964  -0.3917526), wk =   0.0658436
        k(   15) = (   0.0435281  -0.3917526  -0.3917526), wk =   0.0164609
        k(   16) = (   0.1305842   0.1305842   0.1305842), wk =   0.0219479
        k(   17) = (   0.1305842   0.1305842   0.2176403), wk =   0.0658436
        k(   18) = (   0.1305842   0.1305842   0.3046964), wk =   0.0658436
        k(   19) = (   0.1305842   0.1305842  -0.3917526), wk =   0.0329218
        k(   20) = (   0.1305842   0.2176403   0.2176403), wk =   0.0658436
        k(   21) = (   0.1305842   0.2176403   0.3046964), wk =   0.1316872
        k(   22) = (   0.1305842   0.2176403  -0.3917526), wk =   0.0658436
        k(   23) = (   0.1305842   0.3046964   0.3046964), wk =   0.0658436
        k(   24) = (   0.1305842   0.3046964  -0.3917526), wk =   0.0658436
        k(   25) = (   0.1305842  -0.3917526  -0.3917526), wk =   0.0164609
        k(   26) = (   0.2176403   0.2176403   0.2176403), wk =   0.0219479
        k(   27) = (   0.2176403   0.2176403   0.3046964), wk =   0.0658436
        k(   28) = (   0.2176403   0.2176403  -0.3917526), wk =   0.0329218
        k(   29) = (   0.2176403   0.3046964   0.3046964), wk =   0.0658436
        k(   30) = (   0.2176403   0.3046964  -0.3917526), wk =   0.0658436
        k(   31) = (   0.2176403  -0.3917526  -0.3917526), wk =   0.0164609
        k(   32) = (   0.3046964   0.3046964   0.3046964), wk =   0.0219479
        k(   33) = (   0.3046964   0.3046964  -0.3917526), wk =   0.0329218
        k(   34) = (   0.3046964  -0.3917526  -0.3917526), wk =   0.0164609
        k(   35) = (  -0.3917526  -0.3917526  -0.3917526), wk =   0.0027435

     Check: negative core charge=   -0.000001

     Initial potential from superposition of free atoms

     starting charge  287.99388, renormalised to  288.00000
     Starting wfcs are  160 randomized atomic wfcs +   13 random wfcs
     Checking if some PAW data can be deallocated...

     Self-consistent Calculation

     iteration #  1     ecut=    71.00 Ry     beta= 0.10
     Davidson diagonalization with overlap
     ethr =  1.00E-02,  avg # of iterations =  3.5

     total energy              =   -8191.15146608 Ry
     estimated scf accuracy    <       4.65007015 Ry

[...]

     total energy              =   -8190.53991561 Ry
     estimated scf accuracy    <       0.00000980 Ry

     iteration # 13     ecut=    71.00 Ry     beta= 0.10
     Davidson diagonalization with overlap
     ethr =  3.40E-09,  avg # of iterations =  1.3

     End of self-consistent calculation

          k = 0.0435 0.0435 0.0435 ( 31379 PWs)   bands (ev):

   -75.4882 -75.4864 -75.4864 -75.4864 -75.4862 -75.4862 -75.4862 -75.4862
   -75.4862 -75.4862 -75.4861 -75.4861 -75.4861 -75.4861 -75.4861 -75.4844
   -41.2421 -41.2421 -41.2421 -41.2420 -41.2420 -41.2419 -41.2362 -41.2362
   -41.2359 -41.2296 -41.2293 -41.2293 -41.2293 -41.2283 -41.2283 -41.2274
   -41.2274 -41.2274 -41.2256 -41.2256 -41.2255 -41.2254 -41.2254 -41.2245
   -41.2245 -41.2245 -41.2243 -41.2243 -41.2243 -41.2243 -41.2241 -41.2241
   -41.2241 -41.2234 -41.2234 -41.2234 -41.2225 -41.2225 -41.2225 -41.2131
   -41.2127 -41.2127 -41.2124 -41.2124 -41.2124 -41.2123 -41.2123 -41.2123
     4.0239   5.3699   5.3699   5.3699   5.3765   5.3765   5.3765   5.4997
     5.4997   5.7904   5.7904   5.7904   5.7962   5.7962   5.7962   5.8123
     5.8123   5.8123   5.9194   5.9194   5.9194   5.9466   5.9959   5.9959
     6.0870   6.0870   6.1157   6.1158   6.1158   6.1274   6.1757   6.1757
     6.1918   6.2264   6.2264   6.2264   6.3848   6.3849   6.3849   6.4202
     6.4202   6.4202   6.4585   6.4586   6.4586   6.4917   6.4917   6.4918
     6.6818   6.6818   6.6818   6.7729   6.7729   6.7729   6.8223   6.8223
     6.8223   6.8267   6.8267   6.8268   6.8702   6.8702   6.9005   6.9005
     6.9005   6.9223   6.9223   6.9223   6.9338   6.9338   6.9339   6.9339
     7.2075   7.2309   7.2309   7.3283   7.3284   7.3284   7.3392   7.3392
     7.3392   7.5676   7.5676   7.5677   8.0248   8.0248   8.0248   9.4328
     9.4328   9.4328   9.6812   9.6812   9.6812  11.2193  11.2193  11.2193
    11.4587  11.4587  11.4587  12.0464  12.1443  13.2379  13.4072  13.4072
    14.0923  14.0923  14.1248  14.2294  14.5087

[...]

          k = 0.3047-0.3918-0.3918 ( 31340 PWs)   bands (ev):

[...]

          k =-0.3918-0.3918-0.3918 ( 31144 PWs)   bands (ev):

   -75.4869 -75.4869 -75.4869 -75.4869 -75.4869 -75.4869 -75.4869 -75.4869
   -75.4855 -75.4855 -75.4855 -75.4855 -75.4855 -75.4855 -75.4855 -75.4855
   -41.2352 -41.2352 -41.2352 -41.2352 -41.2352 -41.2352 -41.2352 -41.2352
   -41.2352 -41.2352 -41.2352 -41.2352 -41.2351 -41.2351 -41.2351 -41.2351
   -41.2322 -41.2322 -41.2322 -41.2322 -41.2322 -41.2322 -41.2321 -41.2321
   -41.2191 -41.2191 -41.2191 -41.2191 -41.2191 -41.2191 -41.2191 -41.2190
   -41.2162 -41.2162 -41.2162 -41.2162 -41.2162 -41.2162 -41.2162 -41.2162
   -41.2162 -41.2162 -41.2162 -41.2162 -41.2161 -41.2161 -41.2161 -41.2161
     5.6363   5.6363   5.6363   5.6363   5.6363   5.6363   5.6363   5.6363
     5.9623   5.9623   5.9623   5.9623   5.9624   5.9624   5.9624   5.9624
     5.9624   5.9624   5.9624   5.9624   5.9624   5.9624   5.9624   5.9624
     5.9701   5.9701   5.9701   5.9701   5.9701   5.9701   5.9701   5.9701
     6.0412   6.0412   6.0412   6.0412   6.0412   6.0412   6.0412   6.0412
     6.0412   6.0412   6.0412   6.0412   6.0412   6.0412   6.0412   6.0412
     6.8522   6.8522   6.8522   6.8522   6.8522   6.8522   6.8523   6.8523
     6.8523   6.8523   6.8523   6.8523   6.8523   6.8523   6.8523   6.8523
     7.0000   7.0000   7.0000   7.0000   7.0001   7.0001   7.0001   7.0001
     7.0001   7.0001   7.0001   7.0001   7.0001   7.0001   7.0001   7.0001
     7.4716   7.4716   7.4716   7.4716   7.4716   7.4716   7.4716   7.4716
    12.2223  12.2223  12.2223  12.2223  12.2223  12.2223  12.2223  12.2223
    12.7413  12.7413  12.7413  12.7413  12.7413  12.7413  12.7413  12.7413
    12.7413  12.7413  12.7413  12.7413  12.7413

     the Fermi energy is     7.3110 ev

!    total energy              =   -8190.53992533 Ry

     total all-electron energy =   -161470.966779 Ry
     estimated scf accuracy    <       0.00000020 Ry
     smearing contrib. (-TS)   =       0.23770993 Ry
     internal energy E=F+TS    =   -8190.77763526 Ry

     The total energy is F=E-TS. E is the sum of the following terms:
     one-electron contribution =   -2251.71332870 Ry
     hartree contribution      =    1221.13931752 Ry
     xc contribution           =    -490.15058310 Ry
     ewald contribution        =   -2586.59176008 Ry
     one-center paw contrib.   =   -4083.46128089 Ry

     convergence has been achieved in  13 iterations

     Forces acting on atoms (cartesian axes, Ry/au):

     atom    1 type  1   force =     0.00000000    0.00000000    0.00000000
     atom    2 type  1   force =     0.00000217    0.00000217    0.00000217
     atom    3 type  1   force =     0.00000000    0.00000000    0.00000000
     atom    4 type  1   force =     0.00000217    0.00000217   -0.00000217
     atom    5 type  1   force =     0.00000000    0.00000000    0.00000000
     atom    6 type  1   force =     0.00000217   -0.00000217    0.00000217
     atom    7 type  1   force =     0.00000000    0.00000000    0.00000000
     atom    8 type  1   force =     0.00000217   -0.00000217   -0.00000217
     atom    9 type  1   force =     0.00000000    0.00000000    0.00000000
     atom   10 type  1   force =    -0.00000217    0.00000217    0.00000217
     atom   11 type  1   force =     0.00000000    0.00000000    0.00000000
     atom   12 type  1   force =    -0.00000217    0.00000217   -0.00000217
     atom   13 type  1   force =     0.00000000    0.00000000    0.00000000
     atom   14 type  1   force =    -0.00000217   -0.00000217    0.00000217
     atom   15 type  1   force =     0.00000000    0.00000000    0.00000000
     atom   16 type  1   force =    -0.00000217   -0.00000217   -0.00000217

     Total force =     0.000011     Total SCF correction =     0.000007
     SCF correction compared to forces is large: reduce conv_thr to get better values

     Computing stress (Cartesian axis) and pressure

          total   stress  (Ry/bohr**3)                   (kbar)     P=     -187.19
  -0.00127248   0.00000000   0.00000000         -187.19        0.00        0.00
   0.00000000  -0.00127248   0.00000000            0.00     -187.19        0.00
   0.00000000   0.00000000  -0.00127248            0.00        0.00     -187.19

     Writing output data file /scratch/ueqgSwmLrTCRhUus.save/

     General routines

     Parallel routines

   This run was terminated on:  23:38: 3  29Nov2021

   JOB DONE.