     Program PWSCF v.6.7MaX starts on 23May2022 at 15:57:41

     R & G space division:  proc/nbgrp/npool/nimage =      72
     Reading input from feru_08.in
Warning: card &CELL ignored
Warning: card CELL_DYNAMICS = 'BFGS', ignored
Warning: card CELL_FACTOR = 2.0, ignored
Warning: card PRESS = 0.0, ignored
Warning: card / ignored

     Current dimensions of program PWSCF are:
     Max number of different atomic species (ntypx) = 10
     Max number of k-points (npk) =  40000
     Max angular momentum in pseudopotentials (lmaxx) =  3
     file Fe.pbe-spn-kjpaw_psl.1.0.0.UPF: wavefunction(s)  3P 3D renormalized
     file Fe.pbe-spn-kjpaw_psl.1.0.0.UPF: wavefunction(s)  3P 3D renormalized
     file Ru.pbe-spn-kjpaw_psl.1.0.0.UPF: wavefunction(s)  4D renormalized

     Subspace diagonalization in iterative solution of the eigenvalue problem:
     one sub-group per band group will be used

     bravais-lattice index     =            0
     lattice parameter (alat)  =      13.0175  a.u.
     unit-cell volume          =    2324.7211 (a.u.)^3
     number of atoms/cell      =           32
     number of atomic types    =            3
     number of electrons       =       512.00
     number of Kohn-Sham states=          307
     kinetic-energy cutoff     =      71.0000  Ry
     charge density cutoff     =     430.0000  Ry
     scf convergence threshold =      1.0E-08
     mixing beta               =       0.3000
     number of iterations used =           10  local-TF  mixing
     Exchange-correlation= SLA  PW   PBX  PBC
                           (   1   4   3   4   0   0   0)

     celldm(1)=  13.017474  celldm(2)=   0.000000  celldm(3)=   0.000000
     celldm(4)=   0.000000  celldm(5)=   0.000000  celldm(6)=   0.000000

     crystal axes: (cart. coord. in units of alat)
               a(1) = (   1.000000   0.000000   0.000000 )
               a(2) = (   0.000000   1.053879   0.000000 )
               a(3) = (   0.000000   0.000000   1.000000 )

     reciprocal axes: (cart. coord. in units 2 pi/alat)
               b(1) = (  1.000000  0.000000  0.000000 )
               b(2) = (  0.000000  0.948876  0.000000 )
               b(3) = (  0.000000  0.000000  1.000000 )

     PseudoPot. # 1 for Fe read from file:
     /rds/homes/b/bxp912/pp/Fe.pbe-spn-kjpaw_psl.1.0.0.UPF
     MD5 check sum: 42f43b795421b414b0dc916aa790dbcb
     Pseudo is Projector augmented-wave + core cor, Zval = 16.0
     Generated using &quot;atomic&quot; code by A. Dal Corso  v.6.3
     Shape of augmentation charge: PSQ
     Using radial grid of 1191 points,  6 beta functions with:
                l(1) =   0
                l(2) =   0
                l(3) =   1
                l(4) =   1
                l(5) =   2
                l(6) =   2
     Q(r) pseudized with 0 coefficients

     PseudoPot. # 2 for Fe read from file:
     /rds/homes/b/bxp912/pp/Fe.pbe-spn-kjpaw_psl.1.0.0.UPF
     MD5 check sum: 42f43b795421b414b0dc916aa790dbcb
     Pseudo is Projector augmented-wave + core cor, Zval = 16.0
     Generated using &quot;atomic&quot; code by A. Dal Corso  v.6.3
     Shape of augmentation charge: PSQ
     Using radial grid of 1191 points,  6 beta functions with:
                l(1) =   0
                l(2) =   0
                l(3) =   1
                l(4) =   1
                l(5) =   2
                l(6) =   2
     Q(r) pseudized with 0 coefficients

     PseudoPot. # 3 for Ru read from file:
     /rds/homes/b/bxp912/pp/Ru.pbe-spn-kjpaw_psl.1.0.0.UPF
     MD5 check sum: 0ae1f594dea09af7be8575c3a481d1ae
     Pseudo is Projector augmented-wave + core cor, Zval = 16.0
     Generated using "atomic" code by A. Dal Corso  v.5.1
     Shape of augmentation charge: PSQ
     Using radial grid of 1233 points,  6 beta functions with:
                l(1) =   0
                l(2) =   0
                l(3) =   1
                l(4) =   1
                l(5) =   2
                l(6) =   2
     Q(r) pseudized with 0 coefficients

     atomic species   valence    mass     pseudopotential
        Fe1           16.00    55.84500     Fe( 1.00)
        Fe2           16.00    55.84500     Fe( 1.00)
        Ru            16.00   101.07000     Ru( 1.00)

     Starting magnetic structure
     atomic species   magnetization
        Fe1          0.100
        Fe2         -0.100
        Ru           0.010

     No symmetry found

   Cartesian axes

     site n.     atom                  positions (alat units)
         1           Ru  tau(   1) = (   0.0066940  -0.0019207  -0.0066185  )
         2           Fe2 tau(   2) = (   0.2552108   0.2689456   0.0000000  )
         3           Fe1 tau(   3) = (   0.2570288   0.0000000   0.2570288  )
         4           Fe2 tau(   4) = (   0.0000000   0.2689456   0.2552108  )
         5           Fe1 tau(   5) = (   0.0000000   0.0000000   0.5000000  )
         6           Fe2 tau(   6) = (   0.2504870   0.2644622   0.5000000  )
         7           Fe1 tau(   7) = (   0.2570288   0.0000000   0.7429712  )
         8           Fe2 tau(   8) = (   0.0000000   0.2689456   0.7447892  )
         9           Fe1 tau(   9) = (   0.0000000   0.5269394   0.0000000  )
        10           Fe2 tau(  10) = (   0.2552108   0.7849332   0.0000000  )
        11           Fe1 tau(  11) = (   0.2508487   0.5269394   0.2508487  )
        12           Fe2 tau(  12) = (   0.0000000   0.7849332   0.2552108  )
        13           Fe1 tau(  13) = (   0.0000000   0.5269394   0.5000000  )
        14           Fe2 tau(  14) = (   0.2504870   0.7894166   0.5000000  )
        15           Fe1 tau(  15) = (   0.2508487   0.5269394   0.7491513  )
        16           Fe2 tau(  16) = (   0.0000000   0.7849332   0.7447892  )
        17           Fe1 tau(  17) = (   0.5000000   0.0000000   0.0000000  )
        18           Fe2 tau(  18) = (   0.7447892   0.2689456   0.0000000  )
        19           Fe1 tau(  19) = (   0.7429712   0.0000000   0.2570288  )
        20           Fe2 tau(  20) = (   0.5000000   0.2644622   0.2504870  )
        21           Fe1 tau(  21) = (   0.5000000   0.0000000   0.5000000  )
        22           Fe2 tau(  22) = (   0.7495130   0.2644622   0.5000000  )
        23           Fe1 tau(  23) = (   0.7429712   0.0000000   0.7429712  )
        24           Fe2 tau(  24) = (   0.5000000   0.2644622   0.7495130  )
        25           Fe1 tau(  25) = (   0.5000000   0.5269394   0.0000000  )
        26           Fe2 tau(  26) = (   0.7447892   0.7849332   0.0000000  )
        27           Fe1 tau(  27) = (   0.7491513   0.5269394   0.2508487  )
        28           Fe2 tau(  28) = (   0.5000000   0.7894166   0.2504870  )
        29           Fe1 tau(  29) = (   0.5000000   0.5269394   0.5000000  )
        30           Fe2 tau(  30) = (   0.7495130   0.7894166   0.5000000  )
        31           Fe1 tau(  31) = (   0.7491513   0.5269394   0.7491513  )
        32           Fe2 tau(  32) = (   0.5000000   0.7894166   0.7495130  )

     number of k points=   365  Marzari-Vanderbilt smearing, width (Ry)=  0.0400

     Number of k-points >= 100: set verbosity='high' to print them.

     Check: negative core charge=   -0.000006
     Generating pointlists ...
     new r_m :   0.1417 (alat units)  1.8451 (a.u.) for type    1
     new r_m :   0.1445 (alat units)  1.8808 (a.u.) for type    2
     new r_m :   0.1461 (alat units)  1.9013 (a.u.) for type    3

     Initial potential from superposition of free atoms

     starting charge  511.98580, renormalised to  512.00000
     Starting wfcs are  320 randomized atomic wfcs
     Checking if some PAW data can be deallocated...

     Self-consistent Calculation

     iteration #  1     ecut=    71.00 Ry     beta= 0.30
     Davidson diagonalization with overlap
     ethr =  1.00E-02,  avg # of iterations =  4.8

     negative rho (up, down):  1.683E-02 5.526E-02

     total energy              =  -10638.27168900 Ry
     estimated scf accuracy    <      11.30596922 Ry

     total magnetization       =    -1.22 Bohr mag/cell
     absolute magnetization    =    51.09 Bohr mag/cell

[...]

     iteration #  5     ecut=    71.00 Ry     beta= 0.30
     Davidson diagonalization with overlap
     c_bands:  1 eigenvalues not converged
     c_bands:  1 eigenvalues not converged
     c_bands:  1 eigenvalues not converged
     ethr =  1.01E-04,  avg # of iterations =  4.8

[...]

     negative rho (up, down):  0.000E+00 8.459E-05

[...]

     iteration # 15     ecut=    71.00 Ry     beta= 0.30
     Davidson diagonalization with overlap
     c_bands:  1 eigenvalues not converged
     ethr =  5.96E-08,  avg # of iterations =  4.7

[...]

     total energy              =  -10638.64635471 Ry
     estimated scf accuracy    <       0.00000001 Ry

[...]

     iteration # 40     ecut=    71.00 Ry     beta= 0.30
     Davidson diagonalization with overlap
     ethr =  2.18E-12,  avg # of iterations =  4.8

     Magnetic moment per site:
     atom:    1    charge:   13.2839    magn:    0.1761    constr:    0.0000
     atom:    2    charge:   14.3536    magn:   -1.5240    constr:    0.0000
     atom:    3    charge:   14.2315    magn:    1.7392    constr:    0.0000
     atom:    4    charge:   14.3431    magn:   -1.5868    constr:    0.0000
     atom:    5    charge:   14.2320    magn:    1.4335    constr:    0.0000
     atom:    6    charge:   14.3666    magn:   -1.4853    constr:    0.0000
     atom:    7    charge:   14.2431    magn:    1.7333    constr:    0.0000
     atom:    8    charge:   14.3535    magn:   -1.5244    constr:    0.0000
     atom:    9    charge:   14.2316    magn:    1.4770    constr:    0.0000
     atom:   10    charge:   14.3569    magn:   -1.5113    constr:    0.0000
     atom:   11    charge:   14.2420    magn:    1.5761    constr:    0.0000
     atom:   12    charge:   14.3458    magn:   -1.5744    constr:    0.0000
     atom:   13    charge:   14.2630    magn:    1.2040    constr:    0.0000
     atom:   14    charge:   14.3666    magn:   -1.4851    constr:    0.0000
     atom:   15    charge:   14.2417    magn:    1.5901    constr:    0.0000
     atom:   16    charge:   14.3568    magn:   -1.5116    constr:    0.0000
     atom:   17    charge:   14.2320    magn:    1.4337    constr:    0.0000
     atom:   18    charge:   14.3430    magn:   -1.5871    constr:    0.0000
     atom:   19    charge:   14.2222    magn:    1.7475    constr:    0.0000
     atom:   20    charge:   14.3667    magn:   -1.4769    constr:    0.0000
     atom:   21    charge:   14.2738    magn:    1.5359    constr:    0.0000
     atom:   22    charge:   14.3667    magn:   -1.4767    constr:    0.0000
     atom:   23    charge:   14.2314    magn:    1.7392    constr:    0.0000
     atom:   24    charge:   14.3666    magn:   -1.4854    constr:    0.0000
     atom:   25    charge:   14.2630    magn:    1.2037    constr:    0.0000
     atom:   26    charge:   14.3457    magn:   -1.5748    constr:    0.0000
     atom:   27    charge:   14.2423    magn:    1.5648    constr:    0.0000
     atom:   28    charge:   14.3667    magn:   -1.4762    constr:    0.0000
     atom:   29    charge:   14.2424    magn:    1.4808    constr:    0.0000
     atom:   30    charge:   14.3667    magn:   -1.4762    constr:    0.0000
     atom:   31    charge:   14.2420    magn:    1.5760    constr:    0.0000
     atom:   32    charge:   14.3666    magn:   -1.4850    constr:    0.0000

     End of self-consistent calculation

     Number of k-points >= 100: set verbosity='high' to print the bands.

     the Fermi energy is    20.0606 ev

!    total energy              =  -10638.64635474 Ry

     total all-electron energy =    -87974.351078 Ry
     estimated scf accuracy    <          6.0E-09 Ry
     smearing contrib. (-TS)   =       0.01402884 Ry
     internal energy E=F+TS    =  -10638.66038358 Ry

     The total energy is F=E-TS. E is the sum of the following terms:
     one-electron contribution =   -3262.56205404 Ry
     hartree contribution      =    1980.91216532 Ry
     xc contribution           =    -888.18341112 Ry
     ewald contribution        =   -5664.90404881 Ry
     one-center paw contrib.   =   -2803.92303493 Ry

     total magnetization       =    -0.86 Bohr mag/cell
     absolute magnetization    =    49.56 Bohr mag/cell

     convergence has been achieved in  40 iterations

     Forces acting on atoms (cartesian axes, Ry/au):

     atom    1 type  3   force =    -0.02380342    0.00601030    0.02353832
     atom    2 type  2   force =    -0.01047021   -0.00782045   -0.00037699
     atom    3 type  1   force =    -0.01088579   -0.00004676   -0.00981613
     atom    4 type  2   force =     0.00047114   -0.01177020   -0.01236721
     atom    5 type  1   force =    -0.00021734    0.00003337   -0.00077329
     atom    6 type  2   force =    -0.00015287    0.00046826   -0.00076254
     atom    7 type  1   force =    -0.00428332    0.00001617    0.00427728
     atom    8 type  2   force =     0.00039041   -0.00785524    0.01048239
     atom    9 type  1   force =    -0.00000938   -0.00018938    0.00001441
     atom   10 type  2   force =    -0.00924448    0.00650419   -0.00034415
     atom   11 type  1   force =    -0.00006004    0.00001900   -0.00082373
     atom   12 type  2   force =     0.00044453    0.01101513   -0.01163996
     atom   13 type  1   force =    -0.00022178   -0.00052963   -0.00127921
     atom   14 type  2   force =    -0.00005163   -0.00061799   -0.00080407
     atom   15 type  1   force =    -0.00044380   -0.00000778    0.00045470
     atom   16 type  2   force =     0.00035450    0.00653695    0.00926049
     atom   17 type  1   force =     0.00079067    0.00001936    0.00020861
     atom   18 type  2   force =     0.01237174   -0.01177923   -0.00046830
     atom   19 type  1   force =     0.01408332   -0.00008080   -0.01408075
     atom   20 type  2   force =     0.00065436    0.00033778   -0.00028014
     atom   21 type  1   force =     0.00352960   -0.00009001   -0.00349324
     atom   22 type  2   force =     0.00027997    0.00034081   -0.00064915
     atom   23 type  1   force =     0.00988021   -0.00004868    0.01094209
     atom   24 type  2   force =     0.00076961    0.00047214    0.00014466
     atom   25 type  1   force =     0.00129247   -0.00053068    0.00021643
     atom   26 type  2   force =     0.01164853    0.01103304   -0.00043758
     atom   27 type  1   force =     0.00031659    0.00004702   -0.00031562
     atom   28 type  2   force =     0.00069205   -0.00045577   -0.00017368
     atom   29 type  1   force =     0.00007068    0.00001732   -0.00007496
     atom   30 type  2   force =     0.00017638   -0.00045757   -0.00068490
     atom   31 type  1   force =     0.00081099    0.00002389    0.00006137
     atom   32 type  2   force =     0.00081630   -0.00061457    0.00004483

     Total force =     0.061303     Total SCF correction =     0.000203

     Computing stress (Cartesian axis) and pressure

          total   stress  (Ry/bohr**3)                   (kbar)     P=      -10.16
  -0.00006589  -0.00000077  -0.00000333           -9.69       -0.11       -0.49
  -0.00000077  -0.00007534   0.00000076           -0.11      -11.08        0.11
  -0.00000333   0.00000076  -0.00006603           -0.49        0.11       -9.71

     Writing output data file /scratch/bxp912/feru08.save/

     General routines

     Parallel routines

   This run was terminated on:  23: 0:55  23May2022

   JOB DONE.