     Program PWSCF v.6.7MaX starts on 23May2022 at  9: 6:27

     R & G space division:  proc/nbgrp/npool/nimage =      72
     Reading input from feru_03.in
Warning: card &CELL ignored
Warning: card CELL_DYNAMICS = 'BFGS', ignored
Warning: card CELL_FACTOR = 2.0, ignored
Warning: card PRESS = 0.0, ignored
Warning: card / ignored

     Current dimensions of program PWSCF are:
     Max number of different atomic species (ntypx) = 10
     Max number of k-points (npk) =  40000
     Max angular momentum in pseudopotentials (lmaxx) =  3
     file Fe.pbe-spn-kjpaw_psl.1.0.0.UPF: wavefunction(s)  3P 3D renormalized
     file Fe.pbe-spn-kjpaw_psl.1.0.0.UPF: wavefunction(s)  3P 3D renormalized
     file Ru.pbe-spn-kjpaw_psl.1.0.0.UPF: wavefunction(s)  4D renormalized

     Subspace diagonalization in iterative solution of the eigenvalue problem:
     one sub-group per band group will be used

     bravais-lattice index     =            0
     lattice parameter (alat)  =      13.0175  a.u.
     unit-cell volume          =    2324.7211 (a.u.)^3
     number of atoms/cell      =           32
     number of atomic types    =            3
     number of electrons       =       512.00
     number of Kohn-Sham states=          307
     kinetic-energy cutoff     =      71.0000  Ry
     charge density cutoff     =     430.0000  Ry
     scf convergence threshold =      1.0E-08
     mixing beta               =       0.3000
     number of iterations used =           10  local-TF  mixing
     Exchange-correlation= SLA  PW   PBX  PBC
                           (   1   4   3   4   0   0   0)

     celldm(1)=  13.017474  celldm(2)=   0.000000  celldm(3)=   0.000000
     celldm(4)=   0.000000  celldm(5)=   0.000000  celldm(6)=   0.000000

     crystal axes: (cart. coord. in units of alat)
               a(1) = (   1.000000   0.000000   0.000000 )
               a(2) = (   0.000000   1.053879   0.000000 )
               a(3) = (   0.000000   0.000000   1.000000 )

     reciprocal axes: (cart. coord. in units 2 pi/alat)
               b(1) = (  1.000000  0.000000  0.000000 )
               b(2) = (  0.000000  0.948876  0.000000 )
               b(3) = (  0.000000  0.000000  1.000000 )

     PseudoPot. # 1 for Fe read from file:
     /rds/homes/b/bxp912/pp/Fe.pbe-spn-kjpaw_psl.1.0.0.UPF
     MD5 check sum: 42f43b795421b414b0dc916aa790dbcb
     Pseudo is Projector augmented-wave + core cor, Zval = 16.0
     Generated using &quot;atomic&quot; code by A. Dal Corso  v.6.3
     Shape of augmentation charge: PSQ
     Using radial grid of 1191 points,  6 beta functions with:
                l(1) =   0
                l(2) =   0
                l(3) =   1
                l(4) =   1
                l(5) =   2
                l(6) =   2
     Q(r) pseudized with 0 coefficients

     PseudoPot. # 2 for Fe read from file:
     /rds/homes/b/bxp912/pp/Fe.pbe-spn-kjpaw_psl.1.0.0.UPF
     MD5 check sum: 42f43b795421b414b0dc916aa790dbcb
     Pseudo is Projector augmented-wave + core cor, Zval = 16.0
     Generated using &quot;atomic&quot; code by A. Dal Corso  v.6.3
     Shape of augmentation charge: PSQ
     Using radial grid of 1191 points,  6 beta functions with:
                l(1) =   0
                l(2) =   0
                l(3) =   1
                l(4) =   1
                l(5) =   2
                l(6) =   2
     Q(r) pseudized with 0 coefficients

     PseudoPot. # 3 for Ru read from file:
     /rds/homes/b/bxp912/pp/Ru.pbe-spn-kjpaw_psl.1.0.0.UPF
     MD5 check sum: 0ae1f594dea09af7be8575c3a481d1ae
     Pseudo is Projector augmented-wave + core cor, Zval = 16.0
     Generated using "atomic" code by A. Dal Corso  v.5.1
     Shape of augmentation charge: PSQ
     Using radial grid of 1233 points,  6 beta functions with:
                l(1) =   0
                l(2) =   0
                l(3) =   1
                l(4) =   1
                l(5) =   2
                l(6) =   2
     Q(r) pseudized with 0 coefficients

     atomic species   valence    mass     pseudopotential
        Fe1           16.00    55.84500     Fe( 1.00)
        Fe2           16.00    55.84500     Fe( 1.00)
        Ru            16.00   101.07000     Ru( 1.00)

     Starting magnetic structure
     atomic species   magnetization
        Fe1          0.100
        Fe2         -0.100
        Ru           0.010

     No symmetry found

   Cartesian axes

     site n.     atom                  positions (alat units)
         1           Ru  tau(   1) = (  -0.0003160   0.0000400  -0.0004115  )
         2           Fe2 tau(   2) = (   0.2552108   0.2689456   0.0000000  )
         3           Fe1 tau(   3) = (   0.2570288   0.0000000   0.2570288  )
         4           Fe2 tau(   4) = (   0.0000000   0.2689456   0.2552108  )
         5           Fe1 tau(   5) = (   0.0000000   0.0000000   0.5000000  )
         6           Fe2 tau(   6) = (   0.2504870   0.2644622   0.5000000  )
         7           Fe1 tau(   7) = (   0.2570288   0.0000000   0.7429712  )
         8           Fe2 tau(   8) = (   0.0000000   0.2689456   0.7447892  )
         9           Fe1 tau(   9) = (   0.0000000   0.5269394   0.0000000  )
        10           Fe2 tau(  10) = (   0.2552108   0.7849332   0.0000000  )
        11           Fe1 tau(  11) = (   0.2508487   0.5269394   0.2508487  )
        12           Fe2 tau(  12) = (   0.0000000   0.7849332   0.2552108  )
        13           Fe1 tau(  13) = (   0.0000000   0.5269394   0.5000000  )
        14           Fe2 tau(  14) = (   0.2504870   0.7894166   0.5000000  )
        15           Fe1 tau(  15) = (   0.2508487   0.5269394   0.7491513  )
        16           Fe2 tau(  16) = (   0.0000000   0.7849332   0.7447892  )
        17           Fe1 tau(  17) = (   0.5000000   0.0000000   0.0000000  )
        18           Fe2 tau(  18) = (   0.7447892   0.2689456   0.0000000  )
        19           Fe1 tau(  19) = (   0.7429712   0.0000000   0.2570288  )
        20           Fe2 tau(  20) = (   0.5000000   0.2644622   0.2504870  )
        21           Fe1 tau(  21) = (   0.5000000   0.0000000   0.5000000  )
        22           Fe2 tau(  22) = (   0.7495130   0.2644622   0.5000000  )
        23           Fe1 tau(  23) = (   0.7429712   0.0000000   0.7429712  )
        24           Fe2 tau(  24) = (   0.5000000   0.2644622   0.7495130  )
        25           Fe1 tau(  25) = (   0.5000000   0.5269394   0.0000000  )
        26           Fe2 tau(  26) = (   0.7447892   0.7849332   0.0000000  )
        27           Fe1 tau(  27) = (   0.7491513   0.5269394   0.2508487  )
        28           Fe2 tau(  28) = (   0.5000000   0.7894166   0.2504870  )
        29           Fe1 tau(  29) = (   0.5000000   0.5269394   0.5000000  )
        30           Fe2 tau(  30) = (   0.7495130   0.7894166   0.5000000  )
        31           Fe1 tau(  31) = (   0.7491513   0.5269394   0.7491513  )
        32           Fe2 tau(  32) = (   0.5000000   0.7894166   0.7495130  )

     number of k points=   365  Marzari-Vanderbilt smearing, width (Ry)=  0.0400

     Number of k-points >= 100: set verbosity='high' to print them.

     Check: negative core charge=   -0.000006
     Generating pointlists ...
     new r_m :   0.1417 (alat units)  1.8451 (a.u.) for type    1
     new r_m :   0.1445 (alat units)  1.8808 (a.u.) for type    2
     new r_m :   0.1497 (alat units)  1.9491 (a.u.) for type    3

     Initial potential from superposition of free atoms

     starting charge  511.98580, renormalised to  512.00000
     Starting wfcs are  320 randomized atomic wfcs
     Checking if some PAW data can be deallocated...

     Self-consistent Calculation

     iteration #  1     ecut=    71.00 Ry     beta= 0.30
     Davidson diagonalization with overlap
     ethr =  1.00E-02,  avg # of iterations =  4.8

     negative rho (up, down):  1.698E-02 5.596E-02

     total energy              =  -10638.26016852 Ry
     estimated scf accuracy    <      11.37967392 Ry

     total magnetization       =    -1.22 Bohr mag/cell
     absolute magnetization    =    51.13 Bohr mag/cell

[...]

     iteration #  5     ecut=    71.00 Ry     beta= 0.30
     Davidson diagonalization with overlap
     c_bands:  1 eigenvalues not converged
     c_bands:  1 eigenvalues not converged
     c_bands:  1 eigenvalues not converged
     c_bands:  1 eigenvalues not converged
     c_bands:  1 eigenvalues not converged
     ethr =  1.01E-04,  avg # of iterations =  4.7

[...]

     negative rho (up, down):  0.000E+00 9.641E-05

[...]

     iteration # 15     ecut=    71.00 Ry     beta= 0.30
     Davidson diagonalization with overlap
     c_bands:  1 eigenvalues not converged
     ethr =  6.02E-08,  avg # of iterations =  4.7

[...]

     total energy              =  -10638.64846657 Ry
     estimated scf accuracy    <       0.00000001 Ry

[...]

     iteration # 41     ecut=    71.00 Ry     beta= 0.30
     Davidson diagonalization with overlap
     ethr =  2.14E-12,  avg # of iterations =  4.8

     Magnetic moment per site:
     atom:    1    charge:   13.4979    magn:    0.1806    constr:    0.0000
     atom:    2    charge:   14.3493    magn:   -1.5527    constr:    0.0000
     atom:    3    charge:   14.2308    magn:    1.7437    constr:    0.0000
     atom:    4    charge:   14.3493    magn:   -1.5533    constr:    0.0000
     atom:    5    charge:   14.2320    magn:    1.4312    constr:    0.0000
     atom:    6    charge:   14.3667    magn:   -1.4798    constr:    0.0000
     atom:    7    charge:   14.2315    magn:    1.7431    constr:    0.0000
     atom:    8    charge:   14.3499    magn:   -1.5493    constr:    0.0000
     atom:    9    charge:   14.2316    magn:    1.4770    constr:    0.0000
     atom:   10    charge:   14.3493    magn:   -1.5530    constr:    0.0000
     atom:   11    charge:   14.2420    magn:    1.5777    constr:    0.0000
     atom:   12    charge:   14.3492    magn:   -1.5534    constr:    0.0000
     atom:   13    charge:   14.2631    magn:    1.2004    constr:    0.0000
     atom:   14    charge:   14.3667    magn:   -1.4800    constr:    0.0000
     atom:   15    charge:   14.2419    magn:    1.5784    constr:    0.0000
     atom:   16    charge:   14.3499    magn:   -1.5494    constr:    0.0000
     atom:   17    charge:   14.2320    magn:    1.4314    constr:    0.0000
     atom:   18    charge:   14.3498    magn:   -1.5498    constr:    0.0000
     atom:   19    charge:   14.2313    magn:    1.7432    constr:    0.0000
     atom:   20    charge:   14.3667    magn:   -1.4799    constr:    0.0000
     atom:   21    charge:   14.2738    magn:    1.5351    constr:    0.0000
     atom:   22    charge:   14.3667    magn:   -1.4802    constr:    0.0000
     atom:   23    charge:   14.2320    magn:    1.7428    constr:    0.0000
     atom:   24    charge:   14.3667    magn:   -1.4804    constr:    0.0000
     atom:   25    charge:   14.2631    magn:    1.2001    constr:    0.0000
     atom:   26    charge:   14.3498    magn:   -1.5500    constr:    0.0000
     atom:   27    charge:   14.2419    magn:    1.5784    constr:    0.0000
     atom:   28    charge:   14.3667    magn:   -1.4799    constr:    0.0000
     atom:   29    charge:   14.2424    magn:    1.4798    constr:    0.0000
     atom:   30    charge:   14.3667    magn:   -1.4804    constr:    0.0000
     atom:   31    charge:   14.2419    magn:    1.5791    constr:    0.0000
     atom:   32    charge:   14.3667    magn:   -1.4804    constr:    0.0000

     End of self-consistent calculation

     Number of k-points >= 100: set verbosity='high' to print the bands.

     the Fermi energy is    20.0605 ev

!    total energy              =  -10638.64846660 Ry

     total all-electron energy =    -87974.353190 Ry
     estimated scf accuracy    <          6.5E-09 Ry
     smearing contrib. (-TS)   =       0.01401861 Ry
     internal energy E=F+TS    =  -10638.66248521 Ry

     The total energy is F=E-TS. E is the sum of the following terms:
     one-electron contribution =   -3262.12439787 Ry
     hartree contribution      =    1980.69280283 Ry
     xc contribution           =    -888.18094550 Ry
     ewald contribution        =   -5665.12677768 Ry
     one-center paw contrib.   =   -2803.92316698 Ry

     total magnetization       =    -0.86 Bohr mag/cell
     absolute magnetization    =    49.58 Bohr mag/cell

     convergence has been achieved in  41 iterations

     Forces acting on atoms (cartesian axes, Ry/au):

     atom    1 type  3   force =     0.00111346   -0.00012255    0.00145268
     atom    2 type  2   force =    -0.01106547   -0.00959822   -0.00002533
     atom    3 type  1   force =    -0.01047533    0.00000175   -0.01046605
     atom    4 type  2   force =    -0.00001679   -0.00963325   -0.01107960
     atom    5 type  1   force =     0.00000432    0.00001280   -0.00004300
     atom    6 type  2   force =    -0.00021776    0.00047516   -0.00004490
     atom    7 type  1   force =    -0.01015279   -0.00000054    0.01021304
     atom    8 type  2   force =    -0.00001316   -0.00937517    0.01094861
     atom    9 type  1   force =     0.00000529    0.00000392    0.00000116
     atom   10 type  2   force =    -0.01108032    0.00962244   -0.00002515
     atom   11 type  1   force =    -0.00036990   -0.00000351   -0.00038192
     atom   12 type  2   force =    -0.00002056    0.00965255   -0.01109861
     atom   13 type  1   force =     0.00001000    0.00001191   -0.00007758
     atom   14 type  2   force =    -0.00021801   -0.00048032   -0.00004088
     atom   15 type  1   force =    -0.00039538   -0.00000013    0.00035922
     atom   16 type  2   force =    -0.00001544    0.00939490    0.01096535
     atom   17 type  1   force =    -0.00003397   -0.00000262    0.00001235
     atom   18 type  2   force =     0.01096262   -0.00939727   -0.00003110
     atom   19 type  1   force =     0.01028340    0.00000387   -0.01022114
     atom   20 type  2   force =    -0.00003683    0.00047513   -0.00021710
     atom   21 type  1   force =    -0.00017268   -0.00000143   -0.00021806
     atom   22 type  2   force =     0.00020958    0.00048796   -0.00004730
     atom   23 type  1   force =     0.00994716   -0.00000359    0.00995576
     atom   24 type  2   force =    -0.00003728    0.00048724    0.00020222
     atom   25 type  1   force =    -0.00006649    0.00001058    0.00001111
     atom   26 type  2   force =     0.01098244    0.00942216   -0.00002268
     atom   27 type  1   force =     0.00035840   -0.00000025   -0.00040370
     atom   28 type  2   force =    -0.00003741   -0.00047257   -0.00021380
     atom   29 type  1   force =    -0.00000385   -0.00000624   -0.00000871
     atom   30 type  2   force =     0.00020740   -0.00048456   -0.00004210
     atom   31 type  1   force =     0.00037945    0.00000083    0.00037898
     atom   32 type  2   force =    -0.00003409   -0.00048097    0.00020823

     Total force =     0.050376     Total SCF correction =     0.000168

     Computing stress (Cartesian axis) and pressure

          total   stress  (Ry/bohr**3)                   (kbar)     P=      -10.53
  -0.00006869  -0.00000000   0.00000001          -10.10       -0.00        0.00
  -0.00000000  -0.00007723  -0.00000000           -0.00      -11.36       -0.00
   0.00000001  -0.00000000  -0.00006884            0.00       -0.00      -10.13

     Writing output data file /scratch/bxp912/feru03.save/

     General routines

     Parallel routines

   This run was terminated on:  16:15:50  23May2022

   JOB DONE.