     Program PWSCF v.6.7MaX starts on 24Apr2022 at 16: 0:52

     R & G space division:  proc/nbgrp/npool/nimage =      72
     Reading input from feru_relax_2.in

     Current dimensions of program PWSCF are:
     Max number of different atomic species (ntypx) = 10
     Max number of k-points (npk) =  40000
     Max angular momentum in pseudopotentials (lmaxx) =  3
     file Fe.pbe-spn-kjpaw_psl.1.0.0.UPF: wavefunction(s)  3P 3D renormalized
     file Fe.pbe-spn-kjpaw_psl.1.0.0.UPF: wavefunction(s)  3P 3D renormalized
     file Ru.pbe-spn-kjpaw_psl.1.0.0.UPF: wavefunction(s)  4D renormalized

     Subspace diagonalization in iterative solution of the eigenvalue problem:
     one sub-group per band group will be used

     Message from routine setup:
     using ibrav=0 with symmetry is DISCOURAGED, use correct ibrav instead

     bravais-lattice index     =            0
     lattice parameter (alat)  =      13.0000  a.u.
     unit-cell volume          =    2313.3941 (a.u.)^3
     number of atoms/cell      =           32
     number of atomic types    =            3
     number of electrons       =       512.00
     number of Kohn-Sham states=          307
     kinetic-energy cutoff     =      71.0000  Ry
     charge density cutoff     =     430.0000  Ry
     scf convergence threshold =      1.0E-08
     mixing beta               =       0.3000
     number of iterations used =           10  local-TF  mixing
     energy convergence thresh.=      1.0E-04
     force convergence thresh. =      1.0E-03
     press convergence thresh. =      5.0E-01
     Exchange-correlation= SLA  PW   PBX  PBC
                           (   1   4   3   4   0   0   0)
     nstep                     =           40

     celldm(1)=  13.000000  celldm(2)=   0.000000  celldm(3)=   0.000000
     celldm(4)=   0.000000  celldm(5)=   0.000000  celldm(6)=   0.000000

     crystal axes: (cart. coord. in units of alat)
               a(1) = (   1.000000   0.000000   0.000000 )
               a(2) = (   0.000000   1.052979   0.000000 )
               a(3) = (   0.000000   0.000000   1.000000 )

     reciprocal axes: (cart. coord. in units 2 pi/alat)
               b(1) = (  1.000000  0.000000  0.000000 )
               b(2) = (  0.000000  0.949687  0.000000 )
               b(3) = (  0.000000  0.000000  1.000000 )

     PseudoPot. # 1 for Fe read from file:
     /rds/homes/b/bxp912/pp/Fe.pbe-spn-kjpaw_psl.1.0.0.UPF
     MD5 check sum: 42f43b795421b414b0dc916aa790dbcb
     Pseudo is Projector augmented-wave + core cor, Zval = 16.0
     Generated using &quot;atomic&quot; code by A. Dal Corso  v.6.3
     Shape of augmentation charge: PSQ
     Using radial grid of 1191 points,  6 beta functions with:
                l(1) =   0
                l(2) =   0
                l(3) =   1
                l(4) =   1
                l(5) =   2
                l(6) =   2
     Q(r) pseudized with 0 coefficients

[...]

     PseudoPot. # 3 for Ru read from file:
     /rds/homes/b/bxp912/pp/Ru.pbe-spn-kjpaw_psl.1.0.0.UPF
     MD5 check sum: 0ae1f594dea09af7be8575c3a481d1ae
     Pseudo is Projector augmented-wave + core cor, Zval = 16.0
     Generated using "atomic" code by A. Dal Corso  v.5.1
     Shape of augmentation charge: PSQ
     Using radial grid of 1233 points,  6 beta functions with:
                l(1) =   0
                l(2) =   0
                l(3) =   1
                l(4) =   1
                l(5) =   2
                l(6) =   2
     Q(r) pseudized with 0 coefficients

     atomic species   valence    mass     pseudopotential
        Fe1           16.00    55.84500     Fe( 1.00)
        Fe2           16.00    55.84500     Fe( 1.00)
        Ru            16.00   101.07000     Ru( 1.00)

     Starting magnetic structure
     atomic species   magnetization
        Fe1          0.100
        Fe2         -0.100
        Ru           0.010

      2 Sym. Ops. (no inversion) found

   Cartesian axes

     site n.     atom                  positions (alat units)
         1           Ru  tau(   1) = (   0.0000000   0.0000000   0.0000000  )
         2           Ru  tau(   2) = (   0.2524147   0.2659678   0.0000000  )
         3           Ru  tau(   3) = (   0.2548950   0.0000000   0.2548950  )
         4           Ru  tau(   4) = (   0.0000000   0.2659678   0.2524147  )
         5           Fe1 tau(   5) = (   0.0000000   0.0000000   0.5000000  )
         6           Fe2 tau(   6) = (   0.2503874   0.2637919   0.5000000  )
         7           Fe1 tau(   7) = (   0.2548950   0.0000000   0.7451050  )
         8           Fe2 tau(   8) = (   0.0000000   0.2659678   0.7475853  )
         9           Fe1 tau(   9) = (   0.0000000   0.5264893   0.0000000  )
        10           Fe2 tau(  10) = (   0.2524147   0.7870108   0.0000000  )
        11           Fe1 tau(  11) = (   0.2503991   0.5264893   0.2503991  )
        12           Fe2 tau(  12) = (   0.0000000   0.7870108   0.2524147  )
        13           Fe1 tau(  13) = (   0.0000000   0.5264893   0.5000000  )
        14           Fe2 tau(  14) = (   0.2503874   0.7891868   0.5000000  )
        15           Fe1 tau(  15) = (   0.2503991   0.5264893   0.7496009  )
        16           Fe2 tau(  16) = (   0.0000000   0.7870108   0.7475853  )
        17           Fe1 tau(  17) = (   0.5000000   0.0000000   0.0000000  )
        18           Fe2 tau(  18) = (   0.7475853   0.2659678   0.0000000  )
        19           Fe1 tau(  19) = (   0.7451050   0.0000000   0.2548950  )
        20           Fe2 tau(  20) = (   0.5000000   0.2637919   0.2503874  )
        21           Fe1 tau(  21) = (   0.5000000   0.0000000   0.5000000  )
        22           Fe2 tau(  22) = (   0.7496126   0.2637919   0.5000000  )
        23           Fe1 tau(  23) = (   0.7451050   0.0000000   0.7451050  )
        24           Fe2 tau(  24) = (   0.5000000   0.2637919   0.7496126  )
        25           Fe1 tau(  25) = (   0.5000000   0.5264893   0.0000000  )
        26           Fe2 tau(  26) = (   0.7475853   0.7870108   0.0000000  )
        27           Fe1 tau(  27) = (   0.7496009   0.5264893   0.2503991  )
        28           Fe2 tau(  28) = (   0.5000000   0.7891868   0.2503874  )
        29           Fe1 tau(  29) = (   0.5000000   0.5264893   0.5000000  )
        30           Fe2 tau(  30) = (   0.7496126   0.7891868   0.5000000  )
        31           Fe1 tau(  31) = (   0.7496009   0.5264893   0.7496009  )
        32           Fe2 tau(  32) = (   0.5000000   0.7891868   0.7496126  )

     number of k points=   205  Marzari-Vanderbilt smearing, width (Ry)=  0.0400

     Number of k-points >= 100: set verbosity='high' to print them.

     Check: negative core charge=   -0.000005
     Generating pointlists ...
     new r_m :   0.1430 (alat units)  1.8588 (a.u.) for type    1
     new r_m :   0.1453 (alat units)  1.8883 (a.u.) for type    2
     new r_m :   0.1430 (alat units)  1.8588 (a.u.) for type    3

     Initial potential from superposition of free atoms

     starting charge  511.98520, renormalised to  512.00000
     Starting wfcs are  320 randomized atomic wfcs
     Checking if some PAW data can be deallocated...

     Self-consistent Calculation

     iteration #  1     ecut=    71.00 Ry     beta= 0.30
     Davidson diagonalization with overlap
     ethr =  1.00E-02,  avg # of iterations =  3.7

     Threshold (ethr) on eigenvalues was too large:
     Diagonalizing with lowered threshold

     Davidson diagonalization with overlap
     ethr =  6.32E-04,  avg # of iterations =  6.0

     negative rho (up, down):  2.457E-02 6.571E-03

     total energy              =  -10945.31186643 Ry
     estimated scf accuracy    <       7.26875351 Ry

     total magnetization       =     0.12 Bohr mag/cell
     absolute magnetization    =    44.08 Bohr mag/cell

[...]

     iteration #  4     ecut=    71.00 Ry     beta= 0.30
     Davidson diagonalization with overlap
     c_bands:  1 eigenvalues not converged
     c_bands:  1 eigenvalues not converged
     ethr =  1.33E-04,  avg # of iterations =  2.5

[...]

     Magnetic moment per site:
     atom:    1    charge:   13.1618    magn:    0.1635    constr:    0.0000
     atom:    2    charge:   13.1921    magn:   -0.1733    constr:    0.0000
     atom:    3    charge:   13.1936    magn:    0.1846    constr:    0.0000
     atom:    4    charge:   13.1921    magn:   -0.1733    constr:    0.0000
     atom:    5    charge:   14.3207    magn:    1.4443    constr:    0.0000
     atom:    6    charge:   14.4366    magn:   -1.3840    constr:    0.0000
     atom:    7    charge:   14.3117    magn:    1.4933    constr:    0.0000
     atom:    8    charge:   14.4098    magn:   -1.4876    constr:    0.0000
     atom:    9    charge:   14.3198    magn:    1.3650    constr:    0.0000
     atom:   10    charge:   14.4052    magn:   -1.4489    constr:    0.0000
     atom:   11    charge:   14.3287    magn:    1.3292    constr:    0.0000
     atom:   12    charge:   14.4052    magn:   -1.4489    constr:    0.0000
     atom:   13    charge:   14.3163    magn:    1.3785    constr:    0.0000
     atom:   14    charge:   14.4127    magn:   -1.4286    constr:    0.0000
     atom:   15    charge:   14.3101    magn:    1.4235    constr:    0.0000
     atom:   16    charge:   14.3883    magn:   -1.5281    constr:    0.0000
     atom:   17    charge:   14.3207    magn:    1.4443    constr:    0.0000
     atom:   18    charge:   14.4098    magn:   -1.4876    constr:    0.0000
     atom:   19    charge:   14.3117    magn:    1.4933    constr:    0.0000
     atom:   20    charge:   14.4366    magn:   -1.3840    constr:    0.0000
     atom:   21    charge:   14.3352    magn:    1.5669    constr:    0.0000
     atom:   22    charge:   14.4129    magn:   -1.5769    constr:    0.0000
     atom:   23    charge:   14.2929    magn:    1.6652    constr:    0.0000
     atom:   24    charge:   14.4129    magn:   -1.5769    constr:    0.0000
     atom:   25    charge:   14.3163    magn:    1.3785    constr:    0.0000
     atom:   26    charge:   14.3883    magn:   -1.5281    constr:    0.0000
     atom:   27    charge:   14.3101    magn:    1.4235    constr:    0.0000
     atom:   28    charge:   14.4127    magn:   -1.4286    constr:    0.0000
     atom:   29    charge:   14.2865    magn:    1.5751    constr:    0.0000
     atom:   30    charge:   14.3894    magn:   -1.5337    constr:    0.0000
     atom:   31    charge:   14.2886    magn:    1.5304    constr:    0.0000
     atom:   32    charge:   14.3894    magn:   -1.5337    constr:    0.0000

     End of self-consistent calculation

     Number of k-points >= 100: set verbosity='high' to print the bands.

     the Fermi energy is    21.2412 ev

!    total energy              =  -10945.75217075 Ry

     total all-electron energy =   -107524.103889 Ry
     estimated scf accuracy    <          5.8E-09 Ry
     smearing contrib. (-TS)   =       0.01096874 Ry
     internal energy E=F+TS    =  -10945.76313948 Ry

     The total energy is F=E-TS. E is the sum of the following terms:
     one-electron contribution =   -2960.72233312 Ry
     hartree contribution      =    1852.82540104 Ry
     xc contribution           =    -893.06106919 Ry
[...]
Fe1           0.5010135270        0.5011930306        0.5010135270
Fe2           0.7489318830        0.7487642408        0.5010281551
Fe1           0.7489800054        0.5012095441        0.7489800054
Fe2           0.5010281551        0.7487642408        0.7489318830

     Writing output data file /scratch/bxp912/feru_relax_2.save/
     NEW-OLD atomic charge density approx. for the potential

     Check: negative core charge=   -0.000006
     extrapolated charge  511.91794, renormalised to  512.00000
     Generating pointlists ...

[...]

     Energy error            =      9.7E-06
     Gradient error          =      4.5E-04
     Cell gradient error     =      2.4E-06

     bfgs converged in   8 scf cycles and   7 bfgs steps
     (criteria: energy <  1.0E-04 Ry, force <  1.0E-03Ry/Bohr, cell <  5.0E-01kbar)

     End of BFGS Geometry Optimization

     Final enthalpy =  -10945.8158649211 Ry

     File /scratch/bxp912/feru_relax_2.bfgs deleted, as requested
Begin final coordinates
     new unit-cell volume =   2400.25000 a.u.^3 (   355.68035 Ang^3 )
     density =      9.18758 g/cm^3

CELL_PARAMETERS (alat= 13.00000000)
   1.014108311   0.000006498   0.000001520
   0.000006718   1.062325821   0.000006718
   0.000001520   0.000006498   1.014108311

ATOMIC_POSITIONS (crystal)
Ru           -0.0071690636       -0.0050020058       -0.0071690636
Ru            0.2570685680        0.2548491337       -0.0071350957
Ru            0.2570570237       -0.0049395964        0.2570570237
Ru           -0.0071350957        0.2548491337        0.2570685680
Fe1          -0.0049503054       -0.0026928910        0.5055637074
Fe2           0.2550187623        0.2527651602        0.5054582338
Fe1           0.2550209607       -0.0026529726        0.7445642645
Fe2          -0.0049444649        0.2527104562        0.7445093302
Fe1          -0.0021005422        0.5038276472       -0.0021005422
Fe2           0.2522273743        0.7462267123       -0.0021144677
Fe1           0.2521979876        0.5037472118        0.2521979876
Fe2          -0.0021144677        0.7462267123        0.2522273743
Fe1          -0.0010065123        0.5036076871        0.5025193181
Fe2           0.2510896704        0.7462720844        0.5025478373
Fe1           0.2510712999        0.5037124390        0.7473733351
Fe2          -0.0009906922        0.7462853729        0.7473318823
Fe1           0.5055637074       -0.0026928910       -0.0049503054
Fe2           0.7445093302        0.2527104562       -0.0049444649
Fe1           0.7445642645       -0.0026529726        0.2550209607
Fe2           0.5054582338        0.2527651602        0.2550187623
Fe1           0.5049990691       -0.0010758553        0.5049990691
Fe2           0.7449024179        0.2511840388        0.5050788048
Fe1           0.7448577263       -0.0010228995        0.7448577263
Fe2           0.5050788048        0.2511840388        0.7449024179
Fe1           0.5025193181        0.5036076871       -0.0010065123
Fe2           0.7473318823        0.7462853729       -0.0009906922
Fe1           0.7473733351        0.5037124390        0.2510712999
Fe2           0.5025478373        0.7462720844        0.2510896704
Fe1           0.5010135270        0.5011930306        0.5010135270
Fe2           0.7489318830        0.7487642408        0.5010281551
Fe1           0.7489800054        0.5012095441        0.7489800054
Fe2           0.5010281551        0.7487642408        0.7489318830
End final coordinates

     Writing output data file /scratch/bxp912/feru_relax_2.save/

     Final scf calculation at the relaxed structure.
     The G-vectors are recalculated for the final unit cell
     Results may differ from those at the preceding step.

     bravais-lattice index     =            0
     lattice parameter (alat)  =      13.0000  a.u.
     unit-cell volume          =    2400.2500 (a.u.)^3
     number of atoms/cell      =           32
     number of atomic types    =            3
     number of electrons       =       512.00
     number of Kohn-Sham states=          307
     kinetic-energy cutoff     =      71.0000  Ry
     charge density cutoff     =     430.0000  Ry
     scf convergence threshold =      1.0E-10
     mixing beta               =       0.3000
     number of iterations used =           10  local-TF  mixing
     press convergence thresh. =      5.0E-01
     Exchange-correlation= SLA  PW   PBX  PBC
                           (   1   4   3   4   0   0   0)

     celldm(1)=  13.000000  celldm(2)=   0.000000  celldm(3)=   0.000000
     celldm(4)=   0.000000  celldm(5)=   0.000000  celldm(6)=   0.000000

     crystal axes: (cart. coord. in units of alat)
               a(1) = (   1.014108   0.000006   0.000002 )
               a(2) = (   0.000007   1.062326   0.000007 )
               a(3) = (   0.000002   0.000006   1.014108 )

     reciprocal axes: (cart. coord. in units 2 pi/alat)
               b(1) = (  0.986088 -0.000006 -0.000001 )
               b(2) = ( -0.000006  0.941331 -0.000006 )
               b(3) = ( -0.000001 -0.000006  0.986088 )

[...]

     PseudoPot. # 2 for Fe read from file:
     /rds/homes/b/bxp912/pp/Fe.pbe-spn-kjpaw_psl.1.0.0.UPF
     MD5 check sum: 42f43b795421b414b0dc916aa790dbcb
     Pseudo is Projector augmented-wave + core cor, Zval = 16.0
     Generated using &quot;atomic&quot; code by A. Dal Corso  v.6.3
     Shape of augmentation charge: PSQ
     Using radial grid of 1191 points,  6 beta functions with:
                l(1) =   0
                l(2) =   0
                l(3) =   1
                l(4) =   1
                l(5) =   2
                l(6) =   2
     Q(r) pseudized with 0 coefficients

     PseudoPot. # 3 for Ru read from file:
     /rds/homes/b/bxp912/pp/Ru.pbe-spn-kjpaw_psl.1.0.0.UPF
     MD5 check sum: 0ae1f594dea09af7be8575c3a481d1ae
     Pseudo is Projector augmented-wave + core cor, Zval = 16.0
     Generated using "atomic" code by A. Dal Corso  v.5.1
     Shape of augmentation charge: PSQ
     Using radial grid of 1233 points,  6 beta functions with:
                l(1) =   0
                l(2) =   0
                l(3) =   1
                l(4) =   1
                l(5) =   2
                l(6) =   2
     Q(r) pseudized with 0 coefficients

     atomic species   valence    mass     pseudopotential
        Fe1           16.00    55.84500     Fe( 1.00)
        Fe2           16.00    55.84500     Fe( 1.00)
        Ru            16.00   101.07000     Ru( 1.00)

     Starting magnetic structure
     atomic species   magnetization
        Fe1          0.111
        Fe2         -0.111
        Ru           0.000

      2 Sym. Ops. (no inversion) found

   Cartesian axes

     site n.     atom                  positions (alat units)
         1           Ru  tau(   1) = (  -0.0072703  -0.0053139  -0.0072703  )
         2           Ru  tau(   2) = (   0.2606971   0.2707344  -0.0072337  )
         3           Ru  tau(   3) = (   0.2606840  -0.0052441   0.2606840  )
         4           Ru  tau(   4) = (  -0.0072337   0.2707344   0.2606971  )
         5           Fe1 tau(   5) = (  -0.0050194  -0.0028575   0.5126963  )
         6           Fe2 tau(   6) = (   0.2586191   0.2685239   0.5125915  )
         7           Fe1 tau(   7) = (   0.2586200  -0.0028118   0.7550692  )
         8           Fe2 tau(   8) = (  -0.0050114   0.2684656   0.7550148  )
         9           Fe1 tau(   9) = (  -0.0021268   0.5352291  -0.0021268  )
        10           Fe2 tau(  10) = (   0.2557909   0.7927375  -0.0021389  )
        11           Fe1 tau(  11) = (   0.2557598   0.5351469   0.2557598  )
        12           Fe2 tau(  12) = (  -0.0021389   0.7927375   0.2557909  )
        13           Fe1 tau(  13) = (  -0.0010166   0.5349987   0.5096124  )
        14           Fe2 tau(  14) = (   0.2546379   0.7927890   0.5096433  )
        15           Fe1 tau(  15) = (   0.2546180   0.5351132   0.7579213  )
        16           Fe2 tau(  16) = (  -0.0009985   0.7928031   0.7578805  )
        17           Fe1 tau(  17) = (   0.5126963  -0.0028575  -0.0050194  )
        18           Fe2 tau(  18) = (   0.7550148   0.2684656  -0.0050114  )
        19           Fe1 tau(  19) = (   0.7550692  -0.0028118   0.2586200  )
        20           Fe2 tau(  20) = (   0.5125915   0.2685239   0.2586191  )
        21           Fe1 tau(  21) = (   0.5121245  -0.0011363   0.5121245  )
        22           Fe2 tau(  22) = (   0.7554142   0.2668474   0.5122074  )
        23           Fe1 tau(  23) = (   0.7553675  -0.0010770   0.7553675  )
        24           Fe2 tau(  24) = (   0.5122074   0.2668474   0.7554142  )
        25           Fe1 tau(  25) = (   0.5096124   0.5349987  -0.0010166  )
        26           Fe2 tau(  26) = (   0.7578805   0.7928031  -0.0009985  )
        27           Fe1 tau(  27) = (   0.7579213   0.5351132   0.2546180  )
        28           Fe2 tau(  28) = (   0.5096433   0.7927890   0.2546379  )
        29           Fe1 tau(  29) = (   0.5080861   0.5324368   0.5080861  )
        30           Fe2 tau(  30) = (   0.7595038   0.7954397   0.5081030  )
        31           Fe1 tau(  31) = (   0.7595514   0.5324576   0.7595514  )
        32           Fe2 tau(  32) = (   0.5081030   0.7954397   0.7595038  )

     number of k points=   205  Marzari-Vanderbilt smearing, width (Ry)=  0.0400

     Number of k-points >= 100: set verbosity='high' to print them.

     Check: negative core charge=   -0.000005
     Generating pointlists ...

     Initial potential from superposition of free atoms

     starting charge  511.98520, renormalised to  512.00000
     Starting wfcs are  320 randomized atomic wfcs
     Checking if some PAW data can be deallocated...

     Self-consistent Calculation

[...]

     negative rho (up, down):  0.000E+00 1.424E-05

[...]

     iteration # 13     ecut=    71.00 Ry     beta= 0.30
     Davidson diagonalization with overlap
     c_bands:  1 eigenvalues not converged
     ethr =  5.07E-08,  avg # of iterations =  1.7

[...]

     total energy              =  -10945.84134824 Ry
     estimated scf accuracy    <          1.6E-10 Ry

[...]

     iteration # 39     ecut=    71.00 Ry     beta= 0.30
     Davidson diagonalization with overlap
     ethr =  1.00E-13,  avg # of iterations =  2.3

     Magnetic moment per site:
     atom:    1    charge:   13.1015    magn:    0.1776    constr:    0.0000
     atom:    2    charge:   13.1010    magn:   -0.1774    constr:    0.0000
     atom:    3    charge:   13.1004    magn:    0.1775    constr:    0.0000
     atom:    4    charge:   13.1010    magn:   -0.1774    constr:    0.0000
     atom:    5    charge:   14.2599    magn:    1.6810    constr:    0.0000
     atom:    6    charge:   14.2228    magn:   -1.6762    constr:    0.0000
     atom:    7    charge:   14.2593    magn:    1.6807    constr:    0.0000
     atom:    8    charge:   14.2226    magn:   -1.6774    constr:    0.0000
     atom:    9    charge:   14.2578    magn:    1.5627    constr:    0.0000
     atom:   10    charge:   14.2212    magn:   -1.5586    constr:    0.0000
     atom:   11    charge:   14.2588    magn:    1.5602    constr:    0.0000
     atom:   12    charge:   14.2212    magn:   -1.5586    constr:    0.0000
     atom:   13    charge:   14.2759    magn:    1.4794    constr:    0.0000
     atom:   14    charge:   14.2387    magn:   -1.4769    constr:    0.0000
     atom:   15    charge:   14.2764    magn:    1.4791    constr:    0.0000
     atom:   16    charge:   14.2379    magn:   -1.4784    constr:    0.0000
     atom:   17    charge:   14.2599    magn:    1.6810    constr:    0.0000
     atom:   18    charge:   14.2226    magn:   -1.6774    constr:    0.0000
     atom:   19    charge:   14.2593    magn:    1.6807    constr:    0.0000
     atom:   20    charge:   14.2228    magn:   -1.6762    constr:    0.0000
     atom:   21    charge:   14.2939    magn:    1.6889    constr:    0.0000
     atom:   22    charge:   14.2557    magn:   -1.6848    constr:    0.0000
     atom:   23    charge:   14.2935    magn:    1.6891    constr:    0.0000
     atom:   24    charge:   14.2557    magn:   -1.6848    constr:    0.0000
     atom:   25    charge:   14.2759    magn:    1.4794    constr:    0.0000
     atom:   26    charge:   14.2379    magn:   -1.4784    constr:    0.0000
     atom:   27    charge:   14.2764    magn:    1.4791    constr:    0.0000
     atom:   28    charge:   14.2387    magn:   -1.4769    constr:    0.0000
     atom:   29    charge:   14.2704    magn:    1.5534    constr:    0.0000
     atom:   30    charge:   14.2322    magn:   -1.5541    constr:    0.0000
     atom:   31    charge:   14.2700    magn:    1.5563    constr:    0.0000
     atom:   32    charge:   14.2322    magn:   -1.5541    constr:    0.0000

     End of self-consistent calculation

     Number of k-points >= 100: set verbosity='high' to print the bands.

     the Fermi energy is    20.3504 ev

!    total energy              =  -10945.84134824 Ry

     total all-electron energy =   -107524.193066 Ry
     estimated scf accuracy    <          7.6E-11 Ry
     smearing contrib. (-TS)   =       0.00728677 Ry
     internal energy E=F+TS    =  -10945.84863502 Ry

     The total energy is F=E-TS. E is the sum of the following terms:
     one-electron contribution =   -3082.90868685 Ry
     hartree contribution      =    1897.52862841 Ry
     xc contribution           =    -892.17458303 Ry
     ewald contribution        =   -5601.26556769 Ry
     one-center paw contrib.   =   -3267.02842586 Ry

     total magnetization       =    -0.00 Bohr mag/cell
     absolute magnetization    =    47.50 Bohr mag/cell

     convergence has been achieved in  39 iterations

     Forces acting on atoms (cartesian axes, Ry/au):

     atom    1 type  3   force =    -0.00032710    0.00009816   -0.00032710
     atom    2 type  3   force =     0.00044465    0.00015827   -0.00030806
     atom    3 type  3   force =     0.00043026    0.00011942    0.00043026
     atom    4 type  3   force =    -0.00030806    0.00015827    0.00044465
     atom    5 type  1   force =     0.00018596   -0.00026354   -0.00021640
     atom    6 type  2   force =    -0.00022357    0.00004320   -0.00005374
     atom    7 type  1   force =    -0.00006398   -0.00026963   -0.00001670
     atom    8 type  2   force =     0.00011230    0.00024906    0.00013835
     atom    9 type  1   force =     0.00024489   -0.00032861    0.00024489
     atom   10 type  2   force =    -0.00020705    0.00021329    0.00019589
     atom   11 type  1   force =    -0.00019121   -0.00018795   -0.00019121
     atom   12 type  2   force =     0.00019589    0.00021329   -0.00020705
     atom   13 type  1   force =    -0.00003497    0.00009268   -0.00037473
     atom   14 type  2   force =    -0.00005678    0.00010904   -0.00034321
     atom   15 type  1   force =    -0.00004429   -0.00007095    0.00039633
     atom   16 type  2   force =    -0.00004982    0.00004554    0.00038841
     atom   17 type  1   force =    -0.00021640   -0.00026354    0.00018596
     atom   18 type  2   force =     0.00013835    0.00024906    0.00011230
     atom   19 type  1   force =    -0.00001670   -0.00026963   -0.00006398
     atom   20 type  2   force =    -0.00005374    0.00004320   -0.00022357
     atom   21 type  1   force =    -0.00017718   -0.00031567   -0.00017718
     atom   22 type  2   force =     0.00033957    0.00004157   -0.00039128
     atom   23 type  1   force =     0.00031036   -0.00032897    0.00031036
     atom   24 type  2   force =    -0.00039128    0.00004157    0.00033957
     atom   25 type  1   force =    -0.00037473    0.00009268   -0.00003497
     atom   26 type  2   force =     0.00038841    0.00004554   -0.00004982
     atom   27 type  1   force =     0.00039633   -0.00007095   -0.00004429
     atom   28 type  2   force =    -0.00034321    0.00010904   -0.00005678
     atom   29 type  1   force =    -0.00002381    0.00015140   -0.00002381
     atom   30 type  2   force =     0.00000139   -0.00005480   -0.00004944
     atom   31 type  1   force =    -0.00003508    0.00020480   -0.00003508
     atom   32 type  2   force =    -0.00004944   -0.00005480    0.00000139

     Total force =     0.002208     Total SCF correction =     0.000013

     Computing stress (Cartesian axis) and pressure

          total   stress  (Ry/bohr**3)                   (kbar)     P=       -1.61
  -0.00001172  -0.00000009  -0.00000002           -1.72       -0.01       -0.00
  -0.00000009  -0.00000931  -0.00000009           -0.01       -1.37       -0.01
  -0.00000002  -0.00000009  -0.00001172           -0.00       -0.01       -1.72

     Writing output data file /scratch/bxp912/feru_relax_2.save/

     General routines

     Parallel routines

   This run was terminated on:  15:44:11  25Apr2022

   JOB DONE.