     Program PWSCF v.6.7MaX starts on 23May2022 at 15:50:24

     R & G space division:  proc/nbgrp/npool/nimage =      72
     Reading input from feru_06.in
Warning: card &CELL ignored
Warning: card CELL_DYNAMICS = 'BFGS', ignored
Warning: card CELL_FACTOR = 2.0, ignored
Warning: card PRESS = 0.0, ignored
Warning: card / ignored

     Current dimensions of program PWSCF are:
     Max number of different atomic species (ntypx) = 10
     Max number of k-points (npk) =  40000
     Max angular momentum in pseudopotentials (lmaxx) =  3
     file Fe.pbe-spn-kjpaw_psl.1.0.0.UPF: wavefunction(s)  3P 3D renormalized
     file Fe.pbe-spn-kjpaw_psl.1.0.0.UPF: wavefunction(s)  3P 3D renormalized
     file Ru.pbe-spn-kjpaw_psl.1.0.0.UPF: wavefunction(s)  4D renormalized

     Subspace diagonalization in iterative solution of the eigenvalue problem:
     one sub-group per band group will be used

     bravais-lattice index     =            0
     lattice parameter (alat)  =      13.0175  a.u.
     unit-cell volume          =    2324.7211 (a.u.)^3
     number of atoms/cell      =           32
     number of atomic types    =            3
     number of electrons       =       512.00
     number of Kohn-Sham states=          307
     kinetic-energy cutoff     =      71.0000  Ry
     charge density cutoff     =     430.0000  Ry
     scf convergence threshold =      1.0E-08
     mixing beta               =       0.3000
     number of iterations used =           10  local-TF  mixing
     Exchange-correlation= SLA  PW   PBX  PBC
                           (   1   4   3   4   0   0   0)

     celldm(1)=  13.017474  celldm(2)=   0.000000  celldm(3)=   0.000000
     celldm(4)=   0.000000  celldm(5)=   0.000000  celldm(6)=   0.000000

     crystal axes: (cart. coord. in units of alat)
               a(1) = (   1.000000   0.000000   0.000000 )
               a(2) = (   0.000000   1.053879   0.000000 )
               a(3) = (   0.000000   0.000000   1.000000 )

     reciprocal axes: (cart. coord. in units 2 pi/alat)
               b(1) = (  1.000000  0.000000  0.000000 )
               b(2) = (  0.000000  0.948876  0.000000 )
               b(3) = (  0.000000  0.000000  1.000000 )

     PseudoPot. # 1 for Fe read from file:
     /rds/homes/b/bxp912/pp/Fe.pbe-spn-kjpaw_psl.1.0.0.UPF
     MD5 check sum: 42f43b795421b414b0dc916aa790dbcb
     Pseudo is Projector augmented-wave + core cor, Zval = 16.0
     Generated using &quot;atomic&quot; code by A. Dal Corso  v.6.3
     Shape of augmentation charge: PSQ
     Using radial grid of 1191 points,  6 beta functions with:
                l(1) =   0
                l(2) =   0
                l(3) =   1
                l(4) =   1
                l(5) =   2
                l(6) =   2
     Q(r) pseudized with 0 coefficients

     PseudoPot. # 2 for Fe read from file:
     /rds/homes/b/bxp912/pp/Fe.pbe-spn-kjpaw_psl.1.0.0.UPF
     MD5 check sum: 42f43b795421b414b0dc916aa790dbcb
     Pseudo is Projector augmented-wave + core cor, Zval = 16.0
     Generated using &quot;atomic&quot; code by A. Dal Corso  v.6.3
     Shape of augmentation charge: PSQ
     Using radial grid of 1191 points,  6 beta functions with:
                l(1) =   0
                l(2) =   0
                l(3) =   1
                l(4) =   1
                l(5) =   2
                l(6) =   2
     Q(r) pseudized with 0 coefficients

     PseudoPot. # 3 for Ru read from file:
     /rds/homes/b/bxp912/pp/Ru.pbe-spn-kjpaw_psl.1.0.0.UPF
     MD5 check sum: 0ae1f594dea09af7be8575c3a481d1ae
     Pseudo is Projector augmented-wave + core cor, Zval = 16.0
     Generated using "atomic" code by A. Dal Corso  v.5.1
     Shape of augmentation charge: PSQ
     Using radial grid of 1233 points,  6 beta functions with:
                l(1) =   0
                l(2) =   0
                l(3) =   1
                l(4) =   1
                l(5) =   2
                l(6) =   2
     Q(r) pseudized with 0 coefficients

     atomic species   valence    mass     pseudopotential
        Fe1           16.00    55.84500     Fe( 1.00)
        Fe2           16.00    55.84500     Fe( 1.00)
        Ru            16.00   101.07000     Ru( 1.00)

     Starting magnetic structure
     atomic species   magnetization
        Fe1          0.100
        Fe2         -0.100
        Ru           0.010

     No symmetry found

   Cartesian axes

     site n.     atom                  positions (alat units)
         1           Ru  tau(   1) = (  -0.0002609   0.0307617   0.0021716  )
         2           Fe2 tau(   2) = (   0.2552108   0.2689456   0.0000000  )
         3           Fe1 tau(   3) = (   0.2570288   0.0000000   0.2570288  )
         4           Fe2 tau(   4) = (   0.0000000   0.2689456   0.2552108  )
         5           Fe1 tau(   5) = (   0.0000000   0.0000000   0.5000000  )
         6           Fe2 tau(   6) = (   0.2504870   0.2644622   0.5000000  )
         7           Fe1 tau(   7) = (   0.2570288   0.0000000   0.7429712  )
         8           Fe2 tau(   8) = (   0.0000000   0.2689456   0.7447892  )
         9           Fe1 tau(   9) = (   0.0000000   0.5269394   0.0000000  )
        10           Fe2 tau(  10) = (   0.2552108   0.7849332   0.0000000  )
        11           Fe1 tau(  11) = (   0.2508487   0.5269394   0.2508487  )
        12           Fe2 tau(  12) = (   0.0000000   0.7849332   0.2552108  )
        13           Fe1 tau(  13) = (   0.0000000   0.5269394   0.5000000  )
        14           Fe2 tau(  14) = (   0.2504870   0.7894166   0.5000000  )
        15           Fe1 tau(  15) = (   0.2508487   0.5269394   0.7491513  )
        16           Fe2 tau(  16) = (   0.0000000   0.7849332   0.7447892  )
        17           Fe1 tau(  17) = (   0.5000000   0.0000000   0.0000000  )
        18           Fe2 tau(  18) = (   0.7447892   0.2689456   0.0000000  )
        19           Fe1 tau(  19) = (   0.7429712   0.0000000   0.2570288  )
        20           Fe2 tau(  20) = (   0.5000000   0.2644622   0.2504870  )
        21           Fe1 tau(  21) = (   0.5000000   0.0000000   0.5000000  )
        22           Fe2 tau(  22) = (   0.7495130   0.2644622   0.5000000  )
        23           Fe1 tau(  23) = (   0.7429712   0.0000000   0.7429712  )
        24           Fe2 tau(  24) = (   0.5000000   0.2644622   0.7495130  )
        25           Fe1 tau(  25) = (   0.5000000   0.5269394   0.0000000  )
        26           Fe2 tau(  26) = (   0.7447892   0.7849332   0.0000000  )
        27           Fe1 tau(  27) = (   0.7491513   0.5269394   0.2508487  )
        28           Fe2 tau(  28) = (   0.5000000   0.7894166   0.2504870  )
        29           Fe1 tau(  29) = (   0.5000000   0.5269394   0.5000000  )
        30           Fe2 tau(  30) = (   0.7495130   0.7894166   0.5000000  )
        31           Fe1 tau(  31) = (   0.7491513   0.5269394   0.7491513  )
        32           Fe2 tau(  32) = (   0.5000000   0.7894166   0.7495130  )

     number of k points=   365  Marzari-Vanderbilt smearing, width (Ry)=  0.0400

     Number of k-points >= 100: set verbosity='high' to print them.

     Check: negative core charge=   -0.000006
     Generating pointlists ...
     new r_m :   0.1417 (alat units)  1.8451 (a.u.) for type    1
     new r_m :   0.1433 (alat units)  1.8660 (a.u.) for type    2
     new r_m :   0.1433 (alat units)  1.8660 (a.u.) for type    3

     Initial potential from superposition of free atoms

     starting charge  511.98580, renormalised to  512.00000
     Starting wfcs are  320 randomized atomic wfcs
     Checking if some PAW data can be deallocated...

     Self-consistent Calculation

     iteration #  1     ecut=    71.00 Ry     beta= 0.30
     Davidson diagonalization with overlap
     ethr =  1.00E-02,  avg # of iterations =  4.8

     negative rho (up, down):  1.616E-02 5.266E-02

     total energy              =  -10638.28606180 Ry
     estimated scf accuracy    <      11.21268292 Ry

     total magnetization       =    -1.12 Bohr mag/cell
     absolute magnetization    =    50.93 Bohr mag/cell

[...]

     iteration #  5     ecut=    71.00 Ry     beta= 0.30
     Davidson diagonalization with overlap
     c_bands:  1 eigenvalues not converged
     c_bands:  1 eigenvalues not converged
     c_bands:  1 eigenvalues not converged
     c_bands:  1 eigenvalues not converged
     c_bands:  1 eigenvalues not converged
     c_bands:  1 eigenvalues not converged
     c_bands:  1 eigenvalues not converged
     ethr =  9.93E-05,  avg # of iterations =  4.8

[...]

     negative rho (up, down):  2.275E-05 2.145E-04

[...]

     iteration # 30     ecut=    71.00 Ry     beta= 0.30
     Davidson diagonalization with overlap
     c_bands:  1 eigenvalues not converged
     ethr =  3.74E-10,  avg # of iterations =  5.3

[...]

     total energy              =  -10638.62874916 Ry
     estimated scf accuracy    <       0.00000002 Ry

[...]

     iteration # 39     ecut=    71.00 Ry     beta= 0.30
     Davidson diagonalization with overlap
     ethr =  4.61E-12,  avg # of iterations =  5.1

     Magnetic moment per site:
     atom:    1    charge:   13.1400    magn:    0.1413    constr:    0.0000
     atom:    2    charge:   14.3296    magn:   -1.4172    constr:    0.0000
     atom:    3    charge:   14.2331    magn:    1.7122    constr:    0.0000
     atom:    4    charge:   14.3327    magn:   -1.4036    constr:    0.0000
     atom:    5    charge:   14.2317    magn:    1.4381    constr:    0.0000
     atom:    6    charge:   14.3173    magn:   -1.4705    constr:    0.0000
     atom:    7    charge:   14.2298    magn:    1.7139    constr:    0.0000
     atom:    8    charge:   14.3273    magn:   -1.4272    constr:    0.0000
     atom:    9    charge:   14.2309    magn:    1.5135    constr:    0.0000
     atom:   10    charge:   14.2824    magn:   -1.6298    constr:    0.0000
     atom:   11    charge:   14.2427    magn:    1.5610    constr:    0.0000
     atom:   12    charge:   14.2836    magn:   -1.6191    constr:    0.0000
     atom:   13    charge:   14.2621    magn:    1.2533    constr:    0.0000
     atom:   14    charge:   14.3172    magn:   -1.4795    constr:    0.0000
     atom:   15    charge:   14.2428    magn:    1.5567    constr:    0.0000
     atom:   16    charge:   14.2815    magn:   -1.6376    constr:    0.0000
     atom:   17    charge:   14.2317    magn:    1.4385    constr:    0.0000
     atom:   18    charge:   14.3303    magn:   -1.4142    constr:    0.0000
     atom:   19    charge:   14.2335    magn:    1.7119    constr:    0.0000
     atom:   20    charge:   14.3173    magn:   -1.4719    constr:    0.0000
     atom:   21    charge:   14.2725    magn:    1.5498    constr:    0.0000
     atom:   22    charge:   14.3173    magn:   -1.4708    constr:    0.0000
     atom:   23    charge:   14.2302    magn:    1.7137    constr:    0.0000
     atom:   24    charge:   14.3173    magn:   -1.4690    constr:    0.0000
     atom:   25    charge:   14.2622    magn:    1.2528    constr:    0.0000
     atom:   26    charge:   14.2827    magn:   -1.6276    constr:    0.0000
     atom:   27    charge:   14.2427    magn:    1.5617    constr:    0.0000
     atom:   28    charge:   14.3172    magn:   -1.4802    constr:    0.0000
     atom:   29    charge:   14.2417    magn:    1.4969    constr:    0.0000
     atom:   30    charge:   14.3172    magn:   -1.4797    constr:    0.0000
     atom:   31    charge:   14.2428    magn:    1.5573    constr:    0.0000
     atom:   32    charge:   14.3172    magn:   -1.4783    constr:    0.0000

     End of self-consistent calculation

     Number of k-points >= 100: set verbosity='high' to print the bands.

     the Fermi energy is    20.0624 ev

!    total energy              =  -10638.62874927 Ry

     total all-electron energy =    -87974.333472 Ry
     estimated scf accuracy    <          8.9E-09 Ry
     smearing contrib. (-TS)   =       0.01274295 Ry
     internal energy E=F+TS    =  -10638.64149222 Ry

     The total energy is F=E-TS. E is the sum of the following terms:
     one-electron contribution =   -3266.64866511 Ry
     hartree contribution      =    1982.94958244 Ry
     xc contribution           =    -888.19947026 Ry
     ewald contribution        =   -5662.82075632 Ry
     one-center paw contrib.   =   -2803.92218297 Ry

     total magnetization       =    -0.68 Bohr mag/cell
     absolute magnetization    =    49.30 Bohr mag/cell

     convergence has been achieved in  39 iterations

     Forces acting on atoms (cartesian axes, Ry/au):

     atom    1 type  3   force =     0.00104089   -0.10097356   -0.00870710
     atom    2 type  2   force =     0.00263917    0.00160073   -0.00001629
     atom    3 type  1   force =    -0.01044247    0.00077277   -0.01057844
     atom    4 type  2   force =     0.00000746    0.00347596    0.00413507
     atom    5 type  1   force =     0.00000409   -0.00008585    0.00025175
     atom    6 type  2   force =     0.00029380    0.00124432    0.00031716
     atom    7 type  1   force =    -0.01218648    0.00102137    0.01210554
     atom    8 type  2   force =     0.00000579    0.00019857   -0.00150392
     atom    9 type  1   force =     0.00000449    0.00304005   -0.00001781
     atom   10 type  2   force =    -0.01555326    0.01585212    0.00015083
     atom   11 type  1   force =    -0.00010751   -0.00014517    0.00003424
     atom   12 type  2   force =    -0.00001695    0.01567847   -0.01562293
     atom   13 type  1   force =     0.00000784    0.00805420    0.00042008
     atom   14 type  2   force =    -0.00093955    0.00067415    0.00012736
     atom   15 type  1   force =     0.00001792   -0.00027564    0.00009549
     atom   16 type  2   force =    -0.00001501    0.01596217    0.01548793
     atom   17 type  1   force =    -0.00002808   -0.00009445   -0.00007797
     atom   18 type  2   force =    -0.00296107    0.00199501   -0.00002220
     atom   19 type  1   force =     0.01025359    0.00074568   -0.01035766
     atom   20 type  2   force =    -0.00003975    0.00129304    0.00033809
     atom   21 type  1   force =    -0.00012728    0.00136405    0.00103924
     atom   22 type  2   force =    -0.00030451    0.00125811    0.00031731
     atom   23 type  1   force =     0.01201582    0.00099460    0.01191161
     atom   24 type  2   force =    -0.00003822    0.00120079   -0.00025694
     atom   25 type  1   force =    -0.00005012    0.00805091   -0.00005264
     atom   26 type  2   force =     0.01556951    0.01581803    0.00015139
     atom   27 type  1   force =     0.00009440   -0.00012770    0.00001874
     atom   28 type  2   force =    -0.00002121    0.00069409   -0.00090454
     atom   29 type  1   force =    -0.00000468   -0.00036513    0.00001987
     atom   30 type  2   force =     0.00093268    0.00067744    0.00012904
     atom   31 type  1   force =    -0.00003304   -0.00026049    0.00011163
     atom   32 type  2   force =    -0.00001825    0.00066135    0.00095608

     Total force =     0.116057     Total SCF correction =     0.000271

     Computing stress (Cartesian axis) and pressure

          total   stress  (Ry/bohr**3)                   (kbar)     P=       -7.11
  -0.00004928  -0.00000047  -0.00000004           -7.25       -0.07       -0.01
  -0.00000047  -0.00004631   0.00000392           -0.07       -6.81        0.58
  -0.00000004   0.00000392  -0.00004942           -0.01        0.58       -7.27

     Writing output data file /scratch/bxp912/feru06.save/

     General routines

     Parallel routines

   This run was terminated on:  22:36:52  23May2022

   JOB DONE.