     Program PWSCF v.6.7MaX starts on  1Dec2021 at 20:25:22

     R & G space division:  proc/nbgrp/npool/nimage =      72
     Reading input from relax_6.in
Warning: card &CELL ignored
Warning: card CELL_DYNAMICS = 'BFGS', ignored
Warning: card CELL_FACTOR = 2.0, ignored
Warning: card PRESS = 0.0, ignored
Warning: card / ignored

     Current dimensions of program PWSCF are:
     Max number of different atomic species (ntypx) = 10
     Max number of k-points (npk) =  40000
     Max angular momentum in pseudopotentials (lmaxx) =  3
     file Ru.pbe-spn-kjpaw_psl.1.0.0.UPF: wavefunction(s)  4D renormalized

     Subspace diagonalization in iterative solution of the eigenvalue problem:
     one sub-group per band group will be used

     Found symmetry operation: I + (  0.2500  0.2500  0.0000)
     This is a supercell, fractional translations are disabled
     Message from routine setup:
     using ibrav=0 with symmetry is DISCOURAGED, use correct ibrav instead

     bravais-lattice index     =            0
     lattice parameter (alat)  =      14.4007  a.u.
     unit-cell volume          =    3733.0567 (a.u.)^3
     number of atoms/cell      =           32
     number of atomic types    =            1
     number of electrons       =       512.00
     number of Kohn-Sham states=          307
     kinetic-energy cutoff     =      71.0000  Ry
     charge density cutoff     =     430.0000  Ry
     scf convergence threshold =      1.0E-06
     mixing beta               =       0.1000
     number of iterations used =           10  TF        mixing
     energy convergence thresh.=      1.0E-04
     force convergence thresh. =      1.0E-03
     Exchange-correlation= SLA  PW   PBX  PBC
                           (   1   4   3   4   0   0   0)
     nstep                     =           40

     celldm(1)=  14.400742  celldm(2)=   0.000000  celldm(3)=   0.000000
     celldm(4)=   0.000000  celldm(5)=   0.000000  celldm(6)=   0.000000

     crystal axes: (cart. coord. in units of alat)
               a(1) = (   1.000000   0.000000   0.000000 )
               a(2) = (   0.000000   1.000000   0.000000 )
               a(3) = (   0.000000   0.000000   1.250000 )

     reciprocal axes: (cart. coord. in units 2 pi/alat)
               b(1) = (  1.000000  0.000000  0.000000 )
               b(2) = (  0.000000  1.000000  0.000000 )
               b(3) = (  0.000000  0.000000  0.800000 )

     PseudoPot. # 1 for Ru read from file:
     /rds/homes/b/bxp912/pp/Ru.pbe-spn-kjpaw_psl.1.0.0.UPF
     MD5 check sum: 0ae1f594dea09af7be8575c3a481d1ae
     Pseudo is Projector augmented-wave + core cor, Zval = 16.0
     Generated using "atomic" code by A. Dal Corso  v.5.1
     Shape of augmentation charge: PSQ
     Using radial grid of 1233 points,  6 beta functions with:
                l(1) =   0
                l(2) =   0
                l(3) =   1
                l(4) =   1
                l(5) =   2
                l(6) =   2
     Q(r) pseudized with 0 coefficients

     atomic species   valence    mass     pseudopotential
        Ru            16.00   101.07000     Ru( 1.00)

      8 Sym. Ops. (no inversion) found

   Cartesian axes

     site n.     atom                  positions (alat units)
         1           Ru  tau(   1) = (   0.0000000   0.0000000   0.0000000  )
         2           Ru  tau(   2) = (   0.2500000   0.2500000   0.0000000  )
         3           Ru  tau(   3) = (   0.2500000   0.0000000   0.2500000  )
         4           Ru  tau(   4) = (   0.0000000   0.2500000   0.2500000  )
         5           Ru  tau(   5) = (   0.0000000   0.0000000   0.7500000  )
         6           Ru  tau(   6) = (   0.2500000   0.2500000   0.7500000  )
         7           Ru  tau(   7) = (   0.2500000   0.0000000   1.0000000  )
         8           Ru  tau(   8) = (   0.0000000   0.2500000   1.0000000  )
         9           Ru  tau(   9) = (   0.0000000   0.5000000   0.0000000  )
        10           Ru  tau(  10) = (   0.2500000   0.7500000   0.0000000  )
        11           Ru  tau(  11) = (   0.2500000   0.5000000   0.2500000  )
        12           Ru  tau(  12) = (   0.0000000   0.7500000   0.2500000  )
        13           Ru  tau(  13) = (   0.0000000   0.5000000   0.7500000  )
        14           Ru  tau(  14) = (   0.2500000   0.7500000   0.7500000  )
        15           Ru  tau(  15) = (   0.2500000   0.5000000   1.0000000  )
        16           Ru  tau(  16) = (   0.0000000   0.7500000   1.0000000  )
        17           Ru  tau(  17) = (   0.5000000   0.0000000   0.0000000  )
        18           Ru  tau(  18) = (   0.7500000   0.2500000   0.0000000  )
        19           Ru  tau(  19) = (   0.7500000   0.0000000   0.2500000  )
        20           Ru  tau(  20) = (   0.5000000   0.2500000   0.2500000  )
        21           Ru  tau(  21) = (   0.5000000   0.0000000   0.7500000  )
        22           Ru  tau(  22) = (   0.7500000   0.2500000   0.7500000  )
        23           Ru  tau(  23) = (   0.7500000   0.0000000   1.0000000  )
        24           Ru  tau(  24) = (   0.5000000   0.2500000   1.0000000  )
        25           Ru  tau(  25) = (   0.5000000   0.5000000   0.0000000  )
        26           Ru  tau(  26) = (   0.7500000   0.7500000   0.0000000  )
        27           Ru  tau(  27) = (   0.7500000   0.5000000   0.2500000  )
        28           Ru  tau(  28) = (   0.5000000   0.7500000   0.2500000  )
        29           Ru  tau(  29) = (   0.5000000   0.5000000   0.7500000  )
        30           Ru  tau(  30) = (   0.7500000   0.7500000   0.7500000  )
        31           Ru  tau(  31) = (   0.7500000   0.5000000   1.0000000  )
        32           Ru  tau(  32) = (   0.5000000   0.7500000   1.0000000  )

     number of k points=    75  Marzari-Vanderbilt smearing, width (Ry)=  0.0400
                       cart. coord. in units 2pi/alat
        k(    1) = (   0.0555556   0.0555556   0.0444444), wk =   0.0219479
        k(    2) = (   0.0555556   0.0555556   0.1333333), wk =   0.0219479
        k(    3) = (   0.0555556   0.0555556   0.2222222), wk =   0.0219479
        k(    4) = (   0.0555556   0.0555556   0.3111111), wk =   0.0219479
        k(    5) = (   0.0555556   0.0555556  -0.4000000), wk =   0.0109739
        k(    6) = (   0.0555556   0.1666667   0.0444444), wk =   0.0438957
        k(    7) = (   0.0555556   0.1666667   0.1333333), wk =   0.0438957
        k(    8) = (   0.0555556   0.1666667   0.2222222), wk =   0.0438957
        k(    9) = (   0.0555556   0.1666667   0.3111111), wk =   0.0438957
        k(   10) = (   0.0555556   0.1666667  -0.4000000), wk =   0.0219479
        k(   11) = (   0.0555556   0.2777778   0.0444444), wk =   0.0438957
        k(   12) = (   0.0555556   0.2777778   0.1333333), wk =   0.0438957
        k(   13) = (   0.0555556   0.2777778   0.2222222), wk =   0.0438957
        k(   14) = (   0.0555556   0.2777778   0.3111111), wk =   0.0438957
        k(   15) = (   0.0555556   0.2777778  -0.4000000), wk =   0.0219479
        k(   16) = (   0.0555556   0.3888889   0.0444444), wk =   0.0438957
        k(   17) = (   0.0555556   0.3888889   0.1333333), wk =   0.0438957
        k(   18) = (   0.0555556   0.3888889   0.2222222), wk =   0.0438957
        k(   19) = (   0.0555556   0.3888889   0.3111111), wk =   0.0438957
        k(   20) = (   0.0555556   0.3888889  -0.4000000), wk =   0.0219479
        k(   21) = (   0.0555556  -0.5000000   0.0444444), wk =   0.0219479
        k(   22) = (   0.0555556  -0.5000000   0.1333333), wk =   0.0219479
        k(   23) = (   0.0555556  -0.5000000   0.2222222), wk =   0.0219479
        k(   24) = (   0.0555556  -0.5000000   0.3111111), wk =   0.0219479
        k(   25) = (   0.0555556  -0.5000000  -0.4000000), wk =   0.0109739
        k(   26) = (   0.1666667   0.1666667   0.0444444), wk =   0.0219479
        k(   27) = (   0.1666667   0.1666667   0.1333333), wk =   0.0219479
        k(   28) = (   0.1666667   0.1666667   0.2222222), wk =   0.0219479
        k(   29) = (   0.1666667   0.1666667   0.3111111), wk =   0.0219479
        k(   30) = (   0.1666667   0.1666667  -0.4000000), wk =   0.0109739
        k(   31) = (   0.1666667   0.2777778   0.0444444), wk =   0.0438957
        k(   32) = (   0.1666667   0.2777778   0.1333333), wk =   0.0438957
        k(   33) = (   0.1666667   0.2777778   0.2222222), wk =   0.0438957
        k(   34) = (   0.1666667   0.2777778   0.3111111), wk =   0.0438957
        k(   35) = (   0.1666667   0.2777778  -0.4000000), wk =   0.0219479
        k(   36) = (   0.1666667   0.3888889   0.0444444), wk =   0.0438957
        k(   37) = (   0.1666667   0.3888889   0.1333333), wk =   0.0438957
        k(   38) = (   0.1666667   0.3888889   0.2222222), wk =   0.0438957
        k(   39) = (   0.1666667   0.3888889   0.3111111), wk =   0.0438957
        k(   40) = (   0.1666667   0.3888889  -0.4000000), wk =   0.0219479
        k(   41) = (   0.1666667  -0.5000000   0.0444444), wk =   0.0219479
        k(   42) = (   0.1666667  -0.5000000   0.1333333), wk =   0.0219479
        k(   43) = (   0.1666667  -0.5000000   0.2222222), wk =   0.0219479
        k(   44) = (   0.1666667  -0.5000000   0.3111111), wk =   0.0219479
        k(   45) = (   0.1666667  -0.5000000  -0.4000000), wk =   0.0109739
        k(   46) = (   0.2777778   0.2777778   0.0444444), wk =   0.0219479
        k(   47) = (   0.2777778   0.2777778   0.1333333), wk =   0.0219479
        k(   48) = (   0.2777778   0.2777778   0.2222222), wk =   0.0219479
        k(   49) = (   0.2777778   0.2777778   0.3111111), wk =   0.0219479
        k(   50) = (   0.2777778   0.2777778  -0.4000000), wk =   0.0109739
        k(   51) = (   0.2777778   0.3888889   0.0444444), wk =   0.0438957
        k(   52) = (   0.2777778   0.3888889   0.1333333), wk =   0.0438957
        k(   53) = (   0.2777778   0.3888889   0.2222222), wk =   0.0438957
        k(   54) = (   0.2777778   0.3888889   0.3111111), wk =   0.0438957
        k(   55) = (   0.2777778   0.3888889  -0.4000000), wk =   0.0219479
        k(   56) = (   0.2777778  -0.5000000   0.0444444), wk =   0.0219479
        k(   57) = (   0.2777778  -0.5000000   0.1333333), wk =   0.0219479
        k(   58) = (   0.2777778  -0.5000000   0.2222222), wk =   0.0219479
        k(   59) = (   0.2777778  -0.5000000   0.3111111), wk =   0.0219479
        k(   60) = (   0.2777778  -0.5000000  -0.4000000), wk =   0.0109739
        k(   61) = (   0.3888889   0.3888889   0.0444444), wk =   0.0219479
        k(   62) = (   0.3888889   0.3888889   0.1333333), wk =   0.0219479
        k(   63) = (   0.3888889   0.3888889   0.2222222), wk =   0.0219479
        k(   64) = (   0.3888889   0.3888889   0.3111111), wk =   0.0219479
        k(   65) = (   0.3888889   0.3888889  -0.4000000), wk =   0.0109739
        k(   66) = (   0.3888889  -0.5000000   0.0444444), wk =   0.0219479
        k(   67) = (   0.3888889  -0.5000000   0.1333333), wk =   0.0219479
        k(   68) = (   0.3888889  -0.5000000   0.2222222), wk =   0.0219479
        k(   69) = (   0.3888889  -0.5000000   0.3111111), wk =   0.0219479
        k(   70) = (   0.3888889  -0.5000000  -0.4000000), wk =   0.0109739
[...]
     atom   24 type  1   force =     0.00000000    0.00001157   -0.04725689
     atom   25 type  1   force =     0.00000000    0.00000000    0.04726211
     atom   26 type  1   force =     0.00000172    0.00000172    0.04726340
     atom   27 type  1   force =    -0.00000908    0.00000000   -0.01332548
     atom   28 type  1   force =     0.00000000   -0.00000908   -0.01332548
     atom   29 type  1   force =     0.00000000    0.00000000    0.01331910
     atom   30 type  1   force =     0.00000040    0.00000040    0.01331358
     atom   31 type  1   force =    -0.00001157    0.00000000   -0.04725689
     atom   32 type  1   force =     0.00000000   -0.00001157   -0.04725689

     Total force =     0.196411     Total SCF correction =     0.002712

     Computing stress (Cartesian axis) and pressure

          total   stress  (Ry/bohr**3)                   (kbar)     P=     -112.73
  -0.00070318   0.00000000   0.00000000         -103.44        0.00        0.00
   0.00000000  -0.00070318   0.00000000            0.00     -103.44        0.00
   0.00000000   0.00000000  -0.00089266            0.00        0.00     -131.32

     BFGS Geometry Optimization
     Energy error            =      0.0E+00
     Gradient error          =      4.7E-02

     number of scf cycles    =   1
     number of bfgs steps    =   0

     energy   new            =  -13811.8867852751 Ry

     new trust radius        =       0.0472696288 bohr
     new conv_thr            =       0.0000010000 Ry

ATOMIC_POSITIONS (crystal)
Ru            0.0000000000        0.0000000000        0.0026256720
Ru            0.2499998804        0.2499998804        0.0026256090
Ru            0.2499990742        0.0000000000        0.1992599891
Ru            0.0000000000        0.2499990742        0.1992599891
Ru            0.0000000000        0.0000000000        0.6007398898
Ru            0.2499999725        0.2499999725        0.6007396050
Ru            0.2499995420        0.0000000000        0.7973745790
Ru           -0.0000000000        0.2499995420        0.7973745790
Ru            0.0000000000        0.5000000000        0.0026259553
Ru            0.2499998804        0.7500001196        0.0026256090
Ru            0.2500006307        0.5000000000        0.1992597335
Ru            0.0000000000        0.7500009258        0.1992599891
Ru            0.0000000000        0.5000000000        0.6007400037
Ru            0.2499999725        0.7500000275        0.6007396050
Ru            0.2500008033        0.5000000000        0.7973747522
Ru            0.0000000000        0.7500004580        0.7973745790
Ru            0.5000000000        0.0000000000        0.0026259553
Ru            0.7500001196        0.2499998804        0.0026256090
Ru            0.7500009258        0.0000000000        0.1992599891
Ru            0.5000000000        0.2500006307        0.1992597335
Ru            0.5000000000        0.0000000000        0.6007400037
Ru            0.7500000275        0.2499999725        0.6007396050
Ru            0.7500004580       -0.0000000000        0.7973745790
Ru            0.5000000000        0.2500008033        0.7973747522
Ru            0.5000000000        0.5000000000        0.0026255376
Ru            0.7500001196        0.7500001196        0.0026256090
Ru            0.7499993693        0.5000000000        0.1992597335
Ru            0.5000000000        0.7499993693        0.1992597335
Ru            0.5000000000        0.5000000000        0.6007399117
Ru            0.7500000275        0.7500000275        0.6007396050
Ru            0.7499991967        0.5000000000        0.7973747522
Ru            0.5000000000        0.7499991967        0.7973747522

     Writing output data file /scratch/gvvGXLpDKwJMMeKz.save/
     NEW-OLD atomic charge density approx. for the potential

[...]

     Energy error            =      3.4E-02
     Gradient error          =      3.7E-02

[...]

     energy   old            =  -13811.8867852751 Ry
     energy   new            =  -13811.9208729668 Ry

     CASE: energy  _new < energy  _old

[...]

     Total force =     0.007658     Total SCF correction =     0.000347

[...]

     Total force =     0.003880     Total SCF correction =     0.000522
     SCF correction compared to forces is large: reduce conv_thr to get better values

[...]

     number of scf cycles    =   9
     number of bfgs steps    =   8

     energy   old            =  -13811.9678861862 Ry
     energy   new            =  -13811.9680950366 Ry

     CASE: energy  _new < energy  _old

     new trust radius        =       0.0090862203 bohr
     new conv_thr            =       0.0000000100 Ry

ATOMIC_POSITIONS (crystal)
Ru            0.0000000000        0.0000000000        0.0116527709
Ru            0.2500000760        0.2500000760        0.0116533059
Ru            0.2500008350        0.0000000000        0.1988522852
Ru            0.0000000000        0.2500008350        0.1988522852
Ru            0.0000000000        0.0000000000        0.6011507677
Ru            0.2499997730        0.2499997730        0.6011507457
Ru            0.2500001453        0.0000000000        0.7883435901
Ru           -0.0000000000        0.2500001453        0.7883435901
Ru            0.0000000000        0.5000000000        0.0116533848
Ru            0.2500000760        0.7499999240        0.0116533059
Ru            0.2499994775        0.5000000000        0.1988523118
Ru            0.0000000000        0.7499991650        0.1988522852
Ru            0.0000000000        0.5000000000        0.6011506706
Ru            0.2499997730        0.7500002270        0.6011507457
Ru            0.2499994453        0.5000000000        0.7883438655
Ru            0.0000000000        0.7499998547        0.7883435901
Ru            0.5000000000        0.0000000000        0.0116533848
Ru            0.7499999240        0.2500000760        0.0116533059
Ru            0.7499991650        0.0000000000        0.1988522852
Ru            0.5000000000        0.2499994775        0.1988523118
Ru            0.5000000000        0.0000000000        0.6011506706
Ru            0.7500002270        0.2499997730        0.6011507457
Ru            0.7499998547       -0.0000000000        0.7883435901
Ru            0.5000000000        0.2499994453        0.7883438655
Ru            0.5000000000        0.5000000000        0.0116532266
Ru            0.7499999240        0.7499999240        0.0116533059
Ru            0.7500005225        0.5000000000        0.1988523118
Ru            0.5000000000        0.7500005225        0.1988523118
Ru            0.5000000000        0.5000000000        0.6011507072
Ru            0.7500002270        0.7500002270        0.6011507457
Ru            0.7500005547        0.5000000000        0.7883438655
Ru            0.5000000000        0.7500005547        0.7883438655

     Writing output data file /scratch/gvvGXLpDKwJMMeKz.save/
     NEW-OLD atomic charge density approx. for the potential

     Check: negative core charge=   -0.000002

     Self-consistent Calculation

[...]

     total energy              =  -13811.96816399 Ry
     estimated scf accuracy    <       0.00000005 Ry

     iteration # 13     ecut=    71.00 Ry     beta= 0.10
     Davidson diagonalization with overlap
     ethr =  1.03E-11,  avg # of iterations =  2.0

     End of self-consistent calculation

[...]

          k = 0.3889-0.5000-0.4000 ( 37668 PWs)   bands (ev):

[...]

          k =-0.5000-0.5000-0.4000 ( 37736 PWs)   bands (ev):

   -55.3876 -55.3876 -55.3876 -55.3876 -55.3516 -55.3516 -55.3516 -55.3516
   -55.3037 -55.3037 -55.3037 -55.3037 -55.3036 -55.3036 -55.3036 -55.3036
   -55.0399 -55.0399 -55.0398 -55.0398 -55.0387 -55.0387 -55.0387 -55.0387
   -54.9943 -54.9943 -54.9943 -54.9943 -54.9943 -54.9943 -54.9943 -54.9943
   -25.6978 -25.6978 -25.6978 -25.6978 -25.6977 -25.6977 -25.6977 -25.6977
   -25.5837 -25.5837 -25.5837 -25.5837 -25.5600 -25.5600 -25.5600 -25.5600
   -25.5278 -25.5278 -25.5278 -25.5278 -25.5277 -25.5277 -25.5277 -25.5277
   -25.4429 -25.4429 -25.4429 -25.4429 -25.3577 -25.3577 -25.3577 -25.3577
   -25.2728 -25.2728 -25.2728 -25.2728 -25.2727 -25.2727 -25.2727 -25.2727
   -25.1196 -25.1196 -25.1195 -25.1195 -25.0632 -25.0632 -25.0632 -25.0632
   -25.0326 -25.0326 -25.0326 -25.0326 -25.0326 -25.0326 -25.0326 -25.0326
   -24.9895 -24.9895 -24.9895 -24.9895 -24.9895 -24.9895 -24.9895 -24.9895
   -24.9682 -24.9682 -24.9682 -24.9682 -24.9430 -24.9430 -24.9430 -24.9430
   -24.8975 -24.8975 -24.8975 -24.8975 -24.8975 -24.8975 -24.8975 -24.8975
   -24.8425 -24.8425 -24.8425 -24.8425 -24.8261 -24.8261 -24.8260 -24.8260
   -24.7331 -24.7331 -24.7331 -24.7331 -24.7284 -24.7284 -24.7284 -24.7284
    11.7835  11.7835  11.7835  11.7835  12.4886  12.4886  12.4886  12.4886
    12.5961  12.5961  12.5961  12.5961  12.7489  12.7489  12.7489  12.7489
    12.7490  12.7490  12.7490  12.7490  12.8200  12.8200  12.8200  12.8200
    13.0761  13.0761  13.0761  13.0761  13.0761  13.0761  13.0761  13.0761
    13.5030  13.5030  13.5030  13.5030  13.5791  13.5791  13.5791  13.5791
    13.5793  13.5793  13.5793  13.5793  13.9191  13.9191  13.9191  13.9191
    13.9191  13.9191  13.9192  13.9192  14.1529  14.1529  14.1529  14.1529
    14.8835  14.8835  14.8835  14.8835  14.9671  14.9671  14.9671  14.9671
    15.2819  15.2819  15.2819  15.2819  15.5598  15.5598  15.5598  15.5598
    15.7404  15.7404  15.7405  15.7405  15.7484  15.7484  15.7484  15.7484
    15.7484  15.7484  15.7484  15.7484  15.8563  15.8563  15.8563  15.8563
    16.0060  16.0060  16.0060  16.0060  16.3583  16.3583  16.3583  16.3583
    16.3926  16.3926  16.3926  16.3926  16.3927  16.3927  16.3927  16.3927
    16.4289  16.4289  16.4289  16.4289  16.7354  16.7354  16.7355  16.7355
    16.7355  16.7355  16.7355  16.7355  16.7612  16.7612  16.7612  16.7612
    16.9551  16.9551  16.9551  16.9551  17.3135  17.3135  17.3135  17.3135
    17.3135  17.3135  17.3135  17.3135  17.6532  17.6532  17.6532  17.6532
    18.1299  18.1299  18.1299  18.1299  18.4639  18.4639  18.4639  18.4639
    18.4839  18.4839  18.4839  18.4839  18.4839  18.4839  18.4840  18.4840
    19.1219  19.1219  19.1219  19.1219  19.1583  19.1583  19.1583  19.1583
    19.1583  19.1583  19.1584  19.1584  19.2686  19.2686  19.2686  19.2686
    19.9470  19.9470  19.9470  19.9470  20.9347  20.9347  20.9347  20.9347
    22.2924  22.2924  22.2924

     the Fermi energy is    17.6127 ev

!    total energy              =  -13811.96816399 Ry

     total all-electron energy =   -289988.358503 Ry
     estimated scf accuracy    <          7.8E-09 Ry
     smearing contrib. (-TS)   =       0.01780486 Ry
     internal energy E=F+TS    =  -13811.98596885 Ry

     The total energy is F=E-TS. E is the sum of the following terms:
     one-electron contribution =   -3147.02061399 Ry
     hartree contribution      =    1889.60669573 Ry
     xc contribution           =    -925.76911251 Ry
     ewald contribution        =   -4039.45258240 Ry
     one-center paw contrib.   =   -7589.35035569 Ry

     convergence has been achieved in  13 iterations

     Forces acting on atoms (cartesian axes, Ry/au):

     atom    1 type  1   force =     0.00000000    0.00000000   -0.00003062
     atom    2 type  1   force =     0.00000073    0.00000073   -0.00003336
     atom    3 type  1   force =    -0.00000133    0.00000000    0.00000696
     atom    4 type  1   force =     0.00000000   -0.00000133    0.00000696
     atom    5 type  1   force =     0.00000000    0.00000000   -0.00002587
     atom    6 type  1   force =     0.00000077    0.00000077   -0.00002610
     atom    7 type  1   force =    -0.00000002    0.00000000    0.00005291
     atom    8 type  1   force =     0.00000000   -0.00000002    0.00005291
     atom    9 type  1   force =     0.00000000    0.00000000   -0.00003500
     atom   10 type  1   force =     0.00000073   -0.00000073   -0.00003336
     atom   11 type  1   force =     0.00000146    0.00000000    0.00000637
     atom   12 type  1   force =     0.00000000    0.00000133    0.00000696
     atom   13 type  1   force =     0.00000000    0.00000000   -0.00002683
     atom   14 type  1   force =     0.00000077   -0.00000077   -0.00002610
     atom   15 type  1   force =     0.00000192    0.00000000    0.00005231
     atom   16 type  1   force =     0.00000000    0.00000002    0.00005291
     atom   17 type  1   force =     0.00000000    0.00000000   -0.00003500
     atom   18 type  1   force =    -0.00000073    0.00000073   -0.00003336
     atom   19 type  1   force =     0.00000133    0.00000000    0.00000696
     atom   20 type  1   force =     0.00000000    0.00000146    0.00000637
     atom   21 type  1   force =     0.00000000    0.00000000   -0.00002683
     atom   22 type  1   force =    -0.00000077    0.00000077   -0.00002610
     atom   23 type  1   force =     0.00000002    0.00000000    0.00005291
     atom   24 type  1   force =     0.00000000    0.00000192    0.00005231
     atom   25 type  1   force =     0.00000000    0.00000000   -0.00003184
     atom   26 type  1   force =    -0.00000073   -0.00000073   -0.00003336
     atom   27 type  1   force =    -0.00000146    0.00000000    0.00000637
     atom   28 type  1   force =     0.00000000   -0.00000146    0.00000637
     atom   29 type  1   force =     0.00000000    0.00000000   -0.00002442
     atom   30 type  1   force =    -0.00000077   -0.00000077   -0.00002610
     atom   31 type  1   force =    -0.00000192    0.00000000    0.00005231
     atom   32 type  1   force =     0.00000000   -0.00000192    0.00005231

     Total force =     0.000192     Total SCF correction =     0.000757
     SCF correction compared to forces is large: reduce conv_thr to get better values

     Computing stress (Cartesian axis) and pressure

          total   stress  (Ry/bohr**3)                   (kbar)     P=      -96.28
  -0.00047186   0.00000000   0.00000000          -69.41        0.00        0.00
   0.00000000  -0.00047186   0.00000000            0.00      -69.41        0.00
   0.00000000   0.00000000  -0.00101987            0.00        0.00     -150.03

     Energy error            =      6.9E-05
     Gradient error          =      5.3E-05

     bfgs converged in  10 scf cycles and   9 bfgs steps
     (criteria: energy <  1.0E-04 Ry, force <  1.0E-03 Ry/Bohr)

     End of BFGS Geometry Optimization

     Final energy   =  -13811.9681639942 Ry

     File /scratch/gvvGXLpDKwJMMeKz.bfgs deleted, as requested
Begin final coordinates

ATOMIC_POSITIONS (crystal)
Ru            0.0000000000        0.0000000000        0.0116527709
Ru            0.2500000760        0.2500000760        0.0116533059
Ru            0.2500008350        0.0000000000        0.1988522852
Ru            0.0000000000        0.2500008350        0.1988522852
Ru            0.0000000000        0.0000000000        0.6011507677
Ru            0.2499997730        0.2499997730        0.6011507457
Ru            0.2500001453        0.0000000000        0.7883435901
Ru           -0.0000000000        0.2500001453        0.7883435901
Ru            0.0000000000        0.5000000000        0.0116533848
Ru            0.2500000760        0.7499999240        0.0116533059
Ru            0.2499994775        0.5000000000        0.1988523118
Ru            0.0000000000        0.7499991650        0.1988522852
Ru            0.0000000000        0.5000000000        0.6011506706
Ru            0.2499997730        0.7500002270        0.6011507457
Ru            0.2499994453        0.5000000000        0.7883438655
Ru            0.0000000000        0.7499998547        0.7883435901
Ru            0.5000000000        0.0000000000        0.0116533848
Ru            0.7499999240        0.2500000760        0.0116533059
Ru            0.7499991650        0.0000000000        0.1988522852
Ru            0.5000000000        0.2499994775        0.1988523118
Ru            0.5000000000        0.0000000000        0.6011506706
Ru            0.7500002270        0.2499997730        0.6011507457
Ru            0.7499998547       -0.0000000000        0.7883435901
Ru            0.5000000000        0.2499994453        0.7883438655
Ru            0.5000000000        0.5000000000        0.0116532266
Ru            0.7499999240        0.7499999240        0.0116533059
Ru            0.7500005225        0.5000000000        0.1988523118
Ru            0.5000000000        0.7500005225        0.1988523118
Ru            0.5000000000        0.5000000000        0.6011507072
Ru            0.7500002270        0.7500002270        0.6011507457
Ru            0.7500005547        0.5000000000        0.7883438655
Ru            0.5000000000        0.7500005547        0.7883438655
End final coordinates

     Writing output data file /scratch/gvvGXLpDKwJMMeKz.save/

     General routines

     Parallel routines

   This run was terminated on:  23:51:12   1Dec2021

   JOB DONE.