     Program PWSCF v.6.7MaX starts on  1Dec2021 at 23:51:17

     R & G space division:  proc/nbgrp/npool/nimage =      72
     Reading input from relax_7.in
Warning: card &CELL ignored
Warning: card CELL_DYNAMICS = 'BFGS', ignored
Warning: card CELL_FACTOR = 2.0, ignored
Warning: card PRESS = 0.0, ignored
Warning: card / ignored

     Current dimensions of program PWSCF are:
     Max number of different atomic species (ntypx) = 10
     Max number of k-points (npk) =  40000
     Max angular momentum in pseudopotentials (lmaxx) =  3
     file Ru.pbe-spn-kjpaw_psl.1.0.0.UPF: wavefunction(s)  4D renormalized

     Subspace diagonalization in iterative solution of the eigenvalue problem:
     one sub-group per band group will be used

     Found symmetry operation: I + (  0.2500  0.2500  0.0000)
     This is a supercell, fractional translations are disabled
     Message from routine setup:
     using ibrav=0 with symmetry is DISCOURAGED, use correct ibrav instead

     bravais-lattice index     =            0
     lattice parameter (alat)  =      14.4007  a.u.
     unit-cell volume          =    3882.3790 (a.u.)^3
     number of atoms/cell      =           32
     number of atomic types    =            1
     number of electrons       =       512.00
     number of Kohn-Sham states=          307
     kinetic-energy cutoff     =      71.0000  Ry
     charge density cutoff     =     430.0000  Ry
     scf convergence threshold =      1.0E-06
     mixing beta               =       0.1000
     number of iterations used =           10  TF        mixing
     energy convergence thresh.=      1.0E-04
     force convergence thresh. =      1.0E-03
     Exchange-correlation= SLA  PW   PBX  PBC
                           (   1   4   3   4   0   0   0)
     nstep                     =           40

     celldm(1)=  14.400742  celldm(2)=   0.000000  celldm(3)=   0.000000
     celldm(4)=   0.000000  celldm(5)=   0.000000  celldm(6)=   0.000000

     crystal axes: (cart. coord. in units of alat)
               a(1) = (   1.000000   0.000000   0.000000 )
               a(2) = (   0.000000   1.000000   0.000000 )
               a(3) = (   0.000000   0.000000   1.300000 )

     reciprocal axes: (cart. coord. in units 2 pi/alat)
               b(1) = (  1.000000  0.000000  0.000000 )
               b(2) = (  0.000000  1.000000  0.000000 )
               b(3) = (  0.000000  0.000000  0.769231 )

     PseudoPot. # 1 for Ru read from file:
     /rds/homes/b/bxp912/pp/Ru.pbe-spn-kjpaw_psl.1.0.0.UPF
     MD5 check sum: 0ae1f594dea09af7be8575c3a481d1ae
     Pseudo is Projector augmented-wave + core cor, Zval = 16.0
     Generated using "atomic" code by A. Dal Corso  v.5.1
     Shape of augmentation charge: PSQ
     Using radial grid of 1233 points,  6 beta functions with:
                l(1) =   0
                l(2) =   0
                l(3) =   1
                l(4) =   1
                l(5) =   2
                l(6) =   2
     Q(r) pseudized with 0 coefficients

     atomic species   valence    mass     pseudopotential
        Ru            16.00   101.07000     Ru( 1.00)

      8 Sym. Ops. (no inversion) found

   Cartesian axes

     site n.     atom                  positions (alat units)
         1           Ru  tau(   1) = (   0.0000000   0.0000000   0.0000000  )
         2           Ru  tau(   2) = (   0.2500000   0.2500000   0.0000000  )
         3           Ru  tau(   3) = (   0.2500000   0.0000000   0.2500000  )
         4           Ru  tau(   4) = (   0.0000000   0.2500000   0.2500000  )
         5           Ru  tau(   5) = (   0.0000000   0.0000000   0.8000000  )
         6           Ru  tau(   6) = (   0.2500000   0.2500000   0.8000000  )
         7           Ru  tau(   7) = (   0.2500000   0.0000000   1.0500000  )
         8           Ru  tau(   8) = (   0.0000000   0.2500000   1.0500000  )
         9           Ru  tau(   9) = (   0.0000000   0.5000000   0.0000000  )
        10           Ru  tau(  10) = (   0.2500000   0.7500000   0.0000000  )
        11           Ru  tau(  11) = (   0.2500000   0.5000000   0.2500000  )
        12           Ru  tau(  12) = (   0.0000000   0.7500000   0.2500000  )
        13           Ru  tau(  13) = (   0.0000000   0.5000000   0.8000000  )
        14           Ru  tau(  14) = (   0.2500000   0.7500000   0.8000000  )
        15           Ru  tau(  15) = (   0.2500000   0.5000000   1.0500000  )
        16           Ru  tau(  16) = (   0.0000000   0.7500000   1.0500000  )
        17           Ru  tau(  17) = (   0.5000000   0.0000000   0.0000000  )
        18           Ru  tau(  18) = (   0.7500000   0.2500000   0.0000000  )
        19           Ru  tau(  19) = (   0.7500000   0.0000000   0.2500000  )
        20           Ru  tau(  20) = (   0.5000000   0.2500000   0.2500000  )
        21           Ru  tau(  21) = (   0.5000000   0.0000000   0.8000000  )
        22           Ru  tau(  22) = (   0.7500000   0.2500000   0.8000000  )
        23           Ru  tau(  23) = (   0.7500000   0.0000000   1.0500000  )
        24           Ru  tau(  24) = (   0.5000000   0.2500000   1.0500000  )
        25           Ru  tau(  25) = (   0.5000000   0.5000000   0.0000000  )
        26           Ru  tau(  26) = (   0.7500000   0.7500000   0.0000000  )
        27           Ru  tau(  27) = (   0.7500000   0.5000000   0.2500000  )
        28           Ru  tau(  28) = (   0.5000000   0.7500000   0.2500000  )
        29           Ru  tau(  29) = (   0.5000000   0.5000000   0.8000000  )
        30           Ru  tau(  30) = (   0.7500000   0.7500000   0.8000000  )
        31           Ru  tau(  31) = (   0.7500000   0.5000000   1.0500000  )
        32           Ru  tau(  32) = (   0.5000000   0.7500000   1.0500000  )

     number of k points=    75  Marzari-Vanderbilt smearing, width (Ry)=  0.0400
                       cart. coord. in units 2pi/alat
        k(    1) = (   0.0555556   0.0555556   0.0427350), wk =   0.0219479
        k(    2) = (   0.0555556   0.0555556   0.1282051), wk =   0.0219479
        k(    3) = (   0.0555556   0.0555556   0.2136752), wk =   0.0219479
        k(    4) = (   0.0555556   0.0555556   0.2991453), wk =   0.0219479
        k(    5) = (   0.0555556   0.0555556  -0.3846154), wk =   0.0109739
        k(    6) = (   0.0555556   0.1666667   0.0427350), wk =   0.0438957
        k(    7) = (   0.0555556   0.1666667   0.1282051), wk =   0.0438957
        k(    8) = (   0.0555556   0.1666667   0.2136752), wk =   0.0438957
        k(    9) = (   0.0555556   0.1666667   0.2991453), wk =   0.0438957
        k(   10) = (   0.0555556   0.1666667  -0.3846154), wk =   0.0219479
        k(   11) = (   0.0555556   0.2777778   0.0427350), wk =   0.0438957
        k(   12) = (   0.0555556   0.2777778   0.1282051), wk =   0.0438957
        k(   13) = (   0.0555556   0.2777778   0.2136752), wk =   0.0438957
        k(   14) = (   0.0555556   0.2777778   0.2991453), wk =   0.0438957
        k(   15) = (   0.0555556   0.2777778  -0.3846154), wk =   0.0219479
        k(   16) = (   0.0555556   0.3888889   0.0427350), wk =   0.0438957
        k(   17) = (   0.0555556   0.3888889   0.1282051), wk =   0.0438957
        k(   18) = (   0.0555556   0.3888889   0.2136752), wk =   0.0438957
        k(   19) = (   0.0555556   0.3888889   0.2991453), wk =   0.0438957
        k(   20) = (   0.0555556   0.3888889  -0.3846154), wk =   0.0219479
        k(   21) = (   0.0555556  -0.5000000   0.0427350), wk =   0.0219479
        k(   22) = (   0.0555556  -0.5000000   0.1282051), wk =   0.0219479
        k(   23) = (   0.0555556  -0.5000000   0.2136752), wk =   0.0219479
        k(   24) = (   0.0555556  -0.5000000   0.2991453), wk =   0.0219479
        k(   25) = (   0.0555556  -0.5000000  -0.3846154), wk =   0.0109739
        k(   26) = (   0.1666667   0.1666667   0.0427350), wk =   0.0219479
        k(   27) = (   0.1666667   0.1666667   0.1282051), wk =   0.0219479
        k(   28) = (   0.1666667   0.1666667   0.2136752), wk =   0.0219479
        k(   29) = (   0.1666667   0.1666667   0.2991453), wk =   0.0219479
        k(   30) = (   0.1666667   0.1666667  -0.3846154), wk =   0.0109739
        k(   31) = (   0.1666667   0.2777778   0.0427350), wk =   0.0438957
        k(   32) = (   0.1666667   0.2777778   0.1282051), wk =   0.0438957
        k(   33) = (   0.1666667   0.2777778   0.2136752), wk =   0.0438957
        k(   34) = (   0.1666667   0.2777778   0.2991453), wk =   0.0438957
        k(   35) = (   0.1666667   0.2777778  -0.3846154), wk =   0.0219479
        k(   36) = (   0.1666667   0.3888889   0.0427350), wk =   0.0438957
        k(   37) = (   0.1666667   0.3888889   0.1282051), wk =   0.0438957
        k(   38) = (   0.1666667   0.3888889   0.2136752), wk =   0.0438957
        k(   39) = (   0.1666667   0.3888889   0.2991453), wk =   0.0438957
        k(   40) = (   0.1666667   0.3888889  -0.3846154), wk =   0.0219479
        k(   41) = (   0.1666667  -0.5000000   0.0427350), wk =   0.0219479
        k(   42) = (   0.1666667  -0.5000000   0.1282051), wk =   0.0219479
        k(   43) = (   0.1666667  -0.5000000   0.2136752), wk =   0.0219479
        k(   44) = (   0.1666667  -0.5000000   0.2991453), wk =   0.0219479
        k(   45) = (   0.1666667  -0.5000000  -0.3846154), wk =   0.0109739
        k(   46) = (   0.2777778   0.2777778   0.0427350), wk =   0.0219479
        k(   47) = (   0.2777778   0.2777778   0.1282051), wk =   0.0219479
        k(   48) = (   0.2777778   0.2777778   0.2136752), wk =   0.0219479
        k(   49) = (   0.2777778   0.2777778   0.2991453), wk =   0.0219479
        k(   50) = (   0.2777778   0.2777778  -0.3846154), wk =   0.0109739
        k(   51) = (   0.2777778   0.3888889   0.0427350), wk =   0.0438957
        k(   52) = (   0.2777778   0.3888889   0.1282051), wk =   0.0438957
        k(   53) = (   0.2777778   0.3888889   0.2136752), wk =   0.0438957
        k(   54) = (   0.2777778   0.3888889   0.2991453), wk =   0.0438957
        k(   55) = (   0.2777778   0.3888889  -0.3846154), wk =   0.0219479
        k(   56) = (   0.2777778  -0.5000000   0.0427350), wk =   0.0219479
        k(   57) = (   0.2777778  -0.5000000   0.1282051), wk =   0.0219479
        k(   58) = (   0.2777778  -0.5000000   0.2136752), wk =   0.0219479
        k(   59) = (   0.2777778  -0.5000000   0.2991453), wk =   0.0219479
        k(   60) = (   0.2777778  -0.5000000  -0.3846154), wk =   0.0109739
        k(   61) = (   0.3888889   0.3888889   0.0427350), wk =   0.0219479
        k(   62) = (   0.3888889   0.3888889   0.1282051), wk =   0.0219479
        k(   63) = (   0.3888889   0.3888889   0.2136752), wk =   0.0219479
        k(   64) = (   0.3888889   0.3888889   0.2991453), wk =   0.0219479
        k(   65) = (   0.3888889   0.3888889  -0.3846154), wk =   0.0109739
        k(   66) = (   0.3888889  -0.5000000   0.0427350), wk =   0.0219479
        k(   67) = (   0.3888889  -0.5000000   0.1282051), wk =   0.0219479
        k(   68) = (   0.3888889  -0.5000000   0.2136752), wk =   0.0219479
        k(   69) = (   0.3888889  -0.5000000   0.2991453), wk =   0.0219479
        k(   70) = (   0.3888889  -0.5000000  -0.3846154), wk =   0.0109739
[...]
     atom   25 type  1   force =     0.00000000    0.00000000    0.04390194
     atom   26 type  1   force =     0.00000434    0.00000434    0.04390384
     atom   27 type  1   force =    -0.00001286    0.00000000   -0.02106554
     atom   28 type  1   force =     0.00000000   -0.00001286   -0.02106554
     atom   29 type  1   force =     0.00000000    0.00000000    0.02108350
     atom   30 type  1   force =     0.00001920    0.00001920    0.02106571
     atom   31 type  1   force =    -0.00000188    0.00000000   -0.04390087
     atom   32 type  1   force =     0.00000000   -0.00000188   -0.04390087

     Total force =     0.194806     Total SCF correction =     0.009014

     Computing stress (Cartesian axis) and pressure

          total   stress  (Ry/bohr**3)                   (kbar)     P=     -104.19
  -0.00069692   0.00000000   0.00000000         -102.52        0.00        0.00
   0.00000000  -0.00069692   0.00000000            0.00     -102.52        0.00
   0.00000000   0.00000000  -0.00073099            0.00        0.00     -107.53

     BFGS Geometry Optimization
     Energy error            =      0.0E+00
     Gradient error          =      4.4E-02

     number of scf cycles    =   1
     number of bfgs steps    =   0

     energy   new            =  -13811.7797712925 Ry

     new trust radius        =       0.0439283447 bohr
     new conv_thr            =       0.0000010000 Ry

ATOMIC_POSITIONS (crystal)
Ru            0.0000000000        0.0000000000        0.0023442472
Ru            0.2499996985        0.2499996985        0.0023451698
Ru            0.2499991022        0.0000000000        0.1911828648
Ru            0.0000000000        0.2499991022        0.1911828648
Ru            0.0000000000        0.0000000000        0.6165102857
Ru            0.2499986668        0.2499986668        0.6165098624
Ru            0.2499991808        0.0000000000        0.8053458290
Ru            0.0000000000        0.2499991808        0.8053458290
Ru            0.0000000000        0.5000000000        0.0023456192
Ru            0.2499996985        0.7500003015        0.0023451698
Ru            0.2500008933        0.5000000000        0.1911824546
Ru            0.0000000000        0.7500008978        0.1911828648
Ru            0.0000000000        0.5000000000        0.6165106811
Ru            0.2499986668        0.7500013332        0.6165098624
Ru            0.2500001304        0.5000000000        0.8053472966
Ru            0.0000000000        0.7500008192        0.8053458290
Ru            0.5000000000        0.0000000000        0.0023456192
Ru            0.7500003015        0.2499996985        0.0023451698
Ru            0.7500008978        0.0000000000        0.1911828648
Ru            0.5000000000        0.2500008933        0.1911824546
Ru            0.5000000000        0.0000000000        0.6165106811
Ru            0.7500013332        0.2499986668        0.6165098624
Ru            0.7500008192        0.0000000000        0.8053458290
Ru            0.5000000000        0.2500001304        0.8053472966
Ru            0.5000000000        0.5000000000        0.0023450682
Ru            0.7500003015        0.7500003015        0.0023451698
Ru            0.7499991067        0.5000000000        0.1911824546
Ru            0.5000000000        0.7499991067        0.1911824546
Ru            0.5000000000        0.5000000000        0.6165108127
Ru            0.7500013332        0.7500013332        0.6165098624
Ru            0.7499998696        0.5000000000        0.8053472966
Ru            0.5000000000        0.7499998696        0.8053472966

     Writing output data file /scratch/mYKhKGXiaMedTFik.save/
     NEW-OLD atomic charge density approx. for the potential

[...]

     Energy error            =      3.4E-02
     Gradient error          =      3.3E-02

[...]

     energy   old            =  -13811.7797712925 Ry
     energy   new            =  -13811.8135012053 Ry

     CASE: energy  _new < energy  _old

[...]

     Total force =     0.007531     Total SCF correction =     0.000729

[...]

     number of scf cycles    =   4
     number of bfgs steps    =   3

     energy   old            =  -13811.8408641334 Ry
     energy   new            =  -13811.8588264241 Ry

     CASE: energy  _new < energy  _old

     new trust radius        =       0.0049761564 bohr
     new conv_thr            =       0.0000000161 Ry

ATOMIC_POSITIONS (crystal)
Ru            0.0000000000        0.0000000000        0.0090617725
Ru            0.2499992165        0.2499992165        0.0090621293
Ru            0.2499986368        0.0000000000        0.1872821620
Ru            0.0000000000        0.2499986368        0.1872821620
Ru            0.0000000000        0.0000000000        0.6204096934
Ru            0.2499999156        0.2499999156        0.6204090070
Ru            0.2499987858        0.0000000000        0.7986312487
Ru            0.0000000000        0.2499987858        0.7986312487
Ru            0.0000000000        0.5000000000        0.0090621587
Ru            0.2499992165        0.7500007835        0.0090621293
Ru            0.2500005390        0.5000000000        0.1872824874
Ru            0.0000000000        0.7500013632        0.1872821620
Ru            0.0000000000        0.5000000000        0.6204090530
Ru            0.2499999156        0.7500000844        0.6204090070
Ru            0.2499998611        0.5000000000        0.7986310590
Ru            0.0000000000        0.7500012142        0.7986312487
Ru            0.5000000000        0.0000000000        0.0090621587
Ru            0.7500007835        0.2499992165        0.0090621293
Ru            0.7500013632        0.0000000000        0.1872821620
Ru            0.5000000000        0.2500005390        0.1872824874
Ru            0.5000000000        0.0000000000        0.6204090530
Ru            0.7500000844        0.2499999156        0.6204090070
Ru            0.7500012142        0.0000000000        0.7986312487
Ru            0.5000000000        0.2499998611        0.7986310590
Ru            0.5000000000        0.5000000000        0.0090621099
Ru            0.7500007835        0.7500007835        0.0090621293
Ru            0.7499994610        0.5000000000        0.1872824874
Ru            0.5000000000        0.7499994610        0.1872824874
Ru            0.5000000000        0.5000000000        0.6204085501
Ru            0.7500000844        0.7500000844        0.6204090070
Ru            0.7500001389        0.5000000000        0.7986310590
Ru            0.5000000000        0.7500001389        0.7986310590

     Writing output data file /scratch/mYKhKGXiaMedTFik.save/
     NEW-OLD atomic charge density approx. for the potential

     Check: negative core charge=   -0.000002

     Self-consistent Calculation

[...]

     Threshold (ethr) on eigenvalues was too large:
     Diagonalizing with lowered threshold

     Davidson diagonalization with overlap
     ethr =  3.06E-08,  avg # of iterations =  4.0

[...]

     total energy              =  -13811.85892536 Ry
     estimated scf accuracy    <       0.00000010 Ry

     iteration # 10     ecut=    71.00 Ry     beta= 0.10
     Davidson diagonalization with overlap
     ethr =  1.53E-11,  avg # of iterations =  2.0

     End of self-consistent calculation

[...]

          k = 0.3889-0.5000-0.3846 ( 39232 PWs)   bands (ev):

[...]

          k =-0.5000-0.5000-0.3846 ( 39240 PWs)   bands (ev):

   -56.2489 -56.2489 -56.2489 -56.2489 -56.2070 -56.2070 -56.2070 -56.2070
   -56.1620 -56.1620 -56.1620 -56.1620 -56.1620 -56.1620 -56.1620 -56.1620
   -55.8557 -55.8557 -55.8557 -55.8557 -55.8545 -55.8545 -55.8545 -55.8545
   -55.8099 -55.8099 -55.8099 -55.8099 -55.8099 -55.8099 -55.8099 -55.8099
   -26.5699 -26.5699 -26.5699 -26.5698 -26.5698 -26.5698 -26.5698 -26.5698
   -26.4572 -26.4572 -26.4572 -26.4572 -26.4304 -26.4304 -26.4304 -26.4304
   -26.3826 -26.3826 -26.3826 -26.3826 -26.3825 -26.3825 -26.3825 -26.3825
   -26.2998 -26.2998 -26.2998 -26.2998 -26.2066 -26.2066 -26.2066 -26.2066
   -26.1308 -26.1308 -26.1308 -26.1308 -26.1308 -26.1308 -26.1308 -26.1308
   -25.9870 -25.9870 -25.9870 -25.9870 -25.9211 -25.9211 -25.9211 -25.9211
   -25.8621 -25.8621 -25.8621 -25.8621 -25.8621 -25.8621 -25.8621 -25.8621
   -25.8109 -25.8109 -25.8109 -25.8109 -25.8108 -25.8108 -25.8108 -25.8108
   -25.7898 -25.7898 -25.7898 -25.7898 -25.7639 -25.7639 -25.7639 -25.7639
   -25.7163 -25.7163 -25.7163 -25.7163 -25.7163 -25.7163 -25.7163 -25.7163
   -25.6649 -25.6649 -25.6649 -25.6649 -25.6478 -25.6478 -25.6478 -25.6478
   -25.5538 -25.5538 -25.5538 -25.5538 -25.5489 -25.5489 -25.5489 -25.5489
    10.8729  10.8729  10.8729  10.8729  11.5641  11.5641  11.5641  11.5641
    11.7479  11.7479  11.7479  11.7479  11.8213  11.8213  11.8213  11.8213
    11.8213  11.8213  11.8213  11.8213  11.9233  11.9233  11.9233  11.9233
    12.1713  12.1713  12.1713  12.1713  12.1713  12.1713  12.1713  12.1713
    12.5772  12.5772  12.5772  12.5772  12.6869  12.6869  12.6869  12.6869
    12.6869  12.6869  12.6869  12.6869  13.0688  13.0688  13.0688  13.0688
    13.0688  13.0688  13.0688  13.0688  13.3025  13.3025  13.3025  13.3025
    14.0270  14.0270  14.0270  14.0270  14.1525  14.1525  14.1525  14.1525
    14.5264  14.5264  14.5264  14.5264  14.6757  14.6757  14.6757  14.6757
    14.8075  14.8075  14.8075  14.8075  14.8558  14.8558  14.8558  14.8558
    14.8558  14.8558  14.8558  14.8558  14.9346  14.9346  14.9346  14.9346
    15.2155  15.2155  15.2155  15.2155  15.5289  15.5289  15.5289  15.5289
    15.5459  15.5459  15.5460  15.5460  15.5460  15.5460  15.5460  15.5460
    15.5738  15.5738  15.5739  15.5739  15.8849  15.8849  15.8849  15.8849
    15.8872  15.8872  15.8872  15.8872  15.8872  15.8872  15.8872  15.8872
    16.2005  16.2005  16.2006  16.2006  16.5813  16.5813  16.5813  16.5813
    16.5813  16.5813  16.5813  16.5813  16.8381  16.8381  16.8382  16.8382
    17.2930  17.2930  17.2930  17.2930  17.5908  17.5908  17.5908  17.5908
    17.5908  17.5908  17.5908  17.5908  17.6479  17.6479  17.6479  17.6480
    18.3179  18.3179  18.3179  18.3179  18.3568  18.3568  18.3568  18.3568
    18.3568  18.3568  18.3568  18.3568  18.4808  18.4808  18.4808  18.4808
    18.7011  18.7011  18.7011  18.7011  20.0549  20.0549  20.0549  20.0549
    21.4466  21.4466  21.4466

     the Fermi energy is    16.7815 ev

!    total energy              =  -13811.85892536 Ry

     total all-electron energy =   -289988.249265 Ry
     estimated scf accuracy    <       0.00000002 Ry
     smearing contrib. (-TS)   =       0.00633268 Ry
     internal energy E=F+TS    =  -13811.86525804 Ry

     The total energy is F=E-TS. E is the sum of the following terms:
     one-electron contribution =   -4123.91415751 Ry
     hartree contribution      =    2362.26976911 Ry
     xc contribution           =    -926.16002585 Ry
     ewald contribution        =   -3534.69741271 Ry
     one-center paw contrib.   =   -7589.36343109 Ry

     convergence has been achieved in  10 iterations

     Forces acting on atoms (cartesian axes, Ry/au):

     atom    1 type  1   force =     0.00000000    0.00000000   -0.00035724
     atom    2 type  1   force =     0.00000471    0.00000471   -0.00035625
     atom    3 type  1   force =     0.00000648    0.00000000   -0.00067053
     atom    4 type  1   force =     0.00000000    0.00000648   -0.00067053
     atom    5 type  1   force =     0.00000000    0.00000000    0.00067546
     atom    6 type  1   force =     0.00000102    0.00000102    0.00068249
     atom    7 type  1   force =     0.00000848    0.00000000    0.00034602
     atom    8 type  1   force =     0.00000000    0.00000848    0.00034602
     atom    9 type  1   force =     0.00000000    0.00000000   -0.00035465
     atom   10 type  1   force =     0.00000471   -0.00000471   -0.00035625
     atom   11 type  1   force =    -0.00000310    0.00000000   -0.00067433
     atom   12 type  1   force =     0.00000000   -0.00000648   -0.00067053
     atom   13 type  1   force =     0.00000000    0.00000000    0.00068395
     atom   14 type  1   force =     0.00000102   -0.00000102    0.00068249
     atom   15 type  1   force =     0.00000073    0.00000000    0.00034648
     atom   16 type  1   force =     0.00000000   -0.00000848    0.00034602
     atom   17 type  1   force =     0.00000000    0.00000000   -0.00035465
     atom   18 type  1   force =    -0.00000471    0.00000471   -0.00035625
     atom   19 type  1   force =    -0.00000648    0.00000000   -0.00067053
     atom   20 type  1   force =     0.00000000   -0.00000310   -0.00067433
     atom   21 type  1   force =     0.00000000    0.00000000    0.00068395
     atom   22 type  1   force =    -0.00000102    0.00000102    0.00068249
     atom   23 type  1   force =    -0.00000848    0.00000000    0.00034602
     atom   24 type  1   force =     0.00000000    0.00000073    0.00034648
     atom   25 type  1   force =     0.00000000    0.00000000   -0.00035736
     atom   26 type  1   force =    -0.00000471   -0.00000471   -0.00035625
     atom   27 type  1   force =     0.00000310    0.00000000   -0.00067433
     atom   28 type  1   force =     0.00000000    0.00000310   -0.00067433
     atom   29 type  1   force =     0.00000000    0.00000000    0.00068502
     atom   30 type  1   force =    -0.00000102   -0.00000102    0.00068249
     atom   31 type  1   force =    -0.00000073    0.00000000    0.00034648
     atom   32 type  1   force =     0.00000000   -0.00000073    0.00034648

     Total force =     0.003052     Total SCF correction =     0.000856
     SCF correction compared to forces is large: reduce conv_thr to get better values

     Computing stress (Cartesian axis) and pressure

          total   stress  (Ry/bohr**3)                   (kbar)     P=      -64.69
  -0.00036689   0.00000000   0.00000000          -53.97        0.00        0.00
   0.00000000  -0.00036689   0.00000000            0.00      -53.97        0.00
   0.00000000   0.00000000  -0.00058548            0.00        0.00      -86.13

     Energy error            =      9.9E-05
     Gradient error          =      6.9E-04

     bfgs converged in   5 scf cycles and   4 bfgs steps
     (criteria: energy <  1.0E-04 Ry, force <  1.0E-03 Ry/Bohr)

     End of BFGS Geometry Optimization

     Final energy   =  -13811.8589253598 Ry

     File /scratch/mYKhKGXiaMedTFik.bfgs deleted, as requested
Begin final coordinates

ATOMIC_POSITIONS (crystal)
Ru            0.0000000000        0.0000000000        0.0090617725
Ru            0.2499992165        0.2499992165        0.0090621293
Ru            0.2499986368        0.0000000000        0.1872821620
Ru            0.0000000000        0.2499986368        0.1872821620
Ru            0.0000000000        0.0000000000        0.6204096934
Ru            0.2499999156        0.2499999156        0.6204090070
Ru            0.2499987858        0.0000000000        0.7986312487
Ru            0.0000000000        0.2499987858        0.7986312487
Ru            0.0000000000        0.5000000000        0.0090621587
Ru            0.2499992165        0.7500007835        0.0090621293
Ru            0.2500005390        0.5000000000        0.1872824874
Ru            0.0000000000        0.7500013632        0.1872821620
Ru            0.0000000000        0.5000000000        0.6204090530
Ru            0.2499999156        0.7500000844        0.6204090070
Ru            0.2499998611        0.5000000000        0.7986310590
Ru            0.0000000000        0.7500012142        0.7986312487
Ru            0.5000000000        0.0000000000        0.0090621587
Ru            0.7500007835        0.2499992165        0.0090621293
Ru            0.7500013632        0.0000000000        0.1872821620
Ru            0.5000000000        0.2500005390        0.1872824874
Ru            0.5000000000        0.0000000000        0.6204090530
Ru            0.7500000844        0.2499999156        0.6204090070
Ru            0.7500012142        0.0000000000        0.7986312487
Ru            0.5000000000        0.2499998611        0.7986310590
Ru            0.5000000000        0.5000000000        0.0090621099
Ru            0.7500007835        0.7500007835        0.0090621293
Ru            0.7499994610        0.5000000000        0.1872824874
Ru            0.5000000000        0.7499994610        0.1872824874
Ru            0.5000000000        0.5000000000        0.6204085501
Ru            0.7500000844        0.7500000844        0.6204090070
Ru            0.7500001389        0.5000000000        0.7986310590
Ru            0.5000000000        0.7500001389        0.7986310590
End final coordinates

     Writing output data file /scratch/mYKhKGXiaMedTFik.save/

     General routines

     Parallel routines

   This run was terminated on:   1:55:58   2Dec2021

   JOB DONE.