     Program PWSCF v.6.7MaX starts on  2Dec2021 at  1:56: 3

     R & G space division:  proc/nbgrp/npool/nimage =      72
     Reading input from relax_8.in
Warning: card &CELL ignored
Warning: card CELL_DYNAMICS = 'BFGS', ignored
Warning: card CELL_FACTOR = 2.0, ignored
Warning: card PRESS = 0.0, ignored
Warning: card / ignored

     Current dimensions of program PWSCF are:
     Max number of different atomic species (ntypx) = 10
     Max number of k-points (npk) =  40000
     Max angular momentum in pseudopotentials (lmaxx) =  3
     file Ru.pbe-spn-kjpaw_psl.1.0.0.UPF: wavefunction(s)  4D renormalized

     Subspace diagonalization in iterative solution of the eigenvalue problem:
     one sub-group per band group will be used

     Found symmetry operation: I + (  0.2500  0.2500  0.0000)
     This is a supercell, fractional translations are disabled
     Message from routine setup:
     using ibrav=0 with symmetry is DISCOURAGED, use correct ibrav instead

     bravais-lattice index     =            0
     lattice parameter (alat)  =      14.4007  a.u.
     unit-cell volume          =    4031.7012 (a.u.)^3
     number of atoms/cell      =           32
     number of atomic types    =            1
     number of electrons       =       512.00
     number of Kohn-Sham states=          307
     kinetic-energy cutoff     =      71.0000  Ry
     charge density cutoff     =     430.0000  Ry
     scf convergence threshold =      1.0E-06
     mixing beta               =       0.1000
     number of iterations used =           10  TF        mixing
     energy convergence thresh.=      1.0E-04
     force convergence thresh. =      1.0E-03
     Exchange-correlation= SLA  PW   PBX  PBC
                           (   1   4   3   4   0   0   0)
     nstep                     =           40

     celldm(1)=  14.400742  celldm(2)=   0.000000  celldm(3)=   0.000000
     celldm(4)=   0.000000  celldm(5)=   0.000000  celldm(6)=   0.000000

     crystal axes: (cart. coord. in units of alat)
               a(1) = (   1.000000   0.000000   0.000000 )
               a(2) = (   0.000000   1.000000   0.000000 )
               a(3) = (   0.000000   0.000000   1.350000 )

     reciprocal axes: (cart. coord. in units 2 pi/alat)
               b(1) = (  1.000000  0.000000  0.000000 )
               b(2) = (  0.000000  1.000000  0.000000 )
               b(3) = (  0.000000  0.000000  0.740741 )

     PseudoPot. # 1 for Ru read from file:
     /rds/homes/b/bxp912/pp/Ru.pbe-spn-kjpaw_psl.1.0.0.UPF
     MD5 check sum: 0ae1f594dea09af7be8575c3a481d1ae
     Pseudo is Projector augmented-wave + core cor, Zval = 16.0
     Generated using "atomic" code by A. Dal Corso  v.5.1
     Shape of augmentation charge: PSQ
     Using radial grid of 1233 points,  6 beta functions with:
                l(1) =   0
                l(2) =   0
                l(3) =   1
                l(4) =   1
                l(5) =   2
                l(6) =   2
     Q(r) pseudized with 0 coefficients

     atomic species   valence    mass     pseudopotential
        Ru            16.00   101.07000     Ru( 1.00)

      8 Sym. Ops. (no inversion) found

   Cartesian axes

     site n.     atom                  positions (alat units)
         1           Ru  tau(   1) = (   0.0000000   0.0000000   0.0000000  )
         2           Ru  tau(   2) = (   0.2500000   0.2500000   0.0000000  )
         3           Ru  tau(   3) = (   0.2500000   0.0000000   0.2500000  )
         4           Ru  tau(   4) = (   0.0000000   0.2500000   0.2500000  )
         5           Ru  tau(   5) = (   0.0000000   0.0000000   0.8500000  )
         6           Ru  tau(   6) = (   0.2500000   0.2500000   0.8500000  )
         7           Ru  tau(   7) = (   0.2500000   0.0000000   1.1000000  )
         8           Ru  tau(   8) = (   0.0000000   0.2500000   1.1000000  )
         9           Ru  tau(   9) = (   0.0000000   0.5000000   0.0000000  )
        10           Ru  tau(  10) = (   0.2500000   0.7500000   0.0000000  )
        11           Ru  tau(  11) = (   0.2500000   0.5000000   0.2500000  )
        12           Ru  tau(  12) = (   0.0000000   0.7500000   0.2500000  )
        13           Ru  tau(  13) = (   0.0000000   0.5000000   0.8500000  )
        14           Ru  tau(  14) = (   0.2500000   0.7500000   0.8500000  )
        15           Ru  tau(  15) = (   0.2500000   0.5000000   1.1000000  )
        16           Ru  tau(  16) = (   0.0000000   0.7500000   1.1000000  )
        17           Ru  tau(  17) = (   0.5000000   0.0000000   0.0000000  )
        18           Ru  tau(  18) = (   0.7500000   0.2500000   0.0000000  )
        19           Ru  tau(  19) = (   0.7500000   0.0000000   0.2500000  )
        20           Ru  tau(  20) = (   0.5000000   0.2500000   0.2500000  )
        21           Ru  tau(  21) = (   0.5000000   0.0000000   0.8500000  )
        22           Ru  tau(  22) = (   0.7500000   0.2500000   0.8500000  )
        23           Ru  tau(  23) = (   0.7500000   0.0000000   1.1000000  )
        24           Ru  tau(  24) = (   0.5000000   0.2500000   1.1000000  )
        25           Ru  tau(  25) = (   0.5000000   0.5000000   0.0000000  )
        26           Ru  tau(  26) = (   0.7500000   0.7500000   0.0000000  )
        27           Ru  tau(  27) = (   0.7500000   0.5000000   0.2500000  )
        28           Ru  tau(  28) = (   0.5000000   0.7500000   0.2500000  )
        29           Ru  tau(  29) = (   0.5000000   0.5000000   0.8500000  )
        30           Ru  tau(  30) = (   0.7500000   0.7500000   0.8500000  )
        31           Ru  tau(  31) = (   0.7500000   0.5000000   1.1000000  )
        32           Ru  tau(  32) = (   0.5000000   0.7500000   1.1000000  )

     number of k points=    75  Marzari-Vanderbilt smearing, width (Ry)=  0.0400
                       cart. coord. in units 2pi/alat
        k(    1) = (   0.0555556   0.0555556   0.0411523), wk =   0.0219479
        k(    2) = (   0.0555556   0.0555556   0.1234568), wk =   0.0219479
        k(    3) = (   0.0555556   0.0555556   0.2057613), wk =   0.0219479
        k(    4) = (   0.0555556   0.0555556   0.2880658), wk =   0.0219479
        k(    5) = (   0.0555556   0.0555556  -0.3703704), wk =   0.0109739
        k(    6) = (   0.0555556   0.1666667   0.0411523), wk =   0.0438957
        k(    7) = (   0.0555556   0.1666667   0.1234568), wk =   0.0438957
        k(    8) = (   0.0555556   0.1666667   0.2057613), wk =   0.0438957
        k(    9) = (   0.0555556   0.1666667   0.2880658), wk =   0.0438957
        k(   10) = (   0.0555556   0.1666667  -0.3703704), wk =   0.0219479
        k(   11) = (   0.0555556   0.2777778   0.0411523), wk =   0.0438957
        k(   12) = (   0.0555556   0.2777778   0.1234568), wk =   0.0438957
        k(   13) = (   0.0555556   0.2777778   0.2057613), wk =   0.0438957
        k(   14) = (   0.0555556   0.2777778   0.2880658), wk =   0.0438957
        k(   15) = (   0.0555556   0.2777778  -0.3703704), wk =   0.0219479
        k(   16) = (   0.0555556   0.3888889   0.0411523), wk =   0.0438957
        k(   17) = (   0.0555556   0.3888889   0.1234568), wk =   0.0438957
        k(   18) = (   0.0555556   0.3888889   0.2057613), wk =   0.0438957
        k(   19) = (   0.0555556   0.3888889   0.2880658), wk =   0.0438957
        k(   20) = (   0.0555556   0.3888889  -0.3703704), wk =   0.0219479
        k(   21) = (   0.0555556  -0.5000000   0.0411523), wk =   0.0219479
        k(   22) = (   0.0555556  -0.5000000   0.1234568), wk =   0.0219479
        k(   23) = (   0.0555556  -0.5000000   0.2057613), wk =   0.0219479
        k(   24) = (   0.0555556  -0.5000000   0.2880658), wk =   0.0219479
        k(   25) = (   0.0555556  -0.5000000  -0.3703704), wk =   0.0109739
        k(   26) = (   0.1666667   0.1666667   0.0411523), wk =   0.0219479
        k(   27) = (   0.1666667   0.1666667   0.1234568), wk =   0.0219479
        k(   28) = (   0.1666667   0.1666667   0.2057613), wk =   0.0219479
        k(   29) = (   0.1666667   0.1666667   0.2880658), wk =   0.0219479
        k(   30) = (   0.1666667   0.1666667  -0.3703704), wk =   0.0109739
        k(   31) = (   0.1666667   0.2777778   0.0411523), wk =   0.0438957
        k(   32) = (   0.1666667   0.2777778   0.1234568), wk =   0.0438957
        k(   33) = (   0.1666667   0.2777778   0.2057613), wk =   0.0438957
        k(   34) = (   0.1666667   0.2777778   0.2880658), wk =   0.0438957
        k(   35) = (   0.1666667   0.2777778  -0.3703704), wk =   0.0219479
        k(   36) = (   0.1666667   0.3888889   0.0411523), wk =   0.0438957
        k(   37) = (   0.1666667   0.3888889   0.1234568), wk =   0.0438957
        k(   38) = (   0.1666667   0.3888889   0.2057613), wk =   0.0438957
        k(   39) = (   0.1666667   0.3888889   0.2880658), wk =   0.0438957
        k(   40) = (   0.1666667   0.3888889  -0.3703704), wk =   0.0219479
        k(   41) = (   0.1666667  -0.5000000   0.0411523), wk =   0.0219479
        k(   42) = (   0.1666667  -0.5000000   0.1234568), wk =   0.0219479
        k(   43) = (   0.1666667  -0.5000000   0.2057613), wk =   0.0219479
        k(   44) = (   0.1666667  -0.5000000   0.2880658), wk =   0.0219479
        k(   45) = (   0.1666667  -0.5000000  -0.3703704), wk =   0.0109739
        k(   46) = (   0.2777778   0.2777778   0.0411523), wk =   0.0219479
        k(   47) = (   0.2777778   0.2777778   0.1234568), wk =   0.0219479
        k(   48) = (   0.2777778   0.2777778   0.2057613), wk =   0.0219479
        k(   49) = (   0.2777778   0.2777778   0.2880658), wk =   0.0219479
        k(   50) = (   0.2777778   0.2777778  -0.3703704), wk =   0.0109739
        k(   51) = (   0.2777778   0.3888889   0.0411523), wk =   0.0438957
        k(   52) = (   0.2777778   0.3888889   0.1234568), wk =   0.0438957
        k(   53) = (   0.2777778   0.3888889   0.2057613), wk =   0.0438957
        k(   54) = (   0.2777778   0.3888889   0.2880658), wk =   0.0438957
        k(   55) = (   0.2777778   0.3888889  -0.3703704), wk =   0.0219479
        k(   56) = (   0.2777778  -0.5000000   0.0411523), wk =   0.0219479
        k(   57) = (   0.2777778  -0.5000000   0.1234568), wk =   0.0219479
        k(   58) = (   0.2777778  -0.5000000   0.2057613), wk =   0.0219479
        k(   59) = (   0.2777778  -0.5000000   0.2880658), wk =   0.0219479
        k(   60) = (   0.2777778  -0.5000000  -0.3703704), wk =   0.0109739
        k(   61) = (   0.3888889   0.3888889   0.0411523), wk =   0.0219479
        k(   62) = (   0.3888889   0.3888889   0.1234568), wk =   0.0219479
        k(   63) = (   0.3888889   0.3888889   0.2057613), wk =   0.0219479
        k(   64) = (   0.3888889   0.3888889   0.2880658), wk =   0.0219479
        k(   65) = (   0.3888889   0.3888889  -0.3703704), wk =   0.0109739
        k(   66) = (   0.3888889  -0.5000000   0.0411523), wk =   0.0219479
        k(   67) = (   0.3888889  -0.5000000   0.1234568), wk =   0.0219479
        k(   68) = (   0.3888889  -0.5000000   0.2057613), wk =   0.0219479
        k(   69) = (   0.3888889  -0.5000000   0.2880658), wk =   0.0219479
        k(   70) = (   0.3888889  -0.5000000  -0.3703704), wk =   0.0109739
[...]
     atom   30 type  1   force =    -0.00001595   -0.00001595    0.02654161
     atom   31 type  1   force =    -0.00000389    0.00000000   -0.04154345
     atom   32 type  1   force =     0.00000000   -0.00000389   -0.04154345

     Total force =     0.197182     Total SCF correction =     0.002476

     Computing stress (Cartesian axis) and pressure

          total   stress  (Ry/bohr**3)                   (kbar)     P=      -97.31
  -0.00068620   0.00000000   0.00000000         -100.94        0.00        0.00
   0.00000000  -0.00068620   0.00000000            0.00     -100.94        0.00
   0.00000000   0.00000000  -0.00061217            0.00        0.00      -90.05

     BFGS Geometry Optimization
     Energy error            =      0.0E+00
     Gradient error          =      4.2E-02

     number of scf cycles    =   1
     number of bfgs steps    =   0

     energy   new            =  -13811.7184242153 Ry

     new trust radius        =       0.0415468652 bohr
     new conv_thr            =       0.0000010000 Ry

ATOMIC_POSITIONS (crystal)
Ru            0.0000000000        0.0000000000        0.0021370744
Ru            0.2500002130        0.2500002130        0.0021367411
Ru            0.2500006002        0.0000000000        0.1838199459
Ru            0.0000000000        0.2500006002        0.1838199459
Ru            0.0000000000        0.0000000000        0.6309948862
Ru            0.2500011075        0.2500011075        0.6309948685
Ru            0.2500013358        0.0000000000        0.8126783583
Ru           -0.0000000000        0.2500013358        0.8126783583
Ru            0.0000000000        0.5000000000        0.0021367512
Ru            0.2500002130        0.7499997870        0.0021367411
Ru            0.2499992178        0.5000000000        0.1838197959
Ru            0.0000000000        0.7499993998        0.1838199459
Ru            0.0000000000        0.5000000000        0.6309949957
Ru            0.2500011075        0.7499988925        0.6309948685
Ru            0.2500002702        0.5000000000        0.8126779160
Ru            0.0000000000        0.7499986642        0.8126783583
Ru            0.5000000000        0.0000000000        0.0021367512
Ru            0.7499997870        0.2500002130        0.0021367411
Ru            0.7499993998        0.0000000000        0.1838199459
Ru            0.5000000000        0.2499992178        0.1838197959
Ru            0.5000000000        0.0000000000        0.6309949957
Ru            0.7499988925        0.2500011075        0.6309948685
Ru            0.7499986642       -0.0000000000        0.8126783583
Ru            0.5000000000        0.2500002702        0.8126779160
Ru            0.5000000000        0.5000000000        0.0021363770
Ru            0.7499997870        0.7499997870        0.0021367411
Ru            0.7500007822        0.5000000000        0.1838197959
Ru            0.5000000000        0.7500007822        0.1838197959
Ru            0.5000000000        0.5000000000        0.6309947024
Ru            0.7499988925        0.7499988925        0.6309948685
Ru            0.7499997298        0.5000000000        0.8126779160
Ru            0.5000000000        0.7499997298        0.8126779160

     Writing output data file /scratch/XEFmWrrpzMJwlCnF.save/
     NEW-OLD atomic charge density approx. for the potential

[...]

     Energy error            =      3.5E-02
     Gradient error          =      3.1E-02

[...]

     energy   old            =  -13811.7184242153 Ry
     energy   new            =  -13811.7530290847 Ry

     CASE: energy  _new < energy  _old

[...]

     Threshold (ethr) on eigenvalues was too large:
     Diagonalizing with lowered threshold

     Davidson diagonalization with overlap
     ethr =  6.27E-08,  avg # of iterations =  2.2

[...]

     Total force =     0.006314     Total SCF correction =     0.000330

[...]

     Total force =     0.001918     Total SCF correction =     0.000565
     SCF correction compared to forces is large: reduce conv_thr to get better values

[...]

     number of scf cycles    =   8
     number of bfgs steps    =   7

     energy   old            =  -13811.8010677635 Ry
     energy   new            =  -13811.8011766007 Ry

     CASE: energy  _new < energy  _old

     new trust radius        =       0.0011697094 bohr
     new conv_thr            =       0.0000000100 Ry

ATOMIC_POSITIONS (crystal)
Ru            0.0000000000        0.0000000000        0.0073388285
Ru            0.2500004627        0.2500004627        0.0073389525
Ru            0.2500000221        0.0000000000        0.1779088576
Ru            0.0000000000        0.2500000221        0.1779088576
Ru            0.0000000000        0.0000000000        0.6369060405
Ru            0.2500008630        0.2500008630        0.6369063880
Ru            0.2500012466        0.0000000000        0.8074759356
Ru           -0.0000000000        0.2500012466        0.8074759356
Ru            0.0000000000        0.5000000000        0.0073392215
Ru            0.2500004627        0.7499995373        0.0073389525
Ru            0.2499995609        0.5000000000        0.1779088270
Ru            0.0000000000        0.7499999779        0.1779088576
Ru            0.0000000000        0.5000000000        0.6369065378
Ru            0.2500008630        0.7499991370        0.6369063880
Ru            0.2500007034        0.5000000000        0.8074749826
Ru            0.0000000000        0.7499987534        0.8074759356
Ru            0.5000000000        0.0000000000        0.0073392215
Ru            0.7499995373        0.2500004627        0.0073389525
Ru            0.7499999779        0.0000000000        0.1779088576
Ru            0.5000000000        0.2499995609        0.1779088270
Ru            0.5000000000        0.0000000000        0.6369065378
Ru            0.7499991370        0.2500008630        0.6369063880
Ru            0.7499987534       -0.0000000000        0.8074759356
Ru            0.5000000000        0.2500007034        0.8074749826
Ru            0.5000000000        0.5000000000        0.0073385077
Ru            0.7499995373        0.7499995373        0.0073389525
Ru            0.7500004391        0.5000000000        0.1779088270
Ru            0.5000000000        0.7500004391        0.1779088270
Ru            0.5000000000        0.5000000000        0.6369063686
Ru            0.7499991370        0.7499991370        0.6369063880
Ru            0.7499992966        0.5000000000        0.8074749826
Ru            0.5000000000        0.7499992966        0.8074749826

     Writing output data file /scratch/XEFmWrrpzMJwlCnF.save/
     NEW-OLD atomic charge density approx. for the potential

     Check: negative core charge=   -0.000002

     Self-consistent Calculation

[...]

     Threshold (ethr) on eigenvalues was too large:
     Diagonalizing with lowered threshold

     Davidson diagonalization with overlap
     ethr =  3.19E-09,  avg # of iterations =  5.0

[...]

     total energy              =  -13811.80118162 Ry
     estimated scf accuracy    <       0.00000001 Ry

     iteration #  8     ecut=    71.00 Ry     beta= 0.10
     Davidson diagonalization with overlap
     ethr =  2.07E-12,  avg # of iterations =  2.0

     End of self-consistent calculation

[...]

          k = 0.3889-0.5000-0.3704 ( 40776 PWs)   bands (ev):

[...]

          k =-0.5000-0.5000-0.3704 ( 40728 PWs)   bands (ev):

   -57.0441 -57.0441 -57.0441 -57.0441 -56.9979 -56.9979 -56.9979 -56.9978
   -56.9550 -56.9549 -56.9549 -56.9549 -56.9549 -56.9549 -56.9549 -56.9549
   -56.6219 -56.6219 -56.6219 -56.6219 -56.6207 -56.6207 -56.6207 -56.6207
   -56.5760 -56.5760 -56.5760 -56.5760 -56.5760 -56.5760 -56.5760 -56.5760
   -27.3724 -27.3724 -27.3724 -27.3724 -27.3724 -27.3724 -27.3724 -27.3724
   -27.2620 -27.2620 -27.2620 -27.2620 -27.2321 -27.2321 -27.2321 -27.2321
   -27.1747 -27.1747 -27.1747 -27.1747 -27.1747 -27.1747 -27.1747 -27.1747
   -27.0905 -27.0905 -27.0905 -27.0905 -26.9935 -26.9935 -26.9935 -26.9935
   -26.9232 -26.9232 -26.9232 -26.9232 -26.9232 -26.9232 -26.9232 -26.9232
   -26.7865 -26.7865 -26.7865 -26.7865 -26.7136 -26.7136 -26.7136 -26.7136
   -26.6367 -26.6367 -26.6367 -26.6367 -26.6367 -26.6367 -26.6367 -26.6367
   -26.5803 -26.5803 -26.5803 -26.5803 -26.5803 -26.5803 -26.5803 -26.5803
   -26.5601 -26.5601 -26.5601 -26.5601 -26.5327 -26.5327 -26.5327 -26.5327
   -26.4830 -26.4830 -26.4830 -26.4830 -26.4830 -26.4830 -26.4830 -26.4830
   -26.4332 -26.4332 -26.4332 -26.4332 -26.4167 -26.4167 -26.4167 -26.4167
   -26.3237 -26.3237 -26.3237 -26.3237 -26.3187 -26.3187 -26.3187 -26.3187
    10.0451  10.0451  10.0451  10.0451  10.7240  10.7240  10.7240  10.7240
    10.9551  10.9551  10.9551  10.9551  10.9823  10.9823  10.9823  10.9823
    10.9823  10.9823  10.9823  10.9824  11.1059  11.1059  11.1059  11.1059
    11.3428  11.3428  11.3428  11.3428  11.3428  11.3428  11.3428  11.3428
    11.7377  11.7377  11.7377  11.7377  11.8728  11.8728  11.8728  11.8728
    11.8728  11.8728  11.8728  11.8728  12.2804  12.2804  12.2804  12.2805
    12.2805  12.2805  12.2805  12.2805  12.5151  12.5151  12.5151  12.5151
    13.2319  13.2319  13.2319  13.2319  13.3915  13.3915  13.3915  13.3915
    13.7981  13.7981  13.7981  13.7981  13.8578  13.8578  13.8578  13.8578
    13.9625  13.9625  13.9625  13.9625  14.0405  14.0405  14.0405  14.0405
    14.0405  14.0405  14.0406  14.0406  14.0977  14.0977  14.0977  14.0977
    14.4658  14.4659  14.4659  14.4659  14.7130  14.7130  14.7130  14.7130
    14.7600  14.7600  14.7600  14.7600  14.7600  14.7600  14.7600  14.7600
    14.8226  14.8226  14.8226  14.8226  15.0811  15.0811  15.0811  15.0811
    15.1037  15.1037  15.1037  15.1037  15.1037  15.1038  15.1038  15.1038
    15.5153  15.5153  15.5153  15.5153  15.8556  15.8556  15.8556  15.8556
    15.8556  15.8556  15.8556  15.8556  16.0646  16.0646  16.0646  16.0646
    16.5124  16.5124  16.5124  16.5124  16.7829  16.7829  16.7829  16.7829
    16.7829  16.7829  16.7829  16.7829  16.8778  16.8778  16.8778  16.8778
    17.5633  17.5633  17.5633  17.5633  17.6010  17.6011  17.6011  17.6011
    17.6011  17.6011  17.6011  17.6011  17.6538  17.6538  17.6538  17.6538
    17.7349  17.7350  17.7350  17.7350  19.2792  19.2792  19.2792  19.2792
    20.6597  20.6597  20.6597

     the Fermi energy is    16.0044 ev

!    total energy              =  -13811.80118161 Ry

     total all-electron energy =   -289988.191521 Ry
     estimated scf accuracy    <          1.9E-09 Ry
     smearing contrib. (-TS)   =      -0.00103037 Ry
     internal energy E=F+TS    =  -13811.80015124 Ry

     The total energy is F=E-TS. E is the sum of the following terms:
     one-electron contribution =   -5162.75425547 Ry
     hartree contribution      =    2866.99649925 Ry
     xc contribution           =    -926.43500816 Ry
     ewald contribution        =   -3000.23450123 Ry
     one-center paw contrib.   =   -7589.37288564 Ry

     convergence has been achieved in   8 iterations

     Forces acting on atoms (cartesian axes, Ry/au):

     atom    1 type  1   force =     0.00000000    0.00000000   -0.00006848
     atom    2 type  1   force =    -0.00000252   -0.00000252   -0.00006887
     atom    3 type  1   force =    -0.00000072    0.00000000    0.00010609
     atom    4 type  1   force =     0.00000000   -0.00000072    0.00010609
     atom    5 type  1   force =     0.00000000    0.00000000   -0.00010410
     atom    6 type  1   force =    -0.00000402   -0.00000402   -0.00011046
     atom    7 type  1   force =    -0.00000641    0.00000000    0.00006923
     atom    8 type  1   force =     0.00000000   -0.00000641    0.00006923
     atom    9 type  1   force =     0.00000000    0.00000000   -0.00007056
     atom   10 type  1   force =    -0.00000252    0.00000252   -0.00006887
     atom   11 type  1   force =     0.00000167    0.00000000    0.00010742
     atom   12 type  1   force =     0.00000000    0.00000072    0.00010609
     atom   13 type  1   force =     0.00000000    0.00000000   -0.00011193
     atom   14 type  1   force =    -0.00000402    0.00000402   -0.00011046
     atom   15 type  1   force =    -0.00000322    0.00000000    0.00007582
     atom   16 type  1   force =     0.00000000    0.00000641    0.00006923
     atom   17 type  1   force =     0.00000000    0.00000000   -0.00007056
     atom   18 type  1   force =     0.00000252   -0.00000252   -0.00006887
     atom   19 type  1   force =     0.00000072    0.00000000    0.00010609
     atom   20 type  1   force =     0.00000000    0.00000167    0.00010742
     atom   21 type  1   force =     0.00000000    0.00000000   -0.00011193
     atom   22 type  1   force =     0.00000402   -0.00000402   -0.00011046
     atom   23 type  1   force =     0.00000641    0.00000000    0.00006923
     atom   24 type  1   force =     0.00000000   -0.00000322    0.00007582
     atom   25 type  1   force =     0.00000000    0.00000000   -0.00006584
     atom   26 type  1   force =     0.00000252    0.00000252   -0.00006887
     atom   27 type  1   force =    -0.00000167    0.00000000    0.00010742
     atom   28 type  1   force =     0.00000000   -0.00000167    0.00010742
     atom   29 type  1   force =     0.00000000    0.00000000   -0.00011353
     atom   30 type  1   force =     0.00000402    0.00000402   -0.00011046
     atom   31 type  1   force =     0.00000322    0.00000000    0.00007582
     atom   32 type  1   force =     0.00000000    0.00000322    0.00007582

     Total force =     0.000519     Total SCF correction =     0.000242
     SCF correction compared to forces is large: reduce conv_thr to get better values

     Computing stress (Cartesian axis) and pressure

          total   stress  (Ry/bohr**3)                   (kbar)     P=      -44.20
  -0.00029777   0.00000000   0.00000000          -43.80        0.00        0.00
   0.00000000  -0.00029777   0.00000000            0.00      -43.80        0.00
   0.00000000   0.00000000  -0.00030581            0.00        0.00      -44.99

     Energy error            =      5.0E-06
     Gradient error          =      1.1E-04

     bfgs converged in   9 scf cycles and   8 bfgs steps
     (criteria: energy <  1.0E-04 Ry, force <  1.0E-03 Ry/Bohr)

     End of BFGS Geometry Optimization

     Final energy   =  -13811.8011816150 Ry

     File /scratch/XEFmWrrpzMJwlCnF.bfgs deleted, as requested
Begin final coordinates

ATOMIC_POSITIONS (crystal)
Ru            0.0000000000        0.0000000000        0.0073388285
Ru            0.2500004627        0.2500004627        0.0073389525
Ru            0.2500000221        0.0000000000        0.1779088576
Ru            0.0000000000        0.2500000221        0.1779088576
Ru            0.0000000000        0.0000000000        0.6369060405
Ru            0.2500008630        0.2500008630        0.6369063880
Ru            0.2500012466        0.0000000000        0.8074759356
Ru           -0.0000000000        0.2500012466        0.8074759356
Ru            0.0000000000        0.5000000000        0.0073392215
Ru            0.2500004627        0.7499995373        0.0073389525
Ru            0.2499995609        0.5000000000        0.1779088270
Ru            0.0000000000        0.7499999779        0.1779088576
Ru            0.0000000000        0.5000000000        0.6369065378
Ru            0.2500008630        0.7499991370        0.6369063880
Ru            0.2500007034        0.5000000000        0.8074749826
Ru            0.0000000000        0.7499987534        0.8074759356
Ru            0.5000000000        0.0000000000        0.0073392215
Ru            0.7499995373        0.2500004627        0.0073389525
Ru            0.7499999779        0.0000000000        0.1779088576
Ru            0.5000000000        0.2499995609        0.1779088270
Ru            0.5000000000        0.0000000000        0.6369065378
Ru            0.7499991370        0.2500008630        0.6369063880
Ru            0.7499987534       -0.0000000000        0.8074759356
Ru            0.5000000000        0.2500007034        0.8074749826
Ru            0.5000000000        0.5000000000        0.0073385077
Ru            0.7499995373        0.7499995373        0.0073389525
Ru            0.7500004391        0.5000000000        0.1779088270
Ru            0.5000000000        0.7500004391        0.1779088270
Ru            0.5000000000        0.5000000000        0.6369063686
Ru            0.7499991370        0.7499991370        0.6369063880
Ru            0.7499992966        0.5000000000        0.8074749826
Ru            0.5000000000        0.7499992966        0.8074749826
End final coordinates

     Writing output data file /scratch/XEFmWrrpzMJwlCnF.save/

     General routines

     Parallel routines

   This run was terminated on:   5:41:27   2Dec2021

   JOB DONE.