     Program PWSCF v.6.7MaX starts on  2Dec2021 at  5:41:32

     R & G space division:  proc/nbgrp/npool/nimage =      72
     Reading input from relax_9.in
Warning: card &CELL ignored
Warning: card CELL_DYNAMICS = 'BFGS', ignored
Warning: card CELL_FACTOR = 2.0, ignored
Warning: card PRESS = 0.0, ignored
Warning: card / ignored

     Current dimensions of program PWSCF are:
     Max number of different atomic species (ntypx) = 10
     Max number of k-points (npk) =  40000
     Max angular momentum in pseudopotentials (lmaxx) =  3
     file Ru.pbe-spn-kjpaw_psl.1.0.0.UPF: wavefunction(s)  4D renormalized

     Subspace diagonalization in iterative solution of the eigenvalue problem:
     one sub-group per band group will be used

     Found symmetry operation: I + (  0.2500  0.2500  0.0000)
     This is a supercell, fractional translations are disabled
     Message from routine setup:
     using ibrav=0 with symmetry is DISCOURAGED, use correct ibrav instead

     bravais-lattice index     =            0
     lattice parameter (alat)  =      14.4007  a.u.
     unit-cell volume          =    4181.0235 (a.u.)^3
     number of atoms/cell      =           32
     number of atomic types    =            1
     number of electrons       =       512.00
     number of Kohn-Sham states=          307
     kinetic-energy cutoff     =      71.0000  Ry
     charge density cutoff     =     430.0000  Ry
     scf convergence threshold =      1.0E-06
     mixing beta               =       0.1000
     number of iterations used =           10  TF        mixing
     energy convergence thresh.=      1.0E-04
     force convergence thresh. =      1.0E-03
     Exchange-correlation= SLA  PW   PBX  PBC
                           (   1   4   3   4   0   0   0)
     nstep                     =           40

     celldm(1)=  14.400742  celldm(2)=   0.000000  celldm(3)=   0.000000
     celldm(4)=   0.000000  celldm(5)=   0.000000  celldm(6)=   0.000000

     crystal axes: (cart. coord. in units of alat)
               a(1) = (   1.000000   0.000000   0.000000 )
               a(2) = (   0.000000   1.000000   0.000000 )
               a(3) = (   0.000000   0.000000   1.400000 )

     reciprocal axes: (cart. coord. in units 2 pi/alat)
               b(1) = (  1.000000  0.000000  0.000000 )
               b(2) = (  0.000000  1.000000  0.000000 )
               b(3) = (  0.000000  0.000000  0.714286 )

     PseudoPot. # 1 for Ru read from file:
     /rds/homes/b/bxp912/pp/Ru.pbe-spn-kjpaw_psl.1.0.0.UPF
     MD5 check sum: 0ae1f594dea09af7be8575c3a481d1ae
     Pseudo is Projector augmented-wave + core cor, Zval = 16.0
     Generated using "atomic" code by A. Dal Corso  v.5.1
     Shape of augmentation charge: PSQ
     Using radial grid of 1233 points,  6 beta functions with:
                l(1) =   0
                l(2) =   0
                l(3) =   1
                l(4) =   1
                l(5) =   2
                l(6) =   2
     Q(r) pseudized with 0 coefficients

     atomic species   valence    mass     pseudopotential
        Ru            16.00   101.07000     Ru( 1.00)

      8 Sym. Ops. (no inversion) found

   Cartesian axes

     site n.     atom                  positions (alat units)
         1           Ru  tau(   1) = (   0.0000000   0.0000000   0.0000000  )
         2           Ru  tau(   2) = (   0.2500000   0.2500000   0.0000000  )
         3           Ru  tau(   3) = (   0.2500000   0.0000000   0.2500000  )
         4           Ru  tau(   4) = (   0.0000000   0.2500000   0.2500000  )
         5           Ru  tau(   5) = (   0.0000000   0.0000000   0.9000000  )
         6           Ru  tau(   6) = (   0.2500000   0.2500000   0.9000000  )
         7           Ru  tau(   7) = (   0.2500000   0.0000000   1.1500000  )
         8           Ru  tau(   8) = (   0.0000000   0.2500000   1.1500000  )
         9           Ru  tau(   9) = (   0.0000000   0.5000000   0.0000000  )
        10           Ru  tau(  10) = (   0.2500000   0.7500000   0.0000000  )
        11           Ru  tau(  11) = (   0.2500000   0.5000000   0.2500000  )
        12           Ru  tau(  12) = (   0.0000000   0.7500000   0.2500000  )
        13           Ru  tau(  13) = (   0.0000000   0.5000000   0.9000000  )
        14           Ru  tau(  14) = (   0.2500000   0.7500000   0.9000000  )
        15           Ru  tau(  15) = (   0.2500000   0.5000000   1.1500000  )
        16           Ru  tau(  16) = (   0.0000000   0.7500000   1.1500000  )
        17           Ru  tau(  17) = (   0.5000000   0.0000000   0.0000000  )
        18           Ru  tau(  18) = (   0.7500000   0.2500000   0.0000000  )
        19           Ru  tau(  19) = (   0.7500000   0.0000000   0.2500000  )
        20           Ru  tau(  20) = (   0.5000000   0.2500000   0.2500000  )
        21           Ru  tau(  21) = (   0.5000000   0.0000000   0.9000000  )
        22           Ru  tau(  22) = (   0.7500000   0.2500000   0.9000000  )
        23           Ru  tau(  23) = (   0.7500000   0.0000000   1.1500000  )
        24           Ru  tau(  24) = (   0.5000000   0.2500000   1.1500000  )
        25           Ru  tau(  25) = (   0.5000000   0.5000000   0.0000000  )
        26           Ru  tau(  26) = (   0.7500000   0.7500000   0.0000000  )
        27           Ru  tau(  27) = (   0.7500000   0.5000000   0.2500000  )
        28           Ru  tau(  28) = (   0.5000000   0.7500000   0.2500000  )
        29           Ru  tau(  29) = (   0.5000000   0.5000000   0.9000000  )
        30           Ru  tau(  30) = (   0.7500000   0.7500000   0.9000000  )
        31           Ru  tau(  31) = (   0.7500000   0.5000000   1.1500000  )
        32           Ru  tau(  32) = (   0.5000000   0.7500000   1.1500000  )

     number of k points=    75  Marzari-Vanderbilt smearing, width (Ry)=  0.0400
                       cart. coord. in units 2pi/alat
        k(    1) = (   0.0555556   0.0555556   0.0396825), wk =   0.0219479
        k(    2) = (   0.0555556   0.0555556   0.1190476), wk =   0.0219479
        k(    3) = (   0.0555556   0.0555556   0.1984127), wk =   0.0219479
        k(    4) = (   0.0555556   0.0555556   0.2777778), wk =   0.0219479
        k(    5) = (   0.0555556   0.0555556  -0.3571429), wk =   0.0109739
        k(    6) = (   0.0555556   0.1666667   0.0396825), wk =   0.0438957
        k(    7) = (   0.0555556   0.1666667   0.1190476), wk =   0.0438957
        k(    8) = (   0.0555556   0.1666667   0.1984127), wk =   0.0438957
        k(    9) = (   0.0555556   0.1666667   0.2777778), wk =   0.0438957
        k(   10) = (   0.0555556   0.1666667  -0.3571429), wk =   0.0219479
        k(   11) = (   0.0555556   0.2777778   0.0396825), wk =   0.0438957
        k(   12) = (   0.0555556   0.2777778   0.1190476), wk =   0.0438957
        k(   13) = (   0.0555556   0.2777778   0.1984127), wk =   0.0438957
        k(   14) = (   0.0555556   0.2777778   0.2777778), wk =   0.0438957
        k(   15) = (   0.0555556   0.2777778  -0.3571429), wk =   0.0219479
        k(   16) = (   0.0555556   0.3888889   0.0396825), wk =   0.0438957
        k(   17) = (   0.0555556   0.3888889   0.1190476), wk =   0.0438957
        k(   18) = (   0.0555556   0.3888889   0.1984127), wk =   0.0438957
        k(   19) = (   0.0555556   0.3888889   0.2777778), wk =   0.0438957
        k(   20) = (   0.0555556   0.3888889  -0.3571429), wk =   0.0219479
        k(   21) = (   0.0555556  -0.5000000   0.0396825), wk =   0.0219479
        k(   22) = (   0.0555556  -0.5000000   0.1190476), wk =   0.0219479
        k(   23) = (   0.0555556  -0.5000000   0.1984127), wk =   0.0219479
        k(   24) = (   0.0555556  -0.5000000   0.2777778), wk =   0.0219479
        k(   25) = (   0.0555556  -0.5000000  -0.3571429), wk =   0.0109739
        k(   26) = (   0.1666667   0.1666667   0.0396825), wk =   0.0219479
        k(   27) = (   0.1666667   0.1666667   0.1190476), wk =   0.0219479
        k(   28) = (   0.1666667   0.1666667   0.1984127), wk =   0.0219479
        k(   29) = (   0.1666667   0.1666667   0.2777778), wk =   0.0219479
        k(   30) = (   0.1666667   0.1666667  -0.3571429), wk =   0.0109739
        k(   31) = (   0.1666667   0.2777778   0.0396825), wk =   0.0438957
        k(   32) = (   0.1666667   0.2777778   0.1190476), wk =   0.0438957
        k(   33) = (   0.1666667   0.2777778   0.1984127), wk =   0.0438957
        k(   34) = (   0.1666667   0.2777778   0.2777778), wk =   0.0438957
        k(   35) = (   0.1666667   0.2777778  -0.3571429), wk =   0.0219479
        k(   36) = (   0.1666667   0.3888889   0.0396825), wk =   0.0438957
        k(   37) = (   0.1666667   0.3888889   0.1190476), wk =   0.0438957
        k(   38) = (   0.1666667   0.3888889   0.1984127), wk =   0.0438957
        k(   39) = (   0.1666667   0.3888889   0.2777778), wk =   0.0438957
        k(   40) = (   0.1666667   0.3888889  -0.3571429), wk =   0.0219479
        k(   41) = (   0.1666667  -0.5000000   0.0396825), wk =   0.0219479
        k(   42) = (   0.1666667  -0.5000000   0.1190476), wk =   0.0219479
        k(   43) = (   0.1666667  -0.5000000   0.1984127), wk =   0.0219479
        k(   44) = (   0.1666667  -0.5000000   0.2777778), wk =   0.0219479
        k(   45) = (   0.1666667  -0.5000000  -0.3571429), wk =   0.0109739
        k(   46) = (   0.2777778   0.2777778   0.0396825), wk =   0.0219479
        k(   47) = (   0.2777778   0.2777778   0.1190476), wk =   0.0219479
        k(   48) = (   0.2777778   0.2777778   0.1984127), wk =   0.0219479
        k(   49) = (   0.2777778   0.2777778   0.2777778), wk =   0.0219479
        k(   50) = (   0.2777778   0.2777778  -0.3571429), wk =   0.0109739
        k(   51) = (   0.2777778   0.3888889   0.0396825), wk =   0.0438957
        k(   52) = (   0.2777778   0.3888889   0.1190476), wk =   0.0438957
        k(   53) = (   0.2777778   0.3888889   0.1984127), wk =   0.0438957
        k(   54) = (   0.2777778   0.3888889   0.2777778), wk =   0.0438957
        k(   55) = (   0.2777778   0.3888889  -0.3571429), wk =   0.0219479
        k(   56) = (   0.2777778  -0.5000000   0.0396825), wk =   0.0219479
        k(   57) = (   0.2777778  -0.5000000   0.1190476), wk =   0.0219479
        k(   58) = (   0.2777778  -0.5000000   0.1984127), wk =   0.0219479
        k(   59) = (   0.2777778  -0.5000000   0.2777778), wk =   0.0219479
        k(   60) = (   0.2777778  -0.5000000  -0.3571429), wk =   0.0109739
        k(   61) = (   0.3888889   0.3888889   0.0396825), wk =   0.0219479
        k(   62) = (   0.3888889   0.3888889   0.1190476), wk =   0.0219479
        k(   63) = (   0.3888889   0.3888889   0.1984127), wk =   0.0219479
        k(   64) = (   0.3888889   0.3888889   0.2777778), wk =   0.0219479
        k(   65) = (   0.3888889   0.3888889  -0.3571429), wk =   0.0109739
        k(   66) = (   0.3888889  -0.5000000   0.0396825), wk =   0.0219479
        k(   67) = (   0.3888889  -0.5000000   0.1190476), wk =   0.0219479
        k(   68) = (   0.3888889  -0.5000000   0.1984127), wk =   0.0219479
        k(   69) = (   0.3888889  -0.5000000   0.2777778), wk =   0.0219479
        k(   70) = (   0.3888889  -0.5000000  -0.3571429), wk =   0.0109739
[...]
     atom   27 type  1   force =    -0.00000578    0.00000000   -0.02995364
     atom   28 type  1   force =     0.00000000   -0.00000578   -0.02995364
     atom   29 type  1   force =     0.00000000    0.00000000    0.02991985
     atom   30 type  1   force =    -0.00001100   -0.00001100    0.02994704
     atom   31 type  1   force =    -0.00000595    0.00000000   -0.03988801
     atom   32 type  1   force =     0.00000000   -0.00000595   -0.03988801

     Total force =     0.199523     Total SCF correction =     0.001392

     Computing stress (Cartesian axis) and pressure

          total   stress  (Ry/bohr**3)                   (kbar)     P=      -92.00
  -0.00067222   0.00000000   0.00000000          -98.89        0.00        0.00
   0.00000000  -0.00067222   0.00000000            0.00      -98.89        0.00
   0.00000000   0.00000000  -0.00053174            0.00        0.00      -78.22

     BFGS Geometry Optimization
     Energy error            =      0.0E+00
     Gradient error          =      4.0E-02

     number of scf cycles    =   1
     number of bfgs steps    =   0

     energy   new            =  -13811.6855039520 Ry

     new trust radius        =       0.0398975724 bohr
     new conv_thr            =       0.0000010000 Ry

ATOMIC_POSITIONS (crystal)
Ru            0.0000000000        0.0000000000        0.0019787743
Ru            0.2499999567        0.2499999567        0.0019789443
Ru            0.2499996106        0.0000000000        0.1770854898
Ru            0.0000000000        0.2499996106        0.1770854898
Ru            0.0000000000        0.0000000000        0.6443426904
Ru            0.2500007639        0.2500007639        0.6443425347
Ru            0.2499995761        0.0000000000        0.8194506586
Ru           -0.0000000000        0.2499995761        0.8194506586
Ru            0.0000000000        0.5000000000        0.0019787971
Ru            0.2499999567        0.7500000433        0.0019789443
Ru            0.2500004015        0.5000000000        0.1770857093
Ru            0.0000000000        0.7500003894        0.1770854898
Ru            0.0000000000        0.5000000000        0.6443422377
Ru            0.2500007639        0.7499992361        0.6443425347
Ru            0.2500004130        0.5000000000        0.8194501012
Ru            0.0000000000        0.7500004239        0.8194506586
Ru            0.5000000000        0.0000000000        0.0019787971
Ru            0.7500000433        0.2499999567        0.0019789443
Ru            0.7500003894        0.0000000000        0.1770854898
Ru            0.5000000000        0.2500004015        0.1770857093
Ru            0.5000000000        0.0000000000        0.6443422377
Ru            0.7499992361        0.2500007639        0.6443425347
Ru            0.7500004239       -0.0000000000        0.8194506586
Ru            0.5000000000        0.2500004130        0.8194501012
Ru            0.5000000000        0.5000000000        0.0019786715
Ru            0.7500000433        0.7500000433        0.0019789443
Ru            0.7499995985        0.5000000000        0.1770857093
Ru            0.5000000000        0.7499995985        0.1770857093
Ru            0.5000000000        0.5000000000        0.6443411859
Ru            0.7499992361        0.7499992361        0.6443425347
Ru            0.7499995870        0.5000000000        0.8194501012
Ru            0.5000000000        0.7499995870        0.8194501012

     Writing output data file /scratch/xIMXQkLttknnEAgA.save/
     NEW-OLD atomic charge density approx. for the potential

[...]

     Energy error            =      3.6E-02
     Gradient error          =      2.9E-02

[...]

     energy   old            =  -13811.6855039520 Ry
     energy   new            =  -13811.7210119756 Ry

     CASE: energy  _new < energy  _old

[...]

     Total force =     0.018134     Total SCF correction =     0.002147
     SCF correction compared to forces is large: reduce conv_thr to get better values

[...]

     Total force =     0.013092     Total SCF correction =     0.000291

[...]

     number of scf cycles    =   8
     number of bfgs steps    =   7

     energy   old            =  -13811.7719381604 Ry
     energy   new            =  -13811.7720852082 Ry

     CASE: energy  _new < energy  _old

     new trust radius        =       0.0005101214 bohr
     new conv_thr            =       0.0000000100 Ry

ATOMIC_POSITIONS (crystal)
Ru            0.0000000000        0.0000000000        0.0064540382
Ru            0.2500005320        0.2500005320        0.0064532863
Ru            0.2500010422        0.0000000000        0.1704988021
Ru            0.0000000000        0.2500010422        0.1704988021
Ru            0.0000000000        0.0000000000        0.6509293112
Ru            0.2500004742        0.2500004742        0.6509294524
Ru            0.2500008809        0.0000000000        0.8149755824
Ru           -0.0000000000        0.2500008809        0.8149755824
Ru            0.0000000000        0.5000000000        0.0064526300
Ru            0.2500005320        0.7499994680        0.0064532863
Ru            0.2499997097        0.5000000000        0.1704986288
Ru            0.0000000000        0.7499989578        0.1704988021
Ru            0.0000000000        0.5000000000        0.6509292487
Ru            0.2500004742        0.7499995258        0.6509294524
Ru            0.2500002326        0.5000000000        0.8149761597
Ru            0.0000000000        0.7499991191        0.8149755824
Ru            0.5000000000        0.0000000000        0.0064526300
Ru            0.7499994680        0.2500005320        0.0064532863
Ru            0.7499989578        0.0000000000        0.1704988021
Ru            0.5000000000        0.2499997097        0.1704986288
Ru            0.5000000000        0.0000000000        0.6509292487
Ru            0.7499995258        0.2500004742        0.6509294524
Ru            0.7499991191       -0.0000000000        0.8149755824
Ru            0.5000000000        0.2500002326        0.8149761597
Ru            0.5000000000        0.5000000000        0.0064527050
Ru            0.7499994680        0.7499994680        0.0064532863
Ru            0.7500002903        0.5000000000        0.1704986288
Ru            0.5000000000        0.7500002903        0.1704986288
Ru            0.5000000000        0.5000000000        0.6509296844
Ru            0.7499995258        0.7499995258        0.6509294524
Ru            0.7499997674        0.5000000000        0.8149761597
Ru            0.5000000000        0.7499997674        0.8149761597

     Writing output data file /scratch/xIMXQkLttknnEAgA.save/
     NEW-OLD atomic charge density approx. for the potential

     Check: negative core charge=   -0.000002

     Self-consistent Calculation

[...]

     Threshold (ethr) on eigenvalues was too large:
     Diagonalizing with lowered threshold

     Davidson diagonalization with overlap
     ethr =  2.27E-09,  avg # of iterations =  4.0

[...]

     total energy              =  -13811.77208685 Ry
     estimated scf accuracy    <       0.00000001 Ry

     iteration # 10     ecut=    71.00 Ry     beta= 0.10
     Davidson diagonalization with overlap
     ethr =  2.28E-12,  avg # of iterations =  2.7

     End of self-consistent calculation

[...]

          k = 0.3889-0.5000-0.3571 ( 42228 PWs)   bands (ev):

[...]

          k =-0.5000-0.5000-0.3571 ( 42256 PWs)   bands (ev):

   -57.7789 -57.7789 -57.7789 -57.7789 -57.7304 -57.7304 -57.7304 -57.7304
   -57.6887 -57.6887 -57.6886 -57.6886 -57.6886 -57.6886 -57.6886 -57.6886
   -57.3417 -57.3417 -57.3417 -57.3417 -57.3405 -57.3405 -57.3405 -57.3404
   -57.2956 -57.2956 -57.2956 -57.2956 -57.2956 -57.2956 -57.2956 -57.2956
   -28.1105 -28.1105 -28.1105 -28.1105 -28.1105 -28.1105 -28.1105 -28.1105
   -28.0011 -28.0011 -28.0011 -28.0011 -27.9695 -27.9695 -27.9695 -27.9695
   -27.9075 -27.9075 -27.9075 -27.9075 -27.9075 -27.9075 -27.9075 -27.9075
   -27.8221 -27.8221 -27.8221 -27.8221 -27.7237 -27.7237 -27.7237 -27.7237
   -27.6564 -27.6564 -27.6564 -27.6564 -27.6564 -27.6564 -27.6564 -27.6564
   -27.5233 -27.5233 -27.5233 -27.5233 -27.4469 -27.4469 -27.4468 -27.4468
   -27.3614 -27.3614 -27.3614 -27.3614 -27.3614 -27.3614 -27.3613 -27.3613
   -27.3015 -27.3015 -27.3015 -27.3015 -27.3015 -27.3015 -27.3015 -27.3015
   -27.2824 -27.2824 -27.2824 -27.2824 -27.2537 -27.2537 -27.2536 -27.2536
   -27.2025 -27.2025 -27.2025 -27.2025 -27.2025 -27.2025 -27.2025 -27.2025
   -27.1534 -27.1534 -27.1534 -27.1534 -27.1379 -27.1379 -27.1379 -27.1379
   -27.0458 -27.0458 -27.0458 -27.0458 -27.0406 -27.0406 -27.0406 -27.0406
     9.2954   9.2954   9.2954   9.2954   9.9683   9.9683   9.9683   9.9683
    10.2220  10.2220  10.2220  10.2220  10.2280  10.2280  10.2280  10.2280
    10.2280  10.2280  10.2280  10.2280  10.3607  10.3607  10.3607  10.3607
    10.5920  10.5920  10.5920  10.5920  10.5920  10.5921  10.5921  10.5921
    10.9829  10.9829  10.9829  10.9829  11.1299  11.1299  11.1299  11.1299
    11.1299  11.1299  11.1299  11.1299  11.5499  11.5499  11.5499  11.5499
    11.5499  11.5499  11.5499  11.5499  11.7848  11.7848  11.7848  11.7848
    12.4979  12.4979  12.4979  12.4979  12.6723  12.6723  12.6723  12.6723
    13.1007  13.1007  13.1007  13.1007  13.1050  13.1050  13.1050  13.1050
    13.2048  13.2048  13.2048  13.2048  13.2971  13.2971  13.2971  13.2971
    13.2971  13.2971  13.2971  13.2971  13.3441  13.3441  13.3441  13.3441
    13.7539  13.7539  13.7539  13.7539  13.9708  13.9708  13.9708  13.9708
    14.0306  14.0306  14.0306  14.0306  14.0306  14.0306  14.0306  14.0306
    14.1058  14.1058  14.1059  14.1059  14.3439  14.3439  14.3439  14.3439
    14.3737  14.3738  14.3738  14.3738  14.3738  14.3738  14.3738  14.3738
    14.8679  14.8679  14.8679  14.8679  15.1553  15.1553  15.1553  15.1553
    15.1553  15.1553  15.1553  15.1553  15.3298  15.3298  15.3299  15.3299
    15.7845  15.7846  15.7846  15.7846  16.0390  16.0390  16.0390  16.0390
    16.0390  16.0390  16.0391  16.0391  16.1543  16.1543  16.1543  16.1543
    16.7494  16.7494  16.7494  16.7494  16.8481  16.8481  16.8481  16.8481
    16.8843  16.8843  16.8843  16.8843  16.8843  16.8843  16.8843  16.8843
    17.0234  17.0234  17.0234  17.0234  18.5817  18.5817  18.5817  18.5817
    19.9252  19.9252  19.9252

     the Fermi energy is    15.2773 ev

!    total energy              =  -13811.77208685 Ry

     total all-electron energy =   -289988.162426 Ry
     estimated scf accuracy    <          2.8E-09 Ry
     smearing contrib. (-TS)   =      -0.00517876 Ry
     internal energy E=F+TS    =  -13811.76690810 Ry

     The total energy is F=E-TS. E is the sum of the following terms:
     one-electron contribution =   -6210.10653458 Ry
     hartree contribution      =    3376.99409995 Ry
     xc contribution           =    -926.57242719 Ry
     ewald contribution        =   -2462.70450243 Ry
     one-center paw contrib.   =   -7589.37754386 Ry

     convergence has been achieved in  10 iterations

     Forces acting on atoms (cartesian axes, Ry/au):

     atom    1 type  1   force =     0.00000000    0.00000000   -0.00004595
     atom    2 type  1   force =    -0.00000248   -0.00000248   -0.00004566
     atom    3 type  1   force =    -0.00000250    0.00000000    0.00009842
     atom    4 type  1   force =     0.00000000   -0.00000250    0.00009842
     atom    5 type  1   force =     0.00000000    0.00000000   -0.00009315
     atom    6 type  1   force =    -0.00000109   -0.00000109   -0.00009535
     atom    7 type  1   force =    -0.00000403    0.00000000    0.00004135
     atom    8 type  1   force =     0.00000000   -0.00000403    0.00004135
     atom    9 type  1   force =     0.00000000    0.00000000   -0.00004438
     atom   10 type  1   force =    -0.00000248    0.00000248   -0.00004566
     atom   11 type  1   force =     0.00000115    0.00000000    0.00009996
     atom   12 type  1   force =     0.00000000    0.00000250    0.00009842
     atom   13 type  1   force =     0.00000000    0.00000000   -0.00009523
     atom   14 type  1   force =    -0.00000109    0.00000109   -0.00009535
     atom   15 type  1   force =    -0.00000118    0.00000000    0.00004102
     atom   16 type  1   force =     0.00000000    0.00000403    0.00004135
     atom   17 type  1   force =     0.00000000    0.00000000   -0.00004438
     atom   18 type  1   force =     0.00000248   -0.00000248   -0.00004566
     atom   19 type  1   force =     0.00000250    0.00000000    0.00009842
     atom   20 type  1   force =     0.00000000    0.00000115    0.00009996
     atom   21 type  1   force =     0.00000000    0.00000000   -0.00009523
     atom   22 type  1   force =     0.00000109   -0.00000109   -0.00009535
     atom   23 type  1   force =     0.00000403    0.00000000    0.00004135
     atom   24 type  1   force =     0.00000000   -0.00000118    0.00004102
     atom   25 type  1   force =     0.00000000    0.00000000   -0.00004381
     atom   26 type  1   force =     0.00000248    0.00000248   -0.00004566
     atom   27 type  1   force =    -0.00000115    0.00000000    0.00009996
     atom   28 type  1   force =     0.00000000   -0.00000115    0.00009996
     atom   29 type  1   force =     0.00000000    0.00000000   -0.00009679
     atom   30 type  1   force =     0.00000109    0.00000109   -0.00009535
     atom   31 type  1   force =     0.00000118    0.00000000    0.00004102
     atom   32 type  1   force =     0.00000000    0.00000118    0.00004102

     Total force =     0.000426     Total SCF correction =     0.000214
     SCF correction compared to forces is large: reduce conv_thr to get better values

     Computing stress (Cartesian axis) and pressure

          total   stress  (Ry/bohr**3)                   (kbar)     P=      -34.13
  -0.00026473   0.00000000   0.00000000          -38.94        0.00        0.00
   0.00000000  -0.00026473   0.00000000            0.00      -38.94        0.00
   0.00000000   0.00000000  -0.00016648            0.00        0.00      -24.49

     Energy error            =      1.6E-06
     Gradient error          =      1.0E-04

     bfgs converged in   9 scf cycles and   8 bfgs steps
     (criteria: energy <  1.0E-04 Ry, force <  1.0E-03 Ry/Bohr)

     End of BFGS Geometry Optimization

     Final energy   =  -13811.7720868541 Ry

     File /scratch/xIMXQkLttknnEAgA.bfgs deleted, as requested
Begin final coordinates

ATOMIC_POSITIONS (crystal)
Ru            0.0000000000        0.0000000000        0.0064540382
Ru            0.2500005320        0.2500005320        0.0064532863
Ru            0.2500010422        0.0000000000        0.1704988021
Ru            0.0000000000        0.2500010422        0.1704988021
Ru            0.0000000000        0.0000000000        0.6509293112
Ru            0.2500004742        0.2500004742        0.6509294524
Ru            0.2500008809        0.0000000000        0.8149755824
Ru           -0.0000000000        0.2500008809        0.8149755824
Ru            0.0000000000        0.5000000000        0.0064526300
Ru            0.2500005320        0.7499994680        0.0064532863
Ru            0.2499997097        0.5000000000        0.1704986288
Ru            0.0000000000        0.7499989578        0.1704988021
Ru            0.0000000000        0.5000000000        0.6509292487
Ru            0.2500004742        0.7499995258        0.6509294524
Ru            0.2500002326        0.5000000000        0.8149761597
Ru            0.0000000000        0.7499991191        0.8149755824
Ru            0.5000000000        0.0000000000        0.0064526300
Ru            0.7499994680        0.2500005320        0.0064532863
Ru            0.7499989578        0.0000000000        0.1704988021
Ru            0.5000000000        0.2499997097        0.1704986288
Ru            0.5000000000        0.0000000000        0.6509292487
Ru            0.7499995258        0.2500004742        0.6509294524
Ru            0.7499991191       -0.0000000000        0.8149755824
Ru            0.5000000000        0.2500002326        0.8149761597
Ru            0.5000000000        0.5000000000        0.0064527050
Ru            0.7499994680        0.7499994680        0.0064532863
Ru            0.7500002903        0.5000000000        0.1704986288
Ru            0.5000000000        0.7500002903        0.1704986288
Ru            0.5000000000        0.5000000000        0.6509296844
Ru            0.7499995258        0.7499995258        0.6509294524
Ru            0.7499997674        0.5000000000        0.8149761597
Ru            0.5000000000        0.7499997674        0.8149761597
End final coordinates

     Writing output data file /scratch/xIMXQkLttknnEAgA.save/

     General routines

     Parallel routines

   This run was terminated on:   9:14:51   2Dec2021

   JOB DONE.