     Program PWSCF v.6.7MaX starts on 26Nov2021 at 20:37:21

     R & G space division:  proc/nbgrp/npool/nimage =      72
     Reading input from relax_4.in
Warning: card &CELL ignored
Warning: card CELL_DYNAMICS = 'BFGS', ignored
Warning: card CELL_FACTOR = 2.0, ignored
Warning: card PRESS = 0.0, ignored
Warning: card / ignored

     Current dimensions of program PWSCF are:
     Max number of different atomic species (ntypx) = 10
     Max number of k-points (npk) =  40000
     Max angular momentum in pseudopotentials (lmaxx) =  3
     file Ru.pbe-spn-kjpaw_psl.1.0.0.UPF: wavefunction(s)  4D renormalized

     Subspace diagonalization in iterative solution of the eigenvalue problem:
     one sub-group per band group will be used

     Found symmetry operation: I + (  0.2500  0.2500  0.0000)
     This is a supercell, fractional translations are disabled
     Message from routine setup:
     using ibrav=0 with symmetry is DISCOURAGED, use correct ibrav instead

     bravais-lattice index     =            0
     lattice parameter (alat)  =      14.4007  a.u.
     unit-cell volume          =    3434.4122 (a.u.)^3
     number of atoms/cell      =           32
     number of atomic types    =            1
     number of electrons       =       512.00
     number of Kohn-Sham states=          307
     kinetic-energy cutoff     =      71.0000  Ry
     charge density cutoff     =     430.0000  Ry
     scf convergence threshold =      1.0E-06
     mixing beta               =       0.1000
     number of iterations used =           10  TF        mixing
     energy convergence thresh.=      1.0E-04
     force convergence thresh. =      1.0E-03
     Exchange-correlation= SLA  PW   PBX  PBC
                           (   1   4   3   4   0   0   0)
     nstep                     =           40

     celldm(1)=  14.400742  celldm(2)=   0.000000  celldm(3)=   0.000000
     celldm(4)=   0.000000  celldm(5)=   0.000000  celldm(6)=   0.000000

     crystal axes: (cart. coord. in units of alat)
               a(1) = (   1.000000   0.000000   0.000000 )
               a(2) = (   0.000000   1.000000   0.000000 )
               a(3) = (   0.000000   0.000000   1.150000 )

     reciprocal axes: (cart. coord. in units 2 pi/alat)
               b(1) = (  1.000000  0.000000  0.000000 )
               b(2) = (  0.000000  1.000000  0.000000 )
               b(3) = (  0.000000  0.000000  0.869565 )

     PseudoPot. # 1 for Ru read from file:
     /rds/homes/b/bxp912/pp/Ru.pbe-spn-kjpaw_psl.1.0.0.UPF
     MD5 check sum: 0ae1f594dea09af7be8575c3a481d1ae
     Pseudo is Projector augmented-wave + core cor, Zval = 16.0
     Generated using "atomic" code by A. Dal Corso  v.5.1
     Shape of augmentation charge: PSQ
     Using radial grid of 1233 points,  6 beta functions with:
                l(1) =   0
                l(2) =   0
                l(3) =   1
                l(4) =   1
                l(5) =   2
                l(6) =   2
     Q(r) pseudized with 0 coefficients

     atomic species   valence    mass     pseudopotential
        Ru            16.00   101.07000     Ru( 1.00)

      8 Sym. Ops. (no inversion) found

   Cartesian axes

     site n.     atom                  positions (alat units)
         1           Ru  tau(   1) = (   0.0000000   0.0000000   0.0000000  )
         2           Ru  tau(   2) = (   0.2500000   0.2500000   0.0000000  )
         3           Ru  tau(   3) = (   0.2500000   0.0000000   0.2500000  )
         4           Ru  tau(   4) = (   0.0000000   0.2500000   0.2500000  )
         5           Ru  tau(   5) = (   0.0000000   0.0000000   0.6500000  )
         6           Ru  tau(   6) = (   0.2500000   0.2500000   0.6500000  )
         7           Ru  tau(   7) = (   0.2500000   0.0000000   0.9000000  )
         8           Ru  tau(   8) = (   0.0000000   0.2500000   0.9000000  )
         9           Ru  tau(   9) = (   0.0000000   0.5000000   0.0000000  )
        10           Ru  tau(  10) = (   0.2500000   0.7500000   0.0000000  )
        11           Ru  tau(  11) = (   0.2500000   0.5000000   0.2500000  )
        12           Ru  tau(  12) = (   0.0000000   0.7500000   0.2500000  )
        13           Ru  tau(  13) = (   0.0000000   0.5000000   0.6500000  )
        14           Ru  tau(  14) = (   0.2500000   0.7500000   0.6500000  )
        15           Ru  tau(  15) = (   0.2500000   0.5000000   0.9000000  )
        16           Ru  tau(  16) = (   0.0000000   0.7500000   0.9000000  )
        17           Ru  tau(  17) = (   0.5000000   0.0000000   0.0000000  )
        18           Ru  tau(  18) = (   0.7500000   0.2500000   0.0000000  )
        19           Ru  tau(  19) = (   0.7500000   0.0000000   0.2500000  )
        20           Ru  tau(  20) = (   0.5000000   0.2500000   0.2500000  )
        21           Ru  tau(  21) = (   0.5000000   0.0000000   0.6500000  )
        22           Ru  tau(  22) = (   0.7500000   0.2500000   0.6500000  )
        23           Ru  tau(  23) = (   0.7500000   0.0000000   0.9000000  )
        24           Ru  tau(  24) = (   0.5000000   0.2500000   0.9000000  )
        25           Ru  tau(  25) = (   0.5000000   0.5000000   0.0000000  )
        26           Ru  tau(  26) = (   0.7500000   0.7500000   0.0000000  )
        27           Ru  tau(  27) = (   0.7500000   0.5000000   0.2500000  )
        28           Ru  tau(  28) = (   0.5000000   0.7500000   0.2500000  )
        29           Ru  tau(  29) = (   0.5000000   0.5000000   0.6500000  )
        30           Ru  tau(  30) = (   0.7500000   0.7500000   0.6500000  )
        31           Ru  tau(  31) = (   0.7500000   0.5000000   0.9000000  )
        32           Ru  tau(  32) = (   0.5000000   0.7500000   0.9000000  )

     number of k points=    75  Marzari-Vanderbilt smearing, width (Ry)=  0.0400
                       cart. coord. in units 2pi/alat
        k(    1) = (   0.0555556   0.0555556   0.0483092), wk =   0.0219479
        k(    2) = (   0.0555556   0.0555556   0.1449275), wk =   0.0219479
        k(    3) = (   0.0555556   0.0555556   0.2415459), wk =   0.0219479
        k(    4) = (   0.0555556   0.0555556   0.3381643), wk =   0.0219479
        k(    5) = (   0.0555556   0.0555556  -0.4347826), wk =   0.0109739
        k(    6) = (   0.0555556   0.1666667   0.0483092), wk =   0.0438957
        k(    7) = (   0.0555556   0.1666667   0.1449275), wk =   0.0438957
        k(    8) = (   0.0555556   0.1666667   0.2415459), wk =   0.0438957
        k(    9) = (   0.0555556   0.1666667   0.3381643), wk =   0.0438957
        k(   10) = (   0.0555556   0.1666667  -0.4347826), wk =   0.0219479
        k(   11) = (   0.0555556   0.2777778   0.0483092), wk =   0.0438957
        k(   12) = (   0.0555556   0.2777778   0.1449275), wk =   0.0438957
        k(   13) = (   0.0555556   0.2777778   0.2415459), wk =   0.0438957
        k(   14) = (   0.0555556   0.2777778   0.3381643), wk =   0.0438957
        k(   15) = (   0.0555556   0.2777778  -0.4347826), wk =   0.0219479
        k(   16) = (   0.0555556   0.3888889   0.0483092), wk =   0.0438957
        k(   17) = (   0.0555556   0.3888889   0.1449275), wk =   0.0438957
        k(   18) = (   0.0555556   0.3888889   0.2415459), wk =   0.0438957
        k(   19) = (   0.0555556   0.3888889   0.3381643), wk =   0.0438957
        k(   20) = (   0.0555556   0.3888889  -0.4347826), wk =   0.0219479
        k(   21) = (   0.0555556  -0.5000000   0.0483092), wk =   0.0219479
        k(   22) = (   0.0555556  -0.5000000   0.1449275), wk =   0.0219479
        k(   23) = (   0.0555556  -0.5000000   0.2415459), wk =   0.0219479
        k(   24) = (   0.0555556  -0.5000000   0.3381643), wk =   0.0219479
        k(   25) = (   0.0555556  -0.5000000  -0.4347826), wk =   0.0109739
        k(   26) = (   0.1666667   0.1666667   0.0483092), wk =   0.0219479
        k(   27) = (   0.1666667   0.1666667   0.1449275), wk =   0.0219479
        k(   28) = (   0.1666667   0.1666667   0.2415459), wk =   0.0219479
        k(   29) = (   0.1666667   0.1666667   0.3381643), wk =   0.0219479
        k(   30) = (   0.1666667   0.1666667  -0.4347826), wk =   0.0109739
        k(   31) = (   0.1666667   0.2777778   0.0483092), wk =   0.0438957
        k(   32) = (   0.1666667   0.2777778   0.1449275), wk =   0.0438957
        k(   33) = (   0.1666667   0.2777778   0.2415459), wk =   0.0438957
        k(   34) = (   0.1666667   0.2777778   0.3381643), wk =   0.0438957
        k(   35) = (   0.1666667   0.2777778  -0.4347826), wk =   0.0219479
        k(   36) = (   0.1666667   0.3888889   0.0483092), wk =   0.0438957
        k(   37) = (   0.1666667   0.3888889   0.1449275), wk =   0.0438957
        k(   38) = (   0.1666667   0.3888889   0.2415459), wk =   0.0438957
        k(   39) = (   0.1666667   0.3888889   0.3381643), wk =   0.0438957
        k(   40) = (   0.1666667   0.3888889  -0.4347826), wk =   0.0219479
        k(   41) = (   0.1666667  -0.5000000   0.0483092), wk =   0.0219479
        k(   42) = (   0.1666667  -0.5000000   0.1449275), wk =   0.0219479
        k(   43) = (   0.1666667  -0.5000000   0.2415459), wk =   0.0219479
        k(   44) = (   0.1666667  -0.5000000   0.3381643), wk =   0.0219479
        k(   45) = (   0.1666667  -0.5000000  -0.4347826), wk =   0.0109739
        k(   46) = (   0.2777778   0.2777778   0.0483092), wk =   0.0219479
        k(   47) = (   0.2777778   0.2777778   0.1449275), wk =   0.0219479
        k(   48) = (   0.2777778   0.2777778   0.2415459), wk =   0.0219479
        k(   49) = (   0.2777778   0.2777778   0.3381643), wk =   0.0219479
        k(   50) = (   0.2777778   0.2777778  -0.4347826), wk =   0.0109739
        k(   51) = (   0.2777778   0.3888889   0.0483092), wk =   0.0438957
        k(   52) = (   0.2777778   0.3888889   0.1449275), wk =   0.0438957
        k(   53) = (   0.2777778   0.3888889   0.2415459), wk =   0.0438957
        k(   54) = (   0.2777778   0.3888889   0.3381643), wk =   0.0438957
        k(   55) = (   0.2777778   0.3888889  -0.4347826), wk =   0.0219479
        k(   56) = (   0.2777778  -0.5000000   0.0483092), wk =   0.0219479
        k(   57) = (   0.2777778  -0.5000000   0.1449275), wk =   0.0219479
        k(   58) = (   0.2777778  -0.5000000   0.2415459), wk =   0.0219479
        k(   59) = (   0.2777778  -0.5000000   0.3381643), wk =   0.0219479
        k(   60) = (   0.2777778  -0.5000000  -0.4347826), wk =   0.0109739
        k(   61) = (   0.3888889   0.3888889   0.0483092), wk =   0.0219479
        k(   62) = (   0.3888889   0.3888889   0.1449275), wk =   0.0219479
        k(   63) = (   0.3888889   0.3888889   0.2415459), wk =   0.0219479
        k(   64) = (   0.3888889   0.3888889   0.3381643), wk =   0.0219479
        k(   65) = (   0.3888889   0.3888889  -0.4347826), wk =   0.0109739
        k(   66) = (   0.3888889  -0.5000000   0.0483092), wk =   0.0219479
        k(   67) = (   0.3888889  -0.5000000   0.1449275), wk =   0.0219479
        k(   68) = (   0.3888889  -0.5000000   0.2415459), wk =   0.0219479
        k(   69) = (   0.3888889  -0.5000000   0.3381643), wk =   0.0219479
        k(   70) = (   0.3888889  -0.5000000  -0.4347826), wk =   0.0109739
[...]
     atom   27 type  1   force =     0.00001848    0.00000000    0.01474702
     atom   28 type  1   force =     0.00000000    0.00001848    0.01474702
     atom   29 type  1   force =     0.00000000    0.00000000   -0.01473504
     atom   30 type  1   force =    -0.00000726   -0.00000726   -0.01468803
     atom   31 type  1   force =     0.00002781    0.00000000   -0.05588092
     atom   32 type  1   force =     0.00000000    0.00002781   -0.05588092

     Total force =     0.231015     Total SCF correction =     0.002702

     Computing stress (Cartesian axis) and pressure

          total   stress  (Ry/bohr**3)                   (kbar)     P=     -132.15
  -0.00068657   0.00000000   0.00000000         -101.00        0.00        0.00
   0.00000000  -0.00068657   0.00000000            0.00     -101.00        0.00
   0.00000000   0.00000000  -0.00132189            0.00        0.00     -194.46

     BFGS Geometry Optimization
     Energy error            =      0.0E+00
     Gradient error          =      5.6E-02

     number of scf cycles    =   1
     number of bfgs steps    =   0

     energy   new            =  -13812.3282414458 Ry

     new trust radius        =       0.0558809257 bohr
     new conv_thr            =       0.0000010000 Ry

ATOMIC_POSITIONS (crystal)
Ru            0.0000000000        0.0000000000        0.0033719929
Ru            0.2500002837        0.2500002837        0.0033715861
Ru            0.2500016003        0.0000000000        0.2182805251
Ru           -0.0000000000        0.2500016003        0.2182805251
Ru            0.0000000000        0.0000000000        0.5643295238
Ru            0.2500005038        0.2500005038        0.5643304789
Ru            0.2499994675        0.0000000000        0.7792368546
Ru            0.0000000000        0.2499994675        0.7792368546
Ru            0.0000000000        0.5000000000        0.0033700178
Ru            0.2500002837        0.7499997163        0.0033715861
Ru            0.2499987168        0.5000000000        0.2182817791
Ru            0.0000000000        0.7499983997        0.2182805251
Ru            0.0000000000        0.5000000000        0.5643277981
Ru            0.2500005038        0.7499994962        0.5643304789
Ru            0.2499980688        0.5000000000        0.7792344178
Ru            0.0000000000        0.7500005325        0.7792368546
Ru            0.5000000000        0.0000000000        0.0033700178
Ru            0.7499997163        0.2500002837        0.0033715861
Ru            0.7499983997       -0.0000000000        0.2182805251
Ru            0.5000000000        0.2499987168        0.2182817791
Ru            0.5000000000        0.0000000000        0.5643277981
Ru            0.7499994962        0.2500005038        0.5643304789
Ru            0.7500005325        0.0000000000        0.7792368546
Ru            0.5000000000        0.2499980688        0.7792344178
Ru            0.5000000000        0.5000000000        0.0033717761
Ru            0.7499997163        0.7499997163        0.0033715861
Ru            0.7500012832        0.5000000000        0.2182817791
Ru            0.5000000000        0.7500012832        0.2182817791
Ru            0.5000000000        0.5000000000        0.5643276398
Ru            0.7499994962        0.7499994962        0.5643304789
Ru            0.7500019312        0.5000000000        0.7792344178
Ru            0.5000000000        0.7500019312        0.7792344178

     Writing output data file /scratch/JSFIIuvteuzTCqLK.save/
     NEW-OLD atomic charge density approx. for the potential

[...]

     Energy error            =      4.8E-02
     Gradient error          =      4.3E-02

[...]

     energy   old            =  -13812.3282414458 Ry
     energy   new            =  -13812.3762401023 Ry

     CASE: energy  _new < energy  _old

[...]

     Total force =     0.019616     Total SCF correction =     0.000986

[...]

     Total force =     0.016614     Total SCF correction =     0.002161
     SCF correction compared to forces is large: reduce conv_thr to get better values

[...]

     number of scf cycles    =  12
     number of bfgs steps    =  11

     energy   old            =  -13812.5499237018 Ry
     energy   new            =  -13812.5502342115 Ry

     CASE: energy  _new < energy  _old

     new trust radius        =       0.0017539859 bohr
     new conv_thr            =       0.0000000100 Ry

ATOMIC_POSITIONS (crystal)
Ru            0.0000000000        0.0000000000        0.0328479738
Ru            0.2499996512        0.2499996512        0.0328477185
Ru            0.2499999931        0.0000000000        0.2500154555
Ru           -0.0000000000        0.2499999931        0.2500154555
Ru            0.0000000000        0.0000000000        0.5325946132
Ru            0.2499995764        0.2499995764        0.5325941478
Ru            0.2500000363        0.0000000000        0.7497610023
Ru            0.0000000000        0.2500000363        0.7497610023
Ru            0.0000000000        0.5000000000        0.0328463837
Ru            0.2499996512        0.7500003488        0.0328477185
Ru            0.2499992928        0.5000000000        0.2500160558
Ru            0.0000000000        0.7500000069        0.2500154555
Ru            0.0000000000        0.5000000000        0.5325927727
Ru            0.2499995764        0.7500004236        0.5325941478
Ru            0.2499992931        0.5000000000        0.7497597890
Ru            0.0000000000        0.7499999637        0.7497610023
Ru            0.5000000000        0.0000000000        0.0328463837
Ru            0.7500003488        0.2499996512        0.0328477185
Ru            0.7500000069       -0.0000000000        0.2500154555
Ru            0.5000000000        0.2499992928        0.2500160558
Ru            0.5000000000        0.0000000000        0.5325927727
Ru            0.7500004236        0.2499995764        0.5325941478
Ru            0.7499999637        0.0000000000        0.7497610023
Ru            0.5000000000        0.2499992931        0.7497597890
Ru            0.5000000000        0.5000000000        0.0328482813
Ru            0.7500003488        0.7500003488        0.0328477185
Ru            0.7500007072        0.5000000000        0.2500160558
Ru            0.5000000000        0.7500007072        0.2500160558
Ru            0.5000000000        0.5000000000        0.5325932740
Ru            0.7500004236        0.7500004236        0.5325941478
Ru            0.7500007069        0.5000000000        0.7497597890
Ru            0.5000000000        0.7500007069        0.7497597890

     Writing output data file /scratch/JSFIIuvteuzTCqLK.save/
     NEW-OLD atomic charge density approx. for the potential

     Check: negative core charge=   -0.000002

     Self-consistent Calculation

[...]

     Threshold (ethr) on eigenvalues was too large:
     Diagonalizing with lowered threshold

     Davidson diagonalization with overlap
     ethr =  1.78E-08,  avg # of iterations =  2.9

[...]

     total energy              =  -13812.55023970 Ry
     estimated scf accuracy    <       0.00000001 Ry

     iteration # 10     ecut=    71.00 Ry     beta= 0.10
     Davidson diagonalization with overlap
     ethr =  1.98E-12,  avg # of iterations =  1.2

     End of self-consistent calculation

[...]

          k = 0.3889-0.5000-0.4348 ( 34728 PWs)   bands (ev):

[...]

          k =-0.5000-0.5000-0.4348 ( 34784 PWs)   bands (ev):

   -53.3644 -53.3644 -53.3644 -53.3643 -53.3641 -53.3641 -53.3641 -53.3641
   -53.2849 -53.2849 -53.2849 -53.2849 -53.2848 -53.2848 -53.2848 -53.2848
   -53.2704 -53.2704 -53.2704 -53.2704 -53.2704 -53.2704 -53.2704 -53.2704
   -53.2693 -53.2693 -53.2693 -53.2693 -53.2693 -53.2693 -53.2693 -53.2693
   -23.6171 -23.6171 -23.6171 -23.6171 -23.6171 -23.6171 -23.6171 -23.6171
   -23.6164 -23.6164 -23.6164 -23.6164 -23.6164 -23.6164 -23.6164 -23.6164
   -23.5277 -23.5277 -23.5277 -23.5277 -23.5275 -23.5275 -23.5275 -23.5275
   -23.4187 -23.4187 -23.4187 -23.4187 -23.4183 -23.4183 -23.4183 -23.4183
   -23.2389 -23.2389 -23.2389 -23.2389 -23.2389 -23.2389 -23.2389 -23.2389
   -23.2379 -23.2379 -23.2379 -23.2379 -23.2379 -23.2379 -23.2379 -23.2379
   -23.1711 -23.1711 -23.1711 -23.1711 -23.1709 -23.1709 -23.1709 -23.1709
   -23.1393 -23.1393 -23.1393 -23.1393 -23.1393 -23.1393 -23.1393 -23.1393
   -23.1385 -23.1385 -23.1385 -23.1385 -23.1385 -23.1385 -23.1385 -23.1385
   -23.0797 -23.0797 -23.0797 -23.0797 -23.0794 -23.0794 -23.0794 -23.0794
   -23.0223 -23.0223 -23.0223 -23.0223 -23.0223 -23.0223 -23.0223 -23.0223
   -22.9489 -22.9489 -22.9489 -22.9489 -22.9489 -22.9489 -22.9489 -22.9489
    14.1426  14.1426  14.1426  14.1426  14.1460  14.1460  14.1460  14.1460
    14.9005  14.9005  14.9005  14.9005  14.9022  14.9022  14.9022  14.9022
    15.1336  15.1336  15.1336  15.1336  15.1336  15.1336  15.1336  15.1336
    15.1351  15.1351  15.1351  15.1351  15.1352  15.1352  15.1352  15.1352
    15.7792  15.7792  15.7792  15.7792  15.7792  15.7792  15.7792  15.7792
    15.7804  15.7804  15.7804  15.7804  15.7805  15.7805  15.7805  15.7805
    15.9504  15.9504  15.9504  15.9504  15.9535  15.9536  15.9536  15.9536
    16.7567  16.7567  16.7567  16.7567  16.7579  16.7579  16.7579  16.7579
    17.2423  17.2423  17.2423  17.2423  17.2455  17.2455  17.2455  17.2455
    17.6726  17.6726  17.6726  17.6726  17.6741  17.6741  17.6741  17.6742
    18.0321  18.0321  18.0321  18.0321  18.0321  18.0321  18.0321  18.0321
    18.0354  18.0354  18.0354  18.0354  18.0355  18.0355  18.0355  18.0355
    18.1075  18.1075  18.1075  18.1075  18.1082  18.1082  18.1082  18.1082
    18.6408  18.6408  18.6408  18.6408  18.6408  18.6408  18.6409  18.6409
    18.6410  18.6410  18.6410  18.6410  18.6410  18.6410  18.6410  18.6410
    18.8032  18.8032  18.8032  18.8032  18.8048  18.8048  18.8048  18.8048
    19.1598  19.1598  19.1598  19.1598  19.1636  19.1636  19.1636  19.1637
    20.0014  20.0014  20.0014  20.0014  20.0027  20.0027  20.0027  20.0027
    20.7886  20.7886  20.7886  20.7886  20.7886  20.7886  20.7886  20.7886
    20.7908  20.7908  20.7908  20.7908  20.7908  20.7908  20.7908  20.7908
    20.8756  20.8756  20.8756  20.8756  20.8762  20.8762  20.8762  20.8762
    23.1811  23.1811  23.1811  23.1811  23.1814  23.1814  23.1814  23.1814
    24.3299  24.3299  24.3299

     the Fermi energy is    19.4542 ev

!    total energy              =  -13812.55023970 Ry

     total all-electron energy =   -289988.940579 Ry
     estimated scf accuracy    <          2.2E-09 Ry
     smearing contrib. (-TS)   =       0.06257109 Ry
     internal energy E=F+TS    =  -13812.61281079 Ry

     The total energy is F=E-TS. E is the sum of the following terms:
     one-electron contribution =   -1461.71963346 Ry
     hartree contribution      =    1082.53517160 Ry
     xc contribution           =    -924.29160866 Ry
     ewald contribution        =   -4919.83256084 Ry
     one-center paw contrib.   =   -7589.30417943 Ry

     convergence has been achieved in  10 iterations

     Forces acting on atoms (cartesian axes, Ry/au):

     atom    1 type  1   force =     0.00000000    0.00000000   -0.00015383
     atom    2 type  1   force =     0.00000293    0.00000293   -0.00015275
     atom    3 type  1   force =     0.00000235    0.00000000   -0.00001482
     atom    4 type  1   force =     0.00000000    0.00000235   -0.00001482
     atom    5 type  1   force =     0.00000000    0.00000000    0.00001075
     atom    6 type  1   force =     0.00000219    0.00000219    0.00001225
     atom    7 type  1   force =     0.00000296    0.00000000    0.00015515
     atom    8 type  1   force =     0.00000000    0.00000296    0.00015515
     atom    9 type  1   force =     0.00000000    0.00000000   -0.00015189
     atom   10 type  1   force =     0.00000293   -0.00000293   -0.00015275
     atom   11 type  1   force =     0.00000268    0.00000000   -0.00001704
     atom   12 type  1   force =     0.00000000   -0.00000235   -0.00001482
     atom   13 type  1   force =     0.00000000    0.00000000    0.00001363
     atom   14 type  1   force =     0.00000219   -0.00000219    0.00001225
     atom   15 type  1   force =     0.00000347    0.00000000    0.00015667
     atom   16 type  1   force =     0.00000000   -0.00000296    0.00015515
     atom   17 type  1   force =     0.00000000    0.00000000   -0.00015189
     atom   18 type  1   force =    -0.00000293    0.00000293   -0.00015275
     atom   19 type  1   force =    -0.00000235    0.00000000   -0.00001482
     atom   20 type  1   force =     0.00000000    0.00000268   -0.00001704
     atom   21 type  1   force =     0.00000000    0.00000000    0.00001363
     atom   22 type  1   force =    -0.00000219    0.00000219    0.00001225
     atom   23 type  1   force =    -0.00000296    0.00000000    0.00015515
     atom   24 type  1   force =     0.00000000    0.00000347    0.00015667
     atom   25 type  1   force =     0.00000000    0.00000000   -0.00015287
     atom   26 type  1   force =    -0.00000293   -0.00000293   -0.00015275
     atom   27 type  1   force =    -0.00000268    0.00000000   -0.00001704
     atom   28 type  1   force =     0.00000000   -0.00000268   -0.00001704
     atom   29 type  1   force =     0.00000000    0.00000000    0.00001465
     atom   30 type  1   force =    -0.00000219   -0.00000219    0.00001225
     atom   31 type  1   force =    -0.00000347    0.00000000    0.00015667
     atom   32 type  1   force =     0.00000000   -0.00000347    0.00015667

     Total force =     0.000620     Total SCF correction =     0.000463
     SCF correction compared to forces is large: reduce conv_thr to get better values

     Computing stress (Cartesian axis) and pressure

          total   stress  (Ry/bohr**3)                   (kbar)     P=     -231.41
  -0.00101388   0.00000000   0.00000000         -149.15        0.00        0.00
   0.00000000  -0.00101388   0.00000000            0.00     -149.15        0.00
   0.00000000   0.00000000  -0.00269161            0.00        0.00     -395.95

     Energy error            =      5.5E-06
     Gradient error          =      1.6E-04

     bfgs converged in  13 scf cycles and  12 bfgs steps
     (criteria: energy <  1.0E-04 Ry, force <  1.0E-03 Ry/Bohr)

     End of BFGS Geometry Optimization

     Final energy   =  -13812.5502396999 Ry

     File /scratch/JSFIIuvteuzTCqLK.bfgs deleted, as requested
Begin final coordinates

ATOMIC_POSITIONS (crystal)
Ru            0.0000000000        0.0000000000        0.0328479738
Ru            0.2499996512        0.2499996512        0.0328477185
Ru            0.2499999931        0.0000000000        0.2500154555
Ru           -0.0000000000        0.2499999931        0.2500154555
Ru            0.0000000000        0.0000000000        0.5325946132
Ru            0.2499995764        0.2499995764        0.5325941478
Ru            0.2500000363        0.0000000000        0.7497610023
Ru            0.0000000000        0.2500000363        0.7497610023
Ru            0.0000000000        0.5000000000        0.0328463837
Ru            0.2499996512        0.7500003488        0.0328477185
Ru            0.2499992928        0.5000000000        0.2500160558
Ru            0.0000000000        0.7500000069        0.2500154555
Ru            0.0000000000        0.5000000000        0.5325927727
Ru            0.2499995764        0.7500004236        0.5325941478
Ru            0.2499992931        0.5000000000        0.7497597890
Ru            0.0000000000        0.7499999637        0.7497610023
Ru            0.5000000000        0.0000000000        0.0328463837
Ru            0.7500003488        0.2499996512        0.0328477185
Ru            0.7500000069       -0.0000000000        0.2500154555
Ru            0.5000000000        0.2499992928        0.2500160558
Ru            0.5000000000        0.0000000000        0.5325927727
Ru            0.7500004236        0.2499995764        0.5325941478
Ru            0.7499999637        0.0000000000        0.7497610023
Ru            0.5000000000        0.2499992931        0.7497597890
Ru            0.5000000000        0.5000000000        0.0328482813
Ru            0.7500003488        0.7500003488        0.0328477185
Ru            0.7500007072        0.5000000000        0.2500160558
Ru            0.5000000000        0.7500007072        0.2500160558
Ru            0.5000000000        0.5000000000        0.5325932740
Ru            0.7500004236        0.7500004236        0.5325941478
Ru            0.7500007069        0.5000000000        0.7497597890
Ru            0.5000000000        0.7500007069        0.7497597890
End final coordinates

     Writing output data file /scratch/JSFIIuvteuzTCqLK.save/

     General routines

     Parallel routines

   This run was terminated on:   1: 0:31  27Nov2021

   JOB DONE.