     Program PWSCF v.6.7MaX starts on  2Dec2021 at 15:59:26

     R & G space division:  proc/nbgrp/npool/nimage =      72
     Reading input from relax_12.in
Warning: card &CELL ignored
Warning: card CELL_DYNAMICS = 'BFGS', ignored
Warning: card CELL_FACTOR = 2.0, ignored
Warning: card PRESS = 0.0, ignored
Warning: card / ignored

     Current dimensions of program PWSCF are:
     Max number of different atomic species (ntypx) = 10
     Max number of k-points (npk) =  40000
     Max angular momentum in pseudopotentials (lmaxx) =  3
     file Ru.pbe-spn-kjpaw_psl.1.0.0.UPF: wavefunction(s)  4D renormalized

     Subspace diagonalization in iterative solution of the eigenvalue problem:
     one sub-group per band group will be used

     Found symmetry operation: I + (  0.2500  0.2500  0.0000)
     This is a supercell, fractional translations are disabled
     Message from routine setup:
     using ibrav=0 with symmetry is DISCOURAGED, use correct ibrav instead

     bravais-lattice index     =            0
     lattice parameter (alat)  =      14.4007  a.u.
     unit-cell volume          =    4628.9903 (a.u.)^3
     number of atoms/cell      =           32
     number of atomic types    =            1
     number of electrons       =       512.00
     number of Kohn-Sham states=          307
     kinetic-energy cutoff     =      71.0000  Ry
     charge density cutoff     =     430.0000  Ry
     scf convergence threshold =      1.0E-06
     mixing beta               =       0.1000
     number of iterations used =           10  TF        mixing
     energy convergence thresh.=      1.0E-04
     force convergence thresh. =      1.0E-03
     Exchange-correlation= SLA  PW   PBX  PBC
                           (   1   4   3   4   0   0   0)
     nstep                     =           40

     celldm(1)=  14.400742  celldm(2)=   0.000000  celldm(3)=   0.000000
     celldm(4)=   0.000000  celldm(5)=   0.000000  celldm(6)=   0.000000

     crystal axes: (cart. coord. in units of alat)
               a(1) = (   1.000000   0.000000   0.000000 )
               a(2) = (   0.000000   1.000000   0.000000 )
               a(3) = (   0.000000   0.000000   1.550000 )

     reciprocal axes: (cart. coord. in units 2 pi/alat)
               b(1) = (  1.000000  0.000000  0.000000 )
               b(2) = (  0.000000  1.000000  0.000000 )
               b(3) = (  0.000000  0.000000  0.645161 )

     PseudoPot. # 1 for Ru read from file:
     /rds/homes/b/bxp912/pp/Ru.pbe-spn-kjpaw_psl.1.0.0.UPF
     MD5 check sum: 0ae1f594dea09af7be8575c3a481d1ae
     Pseudo is Projector augmented-wave + core cor, Zval = 16.0
     Generated using "atomic" code by A. Dal Corso  v.5.1
     Shape of augmentation charge: PSQ
     Using radial grid of 1233 points,  6 beta functions with:
                l(1) =   0
                l(2) =   0
                l(3) =   1
                l(4) =   1
                l(5) =   2
                l(6) =   2
     Q(r) pseudized with 0 coefficients

     atomic species   valence    mass     pseudopotential
        Ru            16.00   101.07000     Ru( 1.00)

      8 Sym. Ops. (no inversion) found

   Cartesian axes

     site n.     atom                  positions (alat units)
         1           Ru  tau(   1) = (   0.0000000   0.0000000   0.0000000  )
         2           Ru  tau(   2) = (   0.2500000   0.2500000   0.0000000  )
         3           Ru  tau(   3) = (   0.2500000   0.0000000   0.2500000  )
         4           Ru  tau(   4) = (   0.0000000   0.2500000   0.2500000  )
         5           Ru  tau(   5) = (   0.0000000   0.0000000   1.0500000  )
         6           Ru  tau(   6) = (   0.2500000   0.2500000   1.0500000  )
         7           Ru  tau(   7) = (   0.2500000   0.0000000   1.3000000  )
         8           Ru  tau(   8) = (   0.0000000   0.2500000   1.3000000  )
         9           Ru  tau(   9) = (   0.0000000   0.5000000   0.0000000  )
        10           Ru  tau(  10) = (   0.2500000   0.7500000   0.0000000  )
        11           Ru  tau(  11) = (   0.2500000   0.5000000   0.2500000  )
        12           Ru  tau(  12) = (   0.0000000   0.7500000   0.2500000  )
        13           Ru  tau(  13) = (   0.0000000   0.5000000   1.0500000  )
        14           Ru  tau(  14) = (   0.2500000   0.7500000   1.0500000  )
        15           Ru  tau(  15) = (   0.2500000   0.5000000   1.3000000  )
        16           Ru  tau(  16) = (   0.0000000   0.7500000   1.3000000  )
        17           Ru  tau(  17) = (   0.5000000   0.0000000   0.0000000  )
        18           Ru  tau(  18) = (   0.7500000   0.2500000   0.0000000  )
        19           Ru  tau(  19) = (   0.7500000   0.0000000   0.2500000  )
        20           Ru  tau(  20) = (   0.5000000   0.2500000   0.2500000  )
        21           Ru  tau(  21) = (   0.5000000   0.0000000   1.0500000  )
        22           Ru  tau(  22) = (   0.7500000   0.2500000   1.0500000  )
        23           Ru  tau(  23) = (   0.7500000   0.0000000   1.3000000  )
        24           Ru  tau(  24) = (   0.5000000   0.2500000   1.3000000  )
        25           Ru  tau(  25) = (   0.5000000   0.5000000   0.0000000  )
        26           Ru  tau(  26) = (   0.7500000   0.7500000   0.0000000  )
        27           Ru  tau(  27) = (   0.7500000   0.5000000   0.2500000  )
        28           Ru  tau(  28) = (   0.5000000   0.7500000   0.2500000  )
        29           Ru  tau(  29) = (   0.5000000   0.5000000   1.0500000  )
        30           Ru  tau(  30) = (   0.7500000   0.7500000   1.0500000  )
        31           Ru  tau(  31) = (   0.7500000   0.5000000   1.3000000  )
        32           Ru  tau(  32) = (   0.5000000   0.7500000   1.3000000  )

     number of k points=    75  Marzari-Vanderbilt smearing, width (Ry)=  0.0400
                       cart. coord. in units 2pi/alat
        k(    1) = (   0.0555556   0.0555556   0.0358423), wk =   0.0219479
        k(    2) = (   0.0555556   0.0555556   0.1075269), wk =   0.0219479
        k(    3) = (   0.0555556   0.0555556   0.1792115), wk =   0.0219479
        k(    4) = (   0.0555556   0.0555556   0.2508961), wk =   0.0219479
        k(    5) = (   0.0555556   0.0555556  -0.3225806), wk =   0.0109739
        k(    6) = (   0.0555556   0.1666667   0.0358423), wk =   0.0438957
        k(    7) = (   0.0555556   0.1666667   0.1075269), wk =   0.0438957
        k(    8) = (   0.0555556   0.1666667   0.1792115), wk =   0.0438957
        k(    9) = (   0.0555556   0.1666667   0.2508961), wk =   0.0438957
        k(   10) = (   0.0555556   0.1666667  -0.3225806), wk =   0.0219479
        k(   11) = (   0.0555556   0.2777778   0.0358423), wk =   0.0438957
        k(   12) = (   0.0555556   0.2777778   0.1075269), wk =   0.0438957
        k(   13) = (   0.0555556   0.2777778   0.1792115), wk =   0.0438957
        k(   14) = (   0.0555556   0.2777778   0.2508961), wk =   0.0438957
        k(   15) = (   0.0555556   0.2777778  -0.3225806), wk =   0.0219479
        k(   16) = (   0.0555556   0.3888889   0.0358423), wk =   0.0438957
        k(   17) = (   0.0555556   0.3888889   0.1075269), wk =   0.0438957
        k(   18) = (   0.0555556   0.3888889   0.1792115), wk =   0.0438957
        k(   19) = (   0.0555556   0.3888889   0.2508961), wk =   0.0438957
        k(   20) = (   0.0555556   0.3888889  -0.3225806), wk =   0.0219479
        k(   21) = (   0.0555556  -0.5000000   0.0358423), wk =   0.0219479
        k(   22) = (   0.0555556  -0.5000000   0.1075269), wk =   0.0219479
        k(   23) = (   0.0555556  -0.5000000   0.1792115), wk =   0.0219479
        k(   24) = (   0.0555556  -0.5000000   0.2508961), wk =   0.0219479
        k(   25) = (   0.0555556  -0.5000000  -0.3225806), wk =   0.0109739
        k(   26) = (   0.1666667   0.1666667   0.0358423), wk =   0.0219479
        k(   27) = (   0.1666667   0.1666667   0.1075269), wk =   0.0219479
        k(   28) = (   0.1666667   0.1666667   0.1792115), wk =   0.0219479
        k(   29) = (   0.1666667   0.1666667   0.2508961), wk =   0.0219479
        k(   30) = (   0.1666667   0.1666667  -0.3225806), wk =   0.0109739
        k(   31) = (   0.1666667   0.2777778   0.0358423), wk =   0.0438957
        k(   32) = (   0.1666667   0.2777778   0.1075269), wk =   0.0438957
        k(   33) = (   0.1666667   0.2777778   0.1792115), wk =   0.0438957
        k(   34) = (   0.1666667   0.2777778   0.2508961), wk =   0.0438957
        k(   35) = (   0.1666667   0.2777778  -0.3225806), wk =   0.0219479
        k(   36) = (   0.1666667   0.3888889   0.0358423), wk =   0.0438957
        k(   37) = (   0.1666667   0.3888889   0.1075269), wk =   0.0438957
        k(   38) = (   0.1666667   0.3888889   0.1792115), wk =   0.0438957
        k(   39) = (   0.1666667   0.3888889   0.2508961), wk =   0.0438957
        k(   40) = (   0.1666667   0.3888889  -0.3225806), wk =   0.0219479
        k(   41) = (   0.1666667  -0.5000000   0.0358423), wk =   0.0219479
        k(   42) = (   0.1666667  -0.5000000   0.1075269), wk =   0.0219479
        k(   43) = (   0.1666667  -0.5000000   0.1792115), wk =   0.0219479
        k(   44) = (   0.1666667  -0.5000000   0.2508961), wk =   0.0219479
        k(   45) = (   0.1666667  -0.5000000  -0.3225806), wk =   0.0109739
        k(   46) = (   0.2777778   0.2777778   0.0358423), wk =   0.0219479
        k(   47) = (   0.2777778   0.2777778   0.1075269), wk =   0.0219479
        k(   48) = (   0.2777778   0.2777778   0.1792115), wk =   0.0219479
        k(   49) = (   0.2777778   0.2777778   0.2508961), wk =   0.0219479
        k(   50) = (   0.2777778   0.2777778  -0.3225806), wk =   0.0109739
        k(   51) = (   0.2777778   0.3888889   0.0358423), wk =   0.0438957
        k(   52) = (   0.2777778   0.3888889   0.1075269), wk =   0.0438957
        k(   53) = (   0.2777778   0.3888889   0.1792115), wk =   0.0438957
        k(   54) = (   0.2777778   0.3888889   0.2508961), wk =   0.0438957
        k(   55) = (   0.2777778   0.3888889  -0.3225806), wk =   0.0219479
        k(   56) = (   0.2777778  -0.5000000   0.0358423), wk =   0.0219479
        k(   57) = (   0.2777778  -0.5000000   0.1075269), wk =   0.0219479
        k(   58) = (   0.2777778  -0.5000000   0.1792115), wk =   0.0219479
        k(   59) = (   0.2777778  -0.5000000   0.2508961), wk =   0.0219479
        k(   60) = (   0.2777778  -0.5000000  -0.3225806), wk =   0.0109739
        k(   61) = (   0.3888889   0.3888889   0.0358423), wk =   0.0219479
        k(   62) = (   0.3888889   0.3888889   0.1075269), wk =   0.0219479
        k(   63) = (   0.3888889   0.3888889   0.1792115), wk =   0.0219479
        k(   64) = (   0.3888889   0.3888889   0.2508961), wk =   0.0219479
        k(   65) = (   0.3888889   0.3888889  -0.3225806), wk =   0.0109739
        k(   66) = (   0.3888889  -0.5000000   0.0358423), wk =   0.0219479
        k(   67) = (   0.3888889  -0.5000000   0.1075269), wk =   0.0219479
        k(   68) = (   0.3888889  -0.5000000   0.1792115), wk =   0.0219479
        k(   69) = (   0.3888889  -0.5000000   0.2508961), wk =   0.0219479
        k(   70) = (   0.3888889  -0.5000000  -0.3225806), wk =   0.0109739
[...]
     atom   27 type  1   force =     0.00000683    0.00000000   -0.03340807
     atom   28 type  1   force =     0.00000000    0.00000683   -0.03340807
     atom   29 type  1   force =     0.00000000    0.00000000    0.03340363
     atom   30 type  1   force =    -0.00002377   -0.00002377    0.03343313
     atom   31 type  1   force =    -0.00000504    0.00000000   -0.03834400
     atom   32 type  1   force =     0.00000000   -0.00000504   -0.03834400

     Total force =     0.203379     Total SCF correction =     0.006457

     Computing stress (Cartesian axis) and pressure

          total   stress  (Ry/bohr**3)                   (kbar)     P=      -80.98
  -0.00061452   0.00000000   0.00000000          -90.40        0.00        0.00
   0.00000000  -0.00061452   0.00000000            0.00      -90.40        0.00
   0.00000000   0.00000000  -0.00042237            0.00        0.00      -62.13

     BFGS Geometry Optimization
     Energy error            =      0.0E+00
     Gradient error          =      3.8E-02

     number of scf cycles    =   1
     number of bfgs steps    =   0

     energy   new            =  -13811.6577653665 Ry

     new trust radius        =       0.0383440013 bohr
     new conv_thr            =       0.0000010000 Ry

ATOMIC_POSITIONS (crystal)
Ru            0.0000000000        0.0000000000        0.0017175485
Ru            0.2499998752        0.2499998752        0.0017168049
Ru            0.2499996756       -0.0000000000        0.1597926673
Ru            0.0000000000        0.2499996756        0.1597926673
Ru            0.0000000000        0.0000000000        0.6789168751
Ru            0.2500016508        0.2500016508        0.6789171776
Ru            0.2499992969        0.0000000000        0.8369940357
Ru            0.0000000000        0.2499992969        0.8369940357
Ru            0.0000000000        0.5000000000        0.0017160059
Ru            0.2499998752        0.7500001248        0.0017168049
Ru            0.2499995259        0.5000000000        0.1597936224
Ru           -0.0000000000        0.7500003244        0.1597926673
Ru            0.0000000000        0.5000000000        0.6789157673
Ru            0.2500016508        0.7499983492        0.6789171776
Ru            0.2500003500        0.5000000000        0.8369918447
Ru            0.0000000000        0.7500007031        0.8369940357
Ru            0.5000000000        0.0000000000        0.0017160059
Ru            0.7500001248        0.2499998752        0.0017168049
Ru            0.7500003244       -0.0000000000        0.1597926673
Ru            0.5000000000        0.2499995259        0.1597936224
Ru            0.5000000000        0.0000000000        0.6789157673
Ru            0.7499983492        0.2500016508        0.6789171776
Ru            0.7500007031        0.0000000000        0.8369940357
Ru            0.5000000000        0.2500003500        0.8369918447
Ru            0.5000000000        0.5000000000        0.0017164023
Ru            0.7500001248        0.7500001248        0.0017168049
Ru            0.7500004741        0.5000000000        0.1597936224
Ru            0.5000000000        0.7500004741        0.1597936224
Ru            0.5000000000        0.5000000000        0.6789158560
Ru            0.7499983492        0.7499983492        0.6789171776
Ru            0.7499996500        0.5000000000        0.8369918447
Ru            0.5000000000        0.7499996500        0.8369918447

     Writing output data file /scratch/lehylfqUMRqfRhlv.save/
     NEW-OLD atomic charge density approx. for the potential

[...]

     Energy error            =      3.7E-02
     Gradient error          =      2.9E-02

[...]

     energy   old            =  -13811.6577653665 Ry
     energy   new            =  -13811.6946643821 Ry

     CASE: energy  _new < energy  _old

[...]

     Total force =     0.010429     Total SCF correction =     0.000183

[...]

     Total force =     0.001306     Total SCF correction =     0.000723
     SCF correction compared to forces is large: reduce conv_thr to get better values

[...]

     number of scf cycles    =   8
     number of bfgs steps    =   7

     energy   old            =  -13811.7487912154 Ry
     energy   new            =  -13811.7490748340 Ry

     CASE: energy  _new < energy  _old

     new trust radius        =       0.0008250784 bohr
     new conv_thr            =       0.0000000100 Ry

ATOMIC_POSITIONS (crystal)
Ru            0.0000000000        0.0000000000        0.0053792047
Ru            0.2500007641        0.2500007641        0.0053811706
Ru            0.2500008159       -0.0000000000        0.1532093525
Ru            0.0000000000        0.2500008159        0.1532093525
Ru            0.0000000000        0.0000000000        0.6854988210
Ru            0.2499988242        0.2499988242        0.6854993340
Ru            0.2499999192        0.0000000000        0.8333289795
Ru            0.0000000000        0.2499999192        0.8333289795
Ru            0.0000000000        0.5000000000        0.0053821181
Ru            0.2500007641        0.7499992359        0.0053811706
Ru            0.2500010491        0.5000000000        0.1532095247
Ru           -0.0000000000        0.7499991841        0.1532093525
Ru            0.0000000000        0.5000000000        0.6854997360
Ru            0.2499988242        0.7500011758        0.6854993340
Ru            0.2499989813        0.5000000000        0.8333298574
Ru            0.0000000000        0.7500000808        0.8333289795
Ru            0.5000000000        0.0000000000        0.0053821181
Ru            0.7499992359        0.2500007641        0.0053811706
Ru            0.7499991841       -0.0000000000        0.1532093525
Ru            0.5000000000        0.2500010491        0.1532095247
Ru            0.5000000000        0.0000000000        0.6854997360
Ru            0.7500011758        0.2499988242        0.6854993340
Ru            0.7500000808        0.0000000000        0.8333289795
Ru            0.5000000000        0.2499989813        0.8333298574
Ru            0.5000000000        0.5000000000        0.0053811739
Ru            0.7499992359        0.7499992359        0.0053811706
Ru            0.7499989509        0.5000000000        0.1532095247
Ru            0.5000000000        0.7499989509        0.1532095247
Ru            0.5000000000        0.5000000000        0.6854990556
Ru            0.7500011758        0.7500011758        0.6854993340
Ru            0.7500010187        0.5000000000        0.8333298574
Ru            0.5000000000        0.7500010187        0.8333298574

     Writing output data file /scratch/lehylfqUMRqfRhlv.save/
     NEW-OLD atomic charge density approx. for the potential

     Check: negative core charge=   -0.000002

     Self-consistent Calculation

[...]

     Threshold (ethr) on eigenvalues was too large:
     Diagonalizing with lowered threshold

     Davidson diagonalization with overlap
     ethr =  1.06E-09,  avg # of iterations =  5.0

[...]

     total energy              =  -13811.74907730 Ry
     estimated scf accuracy    <       0.00000001 Ry

     iteration #  8     ecut=    71.00 Ry     beta= 0.10
     Davidson diagonalization with overlap
     ethr =  2.30E-12,  avg # of iterations =  1.0

     End of self-consistent calculation

[...]

          k = 0.3889-0.5000-0.3226 ( 46816 PWs)   bands (ev):

[...]

          k =-0.5000-0.5000-0.3226 ( 46776 PWs)   bands (ev):

   -59.7085 -59.7085 -59.7085 -59.7085 -59.6582 -59.6582 -59.6582 -59.6582
   -59.6173 -59.6173 -59.6173 -59.6173 -59.6172 -59.6172 -59.6172 -59.6172
   -59.2586 -59.2586 -59.2586 -59.2586 -59.2574 -59.2574 -59.2574 -59.2574
   -59.2125 -59.2125 -59.2125 -59.2124 -59.2124 -59.2124 -59.2124 -59.2124
   -30.0429 -30.0429 -30.0429 -30.0429 -30.0429 -30.0429 -30.0429 -30.0429
   -29.9346 -29.9346 -29.9346 -29.9346 -29.9013 -29.9013 -29.9012 -29.9012
   -29.8359 -29.8359 -29.8359 -29.8359 -29.8359 -29.8359 -29.8359 -29.8359
   -29.7490 -29.7490 -29.7490 -29.7490 -29.6498 -29.6498 -29.6498 -29.6498
   -29.5846 -29.5846 -29.5846 -29.5846 -29.5846 -29.5846 -29.5846 -29.5846
   -29.4546 -29.4546 -29.4546 -29.4546 -29.3752 -29.3752 -29.3752 -29.3752
   -29.2823 -29.2823 -29.2823 -29.2823 -29.2823 -29.2823 -29.2823 -29.2823
   -29.2197 -29.2197 -29.2197 -29.2197 -29.2197 -29.2197 -29.2197 -29.2196
   -29.2016 -29.2016 -29.2016 -29.2016 -29.1714 -29.1714 -29.1714 -29.1714
   -29.1186 -29.1186 -29.1186 -29.1186 -29.1186 -29.1186 -29.1186 -29.1185
   -29.0701 -29.0701 -29.0701 -29.0701 -29.0557 -29.0557 -29.0557 -29.0557
   -28.9649 -28.9649 -28.9649 -28.9649 -28.9597 -28.9597 -28.9597 -28.9597
     7.3532   7.3532   7.3532   7.3532   8.0211   8.0211   8.0211   8.0211
     8.2820   8.2820   8.2821   8.2821   8.2821   8.2821   8.2821   8.2821
     8.2942   8.2942   8.2942   8.2942   8.4205   8.4205   8.4205   8.4205
     8.6490   8.6491   8.6491   8.6491   8.6491   8.6491   8.6491   8.6491
     9.0368   9.0368   9.0368   9.0368   9.1929   9.1929   9.1929   9.1929
     9.1929   9.1929   9.1929   9.1929   9.6235   9.6235   9.6235   9.6235
     9.6235   9.6235   9.6235   9.6235   9.8579   9.8579   9.8579   9.8579
    10.5696  10.5696  10.5696  10.5696  10.7525  10.7525  10.7525  10.7525
    11.1485  11.1485  11.1485  11.1485  11.2113  11.2113  11.2113  11.2113
    11.2557  11.2557  11.2557  11.2557  11.3606  11.3606  11.3606  11.3606
    11.3606  11.3606  11.3606  11.3606  11.3984  11.3984  11.3984  11.3984
    11.8478  11.8479  11.8479  11.8479  12.0350  12.0350  12.0350  12.0350
    12.1057  12.1057  12.1057  12.1057  12.1057  12.1057  12.1057  12.1057
    12.1884  12.1884  12.1884  12.1884  12.4114  12.4114  12.4114  12.4114
    12.4471  12.4472  12.4472  12.4472  12.4472  12.4472  12.4472  12.4472
    13.0749  13.0749  13.0749  13.0749  13.2584  13.2584  13.2584  13.2584
    13.2584  13.2584  13.2584  13.2584  13.3785  13.3785  13.3785  13.3785
    13.8614  13.8614  13.8614  13.8614  14.0966  14.0966  14.0966  14.0966
    14.0966  14.0966  14.0966  14.0966  14.2345  14.2345  14.2346  14.2346
    14.5738  14.5738  14.5738  14.5738  14.9357  14.9357  14.9357  14.9357
    14.9693  14.9693  14.9694  14.9694  14.9694  14.9694  14.9694  14.9694
    15.1136  15.1136  15.1136  15.1136  16.7777  16.7777  16.7777  16.7777
    17.9886  17.9886  17.9886

     the Fermi energy is    13.3535 ev

!    total energy              =  -13811.74907729 Ry

     total all-electron energy =   -289988.139417 Ry
     estimated scf accuracy    <          9.6E-09 Ry
     smearing contrib. (-TS)   =      -0.00861561 Ry
     internal energy E=F+TS    =  -13811.74046168 Ry

     The total energy is F=E-TS. E is the sum of the following terms:
     one-electron contribution =   -9568.89991803 Ry
     hartree contribution      =    5020.21576989 Ry
     xc contribution           =    -926.69832083 Ry
     ewald contribution        =    -746.97631350 Ry
     one-center paw contrib.   =   -7589.38167922 Ry

     convergence has been achieved in   8 iterations

     Forces acting on atoms (cartesian axes, Ry/au):

     atom    1 type  1   force =     0.00000000    0.00000000   -0.00008968
     atom    2 type  1   force =    -0.00000305   -0.00000305   -0.00010221
     atom    3 type  1   force =    -0.00000516    0.00000000    0.00000611
     atom    4 type  1   force =     0.00000000   -0.00000516    0.00000611
     atom    5 type  1   force =     0.00000000    0.00000000    0.00000800
     atom    6 type  1   force =     0.00000492    0.00000492    0.00000668
     atom    7 type  1   force =    -0.00000000    0.00000000    0.00009185
     atom    8 type  1   force =     0.00000000   -0.00000000    0.00009185
     atom    9 type  1   force =     0.00000000    0.00000000   -0.00010693
     atom   10 type  1   force =    -0.00000305    0.00000305   -0.00010221
     atom   11 type  1   force =    -0.00000328    0.00000000    0.00000879
     atom   12 type  1   force =     0.00000000    0.00000516    0.00000611
     atom   13 type  1   force =     0.00000000    0.00000000    0.00000282
     atom   14 type  1   force =     0.00000492   -0.00000492    0.00000668
     atom   15 type  1   force =     0.00000536    0.00000000    0.00008426
     atom   16 type  1   force =     0.00000000    0.00000000    0.00009185
     atom   17 type  1   force =     0.00000000    0.00000000   -0.00010693
     atom   18 type  1   force =     0.00000305   -0.00000305   -0.00010221
     atom   19 type  1   force =     0.00000516    0.00000000    0.00000611
     atom   20 type  1   force =     0.00000000   -0.00000328    0.00000879
     atom   21 type  1   force =     0.00000000    0.00000000    0.00000282
     atom   22 type  1   force =    -0.00000492    0.00000492    0.00000668
     atom   23 type  1   force =     0.00000000    0.00000000    0.00009185
     atom   24 type  1   force =     0.00000000    0.00000536    0.00008426
     atom   25 type  1   force =     0.00000000    0.00000000   -0.00010502
     atom   26 type  1   force =     0.00000305    0.00000305   -0.00010221
     atom   27 type  1   force =     0.00000328    0.00000000    0.00000879
     atom   28 type  1   force =     0.00000000    0.00000328    0.00000879
     atom   29 type  1   force =     0.00000000    0.00000000    0.00001296
     atom   30 type  1   force =    -0.00000492   -0.00000492    0.00000668
     atom   31 type  1   force =    -0.00000536    0.00000000    0.00008426
     atom   32 type  1   force =     0.00000000   -0.00000536    0.00008426

     Total force =     0.000384     Total SCF correction =     0.000626
     SCF correction compared to forces is large: reduce conv_thr to get better values

     Computing stress (Cartesian axis) and pressure

          total   stress  (Ry/bohr**3)                   (kbar)     P=      -24.24
  -0.00022353   0.00000000   0.00000000          -32.88        0.00        0.00
   0.00000000  -0.00022353   0.00000000            0.00      -32.88        0.00
   0.00000000   0.00000000  -0.00004718            0.00        0.00       -6.94

     Energy error            =      2.5E-06
     Gradient error          =      1.1E-04

     bfgs converged in   9 scf cycles and   8 bfgs steps
     (criteria: energy <  1.0E-04 Ry, force <  1.0E-03 Ry/Bohr)

     End of BFGS Geometry Optimization

     Final energy   =  -13811.7490772934 Ry

     File /scratch/lehylfqUMRqfRhlv.bfgs deleted, as requested
Begin final coordinates

ATOMIC_POSITIONS (crystal)
Ru            0.0000000000        0.0000000000        0.0053792047
Ru            0.2500007641        0.2500007641        0.0053811706
Ru            0.2500008159       -0.0000000000        0.1532093525
Ru            0.0000000000        0.2500008159        0.1532093525
Ru            0.0000000000        0.0000000000        0.6854988210
Ru            0.2499988242        0.2499988242        0.6854993340
Ru            0.2499999192        0.0000000000        0.8333289795
Ru            0.0000000000        0.2499999192        0.8333289795
Ru            0.0000000000        0.5000000000        0.0053821181
Ru            0.2500007641        0.7499992359        0.0053811706
Ru            0.2500010491        0.5000000000        0.1532095247
Ru           -0.0000000000        0.7499991841        0.1532093525
Ru            0.0000000000        0.5000000000        0.6854997360
Ru            0.2499988242        0.7500011758        0.6854993340
Ru            0.2499989813        0.5000000000        0.8333298574
Ru            0.0000000000        0.7500000808        0.8333289795
Ru            0.5000000000        0.0000000000        0.0053821181
Ru            0.7499992359        0.2500007641        0.0053811706
Ru            0.7499991841       -0.0000000000        0.1532093525
Ru            0.5000000000        0.2500010491        0.1532095247
Ru            0.5000000000        0.0000000000        0.6854997360
Ru            0.7500011758        0.2499988242        0.6854993340
Ru            0.7500000808        0.0000000000        0.8333289795
Ru            0.5000000000        0.2499989813        0.8333298574
Ru            0.5000000000        0.5000000000        0.0053811739
Ru            0.7499992359        0.7499992359        0.0053811706
Ru            0.7499989509        0.5000000000        0.1532095247
Ru            0.5000000000        0.7499989509        0.1532095247
Ru            0.5000000000        0.5000000000        0.6854990556
Ru            0.7500011758        0.7500011758        0.6854993340
Ru            0.7500010187        0.5000000000        0.8333298574
Ru            0.5000000000        0.7500010187        0.8333298574
End final coordinates

     Writing output data file /scratch/lehylfqUMRqfRhlv.save/

     General routines

     Parallel routines

   This run was terminated on:  19:34:51   2Dec2021

   JOB DONE.