     Program PWSCF v.6.7MaX starts on  1Dec2021 at 16:47:27

     R & G space division:  proc/nbgrp/npool/nimage =      72
     Reading input from relax_5.in
Warning: card &CELL ignored
Warning: card CELL_DYNAMICS = 'BFGS', ignored
Warning: card CELL_FACTOR = 2.0, ignored
Warning: card PRESS = 0.0, ignored
Warning: card / ignored

     Current dimensions of program PWSCF are:
     Max number of different atomic species (ntypx) = 10
     Max number of k-points (npk) =  40000
     Max angular momentum in pseudopotentials (lmaxx) =  3
     file Ru.pbe-spn-kjpaw_psl.1.0.0.UPF: wavefunction(s)  4D renormalized

     Subspace diagonalization in iterative solution of the eigenvalue problem:
     one sub-group per band group will be used

     Found symmetry operation: I + (  0.2500  0.2500  0.0000)
     This is a supercell, fractional translations are disabled
     Message from routine setup:
     using ibrav=0 with symmetry is DISCOURAGED, use correct ibrav instead

     bravais-lattice index     =            0
     lattice parameter (alat)  =      14.4007  a.u.
     unit-cell volume          =    3583.7344 (a.u.)^3
     number of atoms/cell      =           32
     number of atomic types    =            1
     number of electrons       =       512.00
     number of Kohn-Sham states=          307
     kinetic-energy cutoff     =      71.0000  Ry
     charge density cutoff     =     430.0000  Ry
     scf convergence threshold =      1.0E-06
     mixing beta               =       0.1000
     number of iterations used =           10  TF        mixing
     energy convergence thresh.=      1.0E-04
     force convergence thresh. =      1.0E-03
     Exchange-correlation= SLA  PW   PBX  PBC
                           (   1   4   3   4   0   0   0)
     nstep                     =           40

     celldm(1)=  14.400742  celldm(2)=   0.000000  celldm(3)=   0.000000
     celldm(4)=   0.000000  celldm(5)=   0.000000  celldm(6)=   0.000000

     crystal axes: (cart. coord. in units of alat)
               a(1) = (   1.000000   0.000000   0.000000 )
               a(2) = (   0.000000   1.000000   0.000000 )
               a(3) = (   0.000000   0.000000   1.200000 )

     reciprocal axes: (cart. coord. in units 2 pi/alat)
               b(1) = (  1.000000  0.000000  0.000000 )
               b(2) = (  0.000000  1.000000  0.000000 )
               b(3) = (  0.000000  0.000000  0.833333 )

     PseudoPot. # 1 for Ru read from file:
     /rds/homes/b/bxp912/pp/Ru.pbe-spn-kjpaw_psl.1.0.0.UPF
     MD5 check sum: 0ae1f594dea09af7be8575c3a481d1ae
     Pseudo is Projector augmented-wave + core cor, Zval = 16.0
     Generated using "atomic" code by A. Dal Corso  v.5.1
     Shape of augmentation charge: PSQ
     Using radial grid of 1233 points,  6 beta functions with:
                l(1) =   0
                l(2) =   0
                l(3) =   1
                l(4) =   1
                l(5) =   2
                l(6) =   2
     Q(r) pseudized with 0 coefficients

     atomic species   valence    mass     pseudopotential
        Ru            16.00   101.07000     Ru( 1.00)

      8 Sym. Ops. (no inversion) found

   Cartesian axes

     site n.     atom                  positions (alat units)
         1           Ru  tau(   1) = (   0.0000000   0.0000000   0.0000000  )
         2           Ru  tau(   2) = (   0.2500000   0.2500000   0.0000000  )
         3           Ru  tau(   3) = (   0.2500000   0.0000000   0.2500000  )
         4           Ru  tau(   4) = (   0.0000000   0.2500000   0.2500000  )
         5           Ru  tau(   5) = (   0.0000000   0.0000000   0.7000000  )
         6           Ru  tau(   6) = (   0.2500000   0.2500000   0.7000000  )
         7           Ru  tau(   7) = (   0.2500000   0.0000000   0.9500000  )
         8           Ru  tau(   8) = (   0.0000000   0.2500000   0.9500000  )
         9           Ru  tau(   9) = (   0.0000000   0.5000000   0.0000000  )
        10           Ru  tau(  10) = (   0.2500000   0.7500000   0.0000000  )
        11           Ru  tau(  11) = (   0.2500000   0.5000000   0.2500000  )
        12           Ru  tau(  12) = (   0.0000000   0.7500000   0.2500000  )
        13           Ru  tau(  13) = (   0.0000000   0.5000000   0.7000000  )
        14           Ru  tau(  14) = (   0.2500000   0.7500000   0.7000000  )
        15           Ru  tau(  15) = (   0.2500000   0.5000000   0.9500000  )
        16           Ru  tau(  16) = (   0.0000000   0.7500000   0.9500000  )
        17           Ru  tau(  17) = (   0.5000000   0.0000000   0.0000000  )
        18           Ru  tau(  18) = (   0.7500000   0.2500000   0.0000000  )
        19           Ru  tau(  19) = (   0.7500000   0.0000000   0.2500000  )
        20           Ru  tau(  20) = (   0.5000000   0.2500000   0.2500000  )
        21           Ru  tau(  21) = (   0.5000000   0.0000000   0.7000000  )
        22           Ru  tau(  22) = (   0.7500000   0.2500000   0.7000000  )
        23           Ru  tau(  23) = (   0.7500000   0.0000000   0.9500000  )
        24           Ru  tau(  24) = (   0.5000000   0.2500000   0.9500000  )
        25           Ru  tau(  25) = (   0.5000000   0.5000000   0.0000000  )
        26           Ru  tau(  26) = (   0.7500000   0.7500000   0.0000000  )
        27           Ru  tau(  27) = (   0.7500000   0.5000000   0.2500000  )
        28           Ru  tau(  28) = (   0.5000000   0.7500000   0.2500000  )
        29           Ru  tau(  29) = (   0.5000000   0.5000000   0.7000000  )
        30           Ru  tau(  30) = (   0.7500000   0.7500000   0.7000000  )
        31           Ru  tau(  31) = (   0.7500000   0.5000000   0.9500000  )
        32           Ru  tau(  32) = (   0.5000000   0.7500000   0.9500000  )

     number of k points=    75  Marzari-Vanderbilt smearing, width (Ry)=  0.0400
                       cart. coord. in units 2pi/alat
        k(    1) = (   0.0555556   0.0555556   0.0462963), wk =   0.0219479
        k(    2) = (   0.0555556   0.0555556   0.1388889), wk =   0.0219479
        k(    3) = (   0.0555556   0.0555556   0.2314815), wk =   0.0219479
        k(    4) = (   0.0555556   0.0555556   0.3240741), wk =   0.0219479
        k(    5) = (   0.0555556   0.0555556  -0.4166667), wk =   0.0109739
        k(    6) = (   0.0555556   0.1666667   0.0462963), wk =   0.0438957
        k(    7) = (   0.0555556   0.1666667   0.1388889), wk =   0.0438957
        k(    8) = (   0.0555556   0.1666667   0.2314815), wk =   0.0438957
        k(    9) = (   0.0555556   0.1666667   0.3240741), wk =   0.0438957
        k(   10) = (   0.0555556   0.1666667  -0.4166667), wk =   0.0219479
        k(   11) = (   0.0555556   0.2777778   0.0462963), wk =   0.0438957
        k(   12) = (   0.0555556   0.2777778   0.1388889), wk =   0.0438957
        k(   13) = (   0.0555556   0.2777778   0.2314815), wk =   0.0438957
        k(   14) = (   0.0555556   0.2777778   0.3240741), wk =   0.0438957
        k(   15) = (   0.0555556   0.2777778  -0.4166667), wk =   0.0219479
        k(   16) = (   0.0555556   0.3888889   0.0462963), wk =   0.0438957
        k(   17) = (   0.0555556   0.3888889   0.1388889), wk =   0.0438957
        k(   18) = (   0.0555556   0.3888889   0.2314815), wk =   0.0438957
        k(   19) = (   0.0555556   0.3888889   0.3240741), wk =   0.0438957
        k(   20) = (   0.0555556   0.3888889  -0.4166667), wk =   0.0219479
        k(   21) = (   0.0555556  -0.5000000   0.0462963), wk =   0.0219479
        k(   22) = (   0.0555556  -0.5000000   0.1388889), wk =   0.0219479
        k(   23) = (   0.0555556  -0.5000000   0.2314815), wk =   0.0219479
        k(   24) = (   0.0555556  -0.5000000   0.3240741), wk =   0.0219479
        k(   25) = (   0.0555556  -0.5000000  -0.4166667), wk =   0.0109739
        k(   26) = (   0.1666667   0.1666667   0.0462963), wk =   0.0219479
        k(   27) = (   0.1666667   0.1666667   0.1388889), wk =   0.0219479
        k(   28) = (   0.1666667   0.1666667   0.2314815), wk =   0.0219479
        k(   29) = (   0.1666667   0.1666667   0.3240741), wk =   0.0219479
        k(   30) = (   0.1666667   0.1666667  -0.4166667), wk =   0.0109739
        k(   31) = (   0.1666667   0.2777778   0.0462963), wk =   0.0438957
        k(   32) = (   0.1666667   0.2777778   0.1388889), wk =   0.0438957
        k(   33) = (   0.1666667   0.2777778   0.2314815), wk =   0.0438957
        k(   34) = (   0.1666667   0.2777778   0.3240741), wk =   0.0438957
        k(   35) = (   0.1666667   0.2777778  -0.4166667), wk =   0.0219479
        k(   36) = (   0.1666667   0.3888889   0.0462963), wk =   0.0438957
        k(   37) = (   0.1666667   0.3888889   0.1388889), wk =   0.0438957
        k(   38) = (   0.1666667   0.3888889   0.2314815), wk =   0.0438957
        k(   39) = (   0.1666667   0.3888889   0.3240741), wk =   0.0438957
        k(   40) = (   0.1666667   0.3888889  -0.4166667), wk =   0.0219479
        k(   41) = (   0.1666667  -0.5000000   0.0462963), wk =   0.0219479
        k(   42) = (   0.1666667  -0.5000000   0.1388889), wk =   0.0219479
        k(   43) = (   0.1666667  -0.5000000   0.2314815), wk =   0.0219479
        k(   44) = (   0.1666667  -0.5000000   0.3240741), wk =   0.0219479
        k(   45) = (   0.1666667  -0.5000000  -0.4166667), wk =   0.0109739
        k(   46) = (   0.2777778   0.2777778   0.0462963), wk =   0.0219479
        k(   47) = (   0.2777778   0.2777778   0.1388889), wk =   0.0219479
        k(   48) = (   0.2777778   0.2777778   0.2314815), wk =   0.0219479
        k(   49) = (   0.2777778   0.2777778   0.3240741), wk =   0.0219479
        k(   50) = (   0.2777778   0.2777778  -0.4166667), wk =   0.0109739
        k(   51) = (   0.2777778   0.3888889   0.0462963), wk =   0.0438957
        k(   52) = (   0.2777778   0.3888889   0.1388889), wk =   0.0438957
        k(   53) = (   0.2777778   0.3888889   0.2314815), wk =   0.0438957
        k(   54) = (   0.2777778   0.3888889   0.3240741), wk =   0.0438957
        k(   55) = (   0.2777778   0.3888889  -0.4166667), wk =   0.0219479
        k(   56) = (   0.2777778  -0.5000000   0.0462963), wk =   0.0219479
        k(   57) = (   0.2777778  -0.5000000   0.1388889), wk =   0.0219479
        k(   58) = (   0.2777778  -0.5000000   0.2314815), wk =   0.0219479
        k(   59) = (   0.2777778  -0.5000000   0.3240741), wk =   0.0219479
        k(   60) = (   0.2777778  -0.5000000  -0.4166667), wk =   0.0109739
        k(   61) = (   0.3888889   0.3888889   0.0462963), wk =   0.0219479
        k(   62) = (   0.3888889   0.3888889   0.1388889), wk =   0.0219479
        k(   63) = (   0.3888889   0.3888889   0.2314815), wk =   0.0219479
        k(   64) = (   0.3888889   0.3888889   0.3240741), wk =   0.0219479
        k(   65) = (   0.3888889   0.3888889  -0.4166667), wk =   0.0109739
        k(   66) = (   0.3888889  -0.5000000   0.0462963), wk =   0.0219479
        k(   67) = (   0.3888889  -0.5000000   0.1388889), wk =   0.0219479
        k(   68) = (   0.3888889  -0.5000000   0.2314815), wk =   0.0219479
        k(   69) = (   0.3888889  -0.5000000   0.3240741), wk =   0.0219479
        k(   70) = (   0.3888889  -0.5000000  -0.4166667), wk =   0.0109739
[...]
     atom   27 type  1   force =     0.00000273    0.00000000   -0.00106897
     atom   28 type  1   force =     0.00000000    0.00000273   -0.00106897
     atom   29 type  1   force =     0.00000000    0.00000000    0.00106693
     atom   30 type  1   force =    -0.00000452   -0.00000452    0.00105909
     atom   31 type  1   force =    -0.00000241    0.00000000   -0.05160296
     atom   32 type  1   force =     0.00000000   -0.00000241   -0.05160296

     Total force =     0.206466     Total SCF correction =     0.000508

     Computing stress (Cartesian axis) and pressure

          total   stress  (Ry/bohr**3)                   (kbar)     P=     -122.87
  -0.00070113   0.00000000   0.00000000         -103.14        0.00        0.00
   0.00000000  -0.00070113   0.00000000            0.00     -103.14        0.00
   0.00000000   0.00000000  -0.00110350            0.00        0.00     -162.33

     BFGS Geometry Optimization
     Energy error            =      0.0E+00
     Gradient error          =      5.2E-02

     number of scf cycles    =   1
     number of bfgs steps    =   0

     energy   new            =  -13812.0619129458 Ry

     new trust radius        =       0.0516116082 bohr
     new conv_thr            =       0.0000010000 Ry

ATOMIC_POSITIONS (crystal)
Ru            0.0000000000        0.0000000000        0.0029863565
Ru            0.2500000234        0.2500000234        0.0029864158
Ru            0.2500001314        0.0000000000        0.2082716265
Ru            0.0000000000        0.2500001314        0.2082716265
Ru            0.0000000000        0.0000000000        0.5833947779
Ru            0.2500003136        0.2500003136        0.5833946199
Ru            0.2500005135        0.0000000000        0.7886805463
Ru            0.0000000000        0.2500005135        0.7886805463
Ru            0.0000000000        0.5000000000        0.0029866291
Ru            0.2500000234        0.7499999766        0.0029864158
Ru            0.2499998107        0.5000000000        0.2082714746
Ru            0.0000000000        0.7499998686        0.2082716265
Ru            0.0000000000        0.5000000000        0.5833950694
Ru            0.2500003136        0.7499996864        0.5833946199
Ru            0.2500001670        0.5000000000        0.7886805382
Ru            0.0000000000        0.7499994865        0.7886805463
Ru            0.5000000000        0.0000000000        0.0029866291
Ru            0.7499999766        0.2500000234        0.0029864158
Ru            0.7499998686        0.0000000000        0.2082716265
Ru            0.5000000000        0.2499998107        0.2082714746
Ru            0.5000000000        0.0000000000        0.5833950694
Ru            0.7499996864        0.2500003136        0.5833946199
Ru            0.7499994865        0.0000000000        0.7886805463
Ru            0.5000000000        0.2500001670        0.7886805382
Ru            0.5000000000        0.5000000000        0.0029861764
Ru            0.7499999766        0.7499999766        0.0029864158
Ru            0.7500001893        0.5000000000        0.2082714746
Ru            0.5000000000        0.7500001893        0.2082714746
Ru            0.5000000000        0.5000000000        0.5833950737
Ru            0.7499996864        0.7499996864        0.5833946199
Ru            0.7499998330        0.5000000000        0.7886805382
Ru            0.5000000000        0.7499998330        0.7886805382

     Writing output data file /scratch/RabKNegDmVvRMVYm.save/
     NEW-OLD atomic charge density approx. for the potential

[...]

     Energy error            =      3.8E-02
     Gradient error          =      4.0E-02

[...]

     energy   old            =  -13812.0619129458 Ry
     energy   new            =  -13812.0996915916 Ry

     CASE: energy  _new < energy  _old

[...]

     Total force =     0.014594     Total SCF correction =     0.000773

[...]

     Total force =     0.002613     Total SCF correction =     0.000542
     SCF correction compared to forces is large: reduce conv_thr to get better values

[...]

     number of scf cycles    =  10
     number of bfgs steps    =   9

     energy   old            =  -13812.1733955595 Ry
     energy   new            =  -13812.1741823184 Ry

     CASE: energy  _new < energy  _old

     new trust radius        =       0.0016016342 bohr
     new conv_thr            =       0.0000000100 Ry

ATOMIC_POSITIONS (crystal)
Ru            0.0000000000        0.0000000000        0.0188194195
Ru            0.2500001863        0.2500001863        0.0188189486
Ru            0.2500002648        0.0000000000        0.2191772257
Ru            0.0000000000        0.2500002648        0.2191772257
Ru            0.0000000000        0.0000000000        0.5724917854
Ru            0.2499996775        0.2499996775        0.5724916685
Ru            0.2499997323        0.0000000000        0.7728449867
Ru            0.0000000000        0.2499997323        0.7728449867
Ru            0.0000000000        0.5000000000        0.0188185728
Ru            0.2500001863        0.7499998137        0.0188189486
Ru            0.2500005252        0.5000000000        0.2191774408
Ru            0.0000000000        0.7499997352        0.2191772257
Ru            0.0000000000        0.5000000000        0.5724915412
Ru            0.2499996775        0.7500003225        0.5724916685
Ru            0.2499998553        0.5000000000        0.7728457837
Ru            0.0000000000        0.7500002677        0.7728449867
Ru            0.5000000000        0.0000000000        0.0188185728
Ru            0.7499998137        0.2500001863        0.0188189486
Ru            0.7499997352        0.0000000000        0.2191772257
Ru            0.5000000000        0.2500005252        0.2191774408
Ru            0.5000000000        0.0000000000        0.5724915412
Ru            0.7500003225        0.2499996775        0.5724916685
Ru            0.7500002677        0.0000000000        0.7728449867
Ru            0.5000000000        0.2499998553        0.7728457837
Ru            0.5000000000        0.5000000000        0.0188193066
Ru            0.7499998137        0.7499998137        0.0188189486
Ru            0.7499994748        0.5000000000        0.2191774408
Ru            0.5000000000        0.7499994748        0.2191774408
Ru            0.5000000000        0.5000000000        0.5724917114
Ru            0.7500003225        0.7500003225        0.5724916685
Ru            0.7500001447        0.5000000000        0.7728457837
Ru            0.5000000000        0.7500001447        0.7728457837

     Writing output data file /scratch/RabKNegDmVvRMVYm.save/
     NEW-OLD atomic charge density approx. for the potential

     Check: negative core charge=   -0.000002

     Self-consistent Calculation

[...]

     Threshold (ethr) on eigenvalues was too large:
     Diagonalizing with lowered threshold

     Davidson diagonalization with overlap
     ethr =  3.16E-09,  avg # of iterations =  5.0

[...]

     total energy              =  -13812.17419591 Ry
     estimated scf accuracy    <       0.00000003 Ry

     iteration # 10     ecut=    71.00 Ry     beta= 0.10
     Davidson diagonalization with overlap
     ethr =  5.37E-12,  avg # of iterations =  2.0

     End of self-consistent calculation

[...]

          k = 0.3889-0.5000-0.4167 ( 36212 PWs)   bands (ev):

[...]

          k =-0.5000-0.5000-0.4167 ( 36168 PWs)   bands (ev):

   -54.4295 -54.4295 -54.4295 -54.4295 -54.4064 -54.4064 -54.4064 -54.4064
   -54.3516 -54.3516 -54.3516 -54.3516 -54.3516 -54.3516 -54.3516 -54.3516
   -54.1894 -54.1894 -54.1894 -54.1894 -54.1887 -54.1887 -54.1887 -54.1887
   -54.1453 -54.1453 -54.1453 -54.1453 -54.1453 -54.1453 -54.1453 -54.1453
   -24.7151 -24.7151 -24.7151 -24.7151 -24.7150 -24.7150 -24.7150 -24.7150
   -24.5978 -24.5978 -24.5978 -24.5978 -24.5922 -24.5922 -24.5922 -24.5922
   -24.5922 -24.5922 -24.5922 -24.5922 -24.5814 -24.5814 -24.5814 -24.5814
   -24.4887 -24.4887 -24.4887 -24.4887 -24.4279 -24.4279 -24.4279 -24.4279
   -24.3197 -24.3197 -24.3197 -24.3197 -24.3197 -24.3197 -24.3197 -24.3197
   -24.1490 -24.1490 -24.1490 -24.1490 -24.1460 -24.1460 -24.1460 -24.1460
   -24.1460 -24.1460 -24.1460 -24.1460 -24.1270 -24.1270 -24.1270 -24.1270
   -24.1270 -24.1270 -24.1270 -24.1270 -24.1138 -24.1138 -24.1138 -24.1138
   -24.1048 -24.1048 -24.1048 -24.1048 -24.0822 -24.0822 -24.0822 -24.0822
   -24.0380 -24.0380 -24.0380 -24.0380 -24.0380 -24.0380 -24.0380 -24.0380
   -23.9718 -23.9718 -23.9718 -23.9718 -23.9604 -23.9604 -23.9604 -23.9604
   -23.8735 -23.8735 -23.8735 -23.8735 -23.8699 -23.8699 -23.8699 -23.8699
    12.8769  12.8769  12.8769  12.8769  13.4626  13.4626  13.4626  13.4626
    13.6305  13.6305  13.6305  13.6305  13.8529  13.8529  13.8529  13.8529
    13.8853  13.8853  13.8853  13.8853  13.8854  13.8854  13.8854  13.8854
    14.1300  14.1300  14.1300  14.1300  14.1300  14.1300  14.1300  14.1300
    14.6115  14.6115  14.6115  14.6115  14.6116  14.6116  14.6116  14.6116
    14.6284  14.6284  14.6284  14.6284  14.8446  14.8447  14.8447  14.8447
    14.8447  14.8447  14.8447  14.8447  15.0748  15.0748  15.0748  15.0748
    15.7879  15.7879  15.7879  15.7879  15.8143  15.8143  15.8143  15.8143
    16.1074  16.1074  16.1074  16.1074  16.4869  16.4869  16.4869  16.4869
    16.7966  16.7966  16.7966  16.7966  16.8007  16.8007  16.8007  16.8007
    16.8007  16.8007  16.8007  16.8007  16.8748  16.8748  16.8748  16.8748
    16.9587  16.9587  16.9587  16.9587  17.0817  17.0817  17.0817  17.0817
    17.2953  17.2953  17.2953  17.2953  17.2953  17.2953  17.2953  17.2953
    17.5076  17.5076  17.5076  17.5076  17.6523  17.6523  17.6523  17.6523
    17.6523  17.6523  17.6523  17.6524  17.7581  17.7581  17.7581  17.7582
    17.8562  17.8562  17.8562  17.8562  17.9616  17.9616  17.9616  17.9616
    17.9616  17.9616  17.9616  17.9616  18.4373  18.4373  18.4373  18.4373
    19.0283  19.0283  19.0283  19.0283  19.2797  19.2797  19.2797  19.2797
    19.5001  19.5001  19.5001  19.5001  19.5002  19.5002  19.5002  19.5002
    19.9403  19.9403  19.9403  19.9403  19.9487  19.9487  19.9487  19.9487
    19.9487  19.9487  19.9487  19.9487  20.0417  20.0417  20.0417  20.0417
    21.5049  21.5049  21.5049  21.5049  21.9163  21.9163  21.9163  21.9163
    23.2072  23.2072  23.2072

     the Fermi energy is    18.4875 ev

!    total energy              =  -13812.17419591 Ry

     total all-electron energy =   -289988.564535 Ry
     estimated scf accuracy    <          1.1E-09 Ry
     smearing contrib. (-TS)   =       0.04185042 Ry
     internal energy E=F+TS    =  -13812.21604634 Ry

     The total energy is F=E-TS. E is the sum of the following terms:
     one-electron contribution =   -2113.65250035 Ry
     hartree contribution      =    1389.98345269 Ry
     xc contribution           =    -924.87905758 Ry
     ewald contribution        =   -4574.34682953 Ry
     one-center paw contrib.   =   -7589.32111156 Ry

     convergence has been achieved in  10 iterations

     Forces acting on atoms (cartesian axes, Ry/au):

     atom    1 type  1   force =     0.00000000    0.00000000   -0.00024328
     atom    2 type  1   force =    -0.00000070   -0.00000070   -0.00024381
     atom    3 type  1   force =    -0.00000136    0.00000000    0.00019194
     atom    4 type  1   force =     0.00000000   -0.00000136    0.00019194
     atom    5 type  1   force =     0.00000000    0.00000000   -0.00020943
     atom    6 type  1   force =     0.00000022    0.00000022   -0.00020666
     atom    7 type  1   force =     0.00000106    0.00000000    0.00025984
     atom    8 type  1   force =     0.00000000    0.00000106    0.00025984
     atom    9 type  1   force =     0.00000000    0.00000000   -0.00024258
     atom   10 type  1   force =    -0.00000070    0.00000070   -0.00024381
     atom   11 type  1   force =    -0.00000320    0.00000000    0.00019031
     atom   12 type  1   force =     0.00000000    0.00000136    0.00019194
     atom   13 type  1   force =     0.00000000    0.00000000   -0.00020595
     atom   14 type  1   force =     0.00000022   -0.00000022   -0.00020666
     atom   15 type  1   force =    -0.00000010    0.00000000    0.00025881
     atom   16 type  1   force =     0.00000000   -0.00000106    0.00025984
     atom   17 type  1   force =     0.00000000    0.00000000   -0.00024258
     atom   18 type  1   force =     0.00000070   -0.00000070   -0.00024381
     atom   19 type  1   force =     0.00000136    0.00000000    0.00019194
     atom   20 type  1   force =     0.00000000   -0.00000320    0.00019031
     atom   21 type  1   force =     0.00000000    0.00000000   -0.00020595
     atom   22 type  1   force =    -0.00000022    0.00000022   -0.00020666
     atom   23 type  1   force =    -0.00000106    0.00000000    0.00025984
     atom   24 type  1   force =     0.00000000   -0.00000010    0.00025881
     atom   25 type  1   force =     0.00000000    0.00000000   -0.00024701
     atom   26 type  1   force =     0.00000070    0.00000070   -0.00024381
     atom   27 type  1   force =     0.00000320    0.00000000    0.00019031
     atom   28 type  1   force =     0.00000000    0.00000320    0.00019031
     atom   29 type  1   force =     0.00000000    0.00000000   -0.00020489
     atom   30 type  1   force =    -0.00000022   -0.00000022   -0.00020666
     atom   31 type  1   force =     0.00000010    0.00000000    0.00025881
     atom   32 type  1   force =     0.00000000    0.00000010    0.00025881

     Total force =     0.001284     Total SCF correction =     0.000195
     SCF correction compared to forces is large: reduce conv_thr to get better values

     Computing stress (Cartesian axis) and pressure

          total   stress  (Ry/bohr**3)                   (kbar)     P=     -167.52
  -0.00073813   0.00000000   0.00000000         -108.58        0.00        0.00
   0.00000000  -0.00073813   0.00000000            0.00     -108.58        0.00
   0.00000000   0.00000000  -0.00194005            0.00        0.00     -285.39

     Energy error            =      1.4E-05
     Gradient error          =      2.6E-04

     bfgs converged in  11 scf cycles and  10 bfgs steps
     (criteria: energy <  1.0E-04 Ry, force <  1.0E-03 Ry/Bohr)

     End of BFGS Geometry Optimization

     Final energy   =  -13812.1741959143 Ry

     File /scratch/RabKNegDmVvRMVYm.bfgs deleted, as requested
Begin final coordinates

ATOMIC_POSITIONS (crystal)
Ru            0.0000000000        0.0000000000        0.0188194195
Ru            0.2500001863        0.2500001863        0.0188189486
Ru            0.2500002648        0.0000000000        0.2191772257
Ru            0.0000000000        0.2500002648        0.2191772257
Ru            0.0000000000        0.0000000000        0.5724917854
Ru            0.2499996775        0.2499996775        0.5724916685
Ru            0.2499997323        0.0000000000        0.7728449867
Ru            0.0000000000        0.2499997323        0.7728449867
Ru            0.0000000000        0.5000000000        0.0188185728
Ru            0.2500001863        0.7499998137        0.0188189486
Ru            0.2500005252        0.5000000000        0.2191774408
Ru            0.0000000000        0.7499997352        0.2191772257
Ru            0.0000000000        0.5000000000        0.5724915412
Ru            0.2499996775        0.7500003225        0.5724916685
Ru            0.2499998553        0.5000000000        0.7728457837
Ru            0.0000000000        0.7500002677        0.7728449867
Ru            0.5000000000        0.0000000000        0.0188185728
Ru            0.7499998137        0.2500001863        0.0188189486
Ru            0.7499997352        0.0000000000        0.2191772257
Ru            0.5000000000        0.2500005252        0.2191774408
Ru            0.5000000000        0.0000000000        0.5724915412
Ru            0.7500003225        0.2499996775        0.5724916685
Ru            0.7500002677        0.0000000000        0.7728449867
Ru            0.5000000000        0.2499998553        0.7728457837
Ru            0.5000000000        0.5000000000        0.0188193066
Ru            0.7499998137        0.7499998137        0.0188189486
Ru            0.7499994748        0.5000000000        0.2191774408
Ru            0.5000000000        0.7499994748        0.2191774408
Ru            0.5000000000        0.5000000000        0.5724917114
Ru            0.7500003225        0.7500003225        0.5724916685
Ru            0.7500001447        0.5000000000        0.7728457837
Ru            0.5000000000        0.7500001447        0.7728457837
End final coordinates

     Writing output data file /scratch/RabKNegDmVvRMVYm.save/

     General routines

     Parallel routines

   This run was terminated on:  20:25:17   1Dec2021

   JOB DONE.