     Program PWSCF v.6.7MaX starts on  3Dec2021 at 11:42:42

     R & G space division:  proc/nbgrp/npool/nimage =      72
     Reading input from relax_17.in
Warning: card &CELL ignored
Warning: card CELL_DYNAMICS = 'BFGS', ignored
Warning: card CELL_FACTOR = 2.0, ignored
Warning: card PRESS = 0.0, ignored
Warning: card / ignored

     Current dimensions of program PWSCF are:
     Max number of different atomic species (ntypx) = 10
     Max number of k-points (npk) =  40000
     Max angular momentum in pseudopotentials (lmaxx) =  3
     file Ru.pbe-spn-kjpaw_psl.1.0.0.UPF: wavefunction(s)  4D renormalized

     Subspace diagonalization in iterative solution of the eigenvalue problem:
     one sub-group per band group will be used

     Found symmetry operation: I + (  0.2500  0.2500  0.0000)
     This is a supercell, fractional translations are disabled
     Message from routine setup:
     using ibrav=0 with symmetry is DISCOURAGED, use correct ibrav instead

     bravais-lattice index     =            0
     lattice parameter (alat)  =      14.4007  a.u.
     unit-cell volume          =    5375.6016 (a.u.)^3
     number of atoms/cell      =           32
     number of atomic types    =            1
     number of electrons       =       512.00
     number of Kohn-Sham states=          307
     kinetic-energy cutoff     =      71.0000  Ry
     charge density cutoff     =     430.0000  Ry
     scf convergence threshold =      1.0E-06
     mixing beta               =       0.1000
     number of iterations used =           10  TF        mixing
     energy convergence thresh.=      1.0E-04
     force convergence thresh. =      1.0E-03
     Exchange-correlation= SLA  PW   PBX  PBC
                           (   1   4   3   4   0   0   0)
     nstep                     =           40

     celldm(1)=  14.400742  celldm(2)=   0.000000  celldm(3)=   0.000000
     celldm(4)=   0.000000  celldm(5)=   0.000000  celldm(6)=   0.000000

     crystal axes: (cart. coord. in units of alat)
               a(1) = (   1.000000   0.000000   0.000000 )
               a(2) = (   0.000000   1.000000   0.000000 )
               a(3) = (   0.000000   0.000000   1.800000 )

     reciprocal axes: (cart. coord. in units 2 pi/alat)
               b(1) = (  1.000000  0.000000  0.000000 )
               b(2) = (  0.000000  1.000000  0.000000 )
               b(3) = (  0.000000  0.000000  0.555556 )

     PseudoPot. # 1 for Ru read from file:
     /rds/homes/b/bxp912/pp/Ru.pbe-spn-kjpaw_psl.1.0.0.UPF
     MD5 check sum: 0ae1f594dea09af7be8575c3a481d1ae
     Pseudo is Projector augmented-wave + core cor, Zval = 16.0
     Generated using "atomic" code by A. Dal Corso  v.5.1
     Shape of augmentation charge: PSQ
     Using radial grid of 1233 points,  6 beta functions with:
                l(1) =   0
                l(2) =   0
                l(3) =   1
                l(4) =   1
                l(5) =   2
                l(6) =   2
     Q(r) pseudized with 0 coefficients

     atomic species   valence    mass     pseudopotential
        Ru            16.00   101.07000     Ru( 1.00)

      8 Sym. Ops. (no inversion) found

   Cartesian axes

     site n.     atom                  positions (alat units)
         1           Ru  tau(   1) = (   0.0000000   0.0000000   0.0000000  )
         2           Ru  tau(   2) = (   0.2500000   0.2500000   0.0000000  )
         3           Ru  tau(   3) = (   0.2500000   0.0000000   0.2500000  )
         4           Ru  tau(   4) = (   0.0000000   0.2500000   0.2500000  )
         5           Ru  tau(   5) = (   0.0000000   0.0000000   1.3000000  )
         6           Ru  tau(   6) = (   0.2500000   0.2500000   1.3000000  )
         7           Ru  tau(   7) = (   0.2500000   0.0000000   1.5500000  )
         8           Ru  tau(   8) = (   0.0000000   0.2500000   1.5500000  )
         9           Ru  tau(   9) = (   0.0000000   0.5000000   0.0000000  )
        10           Ru  tau(  10) = (   0.2500000   0.7500000   0.0000000  )
        11           Ru  tau(  11) = (   0.2500000   0.5000000   0.2500000  )
        12           Ru  tau(  12) = (   0.0000000   0.7500000   0.2500000  )
        13           Ru  tau(  13) = (   0.0000000   0.5000000   1.3000000  )
        14           Ru  tau(  14) = (   0.2500000   0.7500000   1.3000000  )
        15           Ru  tau(  15) = (   0.2500000   0.5000000   1.5500000  )
        16           Ru  tau(  16) = (   0.0000000   0.7500000   1.5500000  )
        17           Ru  tau(  17) = (   0.5000000   0.0000000   0.0000000  )
        18           Ru  tau(  18) = (   0.7500000   0.2500000   0.0000000  )
        19           Ru  tau(  19) = (   0.7500000   0.0000000   0.2500000  )
        20           Ru  tau(  20) = (   0.5000000   0.2500000   0.2500000  )
        21           Ru  tau(  21) = (   0.5000000   0.0000000   1.3000000  )
        22           Ru  tau(  22) = (   0.7500000   0.2500000   1.3000000  )
        23           Ru  tau(  23) = (   0.7500000   0.0000000   1.5500000  )
        24           Ru  tau(  24) = (   0.5000000   0.2500000   1.5500000  )
        25           Ru  tau(  25) = (   0.5000000   0.5000000   0.0000000  )
        26           Ru  tau(  26) = (   0.7500000   0.7500000   0.0000000  )
        27           Ru  tau(  27) = (   0.7500000   0.5000000   0.2500000  )
        28           Ru  tau(  28) = (   0.5000000   0.7500000   0.2500000  )
        29           Ru  tau(  29) = (   0.5000000   0.5000000   1.3000000  )
        30           Ru  tau(  30) = (   0.7500000   0.7500000   1.3000000  )
        31           Ru  tau(  31) = (   0.7500000   0.5000000   1.5500000  )
        32           Ru  tau(  32) = (   0.5000000   0.7500000   1.5500000  )

     number of k points=    75  Marzari-Vanderbilt smearing, width (Ry)=  0.0400
                       cart. coord. in units 2pi/alat
        k(    1) = (   0.0555556   0.0555556   0.0308642), wk =   0.0219479
        k(    2) = (   0.0555556   0.0555556   0.0925926), wk =   0.0219479
        k(    3) = (   0.0555556   0.0555556   0.1543210), wk =   0.0219479
        k(    4) = (   0.0555556   0.0555556   0.2160494), wk =   0.0219479
        k(    5) = (   0.0555556   0.0555556  -0.2777778), wk =   0.0109739
        k(    6) = (   0.0555556   0.1666667   0.0308642), wk =   0.0438957
        k(    7) = (   0.0555556   0.1666667   0.0925926), wk =   0.0438957
        k(    8) = (   0.0555556   0.1666667   0.1543210), wk =   0.0438957
        k(    9) = (   0.0555556   0.1666667   0.2160494), wk =   0.0438957
        k(   10) = (   0.0555556   0.1666667  -0.2777778), wk =   0.0219479
        k(   11) = (   0.0555556   0.2777778   0.0308642), wk =   0.0438957
        k(   12) = (   0.0555556   0.2777778   0.0925926), wk =   0.0438957
        k(   13) = (   0.0555556   0.2777778   0.1543210), wk =   0.0438957
        k(   14) = (   0.0555556   0.2777778   0.2160494), wk =   0.0438957
        k(   15) = (   0.0555556   0.2777778  -0.2777778), wk =   0.0219479
        k(   16) = (   0.0555556   0.3888889   0.0308642), wk =   0.0438957
        k(   17) = (   0.0555556   0.3888889   0.0925926), wk =   0.0438957
        k(   18) = (   0.0555556   0.3888889   0.1543210), wk =   0.0438957
        k(   19) = (   0.0555556   0.3888889   0.2160494), wk =   0.0438957
        k(   20) = (   0.0555556   0.3888889  -0.2777778), wk =   0.0219479
        k(   21) = (   0.0555556  -0.5000000   0.0308642), wk =   0.0219479
        k(   22) = (   0.0555556  -0.5000000   0.0925926), wk =   0.0219479
        k(   23) = (   0.0555556  -0.5000000   0.1543210), wk =   0.0219479
        k(   24) = (   0.0555556  -0.5000000   0.2160494), wk =   0.0219479
        k(   25) = (   0.0555556  -0.5000000  -0.2777778), wk =   0.0109739
        k(   26) = (   0.1666667   0.1666667   0.0308642), wk =   0.0219479
        k(   27) = (   0.1666667   0.1666667   0.0925926), wk =   0.0219479
        k(   28) = (   0.1666667   0.1666667   0.1543210), wk =   0.0219479
        k(   29) = (   0.1666667   0.1666667   0.2160494), wk =   0.0219479
        k(   30) = (   0.1666667   0.1666667  -0.2777778), wk =   0.0109739
        k(   31) = (   0.1666667   0.2777778   0.0308642), wk =   0.0438957
        k(   32) = (   0.1666667   0.2777778   0.0925926), wk =   0.0438957
        k(   33) = (   0.1666667   0.2777778   0.1543210), wk =   0.0438957
        k(   34) = (   0.1666667   0.2777778   0.2160494), wk =   0.0438957
        k(   35) = (   0.1666667   0.2777778  -0.2777778), wk =   0.0219479
        k(   36) = (   0.1666667   0.3888889   0.0308642), wk =   0.0438957
        k(   37) = (   0.1666667   0.3888889   0.0925926), wk =   0.0438957
        k(   38) = (   0.1666667   0.3888889   0.1543210), wk =   0.0438957
        k(   39) = (   0.1666667   0.3888889   0.2160494), wk =   0.0438957
        k(   40) = (   0.1666667   0.3888889  -0.2777778), wk =   0.0219479
        k(   41) = (   0.1666667  -0.5000000   0.0308642), wk =   0.0219479
        k(   42) = (   0.1666667  -0.5000000   0.0925926), wk =   0.0219479
        k(   43) = (   0.1666667  -0.5000000   0.1543210), wk =   0.0219479
        k(   44) = (   0.1666667  -0.5000000   0.2160494), wk =   0.0219479
        k(   45) = (   0.1666667  -0.5000000  -0.2777778), wk =   0.0109739
        k(   46) = (   0.2777778   0.2777778   0.0308642), wk =   0.0219479
        k(   47) = (   0.2777778   0.2777778   0.0925926), wk =   0.0219479
        k(   48) = (   0.2777778   0.2777778   0.1543210), wk =   0.0219479
        k(   49) = (   0.2777778   0.2777778   0.2160494), wk =   0.0219479
        k(   50) = (   0.2777778   0.2777778  -0.2777778), wk =   0.0109739
        k(   51) = (   0.2777778   0.3888889   0.0308642), wk =   0.0438957
        k(   52) = (   0.2777778   0.3888889   0.0925926), wk =   0.0438957
        k(   53) = (   0.2777778   0.3888889   0.1543210), wk =   0.0438957
        k(   54) = (   0.2777778   0.3888889   0.2160494), wk =   0.0438957
        k(   55) = (   0.2777778   0.3888889  -0.2777778), wk =   0.0219479
        k(   56) = (   0.2777778  -0.5000000   0.0308642), wk =   0.0219479
        k(   57) = (   0.2777778  -0.5000000   0.0925926), wk =   0.0219479
        k(   58) = (   0.2777778  -0.5000000   0.1543210), wk =   0.0219479
        k(   59) = (   0.2777778  -0.5000000   0.2160494), wk =   0.0219479
        k(   60) = (   0.2777778  -0.5000000  -0.2777778), wk =   0.0109739
        k(   61) = (   0.3888889   0.3888889   0.0308642), wk =   0.0219479
        k(   62) = (   0.3888889   0.3888889   0.0925926), wk =   0.0219479
        k(   63) = (   0.3888889   0.3888889   0.1543210), wk =   0.0219479
        k(   64) = (   0.3888889   0.3888889   0.2160494), wk =   0.0219479
        k(   65) = (   0.3888889   0.3888889  -0.2777778), wk =   0.0109739
        k(   66) = (   0.3888889  -0.5000000   0.0308642), wk =   0.0219479
        k(   67) = (   0.3888889  -0.5000000   0.0925926), wk =   0.0219479
        k(   68) = (   0.3888889  -0.5000000   0.1543210), wk =   0.0219479
        k(   69) = (   0.3888889  -0.5000000   0.2160494), wk =   0.0219479
        k(   70) = (   0.3888889  -0.5000000  -0.2777778), wk =   0.0109739
[...]
     atom   29 type  1   force =     0.00000000    0.00000000    0.03305917
     atom   30 type  1   force =     0.00001675    0.00001675    0.03302707
     atom   31 type  1   force =     0.00000470    0.00000000   -0.03831922
     atom   32 type  1   force =     0.00000000    0.00000470   -0.03831922

     Total force =     0.202563     Total SCF correction =     0.001055

     Computing stress (Cartesian axis) and pressure

     negative rho (up, down):  1.314E-05 0.000E+00
          total   stress  (Ry/bohr**3)                   (kbar)     P=      -69.50
  -0.00052940   0.00000000   0.00000000          -77.88        0.00        0.00
   0.00000000  -0.00052940   0.00000000            0.00      -77.88        0.00
   0.00000000   0.00000000  -0.00035863            0.00        0.00      -52.76

     BFGS Geometry Optimization
     Energy error            =      0.0E+00
     Gradient error          =      3.8E-02

     number of scf cycles    =   1
     number of bfgs steps    =   0

     energy   new            =  -13811.6534346379 Ry

     new trust radius        =       0.0383985343 bohr
     new conv_thr            =       0.0000010000 Ry

ATOMIC_POSITIONS (crystal)
Ru            0.0000000000        0.0000000000        0.0014804558
Ru            0.2500000785        0.2500000785        0.0014806138
Ru            0.2500002306        0.0000000000        0.1376131003
Ru            0.0000000000        0.2500002306        0.1376131003
Ru            0.0000000000        0.0000000000        0.7234966885
Ru            0.2499988370        0.2499988370        0.7234963493
Ru            0.2500008307        0.0000000000        0.8596311778
Ru           -0.0000000000        0.2500008307        0.8596311778
Ru            0.0000000000        0.5000000000        0.0014813486
Ru            0.2500000785        0.7499999215        0.0014806138
Ru            0.2500000507        0.5000000000        0.1376123658
Ru            0.0000000000        0.7499997694        0.1376131003
Ru            0.0000000000        0.5000000000        0.7234969734
Ru            0.2499988370        0.7500011630        0.7234963493
Ru            0.2499996739        0.5000000000        0.8596328222
Ru            0.0000000000        0.7499991693        0.8596311778
Ru            0.5000000000        0.0000000000        0.0014813486
Ru            0.7499999215        0.2500000785        0.0014806138
Ru            0.7499997694        0.0000000000        0.1376131003
Ru            0.5000000000        0.2500000507        0.1376123658
Ru            0.5000000000        0.0000000000        0.7234969734
Ru            0.7500011630        0.2499988370        0.7234963493
Ru            0.7499991693       -0.0000000000        0.8596311778
Ru            0.5000000000        0.2499996739        0.8596328222
Ru            0.5000000000        0.5000000000        0.0014806852
Ru            0.7499999215        0.7499999215        0.0014806138
Ru            0.7499999493        0.5000000000        0.1376123658
Ru            0.5000000000        0.7499999493        0.1376123658
Ru            0.5000000000        0.5000000000        0.7234975874
Ru            0.7500011630        0.7500011630        0.7234963493
Ru            0.7500003261        0.5000000000        0.8596328222
Ru            0.5000000000        0.7500003261        0.8596328222

     Writing output data file /scratch/VNsFIKHyLhYtIsXx.save/
     NEW-OLD atomic charge density approx. for the potential

[...]

     Energy error            =      3.7E-02
     Gradient error          =      2.8E-02

[...]

     energy   old            =  -13811.6534346379 Ry
     energy   new            =  -13811.6901941975 Ry

     CASE: energy  _new < energy  _old

[...]

     Total force =     0.017544     Total SCF correction =     0.000869

[...]

     Total force =     0.011166     Total SCF correction =     0.001492
     SCF correction compared to forces is large: reduce conv_thr to get better values

[...]

     number of scf cycles    =   8
     number of bfgs steps    =   7

     energy   old            =  -13811.7449584509 Ry
     energy   new            =  -13811.7452852721 Ry

     CASE: energy  _new < energy  _old

     new trust radius        =       0.0019720412 bohr
     new conv_thr            =       0.0000000100 Ry

ATOMIC_POSITIONS (crystal)
Ru            0.0000000000        0.0000000000        0.0045545958
Ru            0.2499993720        0.2499993720        0.0045551698
Ru            0.2499992160        0.0000000000        0.1318101355
Ru            0.0000000000        0.2499992160        0.1318101355
Ru            0.0000000000        0.0000000000        0.7293006206
Ru            0.2499998818        0.2499998818        0.7293004890
Ru            0.2499993714        0.0000000000        0.8565566266
Ru           -0.0000000000        0.2499993714        0.8565566266
Ru            0.0000000000        0.5000000000        0.0045553115
Ru            0.2499993720        0.7500006280        0.0045551698
Ru            0.2499998678        0.5000000000        0.1318101890
Ru            0.0000000000        0.7500007840        0.1318101355
Ru            0.0000000000        0.5000000000        0.7293005441
Ru            0.2499998818        0.7500001182        0.7293004890
Ru            0.2499995167        0.5000000000        0.8565561317
Ru            0.0000000000        0.7500006286        0.8565566266
Ru            0.5000000000        0.0000000000        0.0045553115
Ru            0.7500006280        0.2499993720        0.0045551698
Ru            0.7500007840        0.0000000000        0.1318101355
Ru            0.5000000000        0.2499998678        0.1318101890
Ru            0.5000000000        0.0000000000        0.7293005441
Ru            0.7500001182        0.2499998818        0.7293004890
Ru            0.7500006286       -0.0000000000        0.8565566266
Ru            0.5000000000        0.2499995167        0.8565561317
Ru            0.5000000000        0.5000000000        0.0045556540
Ru            0.7500006280        0.7500006280        0.0045551698
Ru            0.7500001322        0.5000000000        0.1318101890
Ru            0.5000000000        0.7500001322        0.1318101890
Ru            0.5000000000        0.5000000000        0.7293002298
Ru            0.7500001182        0.7500001182        0.7293004890
Ru            0.7500004833        0.5000000000        0.8565561317
Ru            0.5000000000        0.7500004833        0.8565561317

     Writing output data file /scratch/VNsFIKHyLhYtIsXx.save/
     NEW-OLD atomic charge density approx. for the potential

     Check: negative core charge=   -0.000002

[...]

     Self-consistent Calculation

[...]

     Threshold (ethr) on eigenvalues was too large:
     Diagonalizing with lowered threshold

     Davidson diagonalization with overlap
     ethr =  1.82E-08,  avg # of iterations =  4.0

[...]

     total energy              =  -13811.74528864 Ry
     estimated scf accuracy    <       0.00000004 Ry

     iteration #  8     ecut=    71.00 Ry     beta= 0.10
     Davidson diagonalization with overlap
     ethr =  8.55E-12,  avg # of iterations =  1.5

[...]

     End of self-consistent calculation

[...]

          k = 0.3889-0.5000-0.2778 ( 54308 PWs)   bands (ev):

[...]

          k =-0.5000-0.5000-0.2778 ( 54408 PWs)   bands (ev):

   -62.2331 -62.2331 -62.2331 -62.2330 -62.1824 -62.1824 -62.1824 -62.1824
   -62.1417 -62.1417 -62.1417 -62.1417 -62.1417 -62.1417 -62.1417 -62.1417
   -61.7814 -61.7814 -61.7814 -61.7814 -61.7802 -61.7802 -61.7802 -61.7802
   -61.7353 -61.7353 -61.7353 -61.7353 -61.7353 -61.7353 -61.7353 -61.7353
   -32.5680 -32.5680 -32.5680 -32.5680 -32.5680 -32.5680 -32.5680 -32.5680
   -32.4600 -32.4600 -32.4600 -32.4600 -32.4263 -32.4263 -32.4263 -32.4263
   -32.3604 -32.3604 -32.3604 -32.3604 -32.3603 -32.3603 -32.3603 -32.3603
   -32.2730 -32.2730 -32.2730 -32.2730 -32.1737 -32.1737 -32.1737 -32.1737
   -32.1089 -32.1089 -32.1089 -32.1089 -32.1089 -32.1089 -32.1089 -32.1089
   -31.9794 -31.9794 -31.9794 -31.9794 -31.8995 -31.8995 -31.8995 -31.8995
   -31.8057 -31.8057 -31.8057 -31.8057 -31.8057 -31.8057 -31.8057 -31.8057
   -31.7427 -31.7427 -31.7427 -31.7427 -31.7427 -31.7427 -31.7427 -31.7427
   -31.7248 -31.7248 -31.7248 -31.7248 -31.6942 -31.6942 -31.6942 -31.6942
   -31.6412 -31.6412 -31.6412 -31.6412 -31.6412 -31.6412 -31.6412 -31.6412
   -31.5927 -31.5927 -31.5927 -31.5927 -31.5786 -31.5786 -31.5786 -31.5786
   -31.4881 -31.4881 -31.4881 -31.4880 -31.4828 -31.4828 -31.4828 -31.4828
     4.8262   4.8262   4.8262   4.8262   5.4933   5.4933   5.4933   5.4933
     5.7545   5.7545   5.7545   5.7545   5.7545   5.7545   5.7545   5.7545
     5.7700   5.7700   5.7700   5.7700   5.8941   5.8941   5.8941   5.8941
     6.1217   6.1217   6.1217   6.1217   6.1217   6.1217   6.1217   6.1217
     6.5091   6.5091   6.5091   6.5091   6.6673   6.6673   6.6673   6.6673
     6.6673   6.6673   6.6673   6.6673   7.0995   7.0996   7.0996   7.0996
     7.0996   7.0996   7.0996   7.0996   7.3339   7.3339   7.3339   7.3339
     8.0452   8.0452   8.0452   8.0452   8.2295   8.2295   8.2295   8.2295
     8.6158   8.6158   8.6158   8.6158   8.6962   8.6962   8.6962   8.6962
     8.7274   8.7274   8.7274   8.7275   8.8346   8.8346   8.8346   8.8347
     8.8347   8.8347   8.8347   8.8347   8.8709   8.8709   8.8709   8.8710
     9.3283   9.3283   9.3283   9.3283   9.5097   9.5097   9.5097   9.5097
     9.5819   9.5819   9.5819   9.5819   9.5819   9.5819   9.5820   9.5820
     9.6642   9.6642   9.6642   9.6642   9.8866   9.8866   9.8866   9.8866
     9.9230   9.9230   9.9230   9.9230   9.9230   9.9230   9.9230   9.9230
    10.6007  10.6007  10.6007  10.6007  10.7395  10.7396  10.7396  10.7396
    10.7396  10.7396  10.7396  10.7396  10.8389  10.8389  10.8390  10.8390
    11.3374  11.3374  11.3374  11.3374  11.5692  11.5692  11.5692  11.5692
    11.5692  11.5692  11.5692  11.5692  11.7112  11.7112  11.7112  11.7112
    11.9501  11.9501  11.9501  11.9501  12.4141  12.4141  12.4141  12.4141
    12.4473  12.4473  12.4473  12.4473  12.4473  12.4473  12.4473  12.4473
    12.5923  12.5923  12.5923  12.5923  14.3883  14.3883  14.3883  14.3883
    15.4594  15.4594  15.4594

     the Fermi energy is    10.8299 ev

!    total energy              =  -13811.74528864 Ry

     total all-electron energy =   -289988.135628 Ry
     estimated scf accuracy    <          6.8E-09 Ry
     smearing contrib. (-TS)   =      -0.00890463 Ry
     internal energy E=F+TS    =  -13811.73638401 Ry

     The total energy is F=E-TS. E is the sum of the following terms:
     one-electron contribution =  -15967.67682523 Ry
     hartree contribution      =    8172.11476114 Ry
     xc contribution           =    -926.71759218 Ry
     ewald contribution        =    2499.92554743 Ry
     one-center paw contrib.   =   -7589.38227518 Ry

     convergence has been achieved in   8 iterations

     negative rho (up, down):  3.733E-05 0.000E+00

     Forces acting on atoms (cartesian axes, Ry/au):

     atom    1 type  1   force =     0.00000000    0.00000000    0.00009556
     atom    2 type  1   force =     0.00000219    0.00000219    0.00009679
     atom    3 type  1   force =     0.00000176    0.00000000    0.00010826
     atom    4 type  1   force =     0.00000000    0.00000176    0.00010826
     atom    5 type  1   force =     0.00000000    0.00000000   -0.00010241
     atom    6 type  1   force =    -0.00000005   -0.00000005   -0.00010155
     atom    7 type  1   force =     0.00000234    0.00000000   -0.00010268
     atom    8 type  1   force =     0.00000000    0.00000234   -0.00010268
     atom    9 type  1   force =     0.00000000    0.00000000    0.00009665
     atom   10 type  1   force =     0.00000219   -0.00000219    0.00009679
     atom   11 type  1   force =    -0.00000006    0.00000000    0.00010791
     atom   12 type  1   force =     0.00000000   -0.00000176    0.00010826
     atom   13 type  1   force =     0.00000000    0.00000000   -0.00010171
     atom   14 type  1   force =    -0.00000005    0.00000005   -0.00010155
     atom   15 type  1   force =     0.00000173    0.00000000   -0.00010326
     atom   16 type  1   force =     0.00000000   -0.00000234   -0.00010268
     atom   17 type  1   force =     0.00000000    0.00000000    0.00009665
     atom   18 type  1   force =    -0.00000219    0.00000219    0.00009679
     atom   19 type  1   force =    -0.00000176    0.00000000    0.00010826
     atom   20 type  1   force =     0.00000000   -0.00000006    0.00010791
     atom   21 type  1   force =     0.00000000    0.00000000   -0.00010171
     atom   22 type  1   force =     0.00000005   -0.00000005   -0.00010155
     atom   23 type  1   force =    -0.00000234    0.00000000   -0.00010268
     atom   24 type  1   force =     0.00000000    0.00000173   -0.00010326
     atom   25 type  1   force =     0.00000000    0.00000000    0.00009519
     atom   26 type  1   force =    -0.00000219   -0.00000219    0.00009679
     atom   27 type  1   force =     0.00000006    0.00000000    0.00010791
     atom   28 type  1   force =     0.00000000    0.00000006    0.00010791
     atom   29 type  1   force =     0.00000000    0.00000000   -0.00010007
     atom   30 type  1   force =     0.00000005    0.00000005   -0.00010155
     atom   31 type  1   force =    -0.00000173    0.00000000   -0.00010326
     atom   32 type  1   force =     0.00000000   -0.00000173   -0.00010326

     Total force =     0.000579     Total SCF correction =     0.000212
     SCF correction compared to forces is large: reduce conv_thr to get better values

     Computing stress (Cartesian axis) and pressure

     negative rho (up, down):  3.733E-05 0.000E+00
          total   stress  (Ry/bohr**3)                   (kbar)     P=      -19.88
  -0.00018957   0.00000000   0.00000000          -27.89        0.00        0.00
   0.00000000  -0.00018957   0.00000000            0.00      -27.89        0.00
   0.00000000   0.00000000  -0.00002638            0.00        0.00       -3.88

     Energy error            =      3.4E-06
     Gradient error          =      1.1E-04

     bfgs converged in   9 scf cycles and   8 bfgs steps
     (criteria: energy <  1.0E-04 Ry, force <  1.0E-03 Ry/Bohr)

     End of BFGS Geometry Optimization

     Final energy   =  -13811.7452886392 Ry

     File /scratch/VNsFIKHyLhYtIsXx.bfgs deleted, as requested
Begin final coordinates

ATOMIC_POSITIONS (crystal)
Ru            0.0000000000        0.0000000000        0.0045545958
Ru            0.2499993720        0.2499993720        0.0045551698
Ru            0.2499992160        0.0000000000        0.1318101355
Ru            0.0000000000        0.2499992160        0.1318101355
Ru            0.0000000000        0.0000000000        0.7293006206
Ru            0.2499998818        0.2499998818        0.7293004890
Ru            0.2499993714        0.0000000000        0.8565566266
Ru           -0.0000000000        0.2499993714        0.8565566266
Ru            0.0000000000        0.5000000000        0.0045553115
Ru            0.2499993720        0.7500006280        0.0045551698
Ru            0.2499998678        0.5000000000        0.1318101890
Ru            0.0000000000        0.7500007840        0.1318101355
Ru            0.0000000000        0.5000000000        0.7293005441
Ru            0.2499998818        0.7500001182        0.7293004890
Ru            0.2499995167        0.5000000000        0.8565561317
Ru            0.0000000000        0.7500006286        0.8565566266
Ru            0.5000000000        0.0000000000        0.0045553115
Ru            0.7500006280        0.2499993720        0.0045551698
Ru            0.7500007840        0.0000000000        0.1318101355
Ru            0.5000000000        0.2499998678        0.1318101890
Ru            0.5000000000        0.0000000000        0.7293005441
Ru            0.7500001182        0.2499998818        0.7293004890
Ru            0.7500006286       -0.0000000000        0.8565566266
Ru            0.5000000000        0.2499995167        0.8565561317
Ru            0.5000000000        0.5000000000        0.0045556540
Ru            0.7500006280        0.7500006280        0.0045551698
Ru            0.7500001322        0.5000000000        0.1318101890
Ru            0.5000000000        0.7500001322        0.1318101890
Ru            0.5000000000        0.5000000000        0.7293002298
Ru            0.7500001182        0.7500001182        0.7293004890
Ru            0.7500004833        0.5000000000        0.8565561317
Ru            0.5000000000        0.7500004833        0.8565561317
End final coordinates

     Writing output data file /scratch/VNsFIKHyLhYtIsXx.save/

     General routines

     Parallel routines

   This run was terminated on:  15:43:45   3Dec2021

   JOB DONE.