     Program PWSCF v.6.7MaX starts on  3Dec2021 at  3:30:54

     R & G space division:  proc/nbgrp/npool/nimage =      72
     Reading input from relax_15.in
Warning: card &CELL ignored
Warning: card CELL_DYNAMICS = 'BFGS', ignored
Warning: card CELL_FACTOR = 2.0, ignored
Warning: card PRESS = 0.0, ignored
Warning: card / ignored

     Current dimensions of program PWSCF are:
     Max number of different atomic species (ntypx) = 10
     Max number of k-points (npk) =  40000
     Max angular momentum in pseudopotentials (lmaxx) =  3
     file Ru.pbe-spn-kjpaw_psl.1.0.0.UPF: wavefunction(s)  4D renormalized

     Subspace diagonalization in iterative solution of the eigenvalue problem:
     one sub-group per band group will be used

     Found symmetry operation: I + (  0.2500  0.2500  0.0000)
     This is a supercell, fractional translations are disabled
     Message from routine setup:
     using ibrav=0 with symmetry is DISCOURAGED, use correct ibrav instead

     bravais-lattice index     =            0
     lattice parameter (alat)  =      14.4007  a.u.
     unit-cell volume          =    5076.9571 (a.u.)^3
     number of atoms/cell      =           32
     number of atomic types    =            1
     number of electrons       =       512.00
     number of Kohn-Sham states=          307
     kinetic-energy cutoff     =      71.0000  Ry
     charge density cutoff     =     430.0000  Ry
     scf convergence threshold =      1.0E-06
     mixing beta               =       0.1000
     number of iterations used =           10  TF        mixing
     energy convergence thresh.=      1.0E-04
     force convergence thresh. =      1.0E-03
     Exchange-correlation= SLA  PW   PBX  PBC
                           (   1   4   3   4   0   0   0)
     nstep                     =           40

     celldm(1)=  14.400742  celldm(2)=   0.000000  celldm(3)=   0.000000
     celldm(4)=   0.000000  celldm(5)=   0.000000  celldm(6)=   0.000000

     crystal axes: (cart. coord. in units of alat)
               a(1) = (   1.000000   0.000000   0.000000 )
               a(2) = (   0.000000   1.000000   0.000000 )
               a(3) = (   0.000000   0.000000   1.700000 )

     reciprocal axes: (cart. coord. in units 2 pi/alat)
               b(1) = (  1.000000  0.000000  0.000000 )
               b(2) = (  0.000000  1.000000  0.000000 )
               b(3) = (  0.000000  0.000000  0.588235 )

     PseudoPot. # 1 for Ru read from file:
     /rds/homes/b/bxp912/pp/Ru.pbe-spn-kjpaw_psl.1.0.0.UPF
     MD5 check sum: 0ae1f594dea09af7be8575c3a481d1ae
     Pseudo is Projector augmented-wave + core cor, Zval = 16.0
     Generated using "atomic" code by A. Dal Corso  v.5.1
     Shape of augmentation charge: PSQ
     Using radial grid of 1233 points,  6 beta functions with:
                l(1) =   0
                l(2) =   0
                l(3) =   1
                l(4) =   1
                l(5) =   2
                l(6) =   2
     Q(r) pseudized with 0 coefficients

     atomic species   valence    mass     pseudopotential
        Ru            16.00   101.07000     Ru( 1.00)

      8 Sym. Ops. (no inversion) found

   Cartesian axes

     site n.     atom                  positions (alat units)
         1           Ru  tau(   1) = (   0.0000000   0.0000000   0.0000000  )
         2           Ru  tau(   2) = (   0.2500000   0.2500000   0.0000000  )
         3           Ru  tau(   3) = (   0.2500000   0.0000000   0.2500000  )
         4           Ru  tau(   4) = (   0.0000000   0.2500000   0.2500000  )
         5           Ru  tau(   5) = (   0.0000000   0.0000000   1.2000000  )
         6           Ru  tau(   6) = (   0.2500000   0.2500000   1.2000000  )
         7           Ru  tau(   7) = (   0.2500000   0.0000000   1.4500000  )
         8           Ru  tau(   8) = (   0.0000000   0.2500000   1.4500000  )
         9           Ru  tau(   9) = (   0.0000000   0.5000000   0.0000000  )
        10           Ru  tau(  10) = (   0.2500000   0.7500000   0.0000000  )
        11           Ru  tau(  11) = (   0.2500000   0.5000000   0.2500000  )
        12           Ru  tau(  12) = (   0.0000000   0.7500000   0.2500000  )
        13           Ru  tau(  13) = (   0.0000000   0.5000000   1.2000000  )
        14           Ru  tau(  14) = (   0.2500000   0.7500000   1.2000000  )
        15           Ru  tau(  15) = (   0.2500000   0.5000000   1.4500000  )
        16           Ru  tau(  16) = (   0.0000000   0.7500000   1.4500000  )
        17           Ru  tau(  17) = (   0.5000000   0.0000000   0.0000000  )
        18           Ru  tau(  18) = (   0.7500000   0.2500000   0.0000000  )
        19           Ru  tau(  19) = (   0.7500000   0.0000000   0.2500000  )
        20           Ru  tau(  20) = (   0.5000000   0.2500000   0.2500000  )
        21           Ru  tau(  21) = (   0.5000000   0.0000000   1.2000000  )
        22           Ru  tau(  22) = (   0.7500000   0.2500000   1.2000000  )
        23           Ru  tau(  23) = (   0.7500000   0.0000000   1.4500000  )
        24           Ru  tau(  24) = (   0.5000000   0.2500000   1.4500000  )
        25           Ru  tau(  25) = (   0.5000000   0.5000000   0.0000000  )
        26           Ru  tau(  26) = (   0.7500000   0.7500000   0.0000000  )
        27           Ru  tau(  27) = (   0.7500000   0.5000000   0.2500000  )
        28           Ru  tau(  28) = (   0.5000000   0.7500000   0.2500000  )
        29           Ru  tau(  29) = (   0.5000000   0.5000000   1.2000000  )
        30           Ru  tau(  30) = (   0.7500000   0.7500000   1.2000000  )
        31           Ru  tau(  31) = (   0.7500000   0.5000000   1.4500000  )
        32           Ru  tau(  32) = (   0.5000000   0.7500000   1.4500000  )

     number of k points=    75  Marzari-Vanderbilt smearing, width (Ry)=  0.0400
                       cart. coord. in units 2pi/alat
        k(    1) = (   0.0555556   0.0555556   0.0326797), wk =   0.0219479
        k(    2) = (   0.0555556   0.0555556   0.0980392), wk =   0.0219479
        k(    3) = (   0.0555556   0.0555556   0.1633987), wk =   0.0219479
        k(    4) = (   0.0555556   0.0555556   0.2287582), wk =   0.0219479
        k(    5) = (   0.0555556   0.0555556  -0.2941176), wk =   0.0109739
        k(    6) = (   0.0555556   0.1666667   0.0326797), wk =   0.0438957
        k(    7) = (   0.0555556   0.1666667   0.0980392), wk =   0.0438957
        k(    8) = (   0.0555556   0.1666667   0.1633987), wk =   0.0438957
        k(    9) = (   0.0555556   0.1666667   0.2287582), wk =   0.0438957
        k(   10) = (   0.0555556   0.1666667  -0.2941176), wk =   0.0219479
        k(   11) = (   0.0555556   0.2777778   0.0326797), wk =   0.0438957
        k(   12) = (   0.0555556   0.2777778   0.0980392), wk =   0.0438957
        k(   13) = (   0.0555556   0.2777778   0.1633987), wk =   0.0438957
        k(   14) = (   0.0555556   0.2777778   0.2287582), wk =   0.0438957
        k(   15) = (   0.0555556   0.2777778  -0.2941176), wk =   0.0219479
        k(   16) = (   0.0555556   0.3888889   0.0326797), wk =   0.0438957
        k(   17) = (   0.0555556   0.3888889   0.0980392), wk =   0.0438957
        k(   18) = (   0.0555556   0.3888889   0.1633987), wk =   0.0438957
        k(   19) = (   0.0555556   0.3888889   0.2287582), wk =   0.0438957
        k(   20) = (   0.0555556   0.3888889  -0.2941176), wk =   0.0219479
        k(   21) = (   0.0555556  -0.5000000   0.0326797), wk =   0.0219479
        k(   22) = (   0.0555556  -0.5000000   0.0980392), wk =   0.0219479
        k(   23) = (   0.0555556  -0.5000000   0.1633987), wk =   0.0219479
        k(   24) = (   0.0555556  -0.5000000   0.2287582), wk =   0.0219479
        k(   25) = (   0.0555556  -0.5000000  -0.2941176), wk =   0.0109739
        k(   26) = (   0.1666667   0.1666667   0.0326797), wk =   0.0219479
        k(   27) = (   0.1666667   0.1666667   0.0980392), wk =   0.0219479
        k(   28) = (   0.1666667   0.1666667   0.1633987), wk =   0.0219479
        k(   29) = (   0.1666667   0.1666667   0.2287582), wk =   0.0219479
        k(   30) = (   0.1666667   0.1666667  -0.2941176), wk =   0.0109739
        k(   31) = (   0.1666667   0.2777778   0.0326797), wk =   0.0438957
        k(   32) = (   0.1666667   0.2777778   0.0980392), wk =   0.0438957
        k(   33) = (   0.1666667   0.2777778   0.1633987), wk =   0.0438957
        k(   34) = (   0.1666667   0.2777778   0.2287582), wk =   0.0438957
        k(   35) = (   0.1666667   0.2777778  -0.2941176), wk =   0.0219479
        k(   36) = (   0.1666667   0.3888889   0.0326797), wk =   0.0438957
        k(   37) = (   0.1666667   0.3888889   0.0980392), wk =   0.0438957
        k(   38) = (   0.1666667   0.3888889   0.1633987), wk =   0.0438957
        k(   39) = (   0.1666667   0.3888889   0.2287582), wk =   0.0438957
        k(   40) = (   0.1666667   0.3888889  -0.2941176), wk =   0.0219479
        k(   41) = (   0.1666667  -0.5000000   0.0326797), wk =   0.0219479
        k(   42) = (   0.1666667  -0.5000000   0.0980392), wk =   0.0219479
        k(   43) = (   0.1666667  -0.5000000   0.1633987), wk =   0.0219479
        k(   44) = (   0.1666667  -0.5000000   0.2287582), wk =   0.0219479
        k(   45) = (   0.1666667  -0.5000000  -0.2941176), wk =   0.0109739
        k(   46) = (   0.2777778   0.2777778   0.0326797), wk =   0.0219479
        k(   47) = (   0.2777778   0.2777778   0.0980392), wk =   0.0219479
        k(   48) = (   0.2777778   0.2777778   0.1633987), wk =   0.0219479
        k(   49) = (   0.2777778   0.2777778   0.2287582), wk =   0.0219479
        k(   50) = (   0.2777778   0.2777778  -0.2941176), wk =   0.0109739
        k(   51) = (   0.2777778   0.3888889   0.0326797), wk =   0.0438957
        k(   52) = (   0.2777778   0.3888889   0.0980392), wk =   0.0438957
        k(   53) = (   0.2777778   0.3888889   0.1633987), wk =   0.0438957
        k(   54) = (   0.2777778   0.3888889   0.2287582), wk =   0.0438957
        k(   55) = (   0.2777778   0.3888889  -0.2941176), wk =   0.0219479
        k(   56) = (   0.2777778  -0.5000000   0.0326797), wk =   0.0219479
        k(   57) = (   0.2777778  -0.5000000   0.0980392), wk =   0.0219479
        k(   58) = (   0.2777778  -0.5000000   0.1633987), wk =   0.0219479
        k(   59) = (   0.2777778  -0.5000000   0.2287582), wk =   0.0219479
        k(   60) = (   0.2777778  -0.5000000  -0.2941176), wk =   0.0109739
        k(   61) = (   0.3888889   0.3888889   0.0326797), wk =   0.0219479
        k(   62) = (   0.3888889   0.3888889   0.0980392), wk =   0.0219479
        k(   63) = (   0.3888889   0.3888889   0.1633987), wk =   0.0219479
        k(   64) = (   0.3888889   0.3888889   0.2287582), wk =   0.0219479
        k(   65) = (   0.3888889   0.3888889  -0.2941176), wk =   0.0109739
        k(   66) = (   0.3888889  -0.5000000   0.0326797), wk =   0.0219479
        k(   67) = (   0.3888889  -0.5000000   0.0980392), wk =   0.0219479
        k(   68) = (   0.3888889  -0.5000000   0.1633987), wk =   0.0219479
        k(   69) = (   0.3888889  -0.5000000   0.2287582), wk =   0.0219479
        k(   70) = (   0.3888889  -0.5000000  -0.2941176), wk =   0.0109739
[...]
   0.00000000   0.00000000  -0.00037964            0.00        0.00      -55.85

     BFGS Geometry Optimization
     Energy error            =      0.0E+00
     Gradient error          =      3.8E-02

     number of scf cycles    =   1
     number of bfgs steps    =   0

     energy   new            =  -13811.6541553018 Ry

     new trust radius        =       0.0383919442 bohr
     new conv_thr            =       0.0000010000 Ry

ATOMIC_POSITIONS (crystal)
Ru            0.0000000000        0.0000000000        0.0015681681
Ru            0.2499992615        0.2499992615        0.0015678770
Ru            0.2499977513        0.0000000000        0.1457090051
Ru            0.0000000000        0.2499977513        0.1457090051
Ru            0.0000000000        0.0000000000        0.7072310900
Ru            0.2500005513        0.2500005513        0.7072306089
Ru            0.2499991635        0.0000000000        0.8513747363
Ru            0.0000000000        0.2499991635        0.8513747363
Ru            0.0000000000        0.5000000000        0.0015682176
Ru            0.2499992615        0.7500007385        0.0015678770
Ru            0.2500004783        0.5000000000        0.1457084455
Ru            0.0000000000        0.7500022487        0.1457090051
Ru            0.0000000000        0.5000000000        0.7072314633
Ru            0.2500005513        0.7499994487        0.7072306089
Ru            0.2500017936        0.5000000000        0.8513745774
Ru            0.0000000000        0.7500008365        0.8513747363
Ru            0.5000000000        0.0000000000        0.0015682176
Ru            0.7500007385        0.2499992615        0.0015678770
Ru            0.7500022487        0.0000000000        0.1457090051
Ru            0.5000000000        0.2500004783        0.1457084455
Ru            0.5000000000        0.0000000000        0.7072314633
Ru            0.7499994487        0.2500005513        0.7072306089
Ru            0.7500008365        0.0000000000        0.8513747363
Ru            0.5000000000        0.2500017936        0.8513745774
Ru            0.5000000000        0.5000000000        0.0015676927
Ru            0.7500007385        0.7500007385        0.0015678770
Ru            0.7499995217        0.5000000000        0.1457084455
Ru            0.5000000000        0.7499995217        0.1457084455
Ru            0.5000000000        0.5000000000        0.7072315101
Ru            0.7499994487        0.7499994487        0.7072306089
Ru            0.7499982064        0.5000000000        0.8513745774
Ru            0.5000000000        0.7499982064        0.8513745774

     Writing output data file /scratch/nwIzrEAOYJNsXKEE.save/
     NEW-OLD atomic charge density approx. for the potential

[...]

          total   stress  (Ry/bohr**3)                   (kbar)     P=      -66.34
  -0.00050534   0.00000000   0.00000000          -74.34        0.00        0.00
   0.00000000  -0.00050534   0.00000000            0.00      -74.34        0.00
   0.00000000   0.00000000  -0.00034226            0.00        0.00      -50.35

     Energy error            =      3.7E-02
     Gradient error          =      2.8E-02

[...]

     energy   old            =  -13811.6541553018 Ry
     energy   new            =  -13811.6909160530 Ry

     CASE: energy  _new < energy  _old

[...]

     negative rho (up, down):  1.379E-07 0.000E+00
          total   stress  (Ry/bohr**3)                   (kbar)     P=      -54.80
  -0.00042037   0.00000000   0.00000000          -61.84        0.00        0.00
   0.00000000  -0.00042037   0.00000000            0.00      -61.84        0.00
   0.00000000   0.00000000  -0.00027685            0.00        0.00      -40.73

[...]

     Total force =     0.010420     Total SCF correction =     0.001869
     SCF correction compared to forces is large: reduce conv_thr to get better values

[...]

     Total force =     0.002773     Total SCF correction =     0.000276

[...]

     number of scf cycles    =   8
     number of bfgs steps    =   7

     energy   old            =  -13811.7455362138 Ry
     energy   new            =  -13811.7457661842 Ry

     CASE: energy  _new < energy  _old

     new trust radius        =       0.0026360569 bohr
     new conv_thr            =       0.0000000100 Ry

ATOMIC_POSITIONS (crystal)
Ru            0.0000000000        0.0000000000        0.0048316810
Ru            0.2499997790        0.2499997790        0.0048321372
Ru            0.2499989369        0.0000000000        0.1395805383
Ru            0.0000000000        0.2499989369        0.1395805383
Ru            0.0000000000        0.0000000000        0.7133602803
Ru            0.2499999931        0.2499999931        0.7133603180
Ru            0.2500002561        0.0000000000        0.8481096797
Ru            0.0000000000        0.2500002561        0.8481096797
Ru            0.0000000000        0.5000000000        0.0048324870
Ru            0.2499997790        0.7500002210        0.0048321372
Ru            0.2499990251        0.5000000000        0.1395799341
Ru            0.0000000000        0.7500010631        0.1395805383
Ru            0.0000000000        0.5000000000        0.7133602873
Ru            0.2499999931        0.7500000069        0.7133603180
Ru            0.2500003707        0.5000000000        0.8481097107
Ru            0.0000000000        0.7499997439        0.8481096797
Ru            0.5000000000        0.0000000000        0.0048324870
Ru            0.7500002210        0.2499997790        0.0048321372
Ru            0.7500010631        0.0000000000        0.1395805383
Ru            0.5000000000        0.2499990251        0.1395799341
Ru            0.5000000000        0.0000000000        0.7133602873
Ru            0.7500000069        0.2499999931        0.7133603180
Ru            0.7499997439        0.0000000000        0.8481096797
Ru            0.5000000000        0.2500003707        0.8481097107
Ru            0.5000000000        0.5000000000        0.0048318604
Ru            0.7500002210        0.7500002210        0.0048321372
Ru            0.7500009749        0.5000000000        0.1395799341
Ru            0.5000000000        0.7500009749        0.1395799341
Ru            0.5000000000        0.5000000000        0.7133601814
Ru            0.7500000069        0.7500000069        0.7133603180
Ru            0.7499996293        0.5000000000        0.8481097107
Ru            0.5000000000        0.7499996293        0.8481097107

     Writing output data file /scratch/nwIzrEAOYJNsXKEE.save/
     NEW-OLD atomic charge density approx. for the potential

     Check: negative core charge=   -0.000002

[...]

     Self-consistent Calculation

[...]

     Threshold (ethr) on eigenvalues was too large:
     Diagonalizing with lowered threshold

     Davidson diagonalization with overlap
     ethr =  3.56E-08,  avg # of iterations =  3.1

[...]

     total energy              =  -13811.74577577 Ry
     estimated scf accuracy    <       0.00000001 Ry

     iteration #  9     ecut=    71.00 Ry     beta= 0.10
     Davidson diagonalization with overlap
     ethr =  2.78E-12,  avg # of iterations =  2.0

[...]

     End of self-consistent calculation

[...]

          k = 0.3889-0.5000-0.2941 ( 51252 PWs)   bands (ev):

[...]

          k =-0.5000-0.5000-0.2941 ( 51200 PWs)   bands (ev):

   -61.3127 -61.3127 -61.3127 -61.3127 -61.2620 -61.2620 -61.2620 -61.2620
   -61.2213 -61.2213 -61.2213 -61.2213 -61.2213 -61.2213 -61.2213 -61.2213
   -60.8613 -60.8613 -60.8613 -60.8613 -60.8601 -60.8601 -60.8601 -60.8601
   -60.8151 -60.8151 -60.8151 -60.8151 -60.8151 -60.8151 -60.8151 -60.8151
   -31.6475 -31.6475 -31.6475 -31.6475 -31.6475 -31.6475 -31.6475 -31.6475
   -31.5395 -31.5395 -31.5395 -31.5395 -31.5058 -31.5058 -31.5058 -31.5058
   -31.4400 -31.4400 -31.4400 -31.4400 -31.4399 -31.4399 -31.4399 -31.4399
   -31.3526 -31.3526 -31.3526 -31.3526 -31.2534 -31.2534 -31.2534 -31.2534
   -31.1886 -31.1886 -31.1886 -31.1886 -31.1886 -31.1886 -31.1886 -31.1886
   -31.0590 -31.0590 -31.0590 -31.0590 -30.9791 -30.9791 -30.9791 -30.9791
   -30.8855 -30.8855 -30.8855 -30.8855 -30.8855 -30.8855 -30.8855 -30.8855
   -30.8224 -30.8224 -30.8224 -30.8224 -30.8224 -30.8224 -30.8224 -30.8224
   -30.8045 -30.8045 -30.8045 -30.8045 -30.7740 -30.7740 -30.7740 -30.7740
   -30.7211 -30.7211 -30.7211 -30.7211 -30.7211 -30.7211 -30.7211 -30.7211
   -30.6725 -30.6725 -30.6725 -30.6725 -30.6583 -30.6583 -30.6583 -30.6583
   -30.5678 -30.5678 -30.5678 -30.5678 -30.5626 -30.5626 -30.5626 -30.5626
     5.7469   5.7469   5.7469   5.7469   6.4141   6.4141   6.4141   6.4141
     6.6753   6.6753   6.6753   6.6753   6.6753   6.6753   6.6753   6.6753
     6.6904   6.6904   6.6904   6.6904   6.8148   6.8148   6.8148   6.8148
     7.0424   7.0424   7.0424   7.0424   7.0424   7.0424   7.0424   7.0424
     7.4299   7.4299   7.4299   7.4299   7.5879   7.5879   7.5879   7.5879
     7.5879   7.5879   7.5879   7.5879   8.0199   8.0199   8.0199   8.0199
     8.0199   8.0199   8.0199   8.0200   8.2543   8.2543   8.2543   8.2543
     8.9655   8.9655   8.9655   8.9655   9.1498   9.1498   9.1498   9.1498
     9.5376   9.5376   9.5376   9.5376   9.6152   9.6152   9.6152   9.6152
     9.6483   9.6483   9.6483   9.6483   9.7552   9.7552   9.7552   9.7552
     9.7552   9.7552   9.7552   9.7552   9.7917   9.7917   9.7917   9.7917
    10.2479  10.2479  10.2479  10.2479  10.4303  10.4303  10.4303  10.4303
    10.5023  10.5023  10.5023  10.5023  10.5023  10.5023  10.5023  10.5023
    10.5847  10.5847  10.5847  10.5847  10.8071  10.8071  10.8071  10.8071
    10.8434  10.8434  10.8434  10.8434  10.8434  10.8434  10.8434  10.8434
    11.5113  11.5113  11.5113  11.5113  11.6593  11.6593  11.6593  11.6593
    11.6593  11.6593  11.6593  11.6593  11.7626  11.7626  11.7627  11.7627
    12.2576  12.2576  12.2576  12.2576  12.4901  12.4901  12.4901  12.4901
    12.4901  12.4901  12.4901  12.4901  12.6314  12.6314  12.6314  12.6314
    12.8917  12.8917  12.8917  12.8917  13.3341  13.3341  13.3341  13.3341
    13.3674  13.3674  13.3674  13.3674  13.3674  13.3674  13.3674  13.3674
    13.5122  13.5122  13.5122  13.5122  15.2497  15.2498  15.2498  15.2498
    16.3808  16.3808  16.3808

     the Fermi energy is    11.7502 ev

!    total energy              =  -13811.74577577 Ry

     total all-electron energy =   -289988.136115 Ry
     estimated scf accuracy    <          4.4E-09 Ry
     smearing contrib. (-TS)   =      -0.00888883 Ry
     internal energy E=F+TS    =  -13811.73688695 Ry

     The total energy is F=E-TS. E is the sum of the following terms:
     one-electron contribution =  -13301.08898904 Ry
     hartree contribution      =    6856.13501726 Ry
     xc contribution           =    -926.71400926 Ry
     ewald contribution        =    1149.31324033 Ry
     one-center paw contrib.   =   -7589.38214624 Ry

     convergence has been achieved in   9 iterations

     negative rho (up, down):  7.519E-07 0.000E+00

     Forces acting on atoms (cartesian axes, Ry/au):

     atom    1 type  1   force =     0.00000000    0.00000000    0.00005105
     atom    2 type  1   force =     0.00000124    0.00000124    0.00004944
     atom    3 type  1   force =     0.00000209    0.00000000    0.00011665
     atom    4 type  1   force =     0.00000000    0.00000209    0.00011665
     atom    5 type  1   force =     0.00000000    0.00000000   -0.00012158
     atom    6 type  1   force =     0.00000052    0.00000052   -0.00012141
     atom    7 type  1   force =    -0.00000008    0.00000000   -0.00004626
     atom    8 type  1   force =     0.00000000   -0.00000008   -0.00004626
     atom    9 type  1   force =     0.00000000    0.00000000    0.00004747
     atom   10 type  1   force =     0.00000124   -0.00000124    0.00004944
     atom   11 type  1   force =     0.00000312    0.00000000    0.00011947
     atom   12 type  1   force =     0.00000000   -0.00000209    0.00011665
     atom   13 type  1   force =     0.00000000    0.00000000   -0.00012159
     atom   14 type  1   force =     0.00000052   -0.00000052   -0.00012141
     atom   15 type  1   force =    -0.00000039    0.00000000   -0.00004589
     atom   16 type  1   force =     0.00000000    0.00000008   -0.00004626
     atom   17 type  1   force =     0.00000000    0.00000000    0.00004747
     atom   18 type  1   force =    -0.00000124    0.00000124    0.00004944
     atom   19 type  1   force =    -0.00000209    0.00000000    0.00011665
     atom   20 type  1   force =     0.00000000    0.00000312    0.00011947
     atom   21 type  1   force =     0.00000000    0.00000000   -0.00012159
     atom   22 type  1   force =    -0.00000052    0.00000052   -0.00012141
     atom   23 type  1   force =     0.00000008    0.00000000   -0.00004626
     atom   24 type  1   force =     0.00000000   -0.00000039   -0.00004589
     atom   25 type  1   force =     0.00000000    0.00000000    0.00005131
     atom   26 type  1   force =    -0.00000124   -0.00000124    0.00004944
     atom   27 type  1   force =    -0.00000312    0.00000000    0.00011947
     atom   28 type  1   force =     0.00000000   -0.00000312    0.00011947
     atom   29 type  1   force =     0.00000000    0.00000000   -0.00012049
     atom   30 type  1   force =    -0.00000052   -0.00000052   -0.00012141
     atom   31 type  1   force =     0.00000039    0.00000000   -0.00004589
     atom   32 type  1   force =     0.00000000    0.00000039   -0.00004589

     Total force =     0.000516     Total SCF correction =     0.000272
     SCF correction compared to forces is large: reduce conv_thr to get better values

     Computing stress (Cartesian axis) and pressure

     negative rho (up, down):  7.519E-07 0.000E+00
          total   stress  (Ry/bohr**3)                   (kbar)     P=      -21.21
  -0.00020112   0.00000000   0.00000000          -29.59        0.00        0.00
   0.00000000  -0.00020112   0.00000000            0.00      -29.59        0.00
   0.00000000   0.00000000  -0.00003033            0.00        0.00       -4.46

     Energy error            =      9.6E-06
     Gradient error          =      1.2E-04

     bfgs converged in   9 scf cycles and   8 bfgs steps
     (criteria: energy <  1.0E-04 Ry, force <  1.0E-03 Ry/Bohr)

     End of BFGS Geometry Optimization

     Final energy   =  -13811.7457757742 Ry

     File /scratch/nwIzrEAOYJNsXKEE.bfgs deleted, as requested
Begin final coordinates

ATOMIC_POSITIONS (crystal)
Ru            0.0000000000        0.0000000000        0.0048316810
Ru            0.2499997790        0.2499997790        0.0048321372
Ru            0.2499989369        0.0000000000        0.1395805383
Ru            0.0000000000        0.2499989369        0.1395805383
Ru            0.0000000000        0.0000000000        0.7133602803
Ru            0.2499999931        0.2499999931        0.7133603180
Ru            0.2500002561        0.0000000000        0.8481096797
Ru            0.0000000000        0.2500002561        0.8481096797
Ru            0.0000000000        0.5000000000        0.0048324870
Ru            0.2499997790        0.7500002210        0.0048321372
Ru            0.2499990251        0.5000000000        0.1395799341
Ru            0.0000000000        0.7500010631        0.1395805383
Ru            0.0000000000        0.5000000000        0.7133602873
Ru            0.2499999931        0.7500000069        0.7133603180
Ru            0.2500003707        0.5000000000        0.8481097107
Ru            0.0000000000        0.7499997439        0.8481096797
Ru            0.5000000000        0.0000000000        0.0048324870
Ru            0.7500002210        0.2499997790        0.0048321372
Ru            0.7500010631        0.0000000000        0.1395805383
Ru            0.5000000000        0.2499990251        0.1395799341
Ru            0.5000000000        0.0000000000        0.7133602873
Ru            0.7500000069        0.2499999931        0.7133603180
Ru            0.7499997439        0.0000000000        0.8481096797
Ru            0.5000000000        0.2500003707        0.8481097107
Ru            0.5000000000        0.5000000000        0.0048318604
Ru            0.7500002210        0.7500002210        0.0048321372
Ru            0.7500009749        0.5000000000        0.1395799341
Ru            0.5000000000        0.7500009749        0.1395799341
Ru            0.5000000000        0.5000000000        0.7133601814
Ru            0.7500000069        0.7500000069        0.7133603180
Ru            0.7499996293        0.5000000000        0.8481097107
Ru            0.5000000000        0.7499996293        0.8481097107
End final coordinates

     Writing output data file /scratch/nwIzrEAOYJNsXKEE.save/

     General routines

     Parallel routines

   This run was terminated on:   7:31: 7   3Dec2021

   JOB DONE.