     Program PWSCF v.6.7MaX starts on  2Dec2021 at  9:14:56

     R & G space division:  proc/nbgrp/npool/nimage =      72
     Reading input from relax_10.in
Warning: card &CELL ignored
Warning: card CELL_DYNAMICS = 'BFGS', ignored
Warning: card CELL_FACTOR = 2.0, ignored
Warning: card PRESS = 0.0, ignored
Warning: card / ignored

     Current dimensions of program PWSCF are:
     Max number of different atomic species (ntypx) = 10
     Max number of k-points (npk) =  40000
     Max angular momentum in pseudopotentials (lmaxx) =  3
     file Ru.pbe-spn-kjpaw_psl.1.0.0.UPF: wavefunction(s)  4D renormalized

     Subspace diagonalization in iterative solution of the eigenvalue problem:
     one sub-group per band group will be used

     Found symmetry operation: I + (  0.2500  0.2500  0.0000)
     This is a supercell, fractional translations are disabled
     Message from routine setup:
     using ibrav=0 with symmetry is DISCOURAGED, use correct ibrav instead

     bravais-lattice index     =            0
     lattice parameter (alat)  =      14.4007  a.u.
     unit-cell volume          =    4330.3458 (a.u.)^3
     number of atoms/cell      =           32
     number of atomic types    =            1
     number of electrons       =       512.00
     number of Kohn-Sham states=          307
     kinetic-energy cutoff     =      71.0000  Ry
     charge density cutoff     =     430.0000  Ry
     scf convergence threshold =      1.0E-06
     mixing beta               =       0.1000
     number of iterations used =           10  TF        mixing
     energy convergence thresh.=      1.0E-04
     force convergence thresh. =      1.0E-03
     Exchange-correlation= SLA  PW   PBX  PBC
                           (   1   4   3   4   0   0   0)
     nstep                     =           40

     celldm(1)=  14.400742  celldm(2)=   0.000000  celldm(3)=   0.000000
     celldm(4)=   0.000000  celldm(5)=   0.000000  celldm(6)=   0.000000

     crystal axes: (cart. coord. in units of alat)
               a(1) = (   1.000000   0.000000   0.000000 )
               a(2) = (   0.000000   1.000000   0.000000 )
               a(3) = (   0.000000   0.000000   1.450000 )

     reciprocal axes: (cart. coord. in units 2 pi/alat)
               b(1) = (  1.000000  0.000000  0.000000 )
               b(2) = (  0.000000  1.000000  0.000000 )
               b(3) = (  0.000000  0.000000  0.689655 )

     PseudoPot. # 1 for Ru read from file:
     /rds/homes/b/bxp912/pp/Ru.pbe-spn-kjpaw_psl.1.0.0.UPF
     MD5 check sum: 0ae1f594dea09af7be8575c3a481d1ae
     Pseudo is Projector augmented-wave + core cor, Zval = 16.0
     Generated using "atomic" code by A. Dal Corso  v.5.1
     Shape of augmentation charge: PSQ
     Using radial grid of 1233 points,  6 beta functions with:
                l(1) =   0
                l(2) =   0
                l(3) =   1
                l(4) =   1
                l(5) =   2
                l(6) =   2
     Q(r) pseudized with 0 coefficients

     atomic species   valence    mass     pseudopotential
        Ru            16.00   101.07000     Ru( 1.00)

      8 Sym. Ops. (no inversion) found

   Cartesian axes

     site n.     atom                  positions (alat units)
         1           Ru  tau(   1) = (   0.0000000   0.0000000   0.0000000  )
         2           Ru  tau(   2) = (   0.2500000   0.2500000   0.0000000  )
         3           Ru  tau(   3) = (   0.2500000   0.0000000   0.2500000  )
         4           Ru  tau(   4) = (   0.0000000   0.2500000   0.2500000  )
         5           Ru  tau(   5) = (   0.0000000   0.0000000   0.9500000  )
         6           Ru  tau(   6) = (   0.2500000   0.2500000   0.9500000  )
         7           Ru  tau(   7) = (   0.2500000   0.0000000   1.2000000  )
         8           Ru  tau(   8) = (   0.0000000   0.2500000   1.2000000  )
         9           Ru  tau(   9) = (   0.0000000   0.5000000   0.0000000  )
        10           Ru  tau(  10) = (   0.2500000   0.7500000   0.0000000  )
        11           Ru  tau(  11) = (   0.2500000   0.5000000   0.2500000  )
        12           Ru  tau(  12) = (   0.0000000   0.7500000   0.2500000  )
        13           Ru  tau(  13) = (   0.0000000   0.5000000   0.9500000  )
        14           Ru  tau(  14) = (   0.2500000   0.7500000   0.9500000  )
        15           Ru  tau(  15) = (   0.2500000   0.5000000   1.2000000  )
        16           Ru  tau(  16) = (   0.0000000   0.7500000   1.2000000  )
        17           Ru  tau(  17) = (   0.5000000   0.0000000   0.0000000  )
        18           Ru  tau(  18) = (   0.7500000   0.2500000   0.0000000  )
        19           Ru  tau(  19) = (   0.7500000   0.0000000   0.2500000  )
        20           Ru  tau(  20) = (   0.5000000   0.2500000   0.2500000  )
        21           Ru  tau(  21) = (   0.5000000   0.0000000   0.9500000  )
        22           Ru  tau(  22) = (   0.7500000   0.2500000   0.9500000  )
        23           Ru  tau(  23) = (   0.7500000   0.0000000   1.2000000  )
        24           Ru  tau(  24) = (   0.5000000   0.2500000   1.2000000  )
        25           Ru  tau(  25) = (   0.5000000   0.5000000   0.0000000  )
        26           Ru  tau(  26) = (   0.7500000   0.7500000   0.0000000  )
        27           Ru  tau(  27) = (   0.7500000   0.5000000   0.2500000  )
        28           Ru  tau(  28) = (   0.5000000   0.7500000   0.2500000  )
        29           Ru  tau(  29) = (   0.5000000   0.5000000   0.9500000  )
        30           Ru  tau(  30) = (   0.7500000   0.7500000   0.9500000  )
        31           Ru  tau(  31) = (   0.7500000   0.5000000   1.2000000  )
        32           Ru  tau(  32) = (   0.5000000   0.7500000   1.2000000  )

     number of k points=    75  Marzari-Vanderbilt smearing, width (Ry)=  0.0400
                       cart. coord. in units 2pi/alat
        k(    1) = (   0.0555556   0.0555556   0.0383142), wk =   0.0219479
        k(    2) = (   0.0555556   0.0555556   0.1149425), wk =   0.0219479
        k(    3) = (   0.0555556   0.0555556   0.1915709), wk =   0.0219479
        k(    4) = (   0.0555556   0.0555556   0.2681992), wk =   0.0219479
        k(    5) = (   0.0555556   0.0555556  -0.3448276), wk =   0.0109739
        k(    6) = (   0.0555556   0.1666667   0.0383142), wk =   0.0438957
        k(    7) = (   0.0555556   0.1666667   0.1149425), wk =   0.0438957
        k(    8) = (   0.0555556   0.1666667   0.1915709), wk =   0.0438957
        k(    9) = (   0.0555556   0.1666667   0.2681992), wk =   0.0438957
        k(   10) = (   0.0555556   0.1666667  -0.3448276), wk =   0.0219479
        k(   11) = (   0.0555556   0.2777778   0.0383142), wk =   0.0438957
        k(   12) = (   0.0555556   0.2777778   0.1149425), wk =   0.0438957
        k(   13) = (   0.0555556   0.2777778   0.1915709), wk =   0.0438957
        k(   14) = (   0.0555556   0.2777778   0.2681992), wk =   0.0438957
        k(   15) = (   0.0555556   0.2777778  -0.3448276), wk =   0.0219479
        k(   16) = (   0.0555556   0.3888889   0.0383142), wk =   0.0438957
        k(   17) = (   0.0555556   0.3888889   0.1149425), wk =   0.0438957
        k(   18) = (   0.0555556   0.3888889   0.1915709), wk =   0.0438957
        k(   19) = (   0.0555556   0.3888889   0.2681992), wk =   0.0438957
        k(   20) = (   0.0555556   0.3888889  -0.3448276), wk =   0.0219479
        k(   21) = (   0.0555556  -0.5000000   0.0383142), wk =   0.0219479
        k(   22) = (   0.0555556  -0.5000000   0.1149425), wk =   0.0219479
        k(   23) = (   0.0555556  -0.5000000   0.1915709), wk =   0.0219479
        k(   24) = (   0.0555556  -0.5000000   0.2681992), wk =   0.0219479
        k(   25) = (   0.0555556  -0.5000000  -0.3448276), wk =   0.0109739
        k(   26) = (   0.1666667   0.1666667   0.0383142), wk =   0.0219479
        k(   27) = (   0.1666667   0.1666667   0.1149425), wk =   0.0219479
        k(   28) = (   0.1666667   0.1666667   0.1915709), wk =   0.0219479
        k(   29) = (   0.1666667   0.1666667   0.2681992), wk =   0.0219479
        k(   30) = (   0.1666667   0.1666667  -0.3448276), wk =   0.0109739
        k(   31) = (   0.1666667   0.2777778   0.0383142), wk =   0.0438957
        k(   32) = (   0.1666667   0.2777778   0.1149425), wk =   0.0438957
        k(   33) = (   0.1666667   0.2777778   0.1915709), wk =   0.0438957
        k(   34) = (   0.1666667   0.2777778   0.2681992), wk =   0.0438957
        k(   35) = (   0.1666667   0.2777778  -0.3448276), wk =   0.0219479
        k(   36) = (   0.1666667   0.3888889   0.0383142), wk =   0.0438957
        k(   37) = (   0.1666667   0.3888889   0.1149425), wk =   0.0438957
        k(   38) = (   0.1666667   0.3888889   0.1915709), wk =   0.0438957
        k(   39) = (   0.1666667   0.3888889   0.2681992), wk =   0.0438957
        k(   40) = (   0.1666667   0.3888889  -0.3448276), wk =   0.0219479
        k(   41) = (   0.1666667  -0.5000000   0.0383142), wk =   0.0219479
        k(   42) = (   0.1666667  -0.5000000   0.1149425), wk =   0.0219479
        k(   43) = (   0.1666667  -0.5000000   0.1915709), wk =   0.0219479
        k(   44) = (   0.1666667  -0.5000000   0.2681992), wk =   0.0219479
        k(   45) = (   0.1666667  -0.5000000  -0.3448276), wk =   0.0109739
        k(   46) = (   0.2777778   0.2777778   0.0383142), wk =   0.0219479
        k(   47) = (   0.2777778   0.2777778   0.1149425), wk =   0.0219479
        k(   48) = (   0.2777778   0.2777778   0.1915709), wk =   0.0219479
        k(   49) = (   0.2777778   0.2777778   0.2681992), wk =   0.0219479
        k(   50) = (   0.2777778   0.2777778  -0.3448276), wk =   0.0109739
        k(   51) = (   0.2777778   0.3888889   0.0383142), wk =   0.0438957
        k(   52) = (   0.2777778   0.3888889   0.1149425), wk =   0.0438957
        k(   53) = (   0.2777778   0.3888889   0.1915709), wk =   0.0438957
        k(   54) = (   0.2777778   0.3888889   0.2681992), wk =   0.0438957
        k(   55) = (   0.2777778   0.3888889  -0.3448276), wk =   0.0219479
        k(   56) = (   0.2777778  -0.5000000   0.0383142), wk =   0.0219479
        k(   57) = (   0.2777778  -0.5000000   0.1149425), wk =   0.0219479
        k(   58) = (   0.2777778  -0.5000000   0.1915709), wk =   0.0219479
        k(   59) = (   0.2777778  -0.5000000   0.2681992), wk =   0.0219479
        k(   60) = (   0.2777778  -0.5000000  -0.3448276), wk =   0.0109739
        k(   61) = (   0.3888889   0.3888889   0.0383142), wk =   0.0219479
        k(   62) = (   0.3888889   0.3888889   0.1149425), wk =   0.0219479
        k(   63) = (   0.3888889   0.3888889   0.1915709), wk =   0.0219479
        k(   64) = (   0.3888889   0.3888889   0.2681992), wk =   0.0219479
        k(   65) = (   0.3888889   0.3888889  -0.3448276), wk =   0.0109739
        k(   66) = (   0.3888889  -0.5000000   0.0383142), wk =   0.0219479
        k(   67) = (   0.3888889  -0.5000000   0.1149425), wk =   0.0219479
        k(   68) = (   0.3888889  -0.5000000   0.1915709), wk =   0.0219479
        k(   69) = (   0.3888889  -0.5000000   0.2681992), wk =   0.0219479
        k(   70) = (   0.3888889  -0.5000000  -0.3448276), wk =   0.0109739
[...]
     atom   27 type  1   force =     0.00000178   -0.00000000   -0.03154150
     atom   28 type  1   force =     0.00000000    0.00000178   -0.03154150
     atom   29 type  1   force =     0.00000000    0.00000000    0.03156301
     atom   30 type  1   force =     0.00000056    0.00000056    0.03157337
     atom   31 type  1   force =     0.00000493    0.00000000   -0.03906465
     atom   32 type  1   force =     0.00000000    0.00000493   -0.03906465

     Total force =     0.200824     Total SCF correction =     0.002594

     Computing stress (Cartesian axis) and pressure

          total   stress  (Ry/bohr**3)                   (kbar)     P=      -87.22
  -0.00065012   0.00000000   0.00000000          -95.64        0.00        0.00
   0.00000000  -0.00065012   0.00000000            0.00      -95.64        0.00
   0.00000000   0.00000000  -0.00047847            0.00        0.00      -70.39

     BFGS Geometry Optimization
     Energy error            =      0.0E+00
     Gradient error          =      3.9E-02

     number of scf cycles    =   1
     number of bfgs steps    =   0

     energy   new            =  -13811.6690899690 Ry

     new trust radius        =       0.0390646542 bohr
     new conv_thr            =       0.0000010000 Ry

ATOMIC_POSITIONS (crystal)
Ru            0.0000000000        0.0000000000        0.0018694282
Ru            0.2499999806        0.2499999806        0.0018694753
Ru            0.2500001647        0.0000000000        0.1709030207
Ru            0.0000000000        0.2500001647        0.1709030207
Ru            0.0000000000        0.0000000000        0.6566844135
Ru            0.2499999608        0.2499999608        0.6566844705
Ru            0.2499997312        0.0000000000        0.8257156794
Ru            0.0000000000        0.2499997312        0.8257156794
Ru            0.0000000000        0.5000000000        0.0018692361
Ru            0.2499999806        0.7500000194        0.0018694753
Ru            0.2499998765        0.5000000000        0.1709032625
Ru            0.0000000000        0.7499998353        0.1709030207
Ru            0.0000000000        0.5000000000        0.6566841629
Ru            0.2499999608        0.7500000392        0.6566844705
Ru            0.2499996576        0.5000000000        0.8257153907
Ru            0.0000000000        0.7500002688        0.8257156794
Ru            0.5000000000        0.0000000000        0.0018692361
Ru            0.7500000194        0.2499999806        0.0018694753
Ru            0.7499998353        0.0000000000        0.1709030207
Ru            0.5000000000        0.2499998765        0.1709032625
Ru            0.5000000000        0.0000000000        0.6566841629
Ru            0.7500000392        0.2499999608        0.6566844705
Ru            0.7500002688        0.0000000000        0.8257156794
Ru            0.5000000000        0.2499996576        0.8257153907
Ru            0.5000000000        0.5000000000        0.0018694991
Ru            0.7500000194        0.7500000194        0.0018694753
Ru            0.7500001235        0.5000000000        0.1709032625
Ru            0.5000000000        0.7500001235        0.1709032625
Ru            0.5000000000        0.5000000000        0.6566839745
Ru            0.7500000392        0.7500000392        0.6566844705
Ru            0.7500003424        0.5000000000        0.8257153907
Ru            0.5000000000        0.7500003424        0.8257153907

     Writing output data file /scratch/ufKcxuvVQADzIuBL.save/
     NEW-OLD atomic charge density approx. for the potential

[...]

     Energy error            =      3.6E-02
     Gradient error          =      2.9E-02

[...]

     energy   old            =  -13811.6690899690 Ry
     energy   new            =  -13811.7052736350 Ry

     CASE: energy  _new < energy  _old

[...]

     Total force =     0.021792     Total SCF correction =     0.002770
     SCF correction compared to forces is large: reduce conv_thr to get better values

[...]

     Total force =     0.015660     Total SCF correction =     0.000597

[...]

     number of scf cycles    =   8
     number of bfgs steps    =   7

     energy   old            =  -13811.7582305826 Ry
     energy   new            =  -13811.7583329460 Ry

     CASE: energy  _new < energy  _old

     new trust radius        =       0.0013802568 bohr
     new conv_thr            =       0.0000000100 Ry

ATOMIC_POSITIONS (crystal)
Ru            0.0000000000        0.0000000000        0.0058846756
Ru            0.2500007131        0.2500007131        0.0058837003
Ru            0.2500000443        0.0000000000        0.1640445366
Ru            0.0000000000        0.2500000443        0.1640445366
Ru            0.0000000000        0.0000000000        0.6635411779
Ru            0.2500007773        0.2500007773        0.6635415464
Ru            0.2500007809        0.0000000000        0.8217022522
Ru            0.0000000000        0.2500007809        0.8217022522
Ru            0.0000000000        0.5000000000        0.0058837886
Ru            0.2500007131        0.7499992869        0.0058837003
Ru            0.2500005546        0.5000000000        0.1640443755
Ru            0.0000000000        0.7499999557        0.1640445366
Ru            0.0000000000        0.5000000000        0.6635415284
Ru            0.2500007773        0.7499992227        0.6635415464
Ru            0.2500011042        0.5000000000        0.8217032065
Ru            0.0000000000        0.7499992191        0.8217022522
Ru            0.5000000000        0.0000000000        0.0058837886
Ru            0.7499992869        0.2500007131        0.0058837003
Ru            0.7499999557        0.0000000000        0.1640445366
Ru            0.5000000000        0.2500005546        0.1640443755
Ru            0.5000000000        0.0000000000        0.6635415284
Ru            0.7499992227        0.2500007773        0.6635415464
Ru            0.7499992191        0.0000000000        0.8217022522
Ru            0.5000000000        0.2500011042        0.8217032065
Ru            0.5000000000        0.5000000000        0.0058824455
Ru            0.7499992869        0.7499992869        0.0058837003
Ru            0.7499994454        0.5000000000        0.1640443755
Ru            0.5000000000        0.7499994454        0.1640443755
Ru            0.5000000000        0.5000000000        0.6635419072
Ru            0.7499992227        0.7499992227        0.6635415464
Ru            0.7499988958        0.5000000000        0.8217032065
Ru            0.5000000000        0.7499988958        0.8217032065

     Writing output data file /scratch/ufKcxuvVQADzIuBL.save/
     NEW-OLD atomic charge density approx. for the potential

     Check: negative core charge=   -0.000002

     Self-consistent Calculation

[...]

     Threshold (ethr) on eigenvalues was too large:
     Diagonalizing with lowered threshold

     Davidson diagonalization with overlap
     ethr =  6.99E-09,  avg # of iterations =  4.5

[...]

     total energy              =  -13811.75833967 Ry
     estimated scf accuracy    <       0.00000001 Ry

     iteration # 10     ecut=    71.00 Ry     beta= 0.10
     Davidson diagonalization with overlap
     ethr =  2.38E-12,  avg # of iterations =  2.2

     End of self-consistent calculation

[...]

          k = 0.3889-0.5000-0.3448 ( 43752 PWs)   bands (ev):

[...]

          k =-0.5000-0.5000-0.3448 ( 43784 PWs)   bands (ev):

   -58.4637 -58.4636 -58.4636 -58.4636 -58.4139 -58.4139 -58.4139 -58.4139
   -58.3727 -58.3727 -58.3727 -58.3727 -58.3727 -58.3727 -58.3727 -58.3727
   -58.0182 -58.0182 -58.0182 -58.0182 -58.0170 -58.0170 -58.0170 -58.0170
   -57.9721 -57.9721 -57.9721 -57.9721 -57.9721 -57.9721 -57.9721 -57.9721
   -28.7972 -28.7972 -28.7972 -28.7972 -28.7972 -28.7972 -28.7972 -28.7972
   -28.6886 -28.6886 -28.6886 -28.6886 -28.6558 -28.6558 -28.6558 -28.6558
   -28.5913 -28.5913 -28.5913 -28.5913 -28.5913 -28.5913 -28.5913 -28.5913
   -28.5049 -28.5049 -28.5049 -28.5049 -28.4059 -28.4059 -28.4059 -28.4059
   -28.3401 -28.3401 -28.3401 -28.3401 -28.3401 -28.3401 -28.3401 -28.3401
   -28.2092 -28.2092 -28.2092 -28.2092 -28.1306 -28.1306 -28.1306 -28.1306
   -28.0406 -28.0405 -28.0405 -28.0405 -28.0405 -28.0405 -28.0405 -28.0405
   -27.9788 -27.9788 -27.9788 -27.9788 -27.9788 -27.9788 -27.9788 -27.9788
   -27.9604 -27.9604 -27.9604 -27.9604 -27.9308 -27.9308 -27.9308 -27.9308
   -27.8786 -27.8786 -27.8786 -27.8786 -27.8786 -27.8786 -27.8786 -27.8786
   -27.8299 -27.8299 -27.8299 -27.8299 -27.8150 -27.8150 -27.8150 -27.8150
   -27.7237 -27.7236 -27.7236 -27.7236 -27.7185 -27.7184 -27.7184 -27.7184
     8.6020   8.6021   8.6021   8.6021   9.2715   9.2715   9.2715   9.2715
     9.5321   9.5321   9.5321   9.5321   9.5321   9.5321   9.5321   9.5321
     9.5378   9.5378   9.5378   9.5378   9.6700   9.6700   9.6700   9.6700
     9.8977   9.8977   9.8977   9.8977   9.8977   9.8977   9.8977   9.8977
    10.2866  10.2866  10.2866  10.2866  10.4407  10.4407  10.4407  10.4407
    10.4407  10.4407  10.4407  10.4408  10.8676  10.8676  10.8676  10.8676
    10.8676  10.8676  10.8676  10.8676  11.1026  11.1026  11.1026  11.1026
    11.8135  11.8135  11.8135  11.8135  11.9963  11.9963  11.9963  11.9963
    12.4077  12.4077  12.4077  12.4077  12.4375  12.4376  12.4376  12.4376
    12.5067  12.5067  12.5067  12.5067  12.6074  12.6074  12.6074  12.6074
    12.6075  12.6075  12.6075  12.6075  12.6485  12.6485  12.6485  12.6485
    13.0825  13.0825  13.0825  13.0825  13.2824  13.2824  13.2824  13.2824
    13.3490  13.3490  13.3490  13.3490  13.3490  13.3490  13.3490  13.3491
    13.4301  13.4301  13.4301  13.4301  13.6579  13.6579  13.6579  13.6579
    13.6919  13.6919  13.6919  13.6919  13.6919  13.6919  13.6919  13.6919
    14.2476  14.2476  14.2476  14.2476  14.4889  14.4889  14.4889  14.4889
    14.4889  14.4889  14.4889  14.4889  14.6397  14.6397  14.6397  14.6397
    15.1035  15.1035  15.1035  15.1035  15.3491  15.3491  15.3491  15.3491
    15.3491  15.3491  15.3491  15.3491  15.4755  15.4755  15.4755  15.4755
    15.9504  15.9505  15.9505  15.9505  16.1747  16.1747  16.1747  16.1747
    16.2097  16.2097  16.2097  16.2097  16.2097  16.2097  16.2097  16.2097
    16.3519  16.3519  16.3519  16.3519  17.9468  17.9468  17.9468  17.9468
    19.2388  19.2388  19.2388

     the Fermi energy is    14.5967 ev

!    total energy              =  -13811.75833967 Ry

     total all-electron energy =   -289988.148679 Ry
     estimated scf accuracy    <          4.2E-09 Ry
     smearing contrib. (-TS)   =      -0.00719887 Ry
     internal energy E=F+TS    =  -13811.75114080 Ry

     The total energy is F=E-TS. E is the sum of the following terms:
     one-electron contribution =   -7297.25608032 Ry
     hartree contribution      =    3907.76469073 Ry
     xc contribution           =    -926.65382478 Ry
     ewald contribution        =   -1906.22567615 Ry
     one-center paw contrib.   =   -7589.38025029 Ry

     convergence has been achieved in  10 iterations

     Forces acting on atoms (cartesian axes, Ry/au):

     atom    1 type  1   force =     0.00000000    0.00000000    0.00003914
     atom    2 type  1   force =    -0.00000347   -0.00000347    0.00004277
     atom    3 type  1   force =     0.00000055    0.00000000    0.00008072
     atom    4 type  1   force =     0.00000000    0.00000055    0.00008072
     atom    5 type  1   force =     0.00000000    0.00000000   -0.00008006
     atom    6 type  1   force =    -0.00000212   -0.00000212   -0.00008323
     atom    7 type  1   force =    -0.00000396    0.00000000   -0.00004071
     atom    8 type  1   force =     0.00000000   -0.00000396   -0.00004071
     atom    9 type  1   force =     0.00000000    0.00000000    0.00004287
     atom   10 type  1   force =    -0.00000347    0.00000347    0.00004277
     atom   11 type  1   force =    -0.00000106    0.00000000    0.00008231
     atom   12 type  1   force =     0.00000000   -0.00000055    0.00008072
     atom   13 type  1   force =     0.00000000    0.00000000   -0.00008277
     atom   14 type  1   force =    -0.00000212    0.00000212   -0.00008323
     atom   15 type  1   force =    -0.00000574    0.00000000   -0.00004154
     atom   16 type  1   force =     0.00000000    0.00000396   -0.00004071
     atom   17 type  1   force =     0.00000000    0.00000000    0.00004287
     atom   18 type  1   force =     0.00000347   -0.00000347    0.00004277
     atom   19 type  1   force =    -0.00000055    0.00000000    0.00008072
     atom   20 type  1   force =     0.00000000   -0.00000106    0.00008231
     atom   21 type  1   force =     0.00000000    0.00000000   -0.00008277
     atom   22 type  1   force =     0.00000212   -0.00000212   -0.00008323
     atom   23 type  1   force =     0.00000396    0.00000000   -0.00004071
     atom   24 type  1   force =     0.00000000   -0.00000574   -0.00004154
     atom   25 type  1   force =     0.00000000    0.00000000    0.00004658
     atom   26 type  1   force =     0.00000347    0.00000347    0.00004277
     atom   27 type  1   force =     0.00000106    0.00000000    0.00008231
     atom   28 type  1   force =     0.00000000    0.00000106    0.00008231
     atom   29 type  1   force =     0.00000000    0.00000000   -0.00008718
     atom   30 type  1   force =     0.00000212    0.00000212   -0.00008323
     atom   31 type  1   force =     0.00000574    0.00000000   -0.00004154
     atom   32 type  1   force =     0.00000000    0.00000574   -0.00004154

     Total force =     0.000370     Total SCF correction =     0.000133
     SCF correction compared to forces is large: reduce conv_thr to get better values

     Computing stress (Cartesian axis) and pressure

          total   stress  (Ry/bohr**3)                   (kbar)     P=      -28.38
  -0.00024395   0.00000000   0.00000000          -35.89        0.00        0.00
   0.00000000  -0.00024395   0.00000000            0.00      -35.89        0.00
   0.00000000   0.00000000  -0.00009090            0.00        0.00      -13.37

     Energy error            =      6.7E-06
     Gradient error          =      8.7E-05

     bfgs converged in   9 scf cycles and   8 bfgs steps
     (criteria: energy <  1.0E-04 Ry, force <  1.0E-03 Ry/Bohr)

     End of BFGS Geometry Optimization

     Final energy   =  -13811.7583396739 Ry

     File /scratch/ufKcxuvVQADzIuBL.bfgs deleted, as requested
Begin final coordinates

ATOMIC_POSITIONS (crystal)
Ru            0.0000000000        0.0000000000        0.0058846756
Ru            0.2500007131        0.2500007131        0.0058837003
Ru            0.2500000443        0.0000000000        0.1640445366
Ru            0.0000000000        0.2500000443        0.1640445366
Ru            0.0000000000        0.0000000000        0.6635411779
Ru            0.2500007773        0.2500007773        0.6635415464
Ru            0.2500007809        0.0000000000        0.8217022522
Ru            0.0000000000        0.2500007809        0.8217022522
Ru            0.0000000000        0.5000000000        0.0058837886
Ru            0.2500007131        0.7499992869        0.0058837003
Ru            0.2500005546        0.5000000000        0.1640443755
Ru            0.0000000000        0.7499999557        0.1640445366
Ru            0.0000000000        0.5000000000        0.6635415284
Ru            0.2500007773        0.7499992227        0.6635415464
Ru            0.2500011042        0.5000000000        0.8217032065
Ru            0.0000000000        0.7499992191        0.8217022522
Ru            0.5000000000        0.0000000000        0.0058837886
Ru            0.7499992869        0.2500007131        0.0058837003
Ru            0.7499999557        0.0000000000        0.1640445366
Ru            0.5000000000        0.2500005546        0.1640443755
Ru            0.5000000000        0.0000000000        0.6635415284
Ru            0.7499992227        0.2500007773        0.6635415464
Ru            0.7499992191        0.0000000000        0.8217022522
Ru            0.5000000000        0.2500011042        0.8217032065
Ru            0.5000000000        0.5000000000        0.0058824455
Ru            0.7499992869        0.7499992869        0.0058837003
Ru            0.7499994454        0.5000000000        0.1640443755
Ru            0.5000000000        0.7499994454        0.1640443755
Ru            0.5000000000        0.5000000000        0.6635419072
Ru            0.7499992227        0.7499992227        0.6635415464
Ru            0.7499988958        0.5000000000        0.8217032065
Ru            0.5000000000        0.7499988958        0.8217032065
End final coordinates

     Writing output data file /scratch/ufKcxuvVQADzIuBL.save/

     General routines

     Parallel routines

   This run was terminated on:  12:39: 8   2Dec2021

   JOB DONE.