     Program PWSCF v.6.7MaX starts on  2Dec2021 at 19:34:57

     R & G space division:  proc/nbgrp/npool/nimage =      72
     Reading input from relax_13.in
Warning: card &CELL ignored
Warning: card CELL_DYNAMICS = 'BFGS', ignored
Warning: card CELL_FACTOR = 2.0, ignored
Warning: card PRESS = 0.0, ignored
Warning: card / ignored

     Current dimensions of program PWSCF are:
     Max number of different atomic species (ntypx) = 10
     Max number of k-points (npk) =  40000
     Max angular momentum in pseudopotentials (lmaxx) =  3
     file Ru.pbe-spn-kjpaw_psl.1.0.0.UPF: wavefunction(s)  4D renormalized

     Subspace diagonalization in iterative solution of the eigenvalue problem:
     one sub-group per band group will be used

     Found symmetry operation: I + (  0.2500  0.2500  0.0000)
     This is a supercell, fractional translations are disabled
     Message from routine setup:
     using ibrav=0 with symmetry is DISCOURAGED, use correct ibrav instead

     bravais-lattice index     =            0
     lattice parameter (alat)  =      14.4007  a.u.
     unit-cell volume          =    4778.3126 (a.u.)^3
     number of atoms/cell      =           32
     number of atomic types    =            1
     number of electrons       =       512.00
     number of Kohn-Sham states=          307
     kinetic-energy cutoff     =      71.0000  Ry
     charge density cutoff     =     430.0000  Ry
     scf convergence threshold =      1.0E-06
     mixing beta               =       0.1000
     number of iterations used =           10  TF        mixing
     energy convergence thresh.=      1.0E-04
     force convergence thresh. =      1.0E-03
     Exchange-correlation= SLA  PW   PBX  PBC
                           (   1   4   3   4   0   0   0)
     nstep                     =           40

     celldm(1)=  14.400742  celldm(2)=   0.000000  celldm(3)=   0.000000
     celldm(4)=   0.000000  celldm(5)=   0.000000  celldm(6)=   0.000000

     crystal axes: (cart. coord. in units of alat)
               a(1) = (   1.000000   0.000000   0.000000 )
               a(2) = (   0.000000   1.000000   0.000000 )
               a(3) = (   0.000000   0.000000   1.600000 )

     reciprocal axes: (cart. coord. in units 2 pi/alat)
               b(1) = (  1.000000  0.000000  0.000000 )
               b(2) = (  0.000000  1.000000  0.000000 )
               b(3) = (  0.000000  0.000000  0.625000 )

     PseudoPot. # 1 for Ru read from file:
     /rds/homes/b/bxp912/pp/Ru.pbe-spn-kjpaw_psl.1.0.0.UPF
     MD5 check sum: 0ae1f594dea09af7be8575c3a481d1ae
     Pseudo is Projector augmented-wave + core cor, Zval = 16.0
     Generated using "atomic" code by A. Dal Corso  v.5.1
     Shape of augmentation charge: PSQ
     Using radial grid of 1233 points,  6 beta functions with:
                l(1) =   0
                l(2) =   0
                l(3) =   1
                l(4) =   1
                l(5) =   2
                l(6) =   2
     Q(r) pseudized with 0 coefficients

     atomic species   valence    mass     pseudopotential
        Ru            16.00   101.07000     Ru( 1.00)

      8 Sym. Ops. (no inversion) found

   Cartesian axes

     site n.     atom                  positions (alat units)
         1           Ru  tau(   1) = (   0.0000000   0.0000000   0.0000000  )
         2           Ru  tau(   2) = (   0.2500000   0.2500000   0.0000000  )
         3           Ru  tau(   3) = (   0.2500000   0.0000000   0.2500000  )
         4           Ru  tau(   4) = (   0.0000000   0.2500000   0.2500000  )
         5           Ru  tau(   5) = (   0.0000000   0.0000000   1.1000000  )
         6           Ru  tau(   6) = (   0.2500000   0.2500000   1.1000000  )
         7           Ru  tau(   7) = (   0.2500000   0.0000000   1.3500000  )
         8           Ru  tau(   8) = (   0.0000000   0.2500000   1.3500000  )
         9           Ru  tau(   9) = (   0.0000000   0.5000000   0.0000000  )
        10           Ru  tau(  10) = (   0.2500000   0.7500000   0.0000000  )
        11           Ru  tau(  11) = (   0.2500000   0.5000000   0.2500000  )
        12           Ru  tau(  12) = (   0.0000000   0.7500000   0.2500000  )
        13           Ru  tau(  13) = (   0.0000000   0.5000000   1.1000000  )
        14           Ru  tau(  14) = (   0.2500000   0.7500000   1.1000000  )
        15           Ru  tau(  15) = (   0.2500000   0.5000000   1.3500000  )
        16           Ru  tau(  16) = (   0.0000000   0.7500000   1.3500000  )
        17           Ru  tau(  17) = (   0.5000000   0.0000000   0.0000000  )
        18           Ru  tau(  18) = (   0.7500000   0.2500000   0.0000000  )
        19           Ru  tau(  19) = (   0.7500000   0.0000000   0.2500000  )
        20           Ru  tau(  20) = (   0.5000000   0.2500000   0.2500000  )
        21           Ru  tau(  21) = (   0.5000000   0.0000000   1.1000000  )
        22           Ru  tau(  22) = (   0.7500000   0.2500000   1.1000000  )
        23           Ru  tau(  23) = (   0.7500000   0.0000000   1.3500000  )
        24           Ru  tau(  24) = (   0.5000000   0.2500000   1.3500000  )
        25           Ru  tau(  25) = (   0.5000000   0.5000000   0.0000000  )
        26           Ru  tau(  26) = (   0.7500000   0.7500000   0.0000000  )
        27           Ru  tau(  27) = (   0.7500000   0.5000000   0.2500000  )
        28           Ru  tau(  28) = (   0.5000000   0.7500000   0.2500000  )
        29           Ru  tau(  29) = (   0.5000000   0.5000000   1.1000000  )
        30           Ru  tau(  30) = (   0.7500000   0.7500000   1.1000000  )
        31           Ru  tau(  31) = (   0.7500000   0.5000000   1.3500000  )
        32           Ru  tau(  32) = (   0.5000000   0.7500000   1.3500000  )

     number of k points=    75  Marzari-Vanderbilt smearing, width (Ry)=  0.0400
                       cart. coord. in units 2pi/alat
        k(    1) = (   0.0555556   0.0555556   0.0347222), wk =   0.0219479
        k(    2) = (   0.0555556   0.0555556   0.1041667), wk =   0.0219479
        k(    3) = (   0.0555556   0.0555556   0.1736111), wk =   0.0219479
        k(    4) = (   0.0555556   0.0555556   0.2430556), wk =   0.0219479
        k(    5) = (   0.0555556   0.0555556  -0.3125000), wk =   0.0109739
        k(    6) = (   0.0555556   0.1666667   0.0347222), wk =   0.0438957
        k(    7) = (   0.0555556   0.1666667   0.1041667), wk =   0.0438957
        k(    8) = (   0.0555556   0.1666667   0.1736111), wk =   0.0438957
        k(    9) = (   0.0555556   0.1666667   0.2430556), wk =   0.0438957
        k(   10) = (   0.0555556   0.1666667  -0.3125000), wk =   0.0219479
        k(   11) = (   0.0555556   0.2777778   0.0347222), wk =   0.0438957
        k(   12) = (   0.0555556   0.2777778   0.1041667), wk =   0.0438957
        k(   13) = (   0.0555556   0.2777778   0.1736111), wk =   0.0438957
        k(   14) = (   0.0555556   0.2777778   0.2430556), wk =   0.0438957
        k(   15) = (   0.0555556   0.2777778  -0.3125000), wk =   0.0219479
        k(   16) = (   0.0555556   0.3888889   0.0347222), wk =   0.0438957
        k(   17) = (   0.0555556   0.3888889   0.1041667), wk =   0.0438957
        k(   18) = (   0.0555556   0.3888889   0.1736111), wk =   0.0438957
        k(   19) = (   0.0555556   0.3888889   0.2430556), wk =   0.0438957
        k(   20) = (   0.0555556   0.3888889  -0.3125000), wk =   0.0219479
        k(   21) = (   0.0555556  -0.5000000   0.0347222), wk =   0.0219479
        k(   22) = (   0.0555556  -0.5000000   0.1041667), wk =   0.0219479
        k(   23) = (   0.0555556  -0.5000000   0.1736111), wk =   0.0219479
        k(   24) = (   0.0555556  -0.5000000   0.2430556), wk =   0.0219479
        k(   25) = (   0.0555556  -0.5000000  -0.3125000), wk =   0.0109739
        k(   26) = (   0.1666667   0.1666667   0.0347222), wk =   0.0219479
        k(   27) = (   0.1666667   0.1666667   0.1041667), wk =   0.0219479
        k(   28) = (   0.1666667   0.1666667   0.1736111), wk =   0.0219479
        k(   29) = (   0.1666667   0.1666667   0.2430556), wk =   0.0219479
        k(   30) = (   0.1666667   0.1666667  -0.3125000), wk =   0.0109739
        k(   31) = (   0.1666667   0.2777778   0.0347222), wk =   0.0438957
        k(   32) = (   0.1666667   0.2777778   0.1041667), wk =   0.0438957
        k(   33) = (   0.1666667   0.2777778   0.1736111), wk =   0.0438957
        k(   34) = (   0.1666667   0.2777778   0.2430556), wk =   0.0438957
        k(   35) = (   0.1666667   0.2777778  -0.3125000), wk =   0.0219479
        k(   36) = (   0.1666667   0.3888889   0.0347222), wk =   0.0438957
        k(   37) = (   0.1666667   0.3888889   0.1041667), wk =   0.0438957
        k(   38) = (   0.1666667   0.3888889   0.1736111), wk =   0.0438957
        k(   39) = (   0.1666667   0.3888889   0.2430556), wk =   0.0438957
        k(   40) = (   0.1666667   0.3888889  -0.3125000), wk =   0.0219479
        k(   41) = (   0.1666667  -0.5000000   0.0347222), wk =   0.0219479
        k(   42) = (   0.1666667  -0.5000000   0.1041667), wk =   0.0219479
        k(   43) = (   0.1666667  -0.5000000   0.1736111), wk =   0.0219479
        k(   44) = (   0.1666667  -0.5000000   0.2430556), wk =   0.0219479
        k(   45) = (   0.1666667  -0.5000000  -0.3125000), wk =   0.0109739
        k(   46) = (   0.2777778   0.2777778   0.0347222), wk =   0.0219479
        k(   47) = (   0.2777778   0.2777778   0.1041667), wk =   0.0219479
        k(   48) = (   0.2777778   0.2777778   0.1736111), wk =   0.0219479
        k(   49) = (   0.2777778   0.2777778   0.2430556), wk =   0.0219479
        k(   50) = (   0.2777778   0.2777778  -0.3125000), wk =   0.0109739
        k(   51) = (   0.2777778   0.3888889   0.0347222), wk =   0.0438957
        k(   52) = (   0.2777778   0.3888889   0.1041667), wk =   0.0438957
        k(   53) = (   0.2777778   0.3888889   0.1736111), wk =   0.0438957
        k(   54) = (   0.2777778   0.3888889   0.2430556), wk =   0.0438957
        k(   55) = (   0.2777778   0.3888889  -0.3125000), wk =   0.0219479
        k(   56) = (   0.2777778  -0.5000000   0.0347222), wk =   0.0219479
        k(   57) = (   0.2777778  -0.5000000   0.1041667), wk =   0.0219479
        k(   58) = (   0.2777778  -0.5000000   0.1736111), wk =   0.0219479
        k(   59) = (   0.2777778  -0.5000000   0.2430556), wk =   0.0219479
        k(   60) = (   0.2777778  -0.5000000  -0.3125000), wk =   0.0109739
        k(   61) = (   0.3888889   0.3888889   0.0347222), wk =   0.0219479
        k(   62) = (   0.3888889   0.3888889   0.1041667), wk =   0.0219479
        k(   63) = (   0.3888889   0.3888889   0.1736111), wk =   0.0219479
        k(   64) = (   0.3888889   0.3888889   0.2430556), wk =   0.0219479
        k(   65) = (   0.3888889   0.3888889  -0.3125000), wk =   0.0109739
        k(   66) = (   0.3888889  -0.5000000   0.0347222), wk =   0.0219479
        k(   67) = (   0.3888889  -0.5000000   0.1041667), wk =   0.0219479
        k(   68) = (   0.3888889  -0.5000000   0.1736111), wk =   0.0219479
        k(   69) = (   0.3888889  -0.5000000   0.2430556), wk =   0.0219479
        k(   70) = (   0.3888889  -0.5000000  -0.3125000), wk =   0.0109739
[...]
     atom   27 type  1   force =     0.00001147    0.00000000   -0.03328789
     atom   28 type  1   force =     0.00000000    0.00001147   -0.03328789
     atom   29 type  1   force =     0.00000000    0.00000000    0.03329577
     atom   30 type  1   force =    -0.00002709   -0.00002709    0.03334171
     atom   31 type  1   force =     0.00000140    0.00000000   -0.03814929
     atom   32 type  1   force =     0.00000000    0.00000140   -0.03814929

     Total force =     0.202452     Total SCF correction =     0.001191

     Computing stress (Cartesian axis) and pressure

          total   stress  (Ry/bohr**3)                   (kbar)     P=      -78.10
  -0.00059406   0.00000000   0.00000000          -87.39        0.00        0.00
   0.00000000  -0.00059406   0.00000000            0.00      -87.39        0.00
   0.00000000   0.00000000  -0.00040468            0.00        0.00      -59.53

     BFGS Geometry Optimization
     Energy error            =      0.0E+00
     Gradient error          =      3.8E-02

     number of scf cycles    =   1
     number of bfgs steps    =   0

     energy   new            =  -13811.6560399234 Ry

     new trust radius        =       0.0381492887 bohr
     new conv_thr            =       0.0000010000 Ry

ATOMIC_POSITIONS (crystal)
Ru            0.0000000000        0.0000000000        0.0016542695
Ru            0.2500001182        0.2500001182        0.0016532626
Ru            0.2500001258        0.0000000000        0.1548045120
Ru            0.0000000000        0.2500001258        0.1548045120
Ru            0.0000000000        0.0000000000        0.6889467684
Ru            0.2500018810        0.2500018810        0.6889470484
Ru            0.2499993390        0.0000000000        0.8420968422
Ru           -0.0000000000        0.2499993390        0.8420968422
Ru            0.0000000000        0.5000000000        0.0016524813
Ru            0.2500001182        0.7499998818        0.0016532626
Ru            0.2499992033        0.5000000000        0.1548052873
Ru            0.0000000000        0.7499998742        0.1548045120
Ru            0.0000000000        0.5000000000        0.6889454450
Ru            0.2500018810        0.7499981190        0.6889470484
Ru            0.2499999029        0.5000000000        0.8420943002
Ru            0.0000000000        0.7500006610        0.8420968422
Ru            0.5000000000        0.0000000000        0.0016524813
Ru            0.7499998818        0.2500001182        0.0016532626
Ru            0.7499998742        0.0000000000        0.1548045120
Ru            0.5000000000        0.2499992033        0.1548052873
Ru            0.5000000000        0.0000000000        0.6889454450
Ru            0.7499981190        0.2500018810        0.6889470484
Ru            0.7500006610       -0.0000000000        0.8420968422
Ru            0.5000000000        0.2499999029        0.8420943002
Ru            0.5000000000        0.5000000000        0.0016530441
Ru            0.7499998818        0.7499998818        0.0016532626
Ru            0.7500007967        0.5000000000        0.1548052873
Ru            0.5000000000        0.7500007967        0.1548052873
Ru            0.5000000000        0.5000000000        0.6889450544
Ru            0.7499981190        0.7499981190        0.6889470484
Ru            0.7500000971        0.5000000000        0.8420943002
Ru            0.5000000000        0.7500000971        0.8420943002

     Writing output data file /scratch/czQlWdTabVQcYdjs.save/
     NEW-OLD atomic charge density approx. for the potential

[...]

     Energy error            =      3.7E-02
     Gradient error          =      2.8E-02

[...]

     energy   old            =  -13811.6560399234 Ry
     energy   new            =  -13811.6927908230 Ry

     CASE: energy  _new < energy  _old

[...]

     Total force =     0.017655     Total SCF correction =     0.000616

[...]

     Total force =     0.011152     Total SCF correction =     0.001744
     SCF correction compared to forces is large: reduce conv_thr to get better values

[...]

     number of scf cycles    =   8
     number of bfgs steps    =   7

     energy   old            =  -13811.7471994980 Ry
     energy   new            =  -13811.7475648547 Ry

     CASE: energy  _new < energy  _old

     new trust radius        =       0.0011188489 bohr
     new conv_thr            =       0.0000000100 Ry

ATOMIC_POSITIONS (crystal)
Ru            0.0000000000        0.0000000000        0.0051823941
Ru            0.2499999075        0.2499999075        0.0051824982
Ru            0.2499998810        0.0000000000        0.1483803453
Ru            0.0000000000        0.2499998810        0.1483803453
Ru            0.0000000000        0.0000000000        0.6953697703
Ru            0.2499999674        0.2499999674        0.6953696325
Ru            0.2500002056        0.0000000000        0.8385676551
Ru           -0.0000000000        0.2500002056        0.8385676551
Ru            0.0000000000        0.5000000000        0.0051824399
Ru            0.2499999075        0.7500000925        0.0051824982
Ru            0.2499999359        0.5000000000        0.1483803220
Ru            0.0000000000        0.7500001190        0.1483803453
Ru            0.0000000000        0.5000000000        0.6953695665
Ru            0.2499999674        0.7500000326        0.6953696325
Ru            0.2500001020        0.5000000000        0.8385675326
Ru            0.0000000000        0.7499997944        0.8385676551
Ru            0.5000000000        0.0000000000        0.0051824399
Ru            0.7500000925        0.2499999075        0.0051824982
Ru            0.7500001190        0.0000000000        0.1483803453
Ru            0.5000000000        0.2499999359        0.1483803220
Ru            0.5000000000        0.0000000000        0.6953695665
Ru            0.7500000326        0.2499999674        0.6953696325
Ru            0.7499997944       -0.0000000000        0.8385676551
Ru            0.5000000000        0.2500001020        0.8385675326
Ru            0.5000000000        0.5000000000        0.0051823243
Ru            0.7500000925        0.7500000925        0.0051824982
Ru            0.7500000641        0.5000000000        0.1483803220
Ru            0.5000000000        0.7500000641        0.1483803220
Ru            0.5000000000        0.5000000000        0.6953695556
Ru            0.7500000326        0.7500000326        0.6953696325
Ru            0.7499998980        0.5000000000        0.8385675326
Ru            0.5000000000        0.7499998980        0.8385675326

     Writing output data file /scratch/czQlWdTabVQcYdjs.save/
     NEW-OLD atomic charge density approx. for the potential

     Check: negative core charge=   -0.000002

     Self-consistent Calculation

[...]

     Threshold (ethr) on eigenvalues was too large:
     Diagonalizing with lowered threshold

     Davidson diagonalization with overlap
     ethr =  1.31E-08,  avg # of iterations =  3.9

[...]

     total energy              =  -13811.74756873 Ry
     estimated scf accuracy    <       0.00000002 Ry

     iteration # 11     ecut=    71.00 Ry     beta= 0.10
     Davidson diagonalization with overlap
     ethr =  2.51E-12,  avg # of iterations =  1.1

     End of self-consistent calculation

[...]

          k = 0.3889-0.5000-0.3125 ( 48268 PWs)   bands (ev):

[...]

          k =-0.5000-0.5000-0.3125 ( 48304 PWs)   bands (ev):

   -60.2767 -60.2767 -60.2767 -60.2767 -60.2262 -60.2262 -60.2262 -60.2262
   -60.1854 -60.1854 -60.1854 -60.1854 -60.1854 -60.1854 -60.1854 -60.1854
   -59.8261 -59.8261 -59.8261 -59.8261 -59.8249 -59.8249 -59.8249 -59.8249
   -59.7800 -59.7800 -59.7800 -59.7800 -59.7800 -59.7800 -59.7800 -59.7800
   -30.6112 -30.6112 -30.6112 -30.6112 -30.6112 -30.6112 -30.6112 -30.6112
   -30.5030 -30.5030 -30.5030 -30.5030 -30.4696 -30.4696 -30.4696 -30.4696
   -30.4040 -30.4040 -30.4040 -30.4040 -30.4040 -30.4040 -30.4040 -30.4040
   -30.3169 -30.3169 -30.3169 -30.3169 -30.2177 -30.2177 -30.2177 -30.2177
   -30.1527 -30.1527 -30.1527 -30.1527 -30.1527 -30.1527 -30.1527 -30.1527
   -30.0228 -30.0228 -30.0228 -30.0228 -29.9433 -29.9433 -29.9433 -29.9433
   -29.8501 -29.8501 -29.8501 -29.8501 -29.8501 -29.8501 -29.8501 -29.8501
   -29.7872 -29.7872 -29.7872 -29.7872 -29.7872 -29.7872 -29.7872 -29.7872
   -29.7693 -29.7693 -29.7693 -29.7693 -29.7389 -29.7389 -29.7389 -29.7389
   -29.6860 -29.6860 -29.6860 -29.6860 -29.6860 -29.6860 -29.6860 -29.6860
   -29.6376 -29.6376 -29.6376 -29.6376 -29.6232 -29.6232 -29.6232 -29.6232
   -29.5326 -29.5326 -29.5326 -29.5326 -29.5273 -29.5273 -29.5273 -29.5273
     6.7842   6.7842   6.7842   6.7842   7.4519   7.4519   7.4519   7.4519
     7.7130   7.7130   7.7130   7.7130   7.7130   7.7130   7.7130   7.7130
     7.7264   7.7264   7.7264   7.7264   7.8517   7.8517   7.8517   7.8517
     8.0800   8.0800   8.0800   8.0800   8.0800   8.0800   8.0800   8.0800
     8.4677   8.4677   8.4677   8.4677   8.6245   8.6245   8.6245   8.6245
     8.6245   8.6245   8.6245   8.6245   9.0556   9.0556   9.0556   9.0556
     9.0556   9.0556   9.0556   9.0556   9.2900   9.2900   9.2900   9.2900
    10.0016  10.0016  10.0016  10.0016  10.1848  10.1848  10.1848  10.1848
    10.5770  10.5770  10.5770  10.5770  10.6471  10.6471  10.6471  10.6471
    10.6864  10.6864  10.6864  10.6864  10.7920  10.7920  10.7920  10.7920
    10.7920  10.7920  10.7920  10.7920  10.8294  10.8294  10.8294  10.8294
    11.2815  11.2815  11.2815  11.2815  11.4668  11.4668  11.4668  11.4668
    11.5379  11.5379  11.5379  11.5379  11.5379  11.5379  11.5379  11.5379
    11.6202  11.6202  11.6202  11.6202  11.8433  11.8433  11.8433  11.8433
    11.8789  11.8789  11.8789  11.8789  11.8789  11.8789  11.8789  11.8789
    12.5255  12.5255  12.5255  12.5255  12.6929  12.6929  12.6929  12.6929
    12.6929  12.6929  12.6929  12.6929  12.8048  12.8048  12.8048  12.8048
    13.2933  13.2933  13.2933  13.2933  13.5270  13.5270  13.5270  13.5270
    13.5270  13.5270  13.5270  13.5270  13.6667  13.6667  13.6667  13.6667
    13.9699  13.9699  13.9699  13.9699  14.3685  14.3685  14.3685  14.3685
    14.4020  14.4020  14.4020  14.4020  14.4020  14.4020  14.4020  14.4020
    14.5464  14.5464  14.5464  14.5464  16.2319  16.2319  16.2319  16.2319
    17.4187  17.4187  17.4187

     the Fermi energy is    12.7856 ev

!    total energy              =  -13811.74756873 Ry

     total all-electron energy =   -289988.137908 Ry
     estimated scf accuracy    <          5.2E-09 Ry
     smearing contrib. (-TS)   =      -0.00880102 Ry
     internal energy E=F+TS    =  -13811.73876771 Ry

     The total energy is F=E-TS. E is the sum of the following terms:
     one-electron contribution =  -10771.14441743 Ry
     hartree contribution      =    5610.65168685 Ry
     xc contribution           =    -926.70409033 Ry
     ewald contribution        =    -135.16009135 Ry
     one-center paw contrib.   =   -7589.38185545 Ry

     convergence has been achieved in  11 iterations

     Forces acting on atoms (cartesian axes, Ry/au):

     atom    1 type  1   force =     0.00000000    0.00000000   -0.00009697
     atom    2 type  1   force =     0.00000044    0.00000044   -0.00009717
     atom    3 type  1   force =     0.00000038    0.00000000   -0.00002705
     atom    4 type  1   force =     0.00000000    0.00000038   -0.00002705
     atom    5 type  1   force =     0.00000000    0.00000000    0.00002845
     atom    6 type  1   force =    -0.00000012   -0.00000012    0.00002857
     atom    7 type  1   force =    -0.00000067    0.00000000    0.00009532
     atom    8 type  1   force =     0.00000000   -0.00000067    0.00009532
     atom    9 type  1   force =     0.00000000    0.00000000   -0.00009687
     atom   10 type  1   force =     0.00000044   -0.00000044   -0.00009717
     atom   11 type  1   force =     0.00000036    0.00000000   -0.00002724
     atom   12 type  1   force =     0.00000000   -0.00000038   -0.00002705
     atom   13 type  1   force =     0.00000000    0.00000000    0.00002872
     atom   14 type  1   force =    -0.00000012    0.00000012    0.00002857
     atom   15 type  1   force =    -0.00000039    0.00000000    0.00009571
     atom   16 type  1   force =     0.00000000    0.00000067    0.00009532
     atom   17 type  1   force =     0.00000000    0.00000000   -0.00009687
     atom   18 type  1   force =    -0.00000044    0.00000044   -0.00009717
     atom   19 type  1   force =    -0.00000038    0.00000000   -0.00002705
     atom   20 type  1   force =     0.00000000    0.00000036   -0.00002724
     atom   21 type  1   force =     0.00000000    0.00000000    0.00002872
     atom   22 type  1   force =     0.00000012   -0.00000012    0.00002857
     atom   23 type  1   force =     0.00000067    0.00000000    0.00009532
     atom   24 type  1   force =     0.00000000   -0.00000039    0.00009571
     atom   25 type  1   force =     0.00000000    0.00000000   -0.00009628
     atom   26 type  1   force =    -0.00000044   -0.00000044   -0.00009717
     atom   27 type  1   force =    -0.00000036    0.00000000   -0.00002724
     atom   28 type  1   force =     0.00000000   -0.00000036   -0.00002724
     atom   29 type  1   force =     0.00000000    0.00000000    0.00002853
     atom   30 type  1   force =     0.00000012    0.00000012    0.00002857
     atom   31 type  1   force =     0.00000039    0.00000000    0.00009571
     atom   32 type  1   force =     0.00000000    0.00000039    0.00009571

     Total force =     0.000401     Total SCF correction =     0.000110
     SCF correction compared to forces is large: reduce conv_thr to get better values

     Computing stress (Cartesian axis) and pressure

          total   stress  (Ry/bohr**3)                   (kbar)     P=      -23.14
  -0.00021588   0.00000000   0.00000000          -31.76        0.00        0.00
   0.00000000  -0.00021588   0.00000000            0.00      -31.76        0.00
   0.00000000   0.00000000  -0.00004015            0.00        0.00       -5.91

     Energy error            =      3.9E-06
     Gradient error          =      9.7E-05

     bfgs converged in   9 scf cycles and   8 bfgs steps
     (criteria: energy <  1.0E-04 Ry, force <  1.0E-03 Ry/Bohr)

     End of BFGS Geometry Optimization

     Final energy   =  -13811.7475687270 Ry

     File /scratch/czQlWdTabVQcYdjs.bfgs deleted, as requested
Begin final coordinates

ATOMIC_POSITIONS (crystal)
Ru            0.0000000000        0.0000000000        0.0051823941
Ru            0.2499999075        0.2499999075        0.0051824982
Ru            0.2499998810        0.0000000000        0.1483803453
Ru            0.0000000000        0.2499998810        0.1483803453
Ru            0.0000000000        0.0000000000        0.6953697703
Ru            0.2499999674        0.2499999674        0.6953696325
Ru            0.2500002056        0.0000000000        0.8385676551
Ru           -0.0000000000        0.2500002056        0.8385676551
Ru            0.0000000000        0.5000000000        0.0051824399
Ru            0.2499999075        0.7500000925        0.0051824982
Ru            0.2499999359        0.5000000000        0.1483803220
Ru            0.0000000000        0.7500001190        0.1483803453
Ru            0.0000000000        0.5000000000        0.6953695665
Ru            0.2499999674        0.7500000326        0.6953696325
Ru            0.2500001020        0.5000000000        0.8385675326
Ru            0.0000000000        0.7499997944        0.8385676551
Ru            0.5000000000        0.0000000000        0.0051824399
Ru            0.7500000925        0.2499999075        0.0051824982
Ru            0.7500001190        0.0000000000        0.1483803453
Ru            0.5000000000        0.2499999359        0.1483803220
Ru            0.5000000000        0.0000000000        0.6953695665
Ru            0.7500000326        0.2499999674        0.6953696325
Ru            0.7499997944       -0.0000000000        0.8385676551
Ru            0.5000000000        0.2500001020        0.8385675326
Ru            0.5000000000        0.5000000000        0.0051823243
Ru            0.7500000925        0.7500000925        0.0051824982
Ru            0.7500000641        0.5000000000        0.1483803220
Ru            0.5000000000        0.7500000641        0.1483803220
Ru            0.5000000000        0.5000000000        0.6953695556
Ru            0.7500000326        0.7500000326        0.6953696325
Ru            0.7499998980        0.5000000000        0.8385675326
Ru            0.5000000000        0.7499998980        0.8385675326
End final coordinates

     Writing output data file /scratch/czQlWdTabVQcYdjs.save/

     General routines

     Parallel routines

   This run was terminated on:  23:18:58   2Dec2021

   JOB DONE.