     Program PWSCF v.6.7MaX starts on  2Dec2021 at 23:19: 3

     R & G space division:  proc/nbgrp/npool/nimage =      72
     Reading input from relax_14.in
Warning: card &CELL ignored
Warning: card CELL_DYNAMICS = 'BFGS', ignored
Warning: card CELL_FACTOR = 2.0, ignored
Warning: card PRESS = 0.0, ignored
Warning: card / ignored

     Current dimensions of program PWSCF are:
     Max number of different atomic species (ntypx) = 10
     Max number of k-points (npk) =  40000
     Max angular momentum in pseudopotentials (lmaxx) =  3
     file Ru.pbe-spn-kjpaw_psl.1.0.0.UPF: wavefunction(s)  4D renormalized

     Subspace diagonalization in iterative solution of the eigenvalue problem:
     one sub-group per band group will be used

     Found symmetry operation: I + (  0.2500  0.2500  0.0000)
     This is a supercell, fractional translations are disabled
     Message from routine setup:
     using ibrav=0 with symmetry is DISCOURAGED, use correct ibrav instead

     bravais-lattice index     =            0
     lattice parameter (alat)  =      14.4007  a.u.
     unit-cell volume          =    4927.6348 (a.u.)^3
     number of atoms/cell      =           32
     number of atomic types    =            1
     number of electrons       =       512.00
     number of Kohn-Sham states=          307
     kinetic-energy cutoff     =      71.0000  Ry
     charge density cutoff     =     430.0000  Ry
     scf convergence threshold =      1.0E-06
     mixing beta               =       0.1000
     number of iterations used =           10  TF        mixing
     energy convergence thresh.=      1.0E-04
     force convergence thresh. =      1.0E-03
     Exchange-correlation= SLA  PW   PBX  PBC
                           (   1   4   3   4   0   0   0)
     nstep                     =           40

     celldm(1)=  14.400742  celldm(2)=   0.000000  celldm(3)=   0.000000
     celldm(4)=   0.000000  celldm(5)=   0.000000  celldm(6)=   0.000000

     crystal axes: (cart. coord. in units of alat)
               a(1) = (   1.000000   0.000000   0.000000 )
               a(2) = (   0.000000   1.000000   0.000000 )
               a(3) = (   0.000000   0.000000   1.650000 )

     reciprocal axes: (cart. coord. in units 2 pi/alat)
               b(1) = (  1.000000  0.000000  0.000000 )
               b(2) = (  0.000000  1.000000  0.000000 )
               b(3) = (  0.000000  0.000000  0.606061 )

     PseudoPot. # 1 for Ru read from file:
     /rds/homes/b/bxp912/pp/Ru.pbe-spn-kjpaw_psl.1.0.0.UPF
     MD5 check sum: 0ae1f594dea09af7be8575c3a481d1ae
     Pseudo is Projector augmented-wave + core cor, Zval = 16.0
     Generated using "atomic" code by A. Dal Corso  v.5.1
     Shape of augmentation charge: PSQ
     Using radial grid of 1233 points,  6 beta functions with:
                l(1) =   0
                l(2) =   0
                l(3) =   1
                l(4) =   1
                l(5) =   2
                l(6) =   2
     Q(r) pseudized with 0 coefficients

     atomic species   valence    mass     pseudopotential
        Ru            16.00   101.07000     Ru( 1.00)

      8 Sym. Ops. (no inversion) found

   Cartesian axes

     site n.     atom                  positions (alat units)
         1           Ru  tau(   1) = (   0.0000000   0.0000000   0.0000000  )
         2           Ru  tau(   2) = (   0.2500000   0.2500000   0.0000000  )
         3           Ru  tau(   3) = (   0.2500000   0.0000000   0.2500000  )
         4           Ru  tau(   4) = (   0.0000000   0.2500000   0.2500000  )
         5           Ru  tau(   5) = (   0.0000000   0.0000000   1.1500000  )
         6           Ru  tau(   6) = (   0.2500000   0.2500000   1.1500000  )
         7           Ru  tau(   7) = (   0.2500000   0.0000000   1.4000000  )
         8           Ru  tau(   8) = (   0.0000000   0.2500000   1.4000000  )
         9           Ru  tau(   9) = (   0.0000000   0.5000000   0.0000000  )
        10           Ru  tau(  10) = (   0.2500000   0.7500000   0.0000000  )
        11           Ru  tau(  11) = (   0.2500000   0.5000000   0.2500000  )
        12           Ru  tau(  12) = (   0.0000000   0.7500000   0.2500000  )
        13           Ru  tau(  13) = (   0.0000000   0.5000000   1.1500000  )
        14           Ru  tau(  14) = (   0.2500000   0.7500000   1.1500000  )
        15           Ru  tau(  15) = (   0.2500000   0.5000000   1.4000000  )
        16           Ru  tau(  16) = (   0.0000000   0.7500000   1.4000000  )
        17           Ru  tau(  17) = (   0.5000000   0.0000000   0.0000000  )
        18           Ru  tau(  18) = (   0.7500000   0.2500000   0.0000000  )
        19           Ru  tau(  19) = (   0.7500000   0.0000000   0.2500000  )
        20           Ru  tau(  20) = (   0.5000000   0.2500000   0.2500000  )
        21           Ru  tau(  21) = (   0.5000000   0.0000000   1.1500000  )
        22           Ru  tau(  22) = (   0.7500000   0.2500000   1.1500000  )
        23           Ru  tau(  23) = (   0.7500000   0.0000000   1.4000000  )
        24           Ru  tau(  24) = (   0.5000000   0.2500000   1.4000000  )
        25           Ru  tau(  25) = (   0.5000000   0.5000000   0.0000000  )
        26           Ru  tau(  26) = (   0.7500000   0.7500000   0.0000000  )
        27           Ru  tau(  27) = (   0.7500000   0.5000000   0.2500000  )
        28           Ru  tau(  28) = (   0.5000000   0.7500000   0.2500000  )
        29           Ru  tau(  29) = (   0.5000000   0.5000000   1.1500000  )
        30           Ru  tau(  30) = (   0.7500000   0.7500000   1.1500000  )
        31           Ru  tau(  31) = (   0.7500000   0.5000000   1.4000000  )
        32           Ru  tau(  32) = (   0.5000000   0.7500000   1.4000000  )

     number of k points=    75  Marzari-Vanderbilt smearing, width (Ry)=  0.0400
                       cart. coord. in units 2pi/alat
        k(    1) = (   0.0555556   0.0555556   0.0336700), wk =   0.0219479
        k(    2) = (   0.0555556   0.0555556   0.1010101), wk =   0.0219479
        k(    3) = (   0.0555556   0.0555556   0.1683502), wk =   0.0219479
        k(    4) = (   0.0555556   0.0555556   0.2356902), wk =   0.0219479
        k(    5) = (   0.0555556   0.0555556  -0.3030303), wk =   0.0109739
        k(    6) = (   0.0555556   0.1666667   0.0336700), wk =   0.0438957
        k(    7) = (   0.0555556   0.1666667   0.1010101), wk =   0.0438957
        k(    8) = (   0.0555556   0.1666667   0.1683502), wk =   0.0438957
        k(    9) = (   0.0555556   0.1666667   0.2356902), wk =   0.0438957
        k(   10) = (   0.0555556   0.1666667  -0.3030303), wk =   0.0219479
        k(   11) = (   0.0555556   0.2777778   0.0336700), wk =   0.0438957
        k(   12) = (   0.0555556   0.2777778   0.1010101), wk =   0.0438957
        k(   13) = (   0.0555556   0.2777778   0.1683502), wk =   0.0438957
        k(   14) = (   0.0555556   0.2777778   0.2356902), wk =   0.0438957
        k(   15) = (   0.0555556   0.2777778  -0.3030303), wk =   0.0219479
        k(   16) = (   0.0555556   0.3888889   0.0336700), wk =   0.0438957
        k(   17) = (   0.0555556   0.3888889   0.1010101), wk =   0.0438957
        k(   18) = (   0.0555556   0.3888889   0.1683502), wk =   0.0438957
        k(   19) = (   0.0555556   0.3888889   0.2356902), wk =   0.0438957
        k(   20) = (   0.0555556   0.3888889  -0.3030303), wk =   0.0219479
        k(   21) = (   0.0555556  -0.5000000   0.0336700), wk =   0.0219479
        k(   22) = (   0.0555556  -0.5000000   0.1010101), wk =   0.0219479
        k(   23) = (   0.0555556  -0.5000000   0.1683502), wk =   0.0219479
        k(   24) = (   0.0555556  -0.5000000   0.2356902), wk =   0.0219479
        k(   25) = (   0.0555556  -0.5000000  -0.3030303), wk =   0.0109739
        k(   26) = (   0.1666667   0.1666667   0.0336700), wk =   0.0219479
        k(   27) = (   0.1666667   0.1666667   0.1010101), wk =   0.0219479
        k(   28) = (   0.1666667   0.1666667   0.1683502), wk =   0.0219479
        k(   29) = (   0.1666667   0.1666667   0.2356902), wk =   0.0219479
        k(   30) = (   0.1666667   0.1666667  -0.3030303), wk =   0.0109739
        k(   31) = (   0.1666667   0.2777778   0.0336700), wk =   0.0438957
        k(   32) = (   0.1666667   0.2777778   0.1010101), wk =   0.0438957
        k(   33) = (   0.1666667   0.2777778   0.1683502), wk =   0.0438957
        k(   34) = (   0.1666667   0.2777778   0.2356902), wk =   0.0438957
        k(   35) = (   0.1666667   0.2777778  -0.3030303), wk =   0.0219479
        k(   36) = (   0.1666667   0.3888889   0.0336700), wk =   0.0438957
        k(   37) = (   0.1666667   0.3888889   0.1010101), wk =   0.0438957
        k(   38) = (   0.1666667   0.3888889   0.1683502), wk =   0.0438957
        k(   39) = (   0.1666667   0.3888889   0.2356902), wk =   0.0438957
        k(   40) = (   0.1666667   0.3888889  -0.3030303), wk =   0.0219479
        k(   41) = (   0.1666667  -0.5000000   0.0336700), wk =   0.0219479
        k(   42) = (   0.1666667  -0.5000000   0.1010101), wk =   0.0219479
        k(   43) = (   0.1666667  -0.5000000   0.1683502), wk =   0.0219479
        k(   44) = (   0.1666667  -0.5000000   0.2356902), wk =   0.0219479
        k(   45) = (   0.1666667  -0.5000000  -0.3030303), wk =   0.0109739
        k(   46) = (   0.2777778   0.2777778   0.0336700), wk =   0.0219479
        k(   47) = (   0.2777778   0.2777778   0.1010101), wk =   0.0219479
        k(   48) = (   0.2777778   0.2777778   0.1683502), wk =   0.0219479
        k(   49) = (   0.2777778   0.2777778   0.2356902), wk =   0.0219479
        k(   50) = (   0.2777778   0.2777778  -0.3030303), wk =   0.0109739
        k(   51) = (   0.2777778   0.3888889   0.0336700), wk =   0.0438957
        k(   52) = (   0.2777778   0.3888889   0.1010101), wk =   0.0438957
        k(   53) = (   0.2777778   0.3888889   0.1683502), wk =   0.0438957
        k(   54) = (   0.2777778   0.3888889   0.2356902), wk =   0.0438957
        k(   55) = (   0.2777778   0.3888889  -0.3030303), wk =   0.0219479
        k(   56) = (   0.2777778  -0.5000000   0.0336700), wk =   0.0219479
        k(   57) = (   0.2777778  -0.5000000   0.1010101), wk =   0.0219479
        k(   58) = (   0.2777778  -0.5000000   0.1683502), wk =   0.0219479
        k(   59) = (   0.2777778  -0.5000000   0.2356902), wk =   0.0219479
        k(   60) = (   0.2777778  -0.5000000  -0.3030303), wk =   0.0109739
        k(   61) = (   0.3888889   0.3888889   0.0336700), wk =   0.0219479
        k(   62) = (   0.3888889   0.3888889   0.1010101), wk =   0.0219479
        k(   63) = (   0.3888889   0.3888889   0.1683502), wk =   0.0219479
        k(   64) = (   0.3888889   0.3888889   0.2356902), wk =   0.0219479
        k(   65) = (   0.3888889   0.3888889  -0.3030303), wk =   0.0109739
        k(   66) = (   0.3888889  -0.5000000   0.0336700), wk =   0.0219479
        k(   67) = (   0.3888889  -0.5000000   0.1010101), wk =   0.0219479
        k(   68) = (   0.3888889  -0.5000000   0.1683502), wk =   0.0219479
        k(   69) = (   0.3888889  -0.5000000   0.2356902), wk =   0.0219479
        k(   70) = (   0.3888889  -0.5000000  -0.3030303), wk =   0.0109739
[...]
     atom   27 type  1   force =    -0.00000679    0.00000000   -0.03305009
     atom   28 type  1   force =     0.00000000   -0.00000679   -0.03305009
     atom   29 type  1   force =     0.00000000    0.00000000    0.03302329
     atom   30 type  1   force =     0.00001417    0.00001417    0.03300555
     atom   31 type  1   force =     0.00000433    0.00000000   -0.03838585
     atom   32 type  1   force =     0.00000000    0.00000433   -0.03838585

     Total force =     0.202645     Total SCF correction =     0.004361

     Computing stress (Cartesian axis) and pressure

          total   stress  (Ry/bohr**3)                   (kbar)     P=      -75.66
  -0.00057539   0.00000000   0.00000000          -84.64        0.00        0.00
   0.00000000  -0.00057539   0.00000000            0.00      -84.64        0.00
   0.00000000   0.00000000  -0.00039213            0.00        0.00      -57.68

     BFGS Geometry Optimization
     Energy error            =      0.0E+00
     Gradient error          =      3.8E-02

     number of scf cycles    =   1
     number of bfgs steps    =   0

     energy   new            =  -13811.6548549708 Ry

     new trust radius        =       0.0384406789 bohr
     new conv_thr            =       0.0000010000 Ry

ATOMIC_POSITIONS (crystal)
Ru            0.0000000000        0.0000000000        0.0016166242
Ru            0.2500000558        0.2500000558        0.0016173161
Ru            0.2499999955        0.0000000000        0.1501247611
Ru           -0.0000000000        0.2499999955        0.1501247611
Ru            0.0000000000        0.0000000000        0.6983589880
Ru            0.2499990162        0.2499990162        0.6983587481
Ru            0.2500003175       -0.0000000000        0.8468682175
Ru            0.0000000000        0.2500003175        0.8468682175
Ru            0.0000000000        0.5000000000        0.0016177904
Ru            0.2500000558        0.7499999442        0.0016173161
Ru            0.2500004717        0.5000000000        0.1501242263
Ru            0.0000000000        0.7500000045        0.1501247611
Ru            0.0000000000        0.5000000000        0.6983595200
Ru            0.2499990162        0.7500009838        0.6983587481
Ru            0.2499996990        0.5000000000        0.8468693656
Ru            0.0000000000        0.7499996825        0.8468682175
Ru            0.5000000000        0.0000000000        0.0016177904
Ru            0.7499999442        0.2500000558        0.0016173161
Ru            0.7500000045       -0.0000000000        0.1501247611
Ru            0.5000000000        0.2500004717        0.1501242263
Ru            0.5000000000        0.0000000000        0.6983595200
Ru            0.7500009838        0.2499990162        0.6983587481
Ru            0.7499996825        0.0000000000        0.8468682175
Ru            0.5000000000        0.2499996990        0.8468693656
Ru            0.5000000000        0.5000000000        0.0016173094
Ru            0.7499999442        0.7499999442        0.0016173161
Ru            0.7499995283        0.5000000000        0.1501242263
Ru            0.5000000000        0.7499995283        0.1501242263
Ru            0.5000000000        0.5000000000        0.6983594946
Ru            0.7500009838        0.7500009838        0.6983587481
Ru            0.7500003010        0.5000000000        0.8468693656
Ru            0.5000000000        0.7500003010        0.8468693656

     Writing output data file /scratch/InDHKRLdBvWVDGwW.save/
     NEW-OLD atomic charge density approx. for the potential

[...]

     Energy error            =      3.7E-02
     Gradient error          =      2.9E-02

[...]

     energy   old            =  -13811.6548549708 Ry
     energy   new            =  -13811.6916449406 Ry

     CASE: energy  _new < energy  _old

[...]

     Total force =     0.011070     Total SCF correction =     0.000687

[...]

     Total force =     0.001658     Total SCF correction =     0.000609
     SCF correction compared to forces is large: reduce conv_thr to get better values

[...]

     number of scf cycles    =   8
     number of bfgs steps    =   7

     energy   old            =  -13811.7464180055 Ry
     energy   new            =  -13811.7467134052 Ry

     CASE: energy  _new < energy  _old

     new trust radius        =       0.0011884976 bohr
     new conv_thr            =       0.0000000100 Ry

ATOMIC_POSITIONS (crystal)
Ru            0.0000000000        0.0000000000        0.0050106569
Ru            0.2500000646        0.2500000646        0.0050108519
Ru            0.2499999701        0.0000000000        0.1438502654
Ru           -0.0000000000        0.2499999701        0.1438502654
Ru            0.0000000000        0.0000000000        0.7046336966
Ru            0.2500000576        0.2500000576        0.7046335731
Ru            0.2500000038       -0.0000000000        0.8434749329
Ru            0.0000000000        0.2500000038        0.8434749329
Ru            0.0000000000        0.5000000000        0.0050109566
Ru            0.2500000646        0.7499999354        0.0050108519
Ru            0.2500002214        0.5000000000        0.1438502207
Ru            0.0000000000        0.7500000299        0.1438502654
Ru            0.0000000000        0.5000000000        0.7046336693
Ru            0.2500000576        0.7499999424        0.7046335731
Ru            0.2500001066        0.5000000000        0.8434751009
Ru            0.0000000000        0.7499999962        0.8434749329
Ru            0.5000000000        0.0000000000        0.0050109566
Ru            0.7499999354        0.2500000646        0.0050108519
Ru            0.7500000299       -0.0000000000        0.1438502654
Ru            0.5000000000        0.2500002214        0.1438502207
Ru            0.5000000000        0.0000000000        0.7046336693
Ru            0.7499999424        0.2500000576        0.7046335731
Ru            0.7499999962        0.0000000000        0.8434749329
Ru            0.5000000000        0.2500001066        0.8434751009
Ru            0.5000000000        0.5000000000        0.0050104320
Ru            0.7499999354        0.7499999354        0.0050108519
Ru            0.7499997786        0.5000000000        0.1438502207
Ru            0.5000000000        0.7499997786        0.1438502207
Ru            0.5000000000        0.5000000000        0.7046337593
Ru            0.7499999424        0.7499999424        0.7046335731
Ru            0.7499998934        0.5000000000        0.8434751009
Ru            0.5000000000        0.7499998934        0.8434751009

     Writing output data file /scratch/InDHKRLdBvWVDGwW.save/
     NEW-OLD atomic charge density approx. for the potential

     Check: negative core charge=   -0.000002

     Self-consistent Calculation

[...]

     Threshold (ethr) on eigenvalues was too large:
     Diagonalizing with lowered threshold

     Davidson diagonalization with overlap
     ethr =  3.09E-09,  avg # of iterations =  4.9

[...]

     total energy              =  -13811.74671771 Ry
     estimated scf accuracy    <       0.00000001 Ry

     iteration # 10     ecut=    71.00 Ry     beta= 0.10
     Davidson diagonalization with overlap
     ethr =  2.17E-12,  avg # of iterations =  1.1

     End of self-consistent calculation

[...]

          k = 0.3889-0.5000-0.3030 ( 49792 PWs)   bands (ev):

[...]

          k =-0.5000-0.5000-0.3030 ( 49848 PWs)   bands (ev):

   -60.8111 -60.8111 -60.8111 -60.8111 -60.7606 -60.7606 -60.7606 -60.7606
   -60.7198 -60.7198 -60.7198 -60.7198 -60.7198 -60.7198 -60.7198 -60.7198
   -60.3602 -60.3602 -60.3602 -60.3602 -60.3590 -60.3590 -60.3590 -60.3590
   -60.3141 -60.3141 -60.3141 -60.3141 -60.3141 -60.3141 -60.3141 -60.3141
   -31.1459 -31.1459 -31.1459 -31.1459 -31.1459 -31.1459 -31.1459 -31.1459
   -31.0376 -31.0376 -31.0376 -31.0376 -31.0042 -31.0042 -31.0042 -31.0042
   -30.9385 -30.9385 -30.9385 -30.9385 -30.9385 -30.9385 -30.9385 -30.9385
   -30.8514 -30.8514 -30.8514 -30.8514 -30.7522 -30.7522 -30.7522 -30.7522
   -30.6872 -30.6872 -30.6872 -30.6872 -30.6871 -30.6871 -30.6871 -30.6871
   -30.5574 -30.5574 -30.5574 -30.5574 -30.4777 -30.4777 -30.4777 -30.4777
   -30.3843 -30.3843 -30.3843 -30.3843 -30.3843 -30.3843 -30.3843 -30.3843
   -30.3214 -30.3214 -30.3214 -30.3214 -30.3214 -30.3214 -30.3214 -30.3214
   -30.3034 -30.3034 -30.3034 -30.3034 -30.2730 -30.2730 -30.2730 -30.2730
   -30.2201 -30.2201 -30.2201 -30.2201 -30.2201 -30.2201 -30.2201 -30.2201
   -30.1715 -30.1715 -30.1715 -30.1715 -30.1573 -30.1573 -30.1573 -30.1573
   -30.0667 -30.0667 -30.0667 -30.0667 -30.0615 -30.0615 -30.0615 -30.0615
     6.2492   6.2492   6.2492   6.2492   6.9167   6.9167   6.9167   6.9167
     7.1777   7.1777   7.1777   7.1777   7.1778   7.1778   7.1778   7.1778
     7.1920   7.1920   7.1920   7.1920   7.3166   7.3166   7.3166   7.3166
     7.5450   7.5450   7.5450   7.5450   7.5450   7.5450   7.5450   7.5450
     7.9325   7.9325   7.9325   7.9325   8.0896   8.0896   8.0896   8.0896
     8.0896   8.0896   8.0896   8.0896   8.5212   8.5212   8.5212   8.5212
     8.5212   8.5212   8.5212   8.5212   8.7554   8.7554   8.7554   8.7554
     9.4672   9.4672   9.4672   9.4672   9.6504   9.6504   9.6504   9.6504
    10.0404  10.0404  10.0404  10.0404  10.1152  10.1152  10.1152  10.1152
    10.1510  10.1510  10.1510  10.1510  10.2572  10.2572  10.2572  10.2572
    10.2572  10.2572  10.2572  10.2572  10.2941  10.2941  10.2941  10.2941
    10.7486  10.7486  10.7486  10.7486  10.9318  10.9318  10.9318  10.9318
    11.0035  11.0035  11.0035  11.0035  11.0036  11.0036  11.0036  11.0036
    11.0860  11.0860  11.0860  11.0860  11.3084  11.3084  11.3084  11.3084
    11.3446  11.3446  11.3446  11.3446  11.3446  11.3446  11.3446  11.3446
    12.0039  12.0039  12.0039  12.0039  12.1601  12.1601  12.1601  12.1601
    12.1601  12.1601  12.1601  12.1601  12.2666  12.2666  12.2666  12.2666
    12.7592  12.7592  12.7592  12.7592  12.9918  12.9918  12.9918  12.9918
    12.9918  12.9918  12.9918  12.9918  13.1328  13.1328  13.1328  13.1328
    13.4105  13.4105  13.4105  13.4105  13.8348  13.8348  13.8348  13.8348
    13.8681  13.8681  13.8681  13.8681  13.8681  13.8681  13.8681  13.8681
    14.0128  14.0128  14.0128  14.0128  15.7182  15.7182  15.7182  15.7182
    16.8831  16.8831  16.8831

     the Fermi energy is    12.2514 ev

!    total energy              =  -13811.74671771 Ry

     total all-electron energy =   -289988.137057 Ry
     estimated scf accuracy    <          9.8E-09 Ry
     smearing contrib. (-TS)   =      -0.00888362 Ry
     internal energy E=F+TS    =  -13811.73783409 Ry

     The total energy is F=E-TS. E is the sum of the following terms:
     one-electron contribution =  -12015.57393507 Ry
     hartree contribution      =    6222.81579728 Ry
     xc contribution           =    -926.70878408 Ry
     ewald contribution        =     497.11111812 Ry
     one-center paw contrib.   =   -7589.38203034 Ry

     convergence has been achieved in  10 iterations

     Forces acting on atoms (cartesian axes, Ry/au):

     atom    1 type  1   force =     0.00000000    0.00000000   -0.00010857
     atom    2 type  1   force =    -0.00000060   -0.00000060   -0.00010956
     atom    3 type  1   force =    -0.00000021    0.00000000    0.00004025
     atom    4 type  1   force =     0.00000000   -0.00000021    0.00004025
     atom    5 type  1   force =     0.00000000    0.00000000   -0.00004585
     atom    6 type  1   force =    -0.00000015   -0.00000015   -0.00004510
     atom    7 type  1   force =    -0.00000022    0.00000000    0.00011472
     atom    8 type  1   force =     0.00000000   -0.00000022    0.00011472
     atom    9 type  1   force =     0.00000000    0.00000000   -0.00010981
     atom   10 type  1   force =    -0.00000060    0.00000060   -0.00010956
     atom   11 type  1   force =    -0.00000046    0.00000000    0.00004075
     atom   12 type  1   force =     0.00000000    0.00000021    0.00004025
     atom   13 type  1   force =     0.00000000    0.00000000   -0.00004578
     atom   14 type  1   force =    -0.00000015    0.00000015   -0.00004510
     atom   15 type  1   force =    -0.00000090    0.00000000    0.00011391
     atom   16 type  1   force =     0.00000000    0.00000022    0.00011472
     atom   17 type  1   force =     0.00000000    0.00000000   -0.00010981
     atom   18 type  1   force =     0.00000060   -0.00000060   -0.00010956
     atom   19 type  1   force =     0.00000021    0.00000000    0.00004025
     atom   20 type  1   force =     0.00000000   -0.00000046    0.00004075
     atom   21 type  1   force =     0.00000000    0.00000000   -0.00004578
     atom   22 type  1   force =     0.00000015   -0.00000015   -0.00004510
     atom   23 type  1   force =     0.00000022    0.00000000    0.00011472
     atom   24 type  1   force =     0.00000000   -0.00000090    0.00011391
     atom   25 type  1   force =     0.00000000    0.00000000   -0.00010781
     atom   26 type  1   force =     0.00000060    0.00000060   -0.00010956
     atom   27 type  1   force =     0.00000046    0.00000000    0.00004075
     atom   28 type  1   force =     0.00000000    0.00000046    0.00004075
     atom   29 type  1   force =     0.00000000    0.00000000   -0.00004649
     atom   30 type  1   force =     0.00000015    0.00000015   -0.00004510
     atom   31 type  1   force =     0.00000090    0.00000000    0.00011391
     atom   32 type  1   force =     0.00000000    0.00000090    0.00011391

     Total force =     0.000479     Total SCF correction =     0.000454
     SCF correction compared to forces is large: reduce conv_thr to get better values

     Computing stress (Cartesian axis) and pressure

          total   stress  (Ry/bohr**3)                   (kbar)     P=      -22.17
  -0.00020840   0.00000000   0.00000000          -30.66        0.00        0.00
   0.00000000  -0.00020840   0.00000000            0.00      -30.66        0.00
   0.00000000   0.00000000  -0.00003526            0.00        0.00       -5.19

     Energy error            =      4.3E-06
     Gradient error          =      1.1E-04

     bfgs converged in   9 scf cycles and   8 bfgs steps
     (criteria: energy <  1.0E-04 Ry, force <  1.0E-03 Ry/Bohr)

     End of BFGS Geometry Optimization

     Final energy   =  -13811.7467177067 Ry

     File /scratch/InDHKRLdBvWVDGwW.bfgs deleted, as requested
Begin final coordinates

ATOMIC_POSITIONS (crystal)
Ru            0.0000000000        0.0000000000        0.0050106569
Ru            0.2500000646        0.2500000646        0.0050108519
Ru            0.2499999701        0.0000000000        0.1438502654
Ru           -0.0000000000        0.2499999701        0.1438502654
Ru            0.0000000000        0.0000000000        0.7046336966
Ru            0.2500000576        0.2500000576        0.7046335731
Ru            0.2500000038       -0.0000000000        0.8434749329
Ru            0.0000000000        0.2500000038        0.8434749329
Ru            0.0000000000        0.5000000000        0.0050109566
Ru            0.2500000646        0.7499999354        0.0050108519
Ru            0.2500002214        0.5000000000        0.1438502207
Ru            0.0000000000        0.7500000299        0.1438502654
Ru            0.0000000000        0.5000000000        0.7046336693
Ru            0.2500000576        0.7499999424        0.7046335731
Ru            0.2500001066        0.5000000000        0.8434751009
Ru            0.0000000000        0.7499999962        0.8434749329
Ru            0.5000000000        0.0000000000        0.0050109566
Ru            0.7499999354        0.2500000646        0.0050108519
Ru            0.7500000299       -0.0000000000        0.1438502654
Ru            0.5000000000        0.2500002214        0.1438502207
Ru            0.5000000000        0.0000000000        0.7046336693
Ru            0.7499999424        0.2500000576        0.7046335731
Ru            0.7499999962        0.0000000000        0.8434749329
Ru            0.5000000000        0.2500001066        0.8434751009
Ru            0.5000000000        0.5000000000        0.0050104320
Ru            0.7499999354        0.7499999354        0.0050108519
Ru            0.7499997786        0.5000000000        0.1438502207
Ru            0.5000000000        0.7499997786        0.1438502207
Ru            0.5000000000        0.5000000000        0.7046337593
Ru            0.7499999424        0.7499999424        0.7046335731
Ru            0.7499998934        0.5000000000        0.8434751009
Ru            0.5000000000        0.7499998934        0.8434751009
End final coordinates

     Writing output data file /scratch/InDHKRLdBvWVDGwW.save/

     General routines

     Parallel routines

   This run was terminated on:   3:30:48   3Dec2021

   JOB DONE.