     Program PWSCF v.6.7MaX starts on  2Dec2021 at 12:39:14

     R & G space division:  proc/nbgrp/npool/nimage =      72
     Reading input from relax_11.in
Warning: card &CELL ignored
Warning: card CELL_DYNAMICS = 'BFGS', ignored
Warning: card CELL_FACTOR = 2.0, ignored
Warning: card PRESS = 0.0, ignored
Warning: card / ignored

     Current dimensions of program PWSCF are:
     Max number of different atomic species (ntypx) = 10
     Max number of k-points (npk) =  40000
     Max angular momentum in pseudopotentials (lmaxx) =  3
     file Ru.pbe-spn-kjpaw_psl.1.0.0.UPF: wavefunction(s)  4D renormalized

     Subspace diagonalization in iterative solution of the eigenvalue problem:
     one sub-group per band group will be used

     Found symmetry operation: I + (  0.2500  0.2500  0.0000)
     This is a supercell, fractional translations are disabled
     Message from routine setup:
     using ibrav=0 with symmetry is DISCOURAGED, use correct ibrav instead

     bravais-lattice index     =            0
     lattice parameter (alat)  =      14.4007  a.u.
     unit-cell volume          =    4479.6680 (a.u.)^3
     number of atoms/cell      =           32
     number of atomic types    =            1
     number of electrons       =       512.00
     number of Kohn-Sham states=          307
     kinetic-energy cutoff     =      71.0000  Ry
     charge density cutoff     =     430.0000  Ry
     scf convergence threshold =      1.0E-06
     mixing beta               =       0.1000
     number of iterations used =           10  TF        mixing
     energy convergence thresh.=      1.0E-04
     force convergence thresh. =      1.0E-03
     Exchange-correlation= SLA  PW   PBX  PBC
                           (   1   4   3   4   0   0   0)
     nstep                     =           40

     celldm(1)=  14.400742  celldm(2)=   0.000000  celldm(3)=   0.000000
     celldm(4)=   0.000000  celldm(5)=   0.000000  celldm(6)=   0.000000

     crystal axes: (cart. coord. in units of alat)
               a(1) = (   1.000000   0.000000   0.000000 )
               a(2) = (   0.000000   1.000000   0.000000 )
               a(3) = (   0.000000   0.000000   1.500000 )

     reciprocal axes: (cart. coord. in units 2 pi/alat)
               b(1) = (  1.000000  0.000000  0.000000 )
               b(2) = (  0.000000  1.000000  0.000000 )
               b(3) = (  0.000000  0.000000  0.666667 )

     PseudoPot. # 1 for Ru read from file:
     /rds/homes/b/bxp912/pp/Ru.pbe-spn-kjpaw_psl.1.0.0.UPF
     MD5 check sum: 0ae1f594dea09af7be8575c3a481d1ae
     Pseudo is Projector augmented-wave + core cor, Zval = 16.0
     Generated using "atomic" code by A. Dal Corso  v.5.1
     Shape of augmentation charge: PSQ
     Using radial grid of 1233 points,  6 beta functions with:
                l(1) =   0
                l(2) =   0
                l(3) =   1
                l(4) =   1
                l(5) =   2
                l(6) =   2
     Q(r) pseudized with 0 coefficients

     atomic species   valence    mass     pseudopotential
        Ru            16.00   101.07000     Ru( 1.00)

      8 Sym. Ops. (no inversion) found

   Cartesian axes

     site n.     atom                  positions (alat units)
         1           Ru  tau(   1) = (   0.0000000   0.0000000   0.0000000  )
         2           Ru  tau(   2) = (   0.2500000   0.2500000   0.0000000  )
         3           Ru  tau(   3) = (   0.2500000   0.0000000   0.2500000  )
         4           Ru  tau(   4) = (   0.0000000   0.2500000   0.2500000  )
         5           Ru  tau(   5) = (   0.0000000   0.0000000   1.0000000  )
         6           Ru  tau(   6) = (   0.2500000   0.2500000   1.0000000  )
         7           Ru  tau(   7) = (   0.2500000   0.0000000   1.2500000  )
         8           Ru  tau(   8) = (   0.0000000   0.2500000   1.2500000  )
         9           Ru  tau(   9) = (   0.0000000   0.5000000   0.0000000  )
        10           Ru  tau(  10) = (   0.2500000   0.7500000   0.0000000  )
        11           Ru  tau(  11) = (   0.2500000   0.5000000   0.2500000  )
        12           Ru  tau(  12) = (   0.0000000   0.7500000   0.2500000  )
        13           Ru  tau(  13) = (   0.0000000   0.5000000   1.0000000  )
        14           Ru  tau(  14) = (   0.2500000   0.7500000   1.0000000  )
        15           Ru  tau(  15) = (   0.2500000   0.5000000   1.2500000  )
        16           Ru  tau(  16) = (   0.0000000   0.7500000   1.2500000  )
        17           Ru  tau(  17) = (   0.5000000   0.0000000   0.0000000  )
        18           Ru  tau(  18) = (   0.7500000   0.2500000   0.0000000  )
        19           Ru  tau(  19) = (   0.7500000   0.0000000   0.2500000  )
        20           Ru  tau(  20) = (   0.5000000   0.2500000   0.2500000  )
        21           Ru  tau(  21) = (   0.5000000   0.0000000   1.0000000  )
        22           Ru  tau(  22) = (   0.7500000   0.2500000   1.0000000  )
        23           Ru  tau(  23) = (   0.7500000   0.0000000   1.2500000  )
        24           Ru  tau(  24) = (   0.5000000   0.2500000   1.2500000  )
        25           Ru  tau(  25) = (   0.5000000   0.5000000   0.0000000  )
        26           Ru  tau(  26) = (   0.7500000   0.7500000   0.0000000  )
        27           Ru  tau(  27) = (   0.7500000   0.5000000   0.2500000  )
        28           Ru  tau(  28) = (   0.5000000   0.7500000   0.2500000  )
        29           Ru  tau(  29) = (   0.5000000   0.5000000   1.0000000  )
        30           Ru  tau(  30) = (   0.7500000   0.7500000   1.0000000  )
        31           Ru  tau(  31) = (   0.7500000   0.5000000   1.2500000  )
        32           Ru  tau(  32) = (   0.5000000   0.7500000   1.2500000  )

     number of k points=    75  Marzari-Vanderbilt smearing, width (Ry)=  0.0400
                       cart. coord. in units 2pi/alat
        k(    1) = (   0.0555556   0.0555556   0.0370370), wk =   0.0219479
        k(    2) = (   0.0555556   0.0555556   0.1111111), wk =   0.0219479
        k(    3) = (   0.0555556   0.0555556   0.1851852), wk =   0.0219479
        k(    4) = (   0.0555556   0.0555556   0.2592593), wk =   0.0219479
        k(    5) = (   0.0555556   0.0555556  -0.3333333), wk =   0.0109739
        k(    6) = (   0.0555556   0.1666667   0.0370370), wk =   0.0438957
        k(    7) = (   0.0555556   0.1666667   0.1111111), wk =   0.0438957
        k(    8) = (   0.0555556   0.1666667   0.1851852), wk =   0.0438957
        k(    9) = (   0.0555556   0.1666667   0.2592593), wk =   0.0438957
        k(   10) = (   0.0555556   0.1666667  -0.3333333), wk =   0.0219479
        k(   11) = (   0.0555556   0.2777778   0.0370370), wk =   0.0438957
        k(   12) = (   0.0555556   0.2777778   0.1111111), wk =   0.0438957
        k(   13) = (   0.0555556   0.2777778   0.1851852), wk =   0.0438957
        k(   14) = (   0.0555556   0.2777778   0.2592593), wk =   0.0438957
        k(   15) = (   0.0555556   0.2777778  -0.3333333), wk =   0.0219479
        k(   16) = (   0.0555556   0.3888889   0.0370370), wk =   0.0438957
        k(   17) = (   0.0555556   0.3888889   0.1111111), wk =   0.0438957
        k(   18) = (   0.0555556   0.3888889   0.1851852), wk =   0.0438957
        k(   19) = (   0.0555556   0.3888889   0.2592593), wk =   0.0438957
        k(   20) = (   0.0555556   0.3888889  -0.3333333), wk =   0.0219479
        k(   21) = (   0.0555556  -0.5000000   0.0370370), wk =   0.0219479
        k(   22) = (   0.0555556  -0.5000000   0.1111111), wk =   0.0219479
        k(   23) = (   0.0555556  -0.5000000   0.1851852), wk =   0.0219479
        k(   24) = (   0.0555556  -0.5000000   0.2592593), wk =   0.0219479
        k(   25) = (   0.0555556  -0.5000000  -0.3333333), wk =   0.0109739
        k(   26) = (   0.1666667   0.1666667   0.0370370), wk =   0.0219479
        k(   27) = (   0.1666667   0.1666667   0.1111111), wk =   0.0219479
        k(   28) = (   0.1666667   0.1666667   0.1851852), wk =   0.0219479
        k(   29) = (   0.1666667   0.1666667   0.2592593), wk =   0.0219479
        k(   30) = (   0.1666667   0.1666667  -0.3333333), wk =   0.0109739
        k(   31) = (   0.1666667   0.2777778   0.0370370), wk =   0.0438957
        k(   32) = (   0.1666667   0.2777778   0.1111111), wk =   0.0438957
        k(   33) = (   0.1666667   0.2777778   0.1851852), wk =   0.0438957
        k(   34) = (   0.1666667   0.2777778   0.2592593), wk =   0.0438957
        k(   35) = (   0.1666667   0.2777778  -0.3333333), wk =   0.0219479
        k(   36) = (   0.1666667   0.3888889   0.0370370), wk =   0.0438957
        k(   37) = (   0.1666667   0.3888889   0.1111111), wk =   0.0438957
        k(   38) = (   0.1666667   0.3888889   0.1851852), wk =   0.0438957
        k(   39) = (   0.1666667   0.3888889   0.2592593), wk =   0.0438957
        k(   40) = (   0.1666667   0.3888889  -0.3333333), wk =   0.0219479
        k(   41) = (   0.1666667  -0.5000000   0.0370370), wk =   0.0219479
        k(   42) = (   0.1666667  -0.5000000   0.1111111), wk =   0.0219479
        k(   43) = (   0.1666667  -0.5000000   0.1851852), wk =   0.0219479
        k(   44) = (   0.1666667  -0.5000000   0.2592593), wk =   0.0219479
        k(   45) = (   0.1666667  -0.5000000  -0.3333333), wk =   0.0109739
        k(   46) = (   0.2777778   0.2777778   0.0370370), wk =   0.0219479
        k(   47) = (   0.2777778   0.2777778   0.1111111), wk =   0.0219479
        k(   48) = (   0.2777778   0.2777778   0.1851852), wk =   0.0219479
        k(   49) = (   0.2777778   0.2777778   0.2592593), wk =   0.0219479
        k(   50) = (   0.2777778   0.2777778  -0.3333333), wk =   0.0109739
        k(   51) = (   0.2777778   0.3888889   0.0370370), wk =   0.0438957
        k(   52) = (   0.2777778   0.3888889   0.1111111), wk =   0.0438957
        k(   53) = (   0.2777778   0.3888889   0.1851852), wk =   0.0438957
        k(   54) = (   0.2777778   0.3888889   0.2592593), wk =   0.0438957
        k(   55) = (   0.2777778   0.3888889  -0.3333333), wk =   0.0219479
        k(   56) = (   0.2777778  -0.5000000   0.0370370), wk =   0.0219479
        k(   57) = (   0.2777778  -0.5000000   0.1111111), wk =   0.0219479
        k(   58) = (   0.2777778  -0.5000000   0.1851852), wk =   0.0219479
        k(   59) = (   0.2777778  -0.5000000   0.2592593), wk =   0.0219479
        k(   60) = (   0.2777778  -0.5000000  -0.3333333), wk =   0.0109739
        k(   61) = (   0.3888889   0.3888889   0.0370370), wk =   0.0219479
        k(   62) = (   0.3888889   0.3888889   0.1111111), wk =   0.0219479
        k(   63) = (   0.3888889   0.3888889   0.1851852), wk =   0.0219479
        k(   64) = (   0.3888889   0.3888889   0.2592593), wk =   0.0219479
        k(   65) = (   0.3888889   0.3888889  -0.3333333), wk =   0.0109739
        k(   66) = (   0.3888889  -0.5000000   0.0370370), wk =   0.0219479
        k(   67) = (   0.3888889  -0.5000000   0.1111111), wk =   0.0219479
        k(   68) = (   0.3888889  -0.5000000   0.1851852), wk =   0.0219479
        k(   69) = (   0.3888889  -0.5000000   0.2592593), wk =   0.0219479
        k(   70) = (   0.3888889  -0.5000000  -0.3333333), wk =   0.0109739
[...]
     atom   27 type  1   force =     0.00003049    0.00000000   -0.03281701
     atom   28 type  1   force =     0.00000000    0.00003049   -0.03281701
     atom   29 type  1   force =     0.00000000    0.00000000    0.03279838
     atom   30 type  1   force =    -0.00004463   -0.00004463    0.03284167
     atom   31 type  1   force =    -0.00000267    0.00000000   -0.03851543
     atom   32 type  1   force =     0.00000000   -0.00000267   -0.03851543

     Total force =     0.202333     Total SCF correction =     0.001130

     Computing stress (Cartesian axis) and pressure

          total   stress  (Ry/bohr**3)                   (kbar)     P=      -83.71
  -0.00063187   0.00000000   0.00000000          -92.95        0.00        0.00
   0.00000000  -0.00063187   0.00000000            0.00      -92.95        0.00
   0.00000000   0.00000000  -0.00044341            0.00        0.00      -65.23

     BFGS Geometry Optimization
     Energy error            =      0.0E+00
     Gradient error          =      3.9E-02

     number of scf cycles    =   1
     number of bfgs steps    =   0

     energy   new            =  -13811.6613573857 Ry

     new trust radius        =       0.0385222536 bohr
     new conv_thr            =       0.0000010000 Ry

ATOMIC_POSITIONS (crystal)
Ru            0.0000000000        0.0000000000        0.0017833458
Ru            0.2500003345        0.2500003345        0.0017816024
Ru            0.2500010098        0.0000000000        0.1651468037
Ru            0.0000000000        0.2500010098        0.1651468037
Ru            0.0000000000        0.0000000000        0.6681866599
Ru            0.2500030992        0.2500030992        0.6681870360
Ru            0.2500017754        0.0000000000        0.8315529110
Ru            0.0000000000        0.2500017754        0.8315529110
Ru            0.0000000000        0.5000000000        0.0017807575
Ru            0.2500003345        0.7499996655        0.0017816024
Ru            0.2499978829        0.5000000000        0.1651474390
Ru            0.0000000000        0.7499989902        0.1651468037
Ru            0.0000000000        0.5000000000        0.6681857009
Ru            0.2500030992        0.7499969008        0.6681870360
Ru            0.2500001856        0.5000000000        0.8315503036
Ru            0.0000000000        0.7499982246        0.8315529110
Ru            0.5000000000        0.0000000000        0.0017807575
Ru            0.7499996655        0.2500003345        0.0017816024
Ru            0.7499989902        0.0000000000        0.1651468037
Ru            0.5000000000        0.2499978829        0.1651474390
Ru            0.5000000000        0.0000000000        0.6681857009
Ru            0.7499969008        0.2500030992        0.6681870360
Ru            0.7499982246        0.0000000000        0.8315529110
Ru            0.5000000000        0.2500001856        0.8315503036
Ru            0.5000000000        0.5000000000        0.0017809961
Ru            0.7499996655        0.7499996655        0.0017816024
Ru            0.7500021171        0.5000000000        0.1651474390
Ru            0.5000000000        0.7500021171        0.1651474390
Ru            0.5000000000        0.5000000000        0.6681850322
Ru            0.7499969008        0.7499969008        0.6681870360
Ru            0.7499998144        0.5000000000        0.8315503036
Ru            0.5000000000        0.7499998144        0.8315503036

     Writing output data file /scratch/GdlAWirojsRWpBFh.save/
     NEW-OLD atomic charge density approx. for the potential

[...]

     Energy error            =      3.7E-02
     Gradient error          =      2.9E-02

[...]

     energy   old            =  -13811.6613573857 Ry
     energy   new            =  -13811.6981183324 Ry

     CASE: energy  _new < energy  _old

[...]

     Total force =     0.009880     Total SCF correction =     0.000542

[...]

     Total force =     0.002509     Total SCF correction =     0.000940
     SCF correction compared to forces is large: reduce conv_thr to get better values

[...]

     number of scf cycles    =   8
     number of bfgs steps    =   7

     energy   old            =  -13811.7519611910 Ry
     energy   new            =  -13811.7521375951 Ry

     CASE: energy  _new < energy  _old

     new trust radius        =       0.0016977578 bohr
     new conv_thr            =       0.0000000100 Ry

ATOMIC_POSITIONS (crystal)
Ru            0.0000000000        0.0000000000        0.0055514805
Ru            0.2500001208        0.2500001208        0.0055526155
Ru            0.2499995328        0.0000000000        0.1583302777
Ru            0.0000000000        0.2499995328        0.1583302777
Ru            0.0000000000        0.0000000000        0.6750023238
Ru            0.2499990152        0.2499990152        0.6750032961
Ru            0.2499998064        0.0000000000        0.8277810030
Ru            0.0000000000        0.2499998064        0.8277810030
Ru            0.0000000000        0.5000000000        0.0055524175
Ru            0.2500001208        0.7499998792        0.0055526155
Ru            0.2499998281        0.5000000000        0.1583303942
Ru            0.0000000000        0.7500004672        0.1583302777
Ru            0.0000000000        0.5000000000        0.6750033967
Ru            0.2499990152        0.7500009848        0.6750032961
Ru            0.2499999716        0.5000000000        0.8277799716
Ru            0.0000000000        0.7500001936        0.8277810030
Ru            0.5000000000        0.0000000000        0.0055524175
Ru            0.7499998792        0.2500001208        0.0055526155
Ru            0.7500004672        0.0000000000        0.1583302777
Ru            0.5000000000        0.2499998281        0.1583303942
Ru            0.5000000000        0.0000000000        0.6750033967
Ru            0.7500009848        0.2499990152        0.6750032961
Ru            0.7500001936        0.0000000000        0.8277810030
Ru            0.5000000000        0.2499999716        0.8277799716
Ru            0.5000000000        0.5000000000        0.0055536237
Ru            0.7499998792        0.7499998792        0.0055526155
Ru            0.7500001719        0.5000000000        0.1583303942
Ru            0.5000000000        0.7500001719        0.1583303942
Ru            0.5000000000        0.5000000000        0.6750040445
Ru            0.7500009848        0.7500009848        0.6750032961
Ru            0.7500000284        0.5000000000        0.8277799716
Ru            0.5000000000        0.7500000284        0.8277799716

     Writing output data file /scratch/GdlAWirojsRWpBFh.save/
     NEW-OLD atomic charge density approx. for the potential

     Check: negative core charge=   -0.000002

     Self-consistent Calculation

[...]

     Threshold (ethr) on eigenvalues was too large:
     Diagonalizing with lowered threshold

     Davidson diagonalization with overlap
     ethr =  1.82E-09,  avg # of iterations =  5.0

[...]

     total energy              =  -13811.75214476 Ry
     estimated scf accuracy    <       0.00000004 Ry

     iteration #  7     ecut=    71.00 Ry     beta= 0.10
     Davidson diagonalization with overlap
     ethr =  7.54E-12,  avg # of iterations =  2.1

     End of self-consistent calculation

[...]

          k = 0.3889-0.5000-0.3333 ( 45280 PWs)   bands (ev):

[...]

          k =-0.5000-0.5000-0.3333 ( 45152 PWs)   bands (ev):

   -59.1055 -59.1055 -59.1055 -59.1055 -59.0552 -59.0551 -59.0551 -59.0551
   -59.0143 -59.0143 -59.0143 -59.0143 -59.0143 -59.0143 -59.0143 -59.0143
   -58.6564 -58.6564 -58.6564 -58.6564 -58.6552 -58.6552 -58.6552 -58.6552
   -58.6103 -58.6103 -58.6103 -58.6103 -58.6103 -58.6103 -58.6103 -58.6103
   -29.4399 -29.4399 -29.4399 -29.4399 -29.4399 -29.4399 -29.4399 -29.4399
   -29.3317 -29.3317 -29.3317 -29.3317 -29.2983 -29.2983 -29.2983 -29.2983
   -29.2330 -29.2330 -29.2330 -29.2330 -29.2330 -29.2330 -29.2330 -29.2330
   -29.1460 -29.1460 -29.1460 -29.1460 -29.0468 -29.0468 -29.0468 -29.0468
   -28.9816 -28.9816 -28.9816 -28.9816 -28.9816 -28.9816 -28.9816 -28.9816
   -28.8515 -28.8515 -28.8515 -28.8515 -28.7721 -28.7721 -28.7721 -28.7721
   -28.6799 -28.6799 -28.6799 -28.6799 -28.6799 -28.6799 -28.6799 -28.6798
   -28.6174 -28.6174 -28.6174 -28.6174 -28.6174 -28.6174 -28.6174 -28.6174
   -28.5993 -28.5993 -28.5993 -28.5993 -28.5691 -28.5691 -28.5691 -28.5691
   -28.5166 -28.5166 -28.5166 -28.5165 -28.5165 -28.5165 -28.5165 -28.5165
   -28.4680 -28.4680 -28.4680 -28.4680 -28.4535 -28.4535 -28.4535 -28.4535
   -28.3625 -28.3625 -28.3625 -28.3625 -28.3573 -28.3573 -28.3573 -28.3573
     7.9564   7.9564   7.9564   7.9564   8.6243   8.6243   8.6243   8.6243
     8.8853   8.8853   8.8853   8.8853   8.8853   8.8853   8.8853   8.8853
     8.8963   8.8963   8.8963   8.8963   9.0248   9.0248   9.0248   9.0248
     9.2518   9.2518   9.2518   9.2518   9.2518   9.2518   9.2518   9.2518
     9.6397   9.6397   9.6397   9.6397   9.7965   9.7965   9.7965   9.7965
     9.7965   9.7965   9.7965   9.7965  10.2265  10.2265  10.2265  10.2265
    10.2265  10.2265  10.2265  10.2265  10.4613  10.4613  10.4613  10.4613
    11.1720  11.1720  11.1720  11.1720  11.3570  11.3570  11.3570  11.3570
    11.7574  11.7574  11.7574  11.7574  11.8079  11.8079  11.8079  11.8079
    11.8589  11.8589  11.8589  11.8589  11.9635  11.9635  11.9635  11.9635
    11.9635  11.9635  11.9635  11.9635  12.0017  12.0017  12.0017  12.0017
    12.4479  12.4480  12.4480  12.4480  12.6385  12.6385  12.6385  12.6385
    12.7085  12.7085  12.7085  12.7085  12.7085  12.7085  12.7085  12.7085
    12.7918  12.7919  12.7919  12.7919  13.0149  13.0149  13.0149  13.0149
    13.0510  13.0510  13.0510  13.0510  13.0510  13.0510  13.0510  13.0510
    13.6494  13.6494  13.6494  13.6494  13.8567  13.8567  13.8567  13.8567
    13.8567  13.8567  13.8567  13.8568  13.9902  13.9902  13.9902  13.9902
    14.4636  14.4636  14.4636  14.4636  14.7033  14.7033  14.7033  14.7033
    14.7033  14.7033  14.7033  14.7033  14.8366  14.8367  14.8367  14.8367
    15.2311  15.2311  15.2311  15.2311  15.5381  15.5381  15.5381  15.5381
    15.5722  15.5722  15.5722  15.5722  15.5722  15.5722  15.5722  15.5722
    15.7160  15.7160  15.7160  15.7160  17.3489  17.3489  17.3489  17.3490
    18.5945  18.5945  18.5945

     the Fermi energy is    13.9566 ev

!    total energy              =  -13811.75214475 Ry

     total all-electron energy =   -289988.142484 Ry
     estimated scf accuracy    <          5.7E-09 Ry
     smearing contrib. (-TS)   =      -0.00813190 Ry
     internal energy E=F+TS    =  -13811.74401285 Ry

     The total energy is F=E-TS. E is the sum of the following terms:
     one-electron contribution =   -8418.17295684 Ry
     hartree contribution      =    4456.18414046 Ry
     xc contribution           =    -926.69236288 Ry
     ewald contribution        =   -1333.68129075 Ry
     one-center paw contrib.   =   -7589.38154284 Ry

     convergence has been achieved in   7 iterations

     Forces acting on atoms (cartesian axes, Ry/au):

     atom    1 type  1   force =     0.00000000    0.00000000    0.00012099
     atom    2 type  1   force =    -0.00000490   -0.00000490    0.00012024
     atom    3 type  1   force =    -0.00000191    0.00000000    0.00005611
     atom    4 type  1   force =     0.00000000   -0.00000191    0.00005611
     atom    5 type  1   force =     0.00000000    0.00000000   -0.00005664
     atom    6 type  1   force =    -0.00000080   -0.00000080   -0.00006481
     atom    7 type  1   force =    -0.00000458    0.00000000   -0.00011374
     atom    8 type  1   force =     0.00000000   -0.00000458   -0.00011374
     atom    9 type  1   force =     0.00000000    0.00000000    0.00012135
     atom   10 type  1   force =    -0.00000490    0.00000490    0.00012024
     atom   11 type  1   force =    -0.00000307    0.00000000    0.00005964
     atom   12 type  1   force =     0.00000000    0.00000191    0.00005611
     atom   13 type  1   force =     0.00000000    0.00000000   -0.00006517
     atom   14 type  1   force =    -0.00000080    0.00000080   -0.00006481
     atom   15 type  1   force =    -0.00000500    0.00000000   -0.00011331
     atom   16 type  1   force =     0.00000000    0.00000458   -0.00011374
     atom   17 type  1   force =     0.00000000    0.00000000    0.00012135
     atom   18 type  1   force =     0.00000490   -0.00000490    0.00012024
     atom   19 type  1   force =     0.00000191    0.00000000    0.00005611
     atom   20 type  1   force =     0.00000000   -0.00000307    0.00005964
     atom   21 type  1   force =     0.00000000    0.00000000   -0.00006517
     atom   22 type  1   force =     0.00000080   -0.00000080   -0.00006481
     atom   23 type  1   force =     0.00000458    0.00000000   -0.00011374
     atom   24 type  1   force =     0.00000000   -0.00000500   -0.00011331
     atom   25 type  1   force =     0.00000000    0.00000000    0.00011928
     atom   26 type  1   force =     0.00000490    0.00000490    0.00012024
     atom   27 type  1   force =     0.00000307    0.00000000    0.00005964
     atom   28 type  1   force =     0.00000000    0.00000307    0.00005964
     atom   29 type  1   force =     0.00000000    0.00000000   -0.00007244
     atom   30 type  1   force =     0.00000080    0.00000080   -0.00006481
     atom   31 type  1   force =     0.00000500    0.00000000   -0.00011331
     atom   32 type  1   force =     0.00000000    0.00000500   -0.00011331

     Total force =     0.000529     Total SCF correction =     0.000458
     SCF correction compared to forces is large: reduce conv_thr to get better values

     Computing stress (Cartesian axis) and pressure

          total   stress  (Ry/bohr**3)                   (kbar)     P=      -25.41
  -0.00023085   0.00000000   0.00000000          -33.96        0.00        0.00
   0.00000000  -0.00023085   0.00000000            0.00      -33.96        0.00
   0.00000000   0.00000000  -0.00005642            0.00        0.00       -8.30

     Energy error            =      7.2E-06
     Gradient error          =      1.2E-04

     bfgs converged in   9 scf cycles and   8 bfgs steps
     (criteria: energy <  1.0E-04 Ry, force <  1.0E-03 Ry/Bohr)

     End of BFGS Geometry Optimization

     Final energy   =  -13811.7521447522 Ry

     File /scratch/GdlAWirojsRWpBFh.bfgs deleted, as requested
Begin final coordinates

ATOMIC_POSITIONS (crystal)
Ru            0.0000000000        0.0000000000        0.0055514805
Ru            0.2500001208        0.2500001208        0.0055526155
Ru            0.2499995328        0.0000000000        0.1583302777
Ru            0.0000000000        0.2499995328        0.1583302777
Ru            0.0000000000        0.0000000000        0.6750023238
Ru            0.2499990152        0.2499990152        0.6750032961
Ru            0.2499998064        0.0000000000        0.8277810030
Ru            0.0000000000        0.2499998064        0.8277810030
Ru            0.0000000000        0.5000000000        0.0055524175
Ru            0.2500001208        0.7499998792        0.0055526155
Ru            0.2499998281        0.5000000000        0.1583303942
Ru            0.0000000000        0.7500004672        0.1583302777
Ru            0.0000000000        0.5000000000        0.6750033967
Ru            0.2499990152        0.7500009848        0.6750032961
Ru            0.2499999716        0.5000000000        0.8277799716
Ru            0.0000000000        0.7500001936        0.8277810030
Ru            0.5000000000        0.0000000000        0.0055524175
Ru            0.7499998792        0.2500001208        0.0055526155
Ru            0.7500004672        0.0000000000        0.1583302777
Ru            0.5000000000        0.2499998281        0.1583303942
Ru            0.5000000000        0.0000000000        0.6750033967
Ru            0.7500009848        0.2499990152        0.6750032961
Ru            0.7500001936        0.0000000000        0.8277810030
Ru            0.5000000000        0.2499999716        0.8277799716
Ru            0.5000000000        0.5000000000        0.0055536237
Ru            0.7499998792        0.7499998792        0.0055526155
Ru            0.7500001719        0.5000000000        0.1583303942
Ru            0.5000000000        0.7500001719        0.1583303942
Ru            0.5000000000        0.5000000000        0.6750040445
Ru            0.7500009848        0.7500009848        0.6750032961
Ru            0.7500000284        0.5000000000        0.8277799716
Ru            0.5000000000        0.7500000284        0.8277799716
End final coordinates

     Writing output data file /scratch/GdlAWirojsRWpBFh.save/

     General routines

     Parallel routines

   This run was terminated on:  15:59:20   2Dec2021

   JOB DONE.