     Program PWSCF v.6.7MaX starts on  3Dec2021 at  7:31:12

     R & G space division:  proc/nbgrp/npool/nimage =      72
     Reading input from relax_16.in
Warning: card &CELL ignored
Warning: card CELL_DYNAMICS = 'BFGS', ignored
Warning: card CELL_FACTOR = 2.0, ignored
Warning: card PRESS = 0.0, ignored
Warning: card / ignored

     Current dimensions of program PWSCF are:
     Max number of different atomic species (ntypx) = 10
     Max number of k-points (npk) =  40000
     Max angular momentum in pseudopotentials (lmaxx) =  3
     file Ru.pbe-spn-kjpaw_psl.1.0.0.UPF: wavefunction(s)  4D renormalized

     Subspace diagonalization in iterative solution of the eigenvalue problem:
     one sub-group per band group will be used

     Found symmetry operation: I + (  0.2500  0.2500  0.0000)
     This is a supercell, fractional translations are disabled
     Message from routine setup:
     using ibrav=0 with symmetry is DISCOURAGED, use correct ibrav instead

     bravais-lattice index     =            0
     lattice parameter (alat)  =      14.4007  a.u.
     unit-cell volume          =    5226.2794 (a.u.)^3
     number of atoms/cell      =           32
     number of atomic types    =            1
     number of electrons       =       512.00
     number of Kohn-Sham states=          307
     kinetic-energy cutoff     =      71.0000  Ry
     charge density cutoff     =     430.0000  Ry
     scf convergence threshold =      1.0E-06
     mixing beta               =       0.1000
     number of iterations used =           10  TF        mixing
     energy convergence thresh.=      1.0E-04
     force convergence thresh. =      1.0E-03
     Exchange-correlation= SLA  PW   PBX  PBC
                           (   1   4   3   4   0   0   0)
     nstep                     =           40

     celldm(1)=  14.400742  celldm(2)=   0.000000  celldm(3)=   0.000000
     celldm(4)=   0.000000  celldm(5)=   0.000000  celldm(6)=   0.000000

     crystal axes: (cart. coord. in units of alat)
               a(1) = (   1.000000   0.000000   0.000000 )
               a(2) = (   0.000000   1.000000   0.000000 )
               a(3) = (   0.000000   0.000000   1.750000 )

     reciprocal axes: (cart. coord. in units 2 pi/alat)
               b(1) = (  1.000000  0.000000  0.000000 )
               b(2) = (  0.000000  1.000000  0.000000 )
               b(3) = (  0.000000  0.000000  0.571429 )

     PseudoPot. # 1 for Ru read from file:
     /rds/homes/b/bxp912/pp/Ru.pbe-spn-kjpaw_psl.1.0.0.UPF
     MD5 check sum: 0ae1f594dea09af7be8575c3a481d1ae
     Pseudo is Projector augmented-wave + core cor, Zval = 16.0
     Generated using "atomic" code by A. Dal Corso  v.5.1
     Shape of augmentation charge: PSQ
     Using radial grid of 1233 points,  6 beta functions with:
                l(1) =   0
                l(2) =   0
                l(3) =   1
                l(4) =   1
                l(5) =   2
                l(6) =   2
     Q(r) pseudized with 0 coefficients

     atomic species   valence    mass     pseudopotential
        Ru            16.00   101.07000     Ru( 1.00)

      8 Sym. Ops. (no inversion) found

   Cartesian axes

     site n.     atom                  positions (alat units)
         1           Ru  tau(   1) = (   0.0000000   0.0000000   0.0000000  )
         2           Ru  tau(   2) = (   0.2500000   0.2500000   0.0000000  )
         3           Ru  tau(   3) = (   0.2500000   0.0000000   0.2500000  )
         4           Ru  tau(   4) = (   0.0000000   0.2500000   0.2500000  )
         5           Ru  tau(   5) = (   0.0000000   0.0000000   1.2500000  )
         6           Ru  tau(   6) = (   0.2500000   0.2500000   1.2500000  )
         7           Ru  tau(   7) = (   0.2500000   0.0000000   1.5000000  )
         8           Ru  tau(   8) = (   0.0000000   0.2500000   1.5000000  )
         9           Ru  tau(   9) = (   0.0000000   0.5000000   0.0000000  )
        10           Ru  tau(  10) = (   0.2500000   0.7500000   0.0000000  )
        11           Ru  tau(  11) = (   0.2500000   0.5000000   0.2500000  )
        12           Ru  tau(  12) = (   0.0000000   0.7500000   0.2500000  )
        13           Ru  tau(  13) = (   0.0000000   0.5000000   1.2500000  )
        14           Ru  tau(  14) = (   0.2500000   0.7500000   1.2500000  )
        15           Ru  tau(  15) = (   0.2500000   0.5000000   1.5000000  )
        16           Ru  tau(  16) = (   0.0000000   0.7500000   1.5000000  )
        17           Ru  tau(  17) = (   0.5000000   0.0000000   0.0000000  )
        18           Ru  tau(  18) = (   0.7500000   0.2500000   0.0000000  )
        19           Ru  tau(  19) = (   0.7500000   0.0000000   0.2500000  )
        20           Ru  tau(  20) = (   0.5000000   0.2500000   0.2500000  )
        21           Ru  tau(  21) = (   0.5000000   0.0000000   1.2500000  )
        22           Ru  tau(  22) = (   0.7500000   0.2500000   1.2500000  )
        23           Ru  tau(  23) = (   0.7500000   0.0000000   1.5000000  )
        24           Ru  tau(  24) = (   0.5000000   0.2500000   1.5000000  )
        25           Ru  tau(  25) = (   0.5000000   0.5000000   0.0000000  )
        26           Ru  tau(  26) = (   0.7500000   0.7500000   0.0000000  )
        27           Ru  tau(  27) = (   0.7500000   0.5000000   0.2500000  )
        28           Ru  tau(  28) = (   0.5000000   0.7500000   0.2500000  )
        29           Ru  tau(  29) = (   0.5000000   0.5000000   1.2500000  )
        30           Ru  tau(  30) = (   0.7500000   0.7500000   1.2500000  )
        31           Ru  tau(  31) = (   0.7500000   0.5000000   1.5000000  )
        32           Ru  tau(  32) = (   0.5000000   0.7500000   1.5000000  )

     number of k points=    75  Marzari-Vanderbilt smearing, width (Ry)=  0.0400
                       cart. coord. in units 2pi/alat
        k(    1) = (   0.0555556   0.0555556   0.0317460), wk =   0.0219479
        k(    2) = (   0.0555556   0.0555556   0.0952381), wk =   0.0219479
        k(    3) = (   0.0555556   0.0555556   0.1587302), wk =   0.0219479
        k(    4) = (   0.0555556   0.0555556   0.2222222), wk =   0.0219479
        k(    5) = (   0.0555556   0.0555556  -0.2857143), wk =   0.0109739
        k(    6) = (   0.0555556   0.1666667   0.0317460), wk =   0.0438957
        k(    7) = (   0.0555556   0.1666667   0.0952381), wk =   0.0438957
        k(    8) = (   0.0555556   0.1666667   0.1587302), wk =   0.0438957
        k(    9) = (   0.0555556   0.1666667   0.2222222), wk =   0.0438957
        k(   10) = (   0.0555556   0.1666667  -0.2857143), wk =   0.0219479
        k(   11) = (   0.0555556   0.2777778   0.0317460), wk =   0.0438957
        k(   12) = (   0.0555556   0.2777778   0.0952381), wk =   0.0438957
        k(   13) = (   0.0555556   0.2777778   0.1587302), wk =   0.0438957
        k(   14) = (   0.0555556   0.2777778   0.2222222), wk =   0.0438957
        k(   15) = (   0.0555556   0.2777778  -0.2857143), wk =   0.0219479
        k(   16) = (   0.0555556   0.3888889   0.0317460), wk =   0.0438957
        k(   17) = (   0.0555556   0.3888889   0.0952381), wk =   0.0438957
        k(   18) = (   0.0555556   0.3888889   0.1587302), wk =   0.0438957
        k(   19) = (   0.0555556   0.3888889   0.2222222), wk =   0.0438957
        k(   20) = (   0.0555556   0.3888889  -0.2857143), wk =   0.0219479
        k(   21) = (   0.0555556  -0.5000000   0.0317460), wk =   0.0219479
        k(   22) = (   0.0555556  -0.5000000   0.0952381), wk =   0.0219479
        k(   23) = (   0.0555556  -0.5000000   0.1587302), wk =   0.0219479
        k(   24) = (   0.0555556  -0.5000000   0.2222222), wk =   0.0219479
        k(   25) = (   0.0555556  -0.5000000  -0.2857143), wk =   0.0109739
        k(   26) = (   0.1666667   0.1666667   0.0317460), wk =   0.0219479
        k(   27) = (   0.1666667   0.1666667   0.0952381), wk =   0.0219479
        k(   28) = (   0.1666667   0.1666667   0.1587302), wk =   0.0219479
        k(   29) = (   0.1666667   0.1666667   0.2222222), wk =   0.0219479
        k(   30) = (   0.1666667   0.1666667  -0.2857143), wk =   0.0109739
        k(   31) = (   0.1666667   0.2777778   0.0317460), wk =   0.0438957
        k(   32) = (   0.1666667   0.2777778   0.0952381), wk =   0.0438957
        k(   33) = (   0.1666667   0.2777778   0.1587302), wk =   0.0438957
        k(   34) = (   0.1666667   0.2777778   0.2222222), wk =   0.0438957
        k(   35) = (   0.1666667   0.2777778  -0.2857143), wk =   0.0219479
        k(   36) = (   0.1666667   0.3888889   0.0317460), wk =   0.0438957
        k(   37) = (   0.1666667   0.3888889   0.0952381), wk =   0.0438957
        k(   38) = (   0.1666667   0.3888889   0.1587302), wk =   0.0438957
        k(   39) = (   0.1666667   0.3888889   0.2222222), wk =   0.0438957
        k(   40) = (   0.1666667   0.3888889  -0.2857143), wk =   0.0219479
        k(   41) = (   0.1666667  -0.5000000   0.0317460), wk =   0.0219479
        k(   42) = (   0.1666667  -0.5000000   0.0952381), wk =   0.0219479
        k(   43) = (   0.1666667  -0.5000000   0.1587302), wk =   0.0219479
        k(   44) = (   0.1666667  -0.5000000   0.2222222), wk =   0.0219479
        k(   45) = (   0.1666667  -0.5000000  -0.2857143), wk =   0.0109739
        k(   46) = (   0.2777778   0.2777778   0.0317460), wk =   0.0219479
        k(   47) = (   0.2777778   0.2777778   0.0952381), wk =   0.0219479
        k(   48) = (   0.2777778   0.2777778   0.1587302), wk =   0.0219479
        k(   49) = (   0.2777778   0.2777778   0.2222222), wk =   0.0219479
        k(   50) = (   0.2777778   0.2777778  -0.2857143), wk =   0.0109739
        k(   51) = (   0.2777778   0.3888889   0.0317460), wk =   0.0438957
        k(   52) = (   0.2777778   0.3888889   0.0952381), wk =   0.0438957
        k(   53) = (   0.2777778   0.3888889   0.1587302), wk =   0.0438957
        k(   54) = (   0.2777778   0.3888889   0.2222222), wk =   0.0438957
        k(   55) = (   0.2777778   0.3888889  -0.2857143), wk =   0.0219479
        k(   56) = (   0.2777778  -0.5000000   0.0317460), wk =   0.0219479
        k(   57) = (   0.2777778  -0.5000000   0.0952381), wk =   0.0219479
        k(   58) = (   0.2777778  -0.5000000   0.1587302), wk =   0.0219479
        k(   59) = (   0.2777778  -0.5000000   0.2222222), wk =   0.0219479
        k(   60) = (   0.2777778  -0.5000000  -0.2857143), wk =   0.0109739
        k(   61) = (   0.3888889   0.3888889   0.0317460), wk =   0.0219479
        k(   62) = (   0.3888889   0.3888889   0.0952381), wk =   0.0219479
        k(   63) = (   0.3888889   0.3888889   0.1587302), wk =   0.0219479
        k(   64) = (   0.3888889   0.3888889   0.2222222), wk =   0.0219479
        k(   65) = (   0.3888889   0.3888889  -0.2857143), wk =   0.0109739
        k(   66) = (   0.3888889  -0.5000000   0.0317460), wk =   0.0219479
        k(   67) = (   0.3888889  -0.5000000   0.0952381), wk =   0.0219479
        k(   68) = (   0.3888889  -0.5000000   0.1587302), wk =   0.0219479
        k(   69) = (   0.3888889  -0.5000000   0.2222222), wk =   0.0219479
        k(   70) = (   0.3888889  -0.5000000  -0.2857143), wk =   0.0109739
[...]
     atom   29 type  1   force =     0.00000000    0.00000000    0.03293736
     atom   30 type  1   force =     0.00000230    0.00000230    0.03280872
     atom   31 type  1   force =    -0.00005054    0.00000000   -0.03842406
     atom   32 type  1   force =     0.00000000   -0.00005054   -0.03842406

     Total force =     0.202077     Total SCF correction =     0.006068

     Computing stress (Cartesian axis) and pressure

     negative rho (up, down):  4.532E-07 0.000E+00
          total   stress  (Ry/bohr**3)                   (kbar)     P=      -71.23
  -0.00054269   0.00000000   0.00000000          -79.83        0.00        0.00
   0.00000000  -0.00054269   0.00000000            0.00      -79.83        0.00
   0.00000000   0.00000000  -0.00036719            0.00        0.00      -54.02

     BFGS Geometry Optimization
     Energy error            =      0.0E+00
     Gradient error          =      3.8E-02

     number of scf cycles    =   1
     number of bfgs steps    =   0

     energy   new            =  -13811.6536787884 Ry

     new trust radius        =       0.0384240978 bohr
     new conv_thr            =       0.0000010000 Ry

ATOMIC_POSITIONS (crystal)
Ru            0.0000000000        0.0000000000        0.0015214299
Ru            0.2499989859        0.2499989859        0.0015244712
Ru            0.2499968576        0.0000000000        0.1415554709
Ru            0.0000000000        0.2499968576        0.1415554709
Ru            0.0000000000        0.0000000000        0.7155876339
Ru            0.2499998405        0.2499998405        0.7155875804
Ru            0.2499968090        0.0000000000        0.8556186230
Ru            0.0000000000        0.2499968090        0.8556186230
Ru            0.0000000000        0.5000000000        0.0015245642
Ru            0.2499989859        0.7500010141        0.0015244712
Ru            0.2500018425        0.5000000000        0.1415552057
Ru            0.0000000000        0.7500031424        0.1415554709
Ru            0.0000000000        0.5000000000        0.7155873769
Ru            0.2499998405        0.7500001595        0.7155875804
Ru            0.2500035097        0.5000000000        0.8556181712
Ru            0.0000000000        0.7500031910        0.8556186230
Ru            0.5000000000        0.0000000000        0.0015245642
Ru            0.7500010141        0.2499989859        0.0015244712
Ru            0.7500031424       -0.0000000000        0.1415554709
Ru            0.5000000000        0.2500018425        0.1415552057
Ru            0.5000000000        0.0000000000        0.7155873769
Ru            0.7500001595        0.2499998405        0.7155875804
Ru            0.7500031910        0.0000000000        0.8556186230
Ru            0.5000000000        0.2500035097        0.8556181712
Ru            0.5000000000        0.5000000000        0.0015219939
Ru            0.7500010141        0.7500010141        0.0015244712
Ru            0.7499981575        0.5000000000        0.1415552057
Ru            0.5000000000        0.7499981575        0.1415552057
Ru            0.5000000000        0.5000000000        0.7155926850
Ru            0.7500001595        0.7500001595        0.7155875804
Ru            0.7499964903        0.5000000000        0.8556181712
Ru            0.5000000000        0.7499964903        0.8556181712

     Writing output data file /scratch/saKqbDdsUqqdudmK.save/
     NEW-OLD atomic charge density approx. for the potential

[...]

     Energy error            =      3.7E-02
     Gradient error          =      2.8E-02

[...]

     energy   old            =  -13811.6536787884 Ry
     energy   new            =  -13811.6903715917 Ry

     CASE: energy  _new < energy  _old

[...]

     Total force =     0.010813     Total SCF correction =     0.000604

[...]

     Total force =     0.002376     Total SCF correction =     0.000874
     SCF correction compared to forces is large: reduce conv_thr to get better values

[...]

     number of scf cycles    =   8
     number of bfgs steps    =   7

     energy   old            =  -13811.7451741371 Ry
     energy   new            =  -13811.7454268288 Ry

     CASE: energy  _new < energy  _old

     new trust radius        =       0.0015061462 bohr
     new conv_thr            =       0.0000000100 Ry

ATOMIC_POSITIONS (crystal)
Ru            0.0000000000        0.0000000000        0.0047171912
Ru            0.2499999628        0.2499999628        0.0047179971
Ru            0.2499996440        0.0000000000        0.1356140903
Ru            0.0000000000        0.2499996440        0.1356140903
Ru            0.0000000000        0.0000000000        0.7215293246
Ru            0.2500001565        0.2500001565        0.7215293284
Ru            0.2499996406        0.0000000000        0.8524243152
Ru            0.0000000000        0.2499996406        0.8524243152
Ru            0.0000000000        0.5000000000        0.0047183662
Ru            0.2499999628        0.7500000372        0.0047179971
Ru            0.2500002908        0.5000000000        0.1356141390
Ru            0.0000000000        0.7500003560        0.1356140903
Ru            0.0000000000        0.5000000000        0.7215291752
Ru            0.2500001565        0.7499998435        0.7215293284
Ru            0.2500000006        0.5000000000        0.8524243270
Ru            0.0000000000        0.7500003594        0.8524243152
Ru            0.5000000000        0.0000000000        0.0047183662
Ru            0.7500000372        0.2499999628        0.0047179971
Ru            0.7500003560       -0.0000000000        0.1356140903
Ru            0.5000000000        0.2500002908        0.1356141390
Ru            0.5000000000        0.0000000000        0.7215291752
Ru            0.7499998435        0.2500001565        0.7215293284
Ru            0.7500003594        0.0000000000        0.8524243152
Ru            0.5000000000        0.2500000006        0.8524243270
Ru            0.5000000000        0.5000000000        0.0047178765
Ru            0.7500000372        0.7500000372        0.0047179971
Ru            0.7499997092        0.5000000000        0.1356141390
Ru            0.5000000000        0.7499997092        0.1356141390
Ru            0.5000000000        0.5000000000        0.7215294515
Ru            0.7499998435        0.7499998435        0.7215293284
Ru            0.7499999994        0.5000000000        0.8524243270
Ru            0.5000000000        0.7499999994        0.8524243270

     Writing output data file /scratch/saKqbDdsUqqdudmK.save/
     NEW-OLD atomic charge density approx. for the potential

     Check: negative core charge=   -0.000002

[...]

     Self-consistent Calculation

[...]

     Threshold (ethr) on eigenvalues was too large:
     Diagonalizing with lowered threshold

     Davidson diagonalization with overlap
     ethr =  5.20E-09,  avg # of iterations =  4.1

[...]

     total energy              =  -13811.74543460 Ry
     estimated scf accuracy    <       0.00000001 Ry

     iteration # 10     ecut=    71.00 Ry     beta= 0.10
     Davidson diagonalization with overlap
     ethr =  2.67E-12,  avg # of iterations =  2.0

[...]

     End of self-consistent calculation

[...]

          k = 0.3889-0.5000-0.2857 ( 52744 PWs)   bands (ev):

[...]

          k =-0.5000-0.5000-0.2857 ( 52800 PWs)   bands (ev):

   -61.7857 -61.7857 -61.7857 -61.7857 -61.7352 -61.7352 -61.7352 -61.7352
   -61.6944 -61.6944 -61.6944 -61.6944 -61.6944 -61.6944 -61.6944 -61.6944
   -61.3345 -61.3345 -61.3345 -61.3345 -61.3333 -61.3333 -61.3333 -61.3333
   -61.2884 -61.2884 -61.2884 -61.2884 -61.2884 -61.2884 -61.2884 -61.2884
   -32.1206 -32.1206 -32.1206 -32.1206 -32.1205 -32.1205 -32.1205 -32.1205
   -32.0123 -32.0123 -32.0123 -32.0123 -31.9788 -31.9788 -31.9788 -31.9788
   -31.9131 -31.9131 -31.9131 -31.9131 -31.9131 -31.9131 -31.9131 -31.9131
   -31.8260 -31.8260 -31.8259 -31.8259 -31.7267 -31.7267 -31.7267 -31.7267
   -31.6617 -31.6617 -31.6617 -31.6617 -31.6617 -31.6617 -31.6617 -31.6617
   -31.5320 -31.5320 -31.5320 -31.5320 -31.4524 -31.4524 -31.4524 -31.4524
   -31.3587 -31.3587 -31.3587 -31.3587 -31.3587 -31.3587 -31.3587 -31.3587
   -31.2957 -31.2957 -31.2957 -31.2957 -31.2957 -31.2957 -31.2957 -31.2957
   -31.2778 -31.2778 -31.2778 -31.2778 -31.2472 -31.2472 -31.2472 -31.2472
   -31.1943 -31.1943 -31.1943 -31.1943 -31.1943 -31.1943 -31.1943 -31.1943
   -31.1457 -31.1457 -31.1457 -31.1457 -31.1316 -31.1316 -31.1316 -31.1316
   -31.0411 -31.0411 -31.0411 -31.0411 -31.0359 -31.0359 -31.0359 -31.0359
     5.2743   5.2743   5.2743   5.2743   5.9416   5.9416   5.9416   5.9416
     6.2027   6.2027   6.2027   6.2027   6.2027   6.2027   6.2027   6.2027
     6.2174   6.2174   6.2175   6.2175   6.3414   6.3414   6.3414   6.3414
     6.5701   6.5701   6.5701   6.5701   6.5701   6.5701   6.5701   6.5701
     6.9575   6.9575   6.9575   6.9575   7.1146   7.1146   7.1146   7.1146
     7.1146   7.1146   7.1146   7.1146   7.5465   7.5465   7.5465   7.5465
     7.5465   7.5465   7.5465   7.5465   7.7807   7.7807   7.7807   7.7807
     8.4927   8.4927   8.4927   8.4927   8.6755   8.6755   8.6755   8.6755
     9.0634   9.0634   9.0634   9.0634   9.1429   9.1429   9.1429   9.1429
     9.1759   9.1759   9.1759   9.1759   9.2825   9.2825   9.2825   9.2825
     9.2825   9.2825   9.2825   9.2825   9.3190   9.3190   9.3190   9.3190
     9.7752   9.7752   9.7752   9.7752   9.9569   9.9569   9.9569   9.9569
    10.0289  10.0289  10.0289  10.0290  10.0290  10.0290  10.0290  10.0290
    10.1112  10.1112  10.1112  10.1112  10.3335  10.3335  10.3335  10.3335
    10.3699  10.3699  10.3699  10.3699  10.3699  10.3699  10.3699  10.3699
    11.0441  11.0441  11.0442  11.0442  11.1866  11.1866  11.1866  11.1866
    11.1866  11.1866  11.1866  11.1866  11.2869  11.2869  11.2869  11.2869
    11.7848  11.7848  11.7848  11.7848  12.0161  12.0161  12.0161  12.0161
    12.0161  12.0161  12.0161  12.0161  12.1585  12.1585  12.1585  12.1585
    12.4052  12.4052  12.4052  12.4052  12.8606  12.8606  12.8606  12.8606
    12.8938  12.8938  12.8938  12.8938  12.8938  12.8938  12.8938  12.8938
    13.0387  13.0387  13.0387  13.0387  14.8057  14.8057  14.8057  14.8057
    15.9069  15.9069  15.9069

     the Fermi energy is    11.2769 ev

!    total energy              =  -13811.74543460 Ry

     total all-electron energy =   -289988.135774 Ry
     estimated scf accuracy    <          8.3E-09 Ry
     smearing contrib. (-TS)   =      -0.00893540 Ry
     internal energy E=F+TS    =  -13811.73649920 Ry

     The total energy is F=E-TS. E is the sum of the following terms:
     one-electron contribution =  -14612.96585132 Ry
     hartree contribution      =    7503.17764945 Ry
     xc contribution           =    -926.71245003 Ry
     ewald contribution        =    1814.14622323 Ry
     one-center paw contrib.   =   -7589.38207054 Ry

     convergence has been achieved in  10 iterations

     negative rho (up, down):  4.098E-07 0.000E+00

     Forces acting on atoms (cartesian axes, Ry/au):

     atom    1 type  1   force =     0.00000000    0.00000000   -0.00003006
     atom    2 type  1   force =    -0.00000217   -0.00000217   -0.00003190
     atom    3 type  1   force =    -0.00000144    0.00000000    0.00008565
     atom    4 type  1   force =     0.00000000   -0.00000144    0.00008565
     atom    5 type  1   force =     0.00000000    0.00000000   -0.00008740
     atom    6 type  1   force =    -0.00000132   -0.00000132   -0.00008829
     atom    7 type  1   force =    -0.00000067    0.00000000    0.00003386
     atom    8 type  1   force =     0.00000000   -0.00000067    0.00003386
     atom    9 type  1   force =     0.00000000    0.00000000   -0.00003322
     atom   10 type  1   force =    -0.00000217    0.00000217   -0.00003190
     atom   11 type  1   force =    -0.00000163    0.00000000    0.00008757
     atom   12 type  1   force =     0.00000000    0.00000144    0.00008565
     atom   13 type  1   force =     0.00000000    0.00000000   -0.00008717
     atom   14 type  1   force =    -0.00000132    0.00000132   -0.00008829
     atom   15 type  1   force =    -0.00000249    0.00000000    0.00003283
     atom   16 type  1   force =     0.00000000    0.00000067    0.00003386
     atom   17 type  1   force =     0.00000000    0.00000000   -0.00003322
     atom   18 type  1   force =     0.00000217   -0.00000217   -0.00003190
     atom   19 type  1   force =     0.00000144    0.00000000    0.00008565
     atom   20 type  1   force =     0.00000000   -0.00000163    0.00008757
     atom   21 type  1   force =     0.00000000    0.00000000   -0.00008717
     atom   22 type  1   force =     0.00000132   -0.00000132   -0.00008829
     atom   23 type  1   force =     0.00000067    0.00000000    0.00003386
     atom   24 type  1   force =     0.00000000   -0.00000249    0.00003283
     atom   25 type  1   force =     0.00000000    0.00000000   -0.00003033
     atom   26 type  1   force =     0.00000217    0.00000217   -0.00003190
     atom   27 type  1   force =     0.00000163    0.00000000    0.00008757
     atom   28 type  1   force =     0.00000000    0.00000163    0.00008757
     atom   29 type  1   force =     0.00000000    0.00000000   -0.00009026
     atom   30 type  1   force =     0.00000132    0.00000132   -0.00008829
     atom   31 type  1   force =     0.00000249    0.00000000    0.00003283
     atom   32 type  1   force =     0.00000000    0.00000249    0.00003283

     Total force =     0.000373     Total SCF correction =     0.000479
     SCF correction compared to forces is large: reduce conv_thr to get better values

     Computing stress (Cartesian axis) and pressure

     negative rho (up, down):  4.098E-07 0.000E+00
          total   stress  (Ry/bohr**3)                   (kbar)     P=      -20.69
  -0.00019590   0.00000000   0.00000000          -28.82        0.00        0.00
   0.00000000  -0.00019590   0.00000000            0.00      -28.82        0.00
   0.00000000   0.00000000  -0.00003014            0.00        0.00       -4.43

     Energy error            =      7.8E-06
     Gradient error          =      9.0E-05

     bfgs converged in   9 scf cycles and   8 bfgs steps
     (criteria: energy <  1.0E-04 Ry, force <  1.0E-03 Ry/Bohr)

     End of BFGS Geometry Optimization

     Final energy   =  -13811.7454345963 Ry

     File /scratch/saKqbDdsUqqdudmK.bfgs deleted, as requested
Begin final coordinates

ATOMIC_POSITIONS (crystal)
Ru            0.0000000000        0.0000000000        0.0047171912
Ru            0.2499999628        0.2499999628        0.0047179971
Ru            0.2499996440        0.0000000000        0.1356140903
Ru            0.0000000000        0.2499996440        0.1356140903
Ru            0.0000000000        0.0000000000        0.7215293246
Ru            0.2500001565        0.2500001565        0.7215293284
Ru            0.2499996406        0.0000000000        0.8524243152
Ru            0.0000000000        0.2499996406        0.8524243152
Ru            0.0000000000        0.5000000000        0.0047183662
Ru            0.2499999628        0.7500000372        0.0047179971
Ru            0.2500002908        0.5000000000        0.1356141390
Ru            0.0000000000        0.7500003560        0.1356140903
Ru            0.0000000000        0.5000000000        0.7215291752
Ru            0.2500001565        0.7499998435        0.7215293284
Ru            0.2500000006        0.5000000000        0.8524243270
Ru            0.0000000000        0.7500003594        0.8524243152
Ru            0.5000000000        0.0000000000        0.0047183662
Ru            0.7500000372        0.2499999628        0.0047179971
Ru            0.7500003560       -0.0000000000        0.1356140903
Ru            0.5000000000        0.2500002908        0.1356141390
Ru            0.5000000000        0.0000000000        0.7215291752
Ru            0.7499998435        0.2500001565        0.7215293284
Ru            0.7500003594        0.0000000000        0.8524243152
Ru            0.5000000000        0.2500000006        0.8524243270
Ru            0.5000000000        0.5000000000        0.0047178765
Ru            0.7500000372        0.7500000372        0.0047179971
Ru            0.7499997092        0.5000000000        0.1356141390
Ru            0.5000000000        0.7499997092        0.1356141390
Ru            0.5000000000        0.5000000000        0.7215294515
Ru            0.7499998435        0.7499998435        0.7215293284
Ru            0.7499999994        0.5000000000        0.8524243270
Ru            0.5000000000        0.7499999994        0.8524243270
End final coordinates

     Writing output data file /scratch/saKqbDdsUqqdudmK.save/

     General routines

     Parallel routines

   This run was terminated on:  11:42:36   3Dec2021

   JOB DONE.