     Program PWSCF v.6.7MaX starts on 26Nov2021 at 19:43: 8

     R & G space division:  proc/nbgrp/npool/nimage =      72
     Reading input from fcc_100.in
Warning: card &CELL ignored
Warning: card CELL_DYNAMICS = 'BFGS', ignored
Warning: card CELL_FACTOR = 2.0, ignored
Warning: card PRESS = 0.0, ignored
Warning: card / ignored

     Current dimensions of program PWSCF are:
     Max number of different atomic species (ntypx) = 10
     Max number of k-points (npk) =  40000
     Max angular momentum in pseudopotentials (lmaxx) =  3
     file Fe.pbe-spn-kjpaw_psl.1.0.0.UPF: wavefunction(s)  3P 3D renormalized
     file Fe.pbe-spn-kjpaw_psl.1.0.0.UPF: wavefunction(s)  3P 3D renormalized
     file Fe.pbe-spn-kjpaw_psl.1.0.0.UPF: wavefunction(s)  3P 3D renormalized
     file Fe.pbe-spn-kjpaw_psl.1.0.0.UPF: wavefunction(s)  3P 3D renormalized

     Subspace diagonalization in iterative solution of the eigenvalue problem:
     one sub-group per band group will be used

     Found symmetry operation: I + (  0.0000  0.0000 -0.5000)
     This is a supercell, fractional translations are disabled
     Message from routine setup:
     using ibrav=0 with symmetry is DISCOURAGED, use correct ibrav instead

     bravais-lattice index     =            0
     lattice parameter (alat)  =      12.9382  a.u.
     unit-cell volume          =    2283.7811 (a.u.)^3
     number of atoms/cell      =           32
     number of atomic types    =            4
     number of electrons       =       512.00
     number of Kohn-Sham states=          307
     kinetic-energy cutoff     =      71.0000  Ry
     charge density cutoff     =     430.0000  Ry
     scf convergence threshold =      1.0E-06
     mixing beta               =       0.1000
     number of iterations used =           10  plain     mixing
     Exchange-correlation= SLA  PW   PBX  PBC
                           (   1   4   3   4   0   0   0)

     celldm(1)=  12.938187  celldm(2)=   0.000000  celldm(3)=   0.000000
     celldm(4)=   0.000000  celldm(5)=   0.000000  celldm(6)=   0.000000

     crystal axes: (cart. coord. in units of alat)
               a(1) = (   1.000000   0.000000   0.000000 )
               a(2) = (   0.000000   1.054470   0.000000 )
               a(3) = (   0.000000   0.000000   1.000000 )

     reciprocal axes: (cart. coord. in units 2 pi/alat)
               b(1) = (  1.000000  0.000000  0.000000 )
               b(2) = (  0.000000  0.948344  0.000000 )
               b(3) = (  0.000000  0.000000  1.000000 )

     PseudoPot. # 1 for Fe read from file:
     /rds/homes/b/bxp912/pp/Fe.pbe-spn-kjpaw_psl.1.0.0.UPF
     MD5 check sum: 42f43b795421b414b0dc916aa790dbcb
     Pseudo is Projector augmented-wave + core cor, Zval = 16.0
     Generated using &quot;atomic&quot; code by A. Dal Corso  v.6.3
     Shape of augmentation charge: PSQ
     Using radial grid of 1191 points,  6 beta functions with:
                l(1) =   0
                l(2) =   0
                l(3) =   1
                l(4) =   1
                l(5) =   2
                l(6) =   2
     Q(r) pseudized with 0 coefficients

[...]

     PseudoPot. # 4 for Fe read from file:
     /rds/homes/b/bxp912/pp/Fe.pbe-spn-kjpaw_psl.1.0.0.UPF
     MD5 check sum: 42f43b795421b414b0dc916aa790dbcb
     Pseudo is Projector augmented-wave + core cor, Zval = 16.0
     Generated using &quot;atomic&quot; code by A. Dal Corso  v.6.3
     Shape of augmentation charge: PSQ
     Using radial grid of 1191 points,  6 beta functions with:
                l(1) =   0
                l(2) =   0
                l(3) =   1
                l(4) =   1
                l(5) =   2
                l(6) =   2
     Q(r) pseudized with 0 coefficients

     atomic species   valence    mass     pseudopotential
        Fe1           16.00    55.84500     Fe( 1.00)
        Fe2           16.00    55.84500     Fe( 1.00)
        Fe3           16.00    55.84500     Fe( 1.00)
        Fe4           16.00    55.84500     Fe( 1.00)

     Starting magnetic structure
     atomic species   magnetization
        Fe1          0.100
        Fe2         -0.100
        Fe3          0.100
        Fe4         -0.100

      8 Sym. Ops., with inversion, found

   Cartesian axes

     site n.     atom                  positions (alat units)
         1           Fe1 tau(   1) = (   0.0000000   0.0000000   0.0000000  )
         2           Fe2 tau(   2) = (   0.2500000   0.2636175   0.0000000  )
         3           Fe3 tau(   3) = (   0.2500000   0.0000000   0.2500000  )
         4           Fe4 tau(   4) = (   0.0000000   0.2636175   0.2500000  )
         5           Fe1 tau(   5) = (   0.0000000   0.0000000   0.5000000  )
         6           Fe2 tau(   6) = (   0.2500000   0.2636175   0.5000000  )
         7           Fe3 tau(   7) = (   0.2500000   0.0000000   0.7500000  )
         8           Fe4 tau(   8) = (   0.0000000   0.2636175   0.7500000  )
         9           Fe1 tau(   9) = (   0.0000000   0.5272350   0.0000000  )
        10           Fe2 tau(  10) = (   0.2500000   0.7908525   0.0000000  )
        11           Fe3 tau(  11) = (   0.2500000   0.5272350   0.2500000  )
        12           Fe4 tau(  12) = (   0.0000000   0.7908525   0.2500000  )
        13           Fe1 tau(  13) = (   0.0000000   0.5272350   0.5000000  )
        14           Fe2 tau(  14) = (   0.2500000   0.7908525   0.5000000  )
        15           Fe3 tau(  15) = (   0.2500000   0.5272350   0.7500000  )
        16           Fe4 tau(  16) = (   0.0000000   0.7908525   0.7500000  )
        17           Fe1 tau(  17) = (   0.5000000   0.0000000   0.0000000  )
        18           Fe2 tau(  18) = (   0.7500000   0.2636175   0.0000000  )
        19           Fe3 tau(  19) = (   0.7500000   0.0000000   0.2500000  )
        20           Fe4 tau(  20) = (   0.5000000   0.2636175   0.2500000  )
        21           Fe1 tau(  21) = (   0.5000000   0.0000000   0.5000000  )
        22           Fe2 tau(  22) = (   0.7500000   0.2636175   0.5000000  )
        23           Fe3 tau(  23) = (   0.7500000   0.0000000   0.7500000  )
        24           Fe4 tau(  24) = (   0.5000000   0.2636175   0.7500000  )
        25           Fe1 tau(  25) = (   0.5000000   0.5272350   0.0000000  )
        26           Fe2 tau(  26) = (   0.7500000   0.7908525   0.0000000  )
        27           Fe3 tau(  27) = (   0.7500000   0.5272350   0.2500000  )
        28           Fe4 tau(  28) = (   0.5000000   0.7908525   0.2500000  )
        29           Fe1 tau(  29) = (   0.5000000   0.5272350   0.5000000  )
        30           Fe2 tau(  30) = (   0.7500000   0.7908525   0.5000000  )
        31           Fe3 tau(  31) = (   0.7500000   0.5272350   0.7500000  )
        32           Fe4 tau(  32) = (   0.5000000   0.7908525   0.7500000  )

     number of k points=   125  Marzari-Vanderbilt smearing, width (Ry)=  0.0400

     Number of k-points >= 100: set verbosity='high' to print them.

     Check: negative core charge=   -0.000006
     Generating pointlists ...
     new r_m :   0.1458 (alat units)  1.8869 (a.u.) for type    1
     new r_m :   0.1458 (alat units)  1.8869 (a.u.) for type    2
     new r_m :   0.1458 (alat units)  1.8869 (a.u.) for type    3
     new r_m :   0.1458 (alat units)  1.8869 (a.u.) for type    4

     Initial potential from superposition of free atoms

     starting charge  511.98600, renormalised to  512.00000
     Starting wfcs are  320 randomized atomic wfcs
     Checking if some PAW data can be deallocated...

     Self-consistent Calculation

     iteration #  1     ecut=    71.00 Ry     beta= 0.10
     Davidson diagonalization with overlap
     ethr =  1.00E-02,  avg # of iterations =  3.0

     Threshold (ethr) on eigenvalues was too large:
     Diagonalizing with lowered threshold

     Davidson diagonalization with overlap
     ethr =  1.79E-04,  avg # of iterations =  6.6

     total energy              =  -10536.49351646 Ry
     estimated scf accuracy    <       1.96272049 Ry

     total magnetization       =     0.01 Bohr mag/cell
     absolute magnetization    =    44.63 Bohr mag/cell

[...]

     total energy              =  -10536.25058360 Ry
     estimated scf accuracy    <       0.00000359 Ry

[...]

     iteration # 36     ecut=    71.00 Ry     beta= 0.10
     Davidson diagonalization with overlap
     ethr =  6.13E-10,  avg # of iterations =  2.2

     Magnetic moment per site:
     atom:    1    charge:   14.3916    magn:    1.4916    constr:    0.0000
     atom:    2    charge:   14.3917    magn:   -1.4908    constr:    0.0000
     atom:    3    charge:   14.3911    magn:    1.4931    constr:    0.0000
     atom:    4    charge:   14.3916    magn:   -1.4927    constr:    0.0000
     atom:    5    charge:   14.3916    magn:    1.4901    constr:    0.0000
     atom:    6    charge:   14.3916    magn:   -1.4913    constr:    0.0000
     atom:    7    charge:   14.3911    magn:    1.4931    constr:    0.0000
     atom:    8    charge:   14.3916    magn:   -1.4927    constr:    0.0000
     atom:    9    charge:   14.3911    magn:    1.4919    constr:    0.0000
     atom:   10    charge:   14.3917    magn:   -1.4908    constr:    0.0000
     atom:   11    charge:   14.3912    magn:    1.4928    constr:    0.0000
     atom:   12    charge:   14.3916    magn:   -1.4927    constr:    0.0000
     atom:   13    charge:   14.3917    magn:    1.4909    constr:    0.0000
     atom:   14    charge:   14.3916    magn:   -1.4913    constr:    0.0000
     atom:   15    charge:   14.3912    magn:    1.4928    constr:    0.0000
     atom:   16    charge:   14.3916    magn:   -1.4927    constr:    0.0000
     atom:   17    charge:   14.3915    magn:    1.4902    constr:    0.0000
     atom:   18    charge:   14.3917    magn:   -1.4908    constr:    0.0000
     atom:   19    charge:   14.3911    magn:    1.4931    constr:    0.0000
     atom:   20    charge:   14.3916    magn:   -1.4937    constr:    0.0000
     atom:   21    charge:   14.3914    magn:    1.4909    constr:    0.0000
     atom:   22    charge:   14.3916    magn:   -1.4913    constr:    0.0000
     atom:   23    charge:   14.3911    magn:    1.4931    constr:    0.0000
     atom:   24    charge:   14.3916    magn:   -1.4937    constr:    0.0000
     atom:   25    charge:   14.3913    magn:    1.4915    constr:    0.0000
     atom:   26    charge:   14.3917    magn:   -1.4908    constr:    0.0000
     atom:   27    charge:   14.3912    magn:    1.4928    constr:    0.0000
     atom:   28    charge:   14.3916    magn:   -1.4937    constr:    0.0000
     atom:   29    charge:   14.3912    magn:    1.4913    constr:    0.0000
     atom:   30    charge:   14.3916    magn:   -1.4913    constr:    0.0000
     atom:   31    charge:   14.3912    magn:    1.4928    constr:    0.0000
     atom:   32    charge:   14.3916    magn:   -1.4937    constr:    0.0000

     End of self-consistent calculation

     Number of k-points >= 100: set verbosity='high' to print the bands.

     the Fermi energy is    20.1181 ev

!    total energy              =  -10536.25058428 Ry

     total all-electron energy =    -81457.739642 Ry
     estimated scf accuracy    <       0.00000083 Ry
     smearing contrib. (-TS)   =       0.01447195 Ry
     internal energy E=F+TS    =  -10536.26505624 Ry

     The total energy is F=E-TS. E is the sum of the following terms:
     one-electron contribution =   -3292.36931239 Ry
     hartree contribution      =    1996.48398178 Ry
     xc contribution           =    -886.95131206 Ry
     ewald contribution        =   -5703.86783325 Ry
     one-center paw contrib.   =   -2649.56058031 Ry

     total magnetization       =    -0.00 Bohr mag/cell
     absolute magnetization    =    49.54 Bohr mag/cell

     convergence has been achieved in  36 iterations

     Forces acting on atoms (cartesian axes, Ry/au):

     atom    1 type  1   force =     0.00000000    0.00000000    0.00000000
     atom    2 type  2   force =    -0.00006875   -0.00007032    0.00000000
     atom    3 type  3   force =     0.00004105    0.00000000    0.00016469
     atom    4 type  4   force =     0.00000000    0.00004640   -0.00000509
     atom    5 type  1   force =     0.00000000    0.00000000    0.00000000
     atom    6 type  2   force =     0.00009539   -0.00009590    0.00000000
     atom    7 type  3   force =     0.00004105    0.00000000   -0.00016469
     atom    8 type  4   force =     0.00000000    0.00004640    0.00000509
     atom    9 type  1   force =     0.00000000    0.00000000    0.00000000
     atom   10 type  2   force =    -0.00006875    0.00007032    0.00000000
     atom   11 type  3   force =    -0.00020345    0.00000000   -0.00002383
     atom   12 type  4   force =     0.00000000   -0.00004640   -0.00000509
     atom   13 type  1   force =     0.00000000    0.00000000    0.00000000
     atom   14 type  2   force =     0.00009539    0.00009590    0.00000000
     atom   15 type  3   force =    -0.00020345    0.00000000    0.00002383
     atom   16 type  4   force =     0.00000000   -0.00004640    0.00000509
     atom   17 type  1   force =     0.00000000    0.00000000    0.00000000
     atom   18 type  2   force =     0.00006875   -0.00007032    0.00000000
     atom   19 type  3   force =    -0.00004105    0.00000000    0.00016469
     atom   20 type  4   force =     0.00000000    0.00014909   -0.00032709
     atom   21 type  1   force =     0.00000000    0.00000000    0.00000000
     atom   22 type  2   force =    -0.00009539   -0.00009590    0.00000000
     atom   23 type  3   force =    -0.00004105    0.00000000   -0.00016469
     atom   24 type  4   force =     0.00000000    0.00014909    0.00032709
     atom   25 type  1   force =     0.00000000    0.00000000    0.00000000
     atom   26 type  2   force =     0.00006875    0.00007032    0.00000000
     atom   27 type  3   force =     0.00020345    0.00000000   -0.00002383
     atom   28 type  4   force =     0.00000000   -0.00014909   -0.00032709
     atom   29 type  1   force =     0.00000000    0.00000000    0.00000000
     atom   30 type  2   force =    -0.00009539    0.00009590    0.00000000
     atom   31 type  3   force =     0.00020345    0.00000000    0.00002383
     atom   32 type  4   force =     0.00000000   -0.00014909    0.00032709

     Total force =     0.000959     Total SCF correction =     0.003025
     SCF correction compared to forces is large: reduce conv_thr to get better values

     Computing stress (Cartesian axis) and pressure

          total   stress  (Ry/bohr**3)                   (kbar)     P=       -2.62
  -0.00001817   0.00000000   0.00000000           -2.67        0.00        0.00
   0.00000000  -0.00001698   0.00000000            0.00       -2.50        0.00
   0.00000000   0.00000000  -0.00001838            0.00        0.00       -2.70

     Writing output data file /scratch/bxp912/fecohfcc100.save/

     General routines

     Parallel routines

   This run was terminated on:  21:51:47  26Nov2021

   JOB DONE.