     Program PWSCF v.6.7MaX starts on  1Dec2021 at 23: 4:21

     R & G space division:  proc/nbgrp/npool/nimage =      72
     Reading input from fcc_116.in
Warning: card &CELL ignored
Warning: card CELL_DYNAMICS = 'BFGS', ignored
Warning: card CELL_FACTOR = 2.0, ignored
Warning: card PRESS = 0.0, ignored
Warning: card / ignored

     Current dimensions of program PWSCF are:
     Max number of different atomic species (ntypx) = 10
     Max number of k-points (npk) =  40000
     Max angular momentum in pseudopotentials (lmaxx) =  3
     file Fe.pbe-spn-kjpaw_psl.1.0.0.UPF: wavefunction(s)  3P 3D renormalized
     file Fe.pbe-spn-kjpaw_psl.1.0.0.UPF: wavefunction(s)  3P 3D renormalized
     file Fe.pbe-spn-kjpaw_psl.1.0.0.UPF: wavefunction(s)  3P 3D renormalized
     file Fe.pbe-spn-kjpaw_psl.1.0.0.UPF: wavefunction(s)  3P 3D renormalized

     Subspace diagonalization in iterative solution of the eigenvalue problem:
     one sub-group per band group will be used

     Found symmetry operation: I + (  0.0000  0.0000 -0.5000)
     This is a supercell, fractional translations are disabled
     Message from routine setup:
     using ibrav=0 with symmetry is DISCOURAGED, use correct ibrav instead

     bravais-lattice index     =            0
     lattice parameter (alat)  =      12.9382  a.u.
     unit-cell volume          =    3564.7447 (a.u.)^3
     number of atoms/cell      =           32
     number of atomic types    =            4
     number of electrons       =       512.00
     number of Kohn-Sham states=          307
     kinetic-energy cutoff     =      71.0000  Ry
     charge density cutoff     =     430.0000  Ry
     scf convergence threshold =      1.0E-06
     mixing beta               =       0.1000
     number of iterations used =           10  plain     mixing
     Exchange-correlation= SLA  PW   PBX  PBC
                           (   1   4   3   4   0   0   0)

     celldm(1)=  12.938187  celldm(2)=   0.000000  celldm(3)=   0.000000
     celldm(4)=   0.000000  celldm(5)=   0.000000  celldm(6)=   0.000000

     crystal axes: (cart. coord. in units of alat)
               a(1) = (   1.160000   0.000000   0.000000 )
               a(2) = (   0.000000   1.223185   0.000000 )
               a(3) = (   0.000000   0.000000   1.160000 )

     reciprocal axes: (cart. coord. in units 2 pi/alat)
               b(1) = (  0.862069  0.000000  0.000000 )
               b(2) = (  0.000000  0.817538  0.000000 )
               b(3) = (  0.000000  0.000000  0.862069 )

     PseudoPot. # 1 for Fe read from file:
     /rds/homes/b/bxp912/pp/Fe.pbe-spn-kjpaw_psl.1.0.0.UPF
     MD5 check sum: 42f43b795421b414b0dc916aa790dbcb
     Pseudo is Projector augmented-wave + core cor, Zval = 16.0
     Generated using &quot;atomic&quot; code by A. Dal Corso  v.6.3
     Shape of augmentation charge: PSQ
     Using radial grid of 1191 points,  6 beta functions with:
                l(1) =   0
                l(2) =   0
                l(3) =   1
                l(4) =   1
                l(5) =   2
                l(6) =   2
     Q(r) pseudized with 0 coefficients

[...]

     PseudoPot. # 4 for Fe read from file:
     /rds/homes/b/bxp912/pp/Fe.pbe-spn-kjpaw_psl.1.0.0.UPF
     MD5 check sum: 42f43b795421b414b0dc916aa790dbcb
     Pseudo is Projector augmented-wave + core cor, Zval = 16.0
     Generated using &quot;atomic&quot; code by A. Dal Corso  v.6.3
     Shape of augmentation charge: PSQ
     Using radial grid of 1191 points,  6 beta functions with:
                l(1) =   0
                l(2) =   0
                l(3) =   1
                l(4) =   1
                l(5) =   2
                l(6) =   2
     Q(r) pseudized with 0 coefficients

     atomic species   valence    mass     pseudopotential
        Fe1           16.00    55.84500     Fe( 1.00)
        Fe2           16.00    55.84500     Fe( 1.00)
        Fe3           16.00    55.84500     Fe( 1.00)
        Fe4           16.00    55.84500     Fe( 1.00)

     Starting magnetic structure
     atomic species   magnetization
        Fe1          0.100
        Fe2         -0.100
        Fe3          0.100
        Fe4         -0.100

      8 Sym. Ops., with inversion, found

   Cartesian axes

     site n.     atom                  positions (alat units)
         1           Fe1 tau(   1) = (   0.0000000   0.0000000   0.0000000  )
         2           Fe2 tau(   2) = (   0.2900000   0.3057963   0.0000000  )
         3           Fe3 tau(   3) = (   0.2900000   0.0000000   0.2900000  )
         4           Fe4 tau(   4) = (   0.0000000   0.3057963   0.2900000  )
         5           Fe1 tau(   5) = (   0.0000000   0.0000000   0.5800000  )
         6           Fe2 tau(   6) = (   0.2900000   0.3057963   0.5800000  )
         7           Fe3 tau(   7) = (   0.2900000   0.0000000   0.8700000  )
         8           Fe4 tau(   8) = (   0.0000000   0.3057963   0.8700000  )
         9           Fe1 tau(   9) = (   0.0000000   0.6115926   0.0000000  )
        10           Fe2 tau(  10) = (   0.2900000   0.9173889   0.0000000  )
        11           Fe3 tau(  11) = (   0.2900000   0.6115926   0.2900000  )
        12           Fe4 tau(  12) = (   0.0000000   0.9173889   0.2900000  )
        13           Fe1 tau(  13) = (   0.0000000   0.6115926   0.5800000  )
        14           Fe2 tau(  14) = (   0.2900000   0.9173889   0.5800000  )
        15           Fe3 tau(  15) = (   0.2900000   0.6115926   0.8700000  )
        16           Fe4 tau(  16) = (   0.0000000   0.9173889   0.8700000  )
        17           Fe1 tau(  17) = (   0.5800000   0.0000000   0.0000000  )
        18           Fe2 tau(  18) = (   0.8700000   0.3057963   0.0000000  )
        19           Fe3 tau(  19) = (   0.8700000   0.0000000   0.2900000  )
        20           Fe4 tau(  20) = (   0.5800000   0.3057963   0.2900000  )
        21           Fe1 tau(  21) = (   0.5800000   0.0000000   0.5800000  )
        22           Fe2 tau(  22) = (   0.8700000   0.3057963   0.5800000  )
        23           Fe3 tau(  23) = (   0.8700000   0.0000000   0.8700000  )
        24           Fe4 tau(  24) = (   0.5800000   0.3057963   0.8700000  )
        25           Fe1 tau(  25) = (   0.5800000   0.6115926   0.0000000  )
        26           Fe2 tau(  26) = (   0.8700000   0.9173889   0.0000000  )
        27           Fe3 tau(  27) = (   0.8700000   0.6115926   0.2900000  )
        28           Fe4 tau(  28) = (   0.5800000   0.9173889   0.2900000  )
        29           Fe1 tau(  29) = (   0.5800000   0.6115926   0.5800000  )
        30           Fe2 tau(  30) = (   0.8700000   0.9173889   0.5800000  )
        31           Fe3 tau(  31) = (   0.8700000   0.6115926   0.8700000  )
        32           Fe4 tau(  32) = (   0.5800000   0.9173889   0.8700000  )

     number of k points=   125  Marzari-Vanderbilt smearing, width (Ry)=  0.0400

     Number of k-points >= 100: set verbosity='high' to print them.

     Check: negative core charge=   -0.000005
     Generating pointlists ...
     new r_m :   0.1692 (alat units)  2.1888 (a.u.) for type    1
     new r_m :   0.1692 (alat units)  2.1888 (a.u.) for type    2
     new r_m :   0.1692 (alat units)  2.1888 (a.u.) for type    3
     new r_m :   0.1692 (alat units)  2.1888 (a.u.) for type    4

     Initial potential from superposition of free atoms

     starting charge  511.98600, renormalised to  512.00000
     Starting wfcs are  320 randomized atomic wfcs
     Checking if some PAW data can be deallocated...

     Self-consistent Calculation

     iteration #  1     ecut=    71.00 Ry     beta= 0.10
     Davidson diagonalization with overlap
     ethr =  1.00E-02,  avg # of iterations =  3.3

     Threshold (ethr) on eigenvalues was too large:
     Diagonalizing with lowered threshold

     Davidson diagonalization with overlap
     ethr =  1.79E-04,  avg # of iterations =  6.2

     total energy              =  -10534.00330474 Ry
     estimated scf accuracy    <       0.65042612 Ry

     total magnetization       =     0.08 Bohr mag/cell
     absolute magnetization    =    70.55 Bohr mag/cell

[...]

     negative rho (up, down):  6.663E-05 3.016E-05

[...]

     iteration # 16     ecut=    71.00 Ry     beta= 0.10
     Davidson diagonalization with overlap
     c_bands:  1 eigenvalues not converged
     ethr =  1.05E-06,  avg # of iterations =  4.0

[...]

     iteration # 37     ecut=    71.00 Ry     beta= 0.10
     Davidson diagonalization with overlap
     c_bands:  1 eigenvalues not converged
     ethr =  6.90E-10,  avg # of iterations =  4.9

[...]

     total energy              =  -10534.53873575 Ry
     estimated scf accuracy    <       0.00000112 Ry

[...]

     iteration # 41     ecut=    71.00 Ry     beta= 0.10
     Davidson diagonalization with overlap
     ethr =  2.18E-10,  avg # of iterations =  5.3

[...]

     Magnetic moment per site:
     atom:    1    charge:   14.7148    magn:    2.8907    constr:    0.0000
     atom:    2    charge:   14.7149    magn:   -2.8904    constr:    0.0000
     atom:    3    charge:   14.7150    magn:    2.8905    constr:    0.0000
     atom:    4    charge:   14.7149    magn:   -2.8906    constr:    0.0000
     atom:    5    charge:   14.7151    magn:    2.8904    constr:    0.0000
     atom:    6    charge:   14.7150    magn:   -2.8904    constr:    0.0000
     atom:    7    charge:   14.7150    magn:    2.8905    constr:    0.0000
     atom:    8    charge:   14.7149    magn:   -2.8906    constr:    0.0000
     atom:    9    charge:   14.7149    magn:    2.8906    constr:    0.0000
     atom:   10    charge:   14.7149    magn:   -2.8904    constr:    0.0000
     atom:   11    charge:   14.7148    magn:    2.8905    constr:    0.0000
     atom:   12    charge:   14.7149    magn:   -2.8906    constr:    0.0000
     atom:   13    charge:   14.7149    magn:    2.8905    constr:    0.0000
     atom:   14    charge:   14.7150    magn:   -2.8904    constr:    0.0000
     atom:   15    charge:   14.7148    magn:    2.8905    constr:    0.0000
     atom:   16    charge:   14.7149    magn:   -2.8906    constr:    0.0000
     atom:   17    charge:   14.7146    magn:    2.8907    constr:    0.0000
     atom:   18    charge:   14.7149    magn:   -2.8904    constr:    0.0000
     atom:   19    charge:   14.7150    magn:    2.8905    constr:    0.0000
     atom:   20    charge:   14.7149    magn:   -2.8907    constr:    0.0000
     atom:   21    charge:   14.7150    magn:    2.8904    constr:    0.0000
     atom:   22    charge:   14.7150    magn:   -2.8904    constr:    0.0000
     atom:   23    charge:   14.7150    magn:    2.8905    constr:    0.0000
     atom:   24    charge:   14.7149    magn:   -2.8907    constr:    0.0000
     atom:   25    charge:   14.7148    magn:    2.8906    constr:    0.0000
     atom:   26    charge:   14.7149    magn:   -2.8904    constr:    0.0000
     atom:   27    charge:   14.7148    magn:    2.8905    constr:    0.0000
     atom:   28    charge:   14.7149    magn:   -2.8907    constr:    0.0000
     atom:   29    charge:   14.7150    magn:    2.8904    constr:    0.0000
     atom:   30    charge:   14.7150    magn:   -2.8904    constr:    0.0000
     atom:   31    charge:   14.7148    magn:    2.8905    constr:    0.0000
     atom:   32    charge:   14.7149    magn:   -2.8907    constr:    0.0000

     End of self-consistent calculation

     Number of k-points >= 100: set verbosity='high' to print the bands.

     the Fermi energy is    11.9038 ev

!    total energy              =  -10534.53873573 Ry

     total all-electron energy =    -81456.027794 Ry
     estimated scf accuracy    <       0.00000049 Ry
     smearing contrib. (-TS)   =      -0.03682258 Ry
     internal energy E=F+TS    =  -10534.50191315 Ry

     The total energy is F=E-TS. E is the sum of the following terms:
     one-electron contribution =   -4563.65246953 Ry
     hartree contribution      =    2478.46582571 Ry
     xc contribution           =    -883.00471884 Ry
     ewald contribution        =   -4917.12744246 Ry
     one-center paw contrib.   =   -2649.18310804 Ry

     total magnetization       =    -0.00 Bohr mag/cell
     absolute magnetization    =    95.03 Bohr mag/cell

     convergence has been achieved in  41 iterations

     negative rho (up, down):  4.497E-03 4.498E-03

     Forces acting on atoms (cartesian axes, Ry/au):

     atom    1 type  1   force =     0.00000000    0.00000000    0.00000000
     atom    2 type  2   force =     0.00010069    0.00003239    0.00000000
     atom    3 type  3   force =     0.00005539    0.00000000   -0.00008912
     atom    4 type  4   force =     0.00000000   -0.00003247   -0.00002336
     atom    5 type  1   force =     0.00000000    0.00000000    0.00000000
     atom    6 type  2   force =    -0.00001913    0.00003826    0.00000000
     atom    7 type  3   force =     0.00005539    0.00000000    0.00008912
     atom    8 type  4   force =     0.00000000   -0.00003247    0.00002336
     atom    9 type  1   force =     0.00000000    0.00000000    0.00000000
     atom   10 type  2   force =     0.00010069   -0.00003239    0.00000000
     atom   11 type  3   force =     0.00011165    0.00000000   -0.00002191
     atom   12 type  4   force =     0.00000000    0.00003247   -0.00002336
     atom   13 type  1   force =     0.00000000    0.00000000    0.00000000
     atom   14 type  2   force =    -0.00001913   -0.00003826    0.00000000
     atom   15 type  3   force =     0.00011165    0.00000000    0.00002191
     atom   16 type  4   force =     0.00000000    0.00003247    0.00002336
     atom   17 type  1   force =     0.00000000    0.00000000    0.00000000
     atom   18 type  2   force =    -0.00010069    0.00003239    0.00000000
     atom   19 type  3   force =    -0.00005539    0.00000000   -0.00008912
     atom   20 type  4   force =     0.00000000   -0.00004189    0.00007449
     atom   21 type  1   force =     0.00000000    0.00000000    0.00000000
     atom   22 type  2   force =     0.00001913    0.00003826    0.00000000
     atom   23 type  3   force =    -0.00005539    0.00000000    0.00008912
     atom   24 type  4   force =     0.00000000   -0.00004189   -0.00007449
     atom   25 type  1   force =     0.00000000    0.00000000    0.00000000
     atom   26 type  2   force =    -0.00010069   -0.00003239    0.00000000
     atom   27 type  3   force =    -0.00011165    0.00000000   -0.00002191
     atom   28 type  4   force =    -0.00000000    0.00004189    0.00007449
     atom   29 type  1   force =     0.00000000    0.00000000    0.00000000
     atom   30 type  2   force =     0.00001913   -0.00003826    0.00000000
     atom   31 type  3   force =    -0.00011165    0.00000000    0.00002191
     atom   32 type  4   force =     0.00000000    0.00004189   -0.00007449

     Total force =     0.000428     Total SCF correction =     0.002981
     SCF correction compared to forces is large: reduce conv_thr to get better values

     Computing stress (Cartesian axis) and pressure

     negative rho (up, down):  4.497E-03 4.498E-03
          total   stress  (Ry/bohr**3)                   (kbar)     P=     -297.75
  -0.00214449   0.00000000   0.00000000         -315.47        0.00        0.00
   0.00000000  -0.00178322   0.00000000            0.00     -262.32        0.00
   0.00000000   0.00000000  -0.00214450            0.00        0.00     -315.47

     Writing output data file /scratch/bxp912/fecohfcc116.save/

     General routines

     Parallel routines

   This run was terminated on:   2:34:42   2Dec2021

   JOB DONE.