     Program PWSCF v.6.7MaX starts on  1Dec2021 at 19:34: 9

     R & G space division:  proc/nbgrp/npool/nimage =      72
     Reading input from fcc_112.in
Warning: card &CELL ignored
Warning: card CELL_DYNAMICS = 'BFGS', ignored
Warning: card CELL_FACTOR = 2.0, ignored
Warning: card PRESS = 0.0, ignored
Warning: card / ignored

     Current dimensions of program PWSCF are:
     Max number of different atomic species (ntypx) = 10
     Max number of k-points (npk) =  40000
     Max angular momentum in pseudopotentials (lmaxx) =  3
     file Fe.pbe-spn-kjpaw_psl.1.0.0.UPF: wavefunction(s)  3P 3D renormalized
     file Fe.pbe-spn-kjpaw_psl.1.0.0.UPF: wavefunction(s)  3P 3D renormalized
     file Fe.pbe-spn-kjpaw_psl.1.0.0.UPF: wavefunction(s)  3P 3D renormalized
     file Fe.pbe-spn-kjpaw_psl.1.0.0.UPF: wavefunction(s)  3P 3D renormalized

     Subspace diagonalization in iterative solution of the eigenvalue problem:
     one sub-group per band group will be used

     Found symmetry operation: I + (  0.0000  0.0000 -0.5000)
     This is a supercell, fractional translations are disabled
     Message from routine setup:
     using ibrav=0 with symmetry is DISCOURAGED, use correct ibrav instead

     bravais-lattice index     =            0
     lattice parameter (alat)  =      12.9382  a.u.
     unit-cell volume          =    3208.5480 (a.u.)^3
     number of atoms/cell      =           32
     number of atomic types    =            4
     number of electrons       =       512.00
     number of Kohn-Sham states=          307
     kinetic-energy cutoff     =      71.0000  Ry
     charge density cutoff     =     430.0000  Ry
     scf convergence threshold =      1.0E-06
     mixing beta               =       0.1000
     number of iterations used =           10  plain     mixing
     Exchange-correlation= SLA  PW   PBX  PBC
                           (   1   4   3   4   0   0   0)

     celldm(1)=  12.938187  celldm(2)=   0.000000  celldm(3)=   0.000000
     celldm(4)=   0.000000  celldm(5)=   0.000000  celldm(6)=   0.000000

     crystal axes: (cart. coord. in units of alat)
               a(1) = (   1.120000   0.000000   0.000000 )
               a(2) = (   0.000000   1.181006   0.000000 )
               a(3) = (   0.000000   0.000000   1.120000 )

     reciprocal axes: (cart. coord. in units 2 pi/alat)
               b(1) = (  0.892857  0.000000  0.000000 )
               b(2) = (  0.000000  0.846735  0.000000 )
               b(3) = (  0.000000  0.000000  0.892857 )

     PseudoPot. # 1 for Fe read from file:
     /rds/homes/b/bxp912/pp/Fe.pbe-spn-kjpaw_psl.1.0.0.UPF
     MD5 check sum: 42f43b795421b414b0dc916aa790dbcb
     Pseudo is Projector augmented-wave + core cor, Zval = 16.0
     Generated using &quot;atomic&quot; code by A. Dal Corso  v.6.3
     Shape of augmentation charge: PSQ
     Using radial grid of 1191 points,  6 beta functions with:
                l(1) =   0
                l(2) =   0
                l(3) =   1
                l(4) =   1
                l(5) =   2
                l(6) =   2
     Q(r) pseudized with 0 coefficients

[...]

     PseudoPot. # 4 for Fe read from file:
     /rds/homes/b/bxp912/pp/Fe.pbe-spn-kjpaw_psl.1.0.0.UPF
     MD5 check sum: 42f43b795421b414b0dc916aa790dbcb
     Pseudo is Projector augmented-wave + core cor, Zval = 16.0
     Generated using &quot;atomic&quot; code by A. Dal Corso  v.6.3
     Shape of augmentation charge: PSQ
     Using radial grid of 1191 points,  6 beta functions with:
                l(1) =   0
                l(2) =   0
                l(3) =   1
                l(4) =   1
                l(5) =   2
                l(6) =   2
     Q(r) pseudized with 0 coefficients

     atomic species   valence    mass     pseudopotential
        Fe1           16.00    55.84500     Fe( 1.00)
        Fe2           16.00    55.84500     Fe( 1.00)
        Fe3           16.00    55.84500     Fe( 1.00)
        Fe4           16.00    55.84500     Fe( 1.00)

     Starting magnetic structure
     atomic species   magnetization
        Fe1          0.100
        Fe2         -0.100
        Fe3          0.100
        Fe4         -0.100

      8 Sym. Ops., with inversion, found

   Cartesian axes

     site n.     atom                  positions (alat units)
         1           Fe1 tau(   1) = (   0.0000000   0.0000000   0.0000000  )
         2           Fe2 tau(   2) = (   0.2800000   0.2952516   0.0000000  )
         3           Fe3 tau(   3) = (   0.2800000   0.0000000   0.2800000  )
         4           Fe4 tau(   4) = (   0.0000000   0.2952516   0.2800000  )
         5           Fe1 tau(   5) = (   0.0000000   0.0000000   0.5600000  )
         6           Fe2 tau(   6) = (   0.2800000   0.2952516   0.5600000  )
         7           Fe3 tau(   7) = (   0.2800000   0.0000000   0.8400000  )
         8           Fe4 tau(   8) = (   0.0000000   0.2952516   0.8400000  )
         9           Fe1 tau(   9) = (   0.0000000   0.5905032   0.0000000  )
        10           Fe2 tau(  10) = (   0.2800000   0.8857548   0.0000000  )
        11           Fe3 tau(  11) = (   0.2800000   0.5905032   0.2800000  )
        12           Fe4 tau(  12) = (   0.0000000   0.8857548   0.2800000  )
        13           Fe1 tau(  13) = (   0.0000000   0.5905032   0.5600000  )
        14           Fe2 tau(  14) = (   0.2800000   0.8857548   0.5600000  )
        15           Fe3 tau(  15) = (   0.2800000   0.5905032   0.8400000  )
        16           Fe4 tau(  16) = (   0.0000000   0.8857548   0.8400000  )
        17           Fe1 tau(  17) = (   0.5600000   0.0000000   0.0000000  )
        18           Fe2 tau(  18) = (   0.8400000   0.2952516   0.0000000  )
        19           Fe3 tau(  19) = (   0.8400000   0.0000000   0.2800000  )
        20           Fe4 tau(  20) = (   0.5600000   0.2952516   0.2800000  )
        21           Fe1 tau(  21) = (   0.5600000   0.0000000   0.5600000  )
        22           Fe2 tau(  22) = (   0.8400000   0.2952516   0.5600000  )
        23           Fe3 tau(  23) = (   0.8400000   0.0000000   0.8400000  )
        24           Fe4 tau(  24) = (   0.5600000   0.2952516   0.8400000  )
        25           Fe1 tau(  25) = (   0.5600000   0.5905032   0.0000000  )
        26           Fe2 tau(  26) = (   0.8400000   0.8857548   0.0000000  )
        27           Fe3 tau(  27) = (   0.8400000   0.5905032   0.2800000  )
        28           Fe4 tau(  28) = (   0.5600000   0.8857548   0.2800000  )
        29           Fe1 tau(  29) = (   0.5600000   0.5905032   0.5600000  )
        30           Fe2 tau(  30) = (   0.8400000   0.8857548   0.5600000  )
        31           Fe3 tau(  31) = (   0.8400000   0.5905032   0.8400000  )
        32           Fe4 tau(  32) = (   0.5600000   0.8857548   0.8400000  )

     number of k points=   125  Marzari-Vanderbilt smearing, width (Ry)=  0.0400

     Number of k-points >= 100: set verbosity='high' to print them.

     Check: negative core charge=   -0.000005
     Generating pointlists ...
     new r_m :   0.1633 (alat units)  2.1133 (a.u.) for type    1
     new r_m :   0.1633 (alat units)  2.1133 (a.u.) for type    2
     new r_m :   0.1633 (alat units)  2.1133 (a.u.) for type    3
     new r_m :   0.1633 (alat units)  2.1133 (a.u.) for type    4

     Initial potential from superposition of free atoms

     starting charge  511.98600, renormalised to  512.00000
     Starting wfcs are  320 randomized atomic wfcs
     Checking if some PAW data can be deallocated...

     Self-consistent Calculation

     iteration #  1     ecut=    71.00 Ry     beta= 0.10
     Davidson diagonalization with overlap
     ethr =  1.00E-02,  avg # of iterations =  3.2

     Threshold (ethr) on eigenvalues was too large:
     Diagonalizing with lowered threshold

     Davidson diagonalization with overlap
     ethr =  8.10E-05,  avg # of iterations =  7.7

     total energy              =  -10534.86819027 Ry
     estimated scf accuracy    <       0.66555934 Ry

     total magnetization       =     0.05 Bohr mag/cell
     absolute magnetization    =    63.84 Bohr mag/cell

[...]

     negative rho (up, down):  1.146E-03 1.109E-03

[...]

     total energy              =  -10535.17702285 Ry
     estimated scf accuracy    <       0.00000116 Ry

[...]

     iteration # 44     ecut=    71.00 Ry     beta= 0.10
     Davidson diagonalization with overlap
     ethr =  2.26E-10,  avg # of iterations =  2.5

[...]

     Magnetic moment per site:
     atom:    1    charge:   14.6440    magn:    2.6363    constr:    0.0000
     atom:    2    charge:   14.6439    magn:   -2.6357    constr:    0.0000
     atom:    3    charge:   14.6439    magn:    2.6360    constr:    0.0000
     atom:    4    charge:   14.6439    magn:   -2.6362    constr:    0.0000
     atom:    5    charge:   14.6440    magn:    2.6359    constr:    0.0000
     atom:    6    charge:   14.6439    magn:   -2.6360    constr:    0.0000
     atom:    7    charge:   14.6439    magn:    2.6360    constr:    0.0000
     atom:    8    charge:   14.6439    magn:   -2.6362    constr:    0.0000
     atom:    9    charge:   14.6440    magn:    2.6363    constr:    0.0000
     atom:   10    charge:   14.6439    magn:   -2.6357    constr:    0.0000
     atom:   11    charge:   14.6440    magn:    2.6359    constr:    0.0000
     atom:   12    charge:   14.6439    magn:   -2.6362    constr:    0.0000
     atom:   13    charge:   14.6442    magn:    2.6359    constr:    0.0000
     atom:   14    charge:   14.6439    magn:   -2.6360    constr:    0.0000
     atom:   15    charge:   14.6440    magn:    2.6359    constr:    0.0000
     atom:   16    charge:   14.6439    magn:   -2.6362    constr:    0.0000
     atom:   17    charge:   14.6439    magn:    2.6357    constr:    0.0000
     atom:   18    charge:   14.6439    magn:   -2.6357    constr:    0.0000
     atom:   19    charge:   14.6439    magn:    2.6360    constr:    0.0000
     atom:   20    charge:   14.6439    magn:   -2.6368    constr:    0.0000
     atom:   21    charge:   14.6440    magn:    2.6358    constr:    0.0000
     atom:   22    charge:   14.6439    magn:   -2.6360    constr:    0.0000
     atom:   23    charge:   14.6439    magn:    2.6360    constr:    0.0000
     atom:   24    charge:   14.6439    magn:   -2.6368    constr:    0.0000
     atom:   25    charge:   14.6441    magn:    2.6358    constr:    0.0000
     atom:   26    charge:   14.6439    magn:   -2.6357    constr:    0.0000
     atom:   27    charge:   14.6440    magn:    2.6359    constr:    0.0000
     atom:   28    charge:   14.6439    magn:   -2.6368    constr:    0.0000
     atom:   29    charge:   14.6442    magn:    2.6357    constr:    0.0000
     atom:   30    charge:   14.6439    magn:   -2.6360    constr:    0.0000
     atom:   31    charge:   14.6440    magn:    2.6359    constr:    0.0000
     atom:   32    charge:   14.6439    magn:   -2.6368    constr:    0.0000

     End of self-consistent calculation

     Number of k-points >= 100: set verbosity='high' to print the bands.

     the Fermi energy is    13.5143 ev

!    total energy              =  -10535.17702256 Ry

     total all-electron energy =    -81456.666080 Ry
     estimated scf accuracy    <       0.00000071 Ry
     smearing contrib. (-TS)   =      -0.00409621 Ry
     internal energy E=F+TS    =  -10535.17292635 Ry

     The total energy is F=E-TS. E is the sum of the following terms:
     one-electron contribution =   -4274.43237460 Ry
     hartree contribution      =    2364.80075641 Ry
     xc contribution           =    -883.52412091 Ry
     ewald contribution        =   -5092.73913683 Ry
     one-center paw contrib.   =   -2649.27805042 Ry

     total magnetization       =    -0.00 Bohr mag/cell
     absolute magnetization    =    86.79 Bohr mag/cell

     convergence has been achieved in  44 iterations

     negative rho (up, down):  3.442E-03 3.441E-03

     Forces acting on atoms (cartesian axes, Ry/au):

     atom    1 type  1   force =     0.00000000    0.00000000    0.00000000
     atom    2 type  2   force =     0.00015329    0.00003736    0.00000000
     atom    3 type  3   force =     0.00004247    0.00000000   -0.00018965
     atom    4 type  4   force =     0.00000000   -0.00009075   -0.00001825
     atom    5 type  1   force =     0.00000000    0.00000000    0.00000000
     atom    6 type  2   force =    -0.00008173    0.00003142    0.00000000
     atom    7 type  3   force =     0.00004247    0.00000000    0.00018965
     atom    8 type  4   force =     0.00000000   -0.00009075    0.00001825
     atom    9 type  1   force =     0.00000000    0.00000000    0.00000000
     atom   10 type  2   force =     0.00015329   -0.00003736    0.00000000
     atom   11 type  3   force =     0.00021956    0.00000000   -0.00004902
     atom   12 type  4   force =     0.00000000    0.00009075   -0.00001825
     atom   13 type  1   force =     0.00000000    0.00000000    0.00000000
     atom   14 type  2   force =    -0.00008173   -0.00003142    0.00000000
     atom   15 type  3   force =     0.00021956    0.00000000    0.00004902
     atom   16 type  4   force =     0.00000000    0.00009075    0.00001825
     atom   17 type  1   force =     0.00000000    0.00000000    0.00000000
     atom   18 type  2   force =    -0.00015329    0.00003736    0.00000000
     atom   19 type  3   force =    -0.00004247    0.00000000   -0.00018965
     atom   20 type  4   force =     0.00000000   -0.00017473    0.00018859
     atom   21 type  1   force =     0.00000000    0.00000000    0.00000000
     atom   22 type  2   force =     0.00008173    0.00003142    0.00000000
     atom   23 type  3   force =    -0.00004247    0.00000000    0.00018965
     atom   24 type  4   force =     0.00000000   -0.00017473   -0.00018859
     atom   25 type  1   force =     0.00000000    0.00000000    0.00000000
     atom   26 type  2   force =    -0.00015329   -0.00003736    0.00000000
     atom   27 type  3   force =    -0.00021956    0.00000000   -0.00004902
     atom   28 type  4   force =     0.00000000    0.00017473    0.00018859
     atom   29 type  1   force =     0.00000000    0.00000000    0.00000000
     atom   30 type  2   force =     0.00008173   -0.00003142    0.00000000
     atom   31 type  3   force =    -0.00021956    0.00000000    0.00004902
     atom   32 type  4   force =    -0.00000000    0.00017473   -0.00018859

     Total force =     0.000885     Total SCF correction =     0.002640
     SCF correction compared to forces is large: reduce conv_thr to get better values

     Computing stress (Cartesian axis) and pressure

     negative rho (up, down):  3.442E-03 3.441E-03
          total   stress  (Ry/bohr**3)                   (kbar)     P=     -293.54
  -0.00213999   0.00000000   0.00000000         -314.80        0.00        0.00
   0.00000000  -0.00170634   0.00000000            0.00     -251.01        0.00
   0.00000000   0.00000000  -0.00214008            0.00        0.00     -314.82

     Writing output data file /scratch/bxp912/fecohfcc112.save/

     General routines

     Parallel routines

   This run was terminated on:  23: 4:15   1Dec2021

   JOB DONE.