     Program PWSCF v.6.7MaX starts on  2Dec2021 at 10:19:34

     R & G space division:  proc/nbgrp/npool/nimage =      72
     Reading input from fcc_124.in
Warning: card &CELL ignored
Warning: card CELL_DYNAMICS = 'BFGS', ignored
Warning: card CELL_FACTOR = 2.0, ignored
Warning: card PRESS = 0.0, ignored
Warning: card / ignored

     Current dimensions of program PWSCF are:
     Max number of different atomic species (ntypx) = 10
     Max number of k-points (npk) =  40000
     Max angular momentum in pseudopotentials (lmaxx) =  3
     file Fe.pbe-spn-kjpaw_psl.1.0.0.UPF: wavefunction(s)  3P 3D renormalized
     file Fe.pbe-spn-kjpaw_psl.1.0.0.UPF: wavefunction(s)  3P 3D renormalized
     file Fe.pbe-spn-kjpaw_psl.1.0.0.UPF: wavefunction(s)  3P 3D renormalized
     file Fe.pbe-spn-kjpaw_psl.1.0.0.UPF: wavefunction(s)  3P 3D renormalized

     Subspace diagonalization in iterative solution of the eigenvalue problem:
     one sub-group per band group will be used

     Found symmetry operation: I + (  0.0000  0.0000 -0.5000)
     This is a supercell, fractional translations are disabled
     Message from routine setup:
     using ibrav=0 with symmetry is DISCOURAGED, use correct ibrav instead

     bravais-lattice index     =            0
     lattice parameter (alat)  =      12.9382  a.u.
     unit-cell volume          =    4354.3118 (a.u.)^3
     number of atoms/cell      =           32
     number of atomic types    =            4
     number of electrons       =       512.00
     number of Kohn-Sham states=          307
     kinetic-energy cutoff     =      71.0000  Ry
     charge density cutoff     =     430.0000  Ry
     scf convergence threshold =      1.0E-06
     mixing beta               =       0.1000
     number of iterations used =           10  plain     mixing
     Exchange-correlation= SLA  PW   PBX  PBC
                           (   1   4   3   4   0   0   0)

     celldm(1)=  12.938187  celldm(2)=   0.000000  celldm(3)=   0.000000
     celldm(4)=   0.000000  celldm(5)=   0.000000  celldm(6)=   0.000000

     crystal axes: (cart. coord. in units of alat)
               a(1) = (   1.240000   0.000000   0.000000 )
               a(2) = (   0.000000   1.307543   0.000000 )
               a(3) = (   0.000000   0.000000   1.240000 )

     reciprocal axes: (cart. coord. in units 2 pi/alat)
               b(1) = (  0.806452  0.000000  0.000000 )
               b(2) = (  0.000000  0.764793  0.000000 )
               b(3) = (  0.000000  0.000000  0.806452 )

     PseudoPot. # 1 for Fe read from file:
     /rds/homes/b/bxp912/pp/Fe.pbe-spn-kjpaw_psl.1.0.0.UPF
     MD5 check sum: 42f43b795421b414b0dc916aa790dbcb
     Pseudo is Projector augmented-wave + core cor, Zval = 16.0
     Generated using &quot;atomic&quot; code by A. Dal Corso  v.6.3
     Shape of augmentation charge: PSQ
     Using radial grid of 1191 points,  6 beta functions with:
                l(1) =   0
                l(2) =   0
                l(3) =   1
                l(4) =   1
                l(5) =   2
                l(6) =   2
     Q(r) pseudized with 0 coefficients

[...]

     PseudoPot. # 4 for Fe read from file:
     /rds/homes/b/bxp912/pp/Fe.pbe-spn-kjpaw_psl.1.0.0.UPF
     MD5 check sum: 42f43b795421b414b0dc916aa790dbcb
     Pseudo is Projector augmented-wave + core cor, Zval = 16.0
     Generated using &quot;atomic&quot; code by A. Dal Corso  v.6.3
     Shape of augmentation charge: PSQ
     Using radial grid of 1191 points,  6 beta functions with:
                l(1) =   0
                l(2) =   0
                l(3) =   1
                l(4) =   1
                l(5) =   2
                l(6) =   2
     Q(r) pseudized with 0 coefficients

     atomic species   valence    mass     pseudopotential
        Fe1           16.00    55.84500     Fe( 1.00)
        Fe2           16.00    55.84500     Fe( 1.00)
        Fe3           16.00    55.84500     Fe( 1.00)
        Fe4           16.00    55.84500     Fe( 1.00)

     Starting magnetic structure
     atomic species   magnetization
        Fe1          0.100
        Fe2         -0.100
        Fe3          0.100
        Fe4         -0.100

      8 Sym. Ops., with inversion, found

   Cartesian axes

     site n.     atom                  positions (alat units)
         1           Fe1 tau(   1) = (   0.0000000   0.0000000   0.0000000  )
         2           Fe2 tau(   2) = (   0.3100000   0.3268857   0.0000000  )
         3           Fe3 tau(   3) = (   0.3100000   0.0000000   0.3100000  )
         4           Fe4 tau(   4) = (   0.0000000   0.3268857   0.3100000  )
         5           Fe1 tau(   5) = (   0.0000000   0.0000000   0.6200000  )
         6           Fe2 tau(   6) = (   0.3100000   0.3268857   0.6200000  )
         7           Fe3 tau(   7) = (   0.3100000   0.0000000   0.9300000  )
         8           Fe4 tau(   8) = (   0.0000000   0.3268857   0.9300000  )
         9           Fe1 tau(   9) = (   0.0000000   0.6537714   0.0000000  )
        10           Fe2 tau(  10) = (   0.3100000   0.9806571   0.0000000  )
        11           Fe3 tau(  11) = (   0.3100000   0.6537714   0.3100000  )
        12           Fe4 tau(  12) = (   0.0000000   0.9806571   0.3100000  )
        13           Fe1 tau(  13) = (   0.0000000   0.6537714   0.6200000  )
        14           Fe2 tau(  14) = (   0.3100000   0.9806571   0.6200000  )
        15           Fe3 tau(  15) = (   0.3100000   0.6537714   0.9300000  )
        16           Fe4 tau(  16) = (   0.0000000   0.9806571   0.9300000  )
        17           Fe1 tau(  17) = (   0.6200000   0.0000000   0.0000000  )
        18           Fe2 tau(  18) = (   0.9300000   0.3268857   0.0000000  )
        19           Fe3 tau(  19) = (   0.9300000   0.0000000   0.3100000  )
        20           Fe4 tau(  20) = (   0.6200000   0.3268857   0.3100000  )
        21           Fe1 tau(  21) = (   0.6200000   0.0000000   0.6200000  )
        22           Fe2 tau(  22) = (   0.9300000   0.3268857   0.6200000  )
        23           Fe3 tau(  23) = (   0.9300000   0.0000000   0.9300000  )
        24           Fe4 tau(  24) = (   0.6200000   0.3268857   0.9300000  )
        25           Fe1 tau(  25) = (   0.6200000   0.6537714   0.0000000  )
        26           Fe2 tau(  26) = (   0.9300000   0.9806571   0.0000000  )
        27           Fe3 tau(  27) = (   0.9300000   0.6537714   0.3100000  )
        28           Fe4 tau(  28) = (   0.6200000   0.9806571   0.3100000  )
        29           Fe1 tau(  29) = (   0.6200000   0.6537714   0.6200000  )
        30           Fe2 tau(  30) = (   0.9300000   0.9806571   0.6200000  )
        31           Fe3 tau(  31) = (   0.9300000   0.6537714   0.9300000  )
        32           Fe4 tau(  32) = (   0.6200000   0.9806571   0.9300000  )

     number of k points=   125  Marzari-Vanderbilt smearing, width (Ry)=  0.0400

     Number of k-points >= 100: set verbosity='high' to print them.

     Check: negative core charge=   -0.000004
     Generating pointlists ...
     new r_m :   0.1808 (alat units)  2.3398 (a.u.) for type    1
     new r_m :   0.1808 (alat units)  2.3398 (a.u.) for type    2
     new r_m :   0.1808 (alat units)  2.3398 (a.u.) for type    3
     new r_m :   0.1808 (alat units)  2.3398 (a.u.) for type    4

     Initial potential from superposition of free atoms

     starting charge  511.98600, renormalised to  512.00000
     Starting wfcs are  320 randomized atomic wfcs
     Checking if some PAW data can be deallocated...

     Self-consistent Calculation

     iteration #  1     ecut=    71.00 Ry     beta= 0.10
     Davidson diagonalization with overlap
     ethr =  1.00E-02,  avg # of iterations =  3.9

     Threshold (ethr) on eigenvalues was too large:
     Diagonalizing with lowered threshold

     Davidson diagonalization with overlap
     ethr =  6.37E-04,  avg # of iterations =  5.6

     total energy              =  -10532.11973930 Ry
     estimated scf accuracy    <       2.23620237 Ry

     total magnetization       =     0.19 Bohr mag/cell
     absolute magnetization    =    81.60 Bohr mag/cell

[...]

     negative rho (up, down):  2.589E-03 2.572E-03

[...]

     iteration # 17     ecut=    71.00 Ry     beta= 0.10
     Davidson diagonalization with overlap
     c_bands:  1 eigenvalues not converged
     c_bands:  1 eigenvalues not converged
     ethr =  1.84E-06,  avg # of iterations =  4.6

[...]

     iteration # 30     ecut=    71.00 Ry     beta= 0.10
     Davidson diagonalization with overlap
     c_bands:  1 eigenvalues not converged
     ethr =  1.51E-08,  avg # of iterations =  2.3

[...]

     total energy              =  -10533.16790919 Ry
     estimated scf accuracy    <       0.00000142 Ry

[...]

     iteration # 45     ecut=    71.00 Ry     beta= 0.10
     Davidson diagonalization with overlap
     ethr =  2.78E-10,  avg # of iterations =  5.4

[...]

     Magnetic moment per site:
     atom:    1    charge:   14.8420    magn:    3.2272    constr:    0.0000
     atom:    2    charge:   14.8422    magn:   -3.2270    constr:    0.0000
     atom:    3    charge:   14.8422    magn:    3.2270    constr:    0.0000
     atom:    4    charge:   14.8421    magn:   -3.2271    constr:    0.0000
     atom:    5    charge:   14.8420    magn:    3.2272    constr:    0.0000
     atom:    6    charge:   14.8420    magn:   -3.2272    constr:    0.0000
     atom:    7    charge:   14.8422    magn:    3.2270    constr:    0.0000
     atom:    8    charge:   14.8421    magn:   -3.2271    constr:    0.0000
     atom:    9    charge:   14.8422    magn:    3.2271    constr:    0.0000
     atom:   10    charge:   14.8422    magn:   -3.2270    constr:    0.0000
     atom:   11    charge:   14.8422    magn:    3.2270    constr:    0.0000
     atom:   12    charge:   14.8421    magn:   -3.2271    constr:    0.0000
     atom:   13    charge:   14.8419    magn:    3.2273    constr:    0.0000
     atom:   14    charge:   14.8420    magn:   -3.2272    constr:    0.0000
     atom:   15    charge:   14.8422    magn:    3.2270    constr:    0.0000
     atom:   16    charge:   14.8421    magn:   -3.2271    constr:    0.0000
     atom:   17    charge:   14.8421    magn:    3.2272    constr:    0.0000
     atom:   18    charge:   14.8422    magn:   -3.2270    constr:    0.0000
     atom:   19    charge:   14.8422    magn:    3.2270    constr:    0.0000
     atom:   20    charge:   14.8421    magn:   -3.2271    constr:    0.0000
     atom:   21    charge:   14.8419    magn:    3.2273    constr:    0.0000
     atom:   22    charge:   14.8420    magn:   -3.2272    constr:    0.0000
     atom:   23    charge:   14.8422    magn:    3.2270    constr:    0.0000
     atom:   24    charge:   14.8421    magn:   -3.2271    constr:    0.0000
     atom:   25    charge:   14.8421    magn:    3.2271    constr:    0.0000
     atom:   26    charge:   14.8422    magn:   -3.2270    constr:    0.0000
     atom:   27    charge:   14.8422    magn:    3.2270    constr:    0.0000
     atom:   28    charge:   14.8421    magn:   -3.2271    constr:    0.0000
     atom:   29    charge:   14.8420    magn:    3.2272    constr:    0.0000
     atom:   30    charge:   14.8420    magn:   -3.2272    constr:    0.0000
     atom:   31    charge:   14.8422    magn:    3.2270    constr:    0.0000
     atom:   32    charge:   14.8421    magn:   -3.2271    constr:    0.0000

     End of self-consistent calculation

     Number of k-points >= 100: set verbosity='high' to print the bands.

     the Fermi energy is     9.2477 ev

!    total energy              =  -10533.16790925 Ry

     total all-electron energy =    -81454.656967 Ry
     estimated scf accuracy    <       0.00000069 Ry
     smearing contrib. (-TS)   =      -0.12414577 Ry
     internal energy E=F+TS    =  -10533.04376347 Ry

     The total energy is F=E-TS. E is the sum of the following terms:
     one-electron contribution =   -5093.54421099 Ry
     hartree contribution      =    2691.48355019 Ry
     xc contribution           =    -882.05732464 Ry
     ewald contribution        =   -4599.89341391 Ry
     one-center paw contrib.   =   -2649.03236412 Ry

     total magnetization       =     0.00 Bohr mag/cell
     absolute magnetization    =   105.88 Bohr mag/cell

     convergence has been achieved in  45 iterations

     negative rho (up, down):  5.294E-03 5.294E-03

     Forces acting on atoms (cartesian axes, Ry/au):

     atom    1 type  1   force =     0.00000000    0.00000000    0.00000000
     atom    2 type  2   force =     0.00003068    0.00001173    0.00000000
     atom    3 type  3   force =    -0.00000573    0.00000000   -0.00009326
     atom    4 type  4   force =     0.00000000   -0.00006274   -0.00001552
     atom    5 type  1   force =     0.00000000    0.00000000    0.00000000
     atom    6 type  2   force =    -0.00000330    0.00002790   -0.00000000
     atom    7 type  3   force =    -0.00000573    0.00000000    0.00009326
     atom    8 type  4   force =     0.00000000   -0.00006274    0.00001552
     atom    9 type  1   force =     0.00000000    0.00000000    0.00000000
     atom   10 type  2   force =     0.00003068   -0.00001173    0.00000000
     atom   11 type  3   force =     0.00012461    0.00000000    0.00000378
     atom   12 type  4   force =     0.00000000    0.00006274   -0.00001552
     atom   13 type  1   force =     0.00000000    0.00000000    0.00000000
     atom   14 type  2   force =    -0.00000330   -0.00002790   -0.00000000
     atom   15 type  3   force =     0.00012461    0.00000000   -0.00000378
     atom   16 type  4   force =     0.00000000    0.00006274    0.00001552
     atom   17 type  1   force =     0.00000000    0.00000000    0.00000000
     atom   18 type  2   force =    -0.00003068    0.00001173    0.00000000
     atom   19 type  3   force =     0.00000573    0.00000000   -0.00009326
     atom   20 type  4   force =     0.00000000   -0.00008788    0.00017205
     atom   21 type  1   force =     0.00000000    0.00000000    0.00000000
     atom   22 type  2   force =     0.00000330    0.00002790   -0.00000000
     atom   23 type  3   force =     0.00000573    0.00000000    0.00009326
     atom   24 type  4   force =     0.00000000   -0.00008788   -0.00017205
     atom   25 type  1   force =     0.00000000    0.00000000    0.00000000
     atom   26 type  2   force =    -0.00003068   -0.00001173    0.00000000
     atom   27 type  3   force =    -0.00012461    0.00000000    0.00000378
     atom   28 type  4   force =     0.00000000    0.00008788    0.00017205
     atom   29 type  1   force =     0.00000000    0.00000000    0.00000000
     atom   30 type  2   force =     0.00000330   -0.00002790   -0.00000000
     atom   31 type  3   force =    -0.00012461    0.00000000   -0.00000378
     atom   32 type  4   force =     0.00000000    0.00008788   -0.00017205

     Total force =     0.000520     Total SCF correction =     0.002019
     SCF correction compared to forces is large: reduce conv_thr to get better values

     Computing stress (Cartesian axis) and pressure

     negative rho (up, down):  5.294E-03 5.294E-03
          total   stress  (Ry/bohr**3)                   (kbar)     P=     -269.51
  -0.00189903   0.00000000   0.00000000         -279.36        0.00        0.00
   0.00000000  -0.00169822   0.00000000            0.00     -249.82        0.00
   0.00000000   0.00000000  -0.00189911            0.00        0.00     -279.37

     Writing output data file /scratch/bxp912/fecohfcc124.save/

     General routines

     Parallel routines

   This run was terminated on:  14: 6:37   2Dec2021

   JOB DONE.