     Program PWSCF v.6.7MaX starts on  2Dec2021 at 14: 6:43

     R & G space division:  proc/nbgrp/npool/nimage =      72
     Reading input from fcc_128.in
Warning: card &CELL ignored
Warning: card CELL_DYNAMICS = 'BFGS', ignored
Warning: card CELL_FACTOR = 2.0, ignored
Warning: card PRESS = 0.0, ignored
Warning: card / ignored

     Current dimensions of program PWSCF are:
     Max number of different atomic species (ntypx) = 10
     Max number of k-points (npk) =  40000
     Max angular momentum in pseudopotentials (lmaxx) =  3
     file Fe.pbe-spn-kjpaw_psl.1.0.0.UPF: wavefunction(s)  3P 3D renormalized
     file Fe.pbe-spn-kjpaw_psl.1.0.0.UPF: wavefunction(s)  3P 3D renormalized
     file Fe.pbe-spn-kjpaw_psl.1.0.0.UPF: wavefunction(s)  3P 3D renormalized
     file Fe.pbe-spn-kjpaw_psl.1.0.0.UPF: wavefunction(s)  3P 3D renormalized

     Subspace diagonalization in iterative solution of the eigenvalue problem:
     one sub-group per band group will be used

     Found symmetry operation: I + (  0.0000  0.0000 -0.5000)
     This is a supercell, fractional translations are disabled
     Message from routine setup:
     using ibrav=0 with symmetry is DISCOURAGED, use correct ibrav instead

     bravais-lattice index     =            0
     lattice parameter (alat)  =      12.9382  a.u.
     unit-cell volume          =    4789.4360 (a.u.)^3
     number of atoms/cell      =           32
     number of atomic types    =            4
     number of electrons       =       512.00
     number of Kohn-Sham states=          307
     kinetic-energy cutoff     =      71.0000  Ry
     charge density cutoff     =     430.0000  Ry
     scf convergence threshold =      1.0E-06
     mixing beta               =       0.1000
     number of iterations used =           10  plain     mixing
     Exchange-correlation= SLA  PW   PBX  PBC
                           (   1   4   3   4   0   0   0)

     celldm(1)=  12.938187  celldm(2)=   0.000000  celldm(3)=   0.000000
     celldm(4)=   0.000000  celldm(5)=   0.000000  celldm(6)=   0.000000

     crystal axes: (cart. coord. in units of alat)
               a(1) = (   1.280000   0.000000   0.000000 )
               a(2) = (   0.000000   1.349722   0.000000 )
               a(3) = (   0.000000   0.000000   1.280000 )

     reciprocal axes: (cart. coord. in units 2 pi/alat)
               b(1) = (  0.781250  0.000000  0.000000 )
               b(2) = (  0.000000  0.740894  0.000000 )
               b(3) = (  0.000000  0.000000  0.781250 )

     PseudoPot. # 1 for Fe read from file:
     /rds/homes/b/bxp912/pp/Fe.pbe-spn-kjpaw_psl.1.0.0.UPF
     MD5 check sum: 42f43b795421b414b0dc916aa790dbcb
     Pseudo is Projector augmented-wave + core cor, Zval = 16.0
     Generated using &quot;atomic&quot; code by A. Dal Corso  v.6.3
     Shape of augmentation charge: PSQ
     Using radial grid of 1191 points,  6 beta functions with:
                l(1) =   0
                l(2) =   0
                l(3) =   1
                l(4) =   1
                l(5) =   2
                l(6) =   2
     Q(r) pseudized with 0 coefficients

[...]

     PseudoPot. # 4 for Fe read from file:
     /rds/homes/b/bxp912/pp/Fe.pbe-spn-kjpaw_psl.1.0.0.UPF
     MD5 check sum: 42f43b795421b414b0dc916aa790dbcb
     Pseudo is Projector augmented-wave + core cor, Zval = 16.0
     Generated using &quot;atomic&quot; code by A. Dal Corso  v.6.3
     Shape of augmentation charge: PSQ
     Using radial grid of 1191 points,  6 beta functions with:
                l(1) =   0
                l(2) =   0
                l(3) =   1
                l(4) =   1
                l(5) =   2
                l(6) =   2
     Q(r) pseudized with 0 coefficients

     atomic species   valence    mass     pseudopotential
        Fe1           16.00    55.84500     Fe( 1.00)
        Fe2           16.00    55.84500     Fe( 1.00)
        Fe3           16.00    55.84500     Fe( 1.00)
        Fe4           16.00    55.84500     Fe( 1.00)

     Starting magnetic structure
     atomic species   magnetization
        Fe1          0.100
        Fe2         -0.100
        Fe3          0.100
        Fe4         -0.100

      8 Sym. Ops., with inversion, found

   Cartesian axes

     site n.     atom                  positions (alat units)
         1           Fe1 tau(   1) = (   0.0000000   0.0000000   0.0000000  )
         2           Fe2 tau(   2) = (   0.3200000   0.3374304   0.0000000  )
         3           Fe3 tau(   3) = (   0.3200000   0.0000000   0.3200000  )
         4           Fe4 tau(   4) = (   0.0000000   0.3374304   0.3200000  )
         5           Fe1 tau(   5) = (   0.0000000   0.0000000   0.6400000  )
         6           Fe2 tau(   6) = (   0.3200000   0.3374304   0.6400000  )
         7           Fe3 tau(   7) = (   0.3200000   0.0000000   0.9600000  )
         8           Fe4 tau(   8) = (   0.0000000   0.3374304   0.9600000  )
         9           Fe1 tau(   9) = (   0.0000000   0.6748608   0.0000000  )
        10           Fe2 tau(  10) = (   0.3200000   1.0122912   0.0000000  )
        11           Fe3 tau(  11) = (   0.3200000   0.6748608   0.3200000  )
        12           Fe4 tau(  12) = (   0.0000000   1.0122912   0.3200000  )
        13           Fe1 tau(  13) = (   0.0000000   0.6748608   0.6400000  )
        14           Fe2 tau(  14) = (   0.3200000   1.0122912   0.6400000  )
        15           Fe3 tau(  15) = (   0.3200000   0.6748608   0.9600000  )
        16           Fe4 tau(  16) = (   0.0000000   1.0122912   0.9600000  )
        17           Fe1 tau(  17) = (   0.6400000   0.0000000   0.0000000  )
        18           Fe2 tau(  18) = (   0.9600000   0.3374304   0.0000000  )
        19           Fe3 tau(  19) = (   0.9600000   0.0000000   0.3200000  )
        20           Fe4 tau(  20) = (   0.6400000   0.3374304   0.3200000  )
        21           Fe1 tau(  21) = (   0.6400000   0.0000000   0.6400000  )
        22           Fe2 tau(  22) = (   0.9600000   0.3374304   0.6400000  )
        23           Fe3 tau(  23) = (   0.9600000   0.0000000   0.9600000  )
        24           Fe4 tau(  24) = (   0.6400000   0.3374304   0.9600000  )
        25           Fe1 tau(  25) = (   0.6400000   0.6748608   0.0000000  )
        26           Fe2 tau(  26) = (   0.9600000   1.0122912   0.0000000  )
        27           Fe3 tau(  27) = (   0.9600000   0.6748608   0.3200000  )
        28           Fe4 tau(  28) = (   0.6400000   1.0122912   0.3200000  )
        29           Fe1 tau(  29) = (   0.6400000   0.6748608   0.6400000  )
        30           Fe2 tau(  30) = (   0.9600000   1.0122912   0.6400000  )
        31           Fe3 tau(  31) = (   0.9600000   0.6748608   0.9600000  )
        32           Fe4 tau(  32) = (   0.6400000   1.0122912   0.9600000  )

     number of k points=   125  Marzari-Vanderbilt smearing, width (Ry)=  0.0400

     Number of k-points >= 100: set verbosity='high' to print them.

     Check: negative core charge=   -0.000004
     Generating pointlists ...
     new r_m :   0.1867 (alat units)  2.4153 (a.u.) for type    1
     new r_m :   0.1867 (alat units)  2.4153 (a.u.) for type    2
     new r_m :   0.1867 (alat units)  2.4153 (a.u.) for type    3
     new r_m :   0.1867 (alat units)  2.4153 (a.u.) for type    4

     Initial potential from superposition of free atoms

     starting charge  511.98600, renormalised to  512.00000
     Starting wfcs are  320 randomized atomic wfcs
     Checking if some PAW data can be deallocated...

     Self-consistent Calculation

     iteration #  1     ecut=    71.00 Ry     beta= 0.10
     Davidson diagonalization with overlap
     ethr =  1.00E-02,  avg # of iterations =  4.1

     Threshold (ethr) on eigenvalues was too large:
     Diagonalizing with lowered threshold

     Davidson diagonalization with overlap
     ethr =  9.86E-04,  avg # of iterations =  3.4

     total energy              =  -10531.12074772 Ry
     estimated scf accuracy    <       3.96168012 Ry

     total magnetization       =     0.26 Bohr mag/cell
     absolute magnetization    =    85.04 Bohr mag/cell

[...]

     negative rho (up, down):  2.078E-03 1.999E-03

[...]

     iteration # 19     ecut=    71.00 Ry     beta= 0.10
     Davidson diagonalization with overlap
     c_bands:  1 eigenvalues not converged
     c_bands:  1 eigenvalues not converged
     c_bands:  1 eigenvalues not converged
     c_bands:  1 eigenvalues not converged
     ethr =  1.93E-06,  avg # of iterations =  6.3

[...]

     total energy              =  -10532.47271659 Ry
     estimated scf accuracy    <       0.00000234 Ry

[...]

     iteration # 50     ecut=    71.00 Ry     beta= 0.10
     Davidson diagonalization with overlap
     ethr =  2.53E-10,  avg # of iterations =  3.9

[...]

     Magnetic moment per site:
     atom:    1    charge:   14.9012    magn:    3.3237    constr:    0.0000
     atom:    2    charge:   14.9014    magn:   -3.3235    constr:    0.0000
     atom:    3    charge:   14.9012    magn:    3.3237    constr:    0.0000
     atom:    4    charge:   14.9014    magn:   -3.3235    constr:    0.0000
     atom:    5    charge:   14.9012    magn:    3.3237    constr:    0.0000
     atom:    6    charge:   14.9013    magn:   -3.3236    constr:    0.0000
     atom:    7    charge:   14.9012    magn:    3.3237    constr:    0.0000
     atom:    8    charge:   14.9014    magn:   -3.3235    constr:    0.0000
     atom:    9    charge:   14.9015    magn:    3.3234    constr:    0.0000
     atom:   10    charge:   14.9014    magn:   -3.3235    constr:    0.0000
     atom:   11    charge:   14.9013    magn:    3.3236    constr:    0.0000
     atom:   12    charge:   14.9014    magn:   -3.3235    constr:    0.0000
     atom:   13    charge:   14.9014    magn:    3.3236    constr:    0.0000
     atom:   14    charge:   14.9013    magn:   -3.3236    constr:    0.0000
     atom:   15    charge:   14.9013    magn:    3.3236    constr:    0.0000
     atom:   16    charge:   14.9014    magn:   -3.3235    constr:    0.0000
     atom:   17    charge:   14.9012    magn:    3.3237    constr:    0.0000
     atom:   18    charge:   14.9014    magn:   -3.3235    constr:    0.0000
     atom:   19    charge:   14.9012    magn:    3.3237    constr:    0.0000
     atom:   20    charge:   14.9010    magn:   -3.3238    constr:    0.0000
     atom:   21    charge:   14.9011    magn:    3.3238    constr:    0.0000
     atom:   22    charge:   14.9013    magn:   -3.3236    constr:    0.0000
     atom:   23    charge:   14.9012    magn:    3.3237    constr:    0.0000
     atom:   24    charge:   14.9010    magn:   -3.3238    constr:    0.0000
     atom:   25    charge:   14.9011    magn:    3.3238    constr:    0.0000
     atom:   26    charge:   14.9014    magn:   -3.3235    constr:    0.0000
     atom:   27    charge:   14.9013    magn:    3.3236    constr:    0.0000
     atom:   28    charge:   14.9010    magn:   -3.3238    constr:    0.0000
     atom:   29    charge:   14.9012    magn:    3.3237    constr:    0.0000
     atom:   30    charge:   14.9013    magn:   -3.3236    constr:    0.0000
     atom:   31    charge:   14.9013    magn:    3.3236    constr:    0.0000
     atom:   32    charge:   14.9010    magn:   -3.3238    constr:    0.0000

     End of self-consistent calculation

     Number of k-points >= 100: set verbosity='high' to print the bands.

     the Fermi energy is     8.1464 ev

!    total energy              =  -10532.47271656 Ry

     total all-electron energy =    -81453.961774 Ry
     estimated scf accuracy    <       0.00000090 Ry
     smearing contrib. (-TS)   =      -0.17874178 Ry
     internal energy E=F+TS    =  -10532.29397478 Ry

     The total energy is F=E-TS. E is the sum of the following terms:
     one-electron contribution =   -5337.37246985 Ry
     hartree contribution      =    2791.80597603 Ry
     xc contribution           =    -881.61485967 Ry
     ewald contribution        =   -4456.14674473 Ry
     one-center paw contrib.   =   -2648.96587656 Ry

     total magnetization       =     0.00 Bohr mag/cell
     absolute magnetization    =   108.91 Bohr mag/cell

     convergence has been achieved in  50 iterations

     negative rho (up, down):  4.905E-03 4.905E-03

     Forces acting on atoms (cartesian axes, Ry/au):

     atom    1 type  1   force =     0.00000000    0.00000000    0.00000000
     atom    2 type  2   force =     0.00010093   -0.00000795   -0.00000000
     atom    3 type  3   force =     0.00006333    0.00000000   -0.00006090
     atom    4 type  4   force =     0.00000000   -0.00007130    0.00000114
     atom    5 type  1   force =     0.00000000    0.00000000    0.00000000
     atom    6 type  2   force =     0.00003015   -0.00001179    0.00000000
     atom    7 type  3   force =     0.00006333    0.00000000    0.00006090
     atom    8 type  4   force =     0.00000000   -0.00007130   -0.00000114
     atom    9 type  1   force =     0.00000000    0.00000000    0.00000000
     atom   10 type  2   force =     0.00010093    0.00000795   -0.00000000
     atom   11 type  3   force =     0.00013659    0.00000000   -0.00001430
     atom   12 type  4   force =     0.00000000    0.00007130    0.00000114
     atom   13 type  1   force =     0.00000000    0.00000000    0.00000000
     atom   14 type  2   force =     0.00003015    0.00001179    0.00000000
     atom   15 type  3   force =     0.00013659    0.00000000    0.00001430
     atom   16 type  4   force =     0.00000000    0.00007130   -0.00000114
     atom   17 type  1   force =     0.00000000    0.00000000    0.00000000
     atom   18 type  2   force =    -0.00010093   -0.00000795   -0.00000000
     atom   19 type  3   force =    -0.00006333    0.00000000   -0.00006090
     atom   20 type  4   force =     0.00000000   -0.00006427    0.00008272
     atom   21 type  1   force =     0.00000000    0.00000000    0.00000000
     atom   22 type  2   force =    -0.00003015   -0.00001179    0.00000000
     atom   23 type  3   force =    -0.00006333    0.00000000    0.00006090
     atom   24 type  4   force =     0.00000000   -0.00006427   -0.00008272
     atom   25 type  1   force =     0.00000000    0.00000000    0.00000000
     atom   26 type  2   force =    -0.00010093    0.00000795   -0.00000000
     atom   27 type  3   force =    -0.00013659    0.00000000   -0.00001430
     atom   28 type  4   force =     0.00000000    0.00006427    0.00008272
     atom   29 type  1   force =     0.00000000    0.00000000    0.00000000
     atom   30 type  2   force =    -0.00003015    0.00001179   -0.00000000
     atom   31 type  3   force =    -0.00013659    0.00000000    0.00001430
     atom   32 type  4   force =     0.00000000    0.00006427   -0.00008272

     Total force =     0.000464     Total SCF correction =     0.003965
     SCF correction compared to forces is large: reduce conv_thr to get better values

     Computing stress (Cartesian axis) and pressure

     negative rho (up, down):  4.905E-03 4.905E-03
          total   stress  (Ry/bohr**3)                   (kbar)     P=     -250.43
  -0.00175557   0.00000000   0.00000000         -258.25        0.00        0.00
   0.00000000  -0.00159604   0.00000000            0.00     -234.79        0.00
   0.00000000   0.00000000  -0.00175563            0.00        0.00     -258.26

     Writing output data file /scratch/bxp912/fecohfcc128.save/

     General routines

     Parallel routines

   This run was terminated on:  18:28: 5   2Dec2021

   JOB DONE.