     Program PWSCF v.6.7MaX starts on  2Dec2021 at  2:34:48

     R & G space division:  proc/nbgrp/npool/nimage =      72
     Reading input from fcc_120.in
Warning: card &CELL ignored
Warning: card CELL_DYNAMICS = 'BFGS', ignored
Warning: card CELL_FACTOR = 2.0, ignored
Warning: card PRESS = 0.0, ignored
Warning: card / ignored

     Current dimensions of program PWSCF are:
     Max number of different atomic species (ntypx) = 10
     Max number of k-points (npk) =  40000
     Max angular momentum in pseudopotentials (lmaxx) =  3
     file Fe.pbe-spn-kjpaw_psl.1.0.0.UPF: wavefunction(s)  3P 3D renormalized
     file Fe.pbe-spn-kjpaw_psl.1.0.0.UPF: wavefunction(s)  3P 3D renormalized
     file Fe.pbe-spn-kjpaw_psl.1.0.0.UPF: wavefunction(s)  3P 3D renormalized
     file Fe.pbe-spn-kjpaw_psl.1.0.0.UPF: wavefunction(s)  3P 3D renormalized

     Subspace diagonalization in iterative solution of the eigenvalue problem:
     one sub-group per band group will be used

     Found symmetry operation: I + (  0.0000  0.0000 -0.5000)
     This is a supercell, fractional translations are disabled
     Message from routine setup:
     using ibrav=0 with symmetry is DISCOURAGED, use correct ibrav instead

     bravais-lattice index     =            0
     lattice parameter (alat)  =      12.9382  a.u.
     unit-cell volume          =    3946.3737 (a.u.)^3
     number of atoms/cell      =           32
     number of atomic types    =            4
     number of electrons       =       512.00
     number of Kohn-Sham states=          307
     kinetic-energy cutoff     =      71.0000  Ry
     charge density cutoff     =     430.0000  Ry
     scf convergence threshold =      1.0E-06
     mixing beta               =       0.1000
     number of iterations used =           10  plain     mixing
     Exchange-correlation= SLA  PW   PBX  PBC
                           (   1   4   3   4   0   0   0)

     celldm(1)=  12.938187  celldm(2)=   0.000000  celldm(3)=   0.000000
     celldm(4)=   0.000000  celldm(5)=   0.000000  celldm(6)=   0.000000

     crystal axes: (cart. coord. in units of alat)
               a(1) = (   1.200000   0.000000   0.000000 )
               a(2) = (   0.000000   1.265364   0.000000 )
               a(3) = (   0.000000   0.000000   1.200000 )

     reciprocal axes: (cart. coord. in units 2 pi/alat)
               b(1) = (  0.833333  0.000000  0.000000 )
               b(2) = (  0.000000  0.790286  0.000000 )
               b(3) = (  0.000000  0.000000  0.833333 )

     PseudoPot. # 1 for Fe read from file:
     /rds/homes/b/bxp912/pp/Fe.pbe-spn-kjpaw_psl.1.0.0.UPF
     MD5 check sum: 42f43b795421b414b0dc916aa790dbcb
     Pseudo is Projector augmented-wave + core cor, Zval = 16.0
     Generated using &quot;atomic&quot; code by A. Dal Corso  v.6.3
     Shape of augmentation charge: PSQ
     Using radial grid of 1191 points,  6 beta functions with:
                l(1) =   0
                l(2) =   0
                l(3) =   1
                l(4) =   1
                l(5) =   2
                l(6) =   2
     Q(r) pseudized with 0 coefficients

[...]

     PseudoPot. # 4 for Fe read from file:
     /rds/homes/b/bxp912/pp/Fe.pbe-spn-kjpaw_psl.1.0.0.UPF
     MD5 check sum: 42f43b795421b414b0dc916aa790dbcb
     Pseudo is Projector augmented-wave + core cor, Zval = 16.0
     Generated using &quot;atomic&quot; code by A. Dal Corso  v.6.3
     Shape of augmentation charge: PSQ
     Using radial grid of 1191 points,  6 beta functions with:
                l(1) =   0
                l(2) =   0
                l(3) =   1
                l(4) =   1
                l(5) =   2
                l(6) =   2
     Q(r) pseudized with 0 coefficients

     atomic species   valence    mass     pseudopotential
        Fe1           16.00    55.84500     Fe( 1.00)
        Fe2           16.00    55.84500     Fe( 1.00)
        Fe3           16.00    55.84500     Fe( 1.00)
        Fe4           16.00    55.84500     Fe( 1.00)

     Starting magnetic structure
     atomic species   magnetization
        Fe1          0.100
        Fe2         -0.100
        Fe3          0.100
        Fe4         -0.100

      8 Sym. Ops., with inversion, found

   Cartesian axes

     site n.     atom                  positions (alat units)
         1           Fe1 tau(   1) = (   0.0000000   0.0000000   0.0000000  )
         2           Fe2 tau(   2) = (   0.3000000   0.3163410   0.0000000  )
         3           Fe3 tau(   3) = (   0.3000000   0.0000000   0.3000000  )
         4           Fe4 tau(   4) = (   0.0000000   0.3163410   0.3000000  )
         5           Fe1 tau(   5) = (   0.0000000   0.0000000   0.6000000  )
         6           Fe2 tau(   6) = (   0.3000000   0.3163410   0.6000000  )
         7           Fe3 tau(   7) = (   0.3000000   0.0000000   0.9000000  )
         8           Fe4 tau(   8) = (   0.0000000   0.3163410   0.9000000  )
         9           Fe1 tau(   9) = (   0.0000000   0.6326820   0.0000000  )
        10           Fe2 tau(  10) = (   0.3000000   0.9490230   0.0000000  )
        11           Fe3 tau(  11) = (   0.3000000   0.6326820   0.3000000  )
        12           Fe4 tau(  12) = (   0.0000000   0.9490230   0.3000000  )
        13           Fe1 tau(  13) = (   0.0000000   0.6326820   0.6000000  )
        14           Fe2 tau(  14) = (   0.3000000   0.9490230   0.6000000  )
        15           Fe3 tau(  15) = (   0.3000000   0.6326820   0.9000000  )
        16           Fe4 tau(  16) = (   0.0000000   0.9490230   0.9000000  )
        17           Fe1 tau(  17) = (   0.6000000   0.0000000   0.0000000  )
        18           Fe2 tau(  18) = (   0.9000000   0.3163410   0.0000000  )
        19           Fe3 tau(  19) = (   0.9000000   0.0000000   0.3000000  )
        20           Fe4 tau(  20) = (   0.6000000   0.3163410   0.3000000  )
        21           Fe1 tau(  21) = (   0.6000000   0.0000000   0.6000000  )
        22           Fe2 tau(  22) = (   0.9000000   0.3163410   0.6000000  )
        23           Fe3 tau(  23) = (   0.9000000   0.0000000   0.9000000  )
        24           Fe4 tau(  24) = (   0.6000000   0.3163410   0.9000000  )
        25           Fe1 tau(  25) = (   0.6000000   0.6326820   0.0000000  )
        26           Fe2 tau(  26) = (   0.9000000   0.9490230   0.0000000  )
        27           Fe3 tau(  27) = (   0.9000000   0.6326820   0.3000000  )
        28           Fe4 tau(  28) = (   0.6000000   0.9490230   0.3000000  )
        29           Fe1 tau(  29) = (   0.6000000   0.6326820   0.6000000  )
        30           Fe2 tau(  30) = (   0.9000000   0.9490230   0.6000000  )
        31           Fe3 tau(  31) = (   0.9000000   0.6326820   0.9000000  )
        32           Fe4 tau(  32) = (   0.6000000   0.9490230   0.9000000  )

     number of k points=   125  Marzari-Vanderbilt smearing, width (Ry)=  0.0400

     Number of k-points >= 100: set verbosity='high' to print them.

     Check: negative core charge=   -0.000004
     Generating pointlists ...
     new r_m :   0.1750 (alat units)  2.2643 (a.u.) for type    1
     new r_m :   0.1750 (alat units)  2.2643 (a.u.) for type    2
     new r_m :   0.1750 (alat units)  2.2643 (a.u.) for type    3
     new r_m :   0.1750 (alat units)  2.2643 (a.u.) for type    4

     Initial potential from superposition of free atoms

     starting charge  511.98600, renormalised to  512.00000
     Starting wfcs are  320 randomized atomic wfcs
     Checking if some PAW data can be deallocated...

     Self-consistent Calculation

     iteration #  1     ecut=    71.00 Ry     beta= 0.10
     Davidson diagonalization with overlap
     ethr =  1.00E-02,  avg # of iterations =  3.6

     Threshold (ethr) on eigenvalues was too large:
     Diagonalizing with lowered threshold

     Davidson diagonalization with overlap
     ethr =  3.66E-04,  avg # of iterations =  6.2

     total energy              =  -10533.08966523 Ry
     estimated scf accuracy    <       1.11579433 Ry

     total magnetization       =     0.13 Bohr mag/cell
     absolute magnetization    =    76.74 Bohr mag/cell

[...]

     negative rho (up, down):  3.407E-03 3.371E-03

[...]

     iteration # 14     ecut=    71.00 Ry     beta= 0.10
     Davidson diagonalization with overlap
     c_bands:  1 eigenvalues not converged
     ethr =  3.39E-06,  avg # of iterations =  5.1

[...]

     iteration # 35     ecut=    71.00 Ry     beta= 0.10
     Davidson diagonalization with overlap
     c_bands:  1 eigenvalues not converged
     ethr =  2.23E-09,  avg # of iterations =  5.2

[...]

     total energy              =  -10533.86170790 Ry
     estimated scf accuracy    <       0.00000103 Ry

[...]

     iteration # 44     ecut=    71.00 Ry     beta= 0.10
     Davidson diagonalization with overlap
     ethr =  2.02E-10,  avg # of iterations =  3.2

[...]

     Magnetic moment per site:
     atom:    1    charge:   14.7801    magn:    3.0877    constr:    0.0000
     atom:    2    charge:   14.7806    magn:   -3.0872    constr:    0.0000
     atom:    3    charge:   14.7805    magn:    3.0874    constr:    0.0000
     atom:    4    charge:   14.7804    magn:   -3.0875    constr:    0.0000
     atom:    5    charge:   14.7804    magn:    3.0874    constr:    0.0000
     atom:    6    charge:   14.7804    magn:   -3.0874    constr:    0.0000
     atom:    7    charge:   14.7805    magn:    3.0874    constr:    0.0000
     atom:    8    charge:   14.7804    magn:   -3.0875    constr:    0.0000
     atom:    9    charge:   14.7805    magn:    3.0873    constr:    0.0000
     atom:   10    charge:   14.7806    magn:   -3.0872    constr:    0.0000
     atom:   11    charge:   14.7805    magn:    3.0873    constr:    0.0000
     atom:   12    charge:   14.7804    magn:   -3.0875    constr:    0.0000
     atom:   13    charge:   14.7805    magn:    3.0873    constr:    0.0000
     atom:   14    charge:   14.7804    magn:   -3.0874    constr:    0.0000
     atom:   15    charge:   14.7805    magn:    3.0873    constr:    0.0000
     atom:   16    charge:   14.7804    magn:   -3.0875    constr:    0.0000
     atom:   17    charge:   14.7804    magn:    3.0874    constr:    0.0000
     atom:   18    charge:   14.7806    magn:   -3.0872    constr:    0.0000
     atom:   19    charge:   14.7805    magn:    3.0874    constr:    0.0000
     atom:   20    charge:   14.7804    magn:   -3.0874    constr:    0.0000
     atom:   21    charge:   14.7803    magn:    3.0875    constr:    0.0000
     atom:   22    charge:   14.7804    magn:   -3.0874    constr:    0.0000
     atom:   23    charge:   14.7805    magn:    3.0874    constr:    0.0000
     atom:   24    charge:   14.7804    magn:   -3.0874    constr:    0.0000
     atom:   25    charge:   14.7803    magn:    3.0875    constr:    0.0000
     atom:   26    charge:   14.7806    magn:   -3.0872    constr:    0.0000
     atom:   27    charge:   14.7805    magn:    3.0873    constr:    0.0000
     atom:   28    charge:   14.7804    magn:   -3.0874    constr:    0.0000
     atom:   29    charge:   14.7803    magn:    3.0874    constr:    0.0000
     atom:   30    charge:   14.7804    magn:   -3.0874    constr:    0.0000
     atom:   31    charge:   14.7805    magn:    3.0873    constr:    0.0000
     atom:   32    charge:   14.7804    magn:   -3.0874    constr:    0.0000

     End of self-consistent calculation

     Number of k-points >= 100: set verbosity='high' to print the bands.

     the Fermi energy is    10.4925 ev

!    total energy              =  -10533.86170760 Ry

     total all-electron energy =    -81455.350766 Ry
     estimated scf accuracy    <       0.00000048 Ry
     smearing contrib. (-TS)   =      -0.07830988 Ry
     internal energy E=F+TS    =  -10533.78339773 Ry

     The total energy is F=E-TS. E is the sum of the following terms:
     one-electron contribution =   -4836.11991815 Ry
     hartree contribution      =    2587.19471704 Ry
     xc contribution           =    -882.53140139 Ry
     ewald contribution        =   -4753.22319437 Ry
     one-center paw contrib.   =   -2649.10360086 Ry

     total magnetization       =     0.00 Bohr mag/cell
     absolute magnetization    =   101.40 Bohr mag/cell

     convergence has been achieved in  44 iterations

     negative rho (up, down):  4.435E-03 4.435E-03

     Forces acting on atoms (cartesian axes, Ry/au):

     atom    1 type  1   force =     0.00000000    0.00000000    0.00000000
     atom    2 type  2   force =     0.00007369    0.00002742    0.00000000
     atom    3 type  3   force =    -0.00000322    0.00000000   -0.00014143
     atom    4 type  4   force =     0.00000000   -0.00009397   -0.00002076
     atom    5 type  1   force =     0.00000000    0.00000000    0.00000000
     atom    6 type  2   force =    -0.00002913    0.00003480    0.00000000
     atom    7 type  3   force =    -0.00000322    0.00000000    0.00014143
     atom    8 type  4   force =     0.00000000   -0.00009397    0.00002076
     atom    9 type  1   force =     0.00000000    0.00000000    0.00000000
     atom   10 type  2   force =     0.00007369   -0.00002742   -0.00000000
     atom   11 type  3   force =     0.00018831    0.00000000   -0.00000307
     atom   12 type  4   force =     0.00000000    0.00009397   -0.00002076
     atom   13 type  1   force =     0.00000000    0.00000000    0.00000000
     atom   14 type  2   force =    -0.00002913   -0.00003480    0.00000000
     atom   15 type  3   force =     0.00018831    0.00000000    0.00000307
     atom   16 type  4   force =     0.00000000    0.00009397    0.00002076
     atom   17 type  1   force =     0.00000000    0.00000000    0.00000000
     atom   18 type  2   force =    -0.00007369    0.00002742   -0.00000000
     atom   19 type  3   force =     0.00000322    0.00000000   -0.00014143
     atom   20 type  4   force =     0.00000000   -0.00012033    0.00023962
     atom   21 type  1   force =     0.00000000    0.00000000    0.00000000
     atom   22 type  2   force =     0.00002913    0.00003480    0.00000000
     atom   23 type  3   force =     0.00000322    0.00000000    0.00014143
     atom   24 type  4   force =     0.00000000   -0.00012033   -0.00023962
     atom   25 type  1   force =     0.00000000    0.00000000    0.00000000
     atom   26 type  2   force =    -0.00007369   -0.00002742    0.00000000
     atom   27 type  3   force =    -0.00018831   -0.00000000   -0.00000307
     atom   28 type  4   force =     0.00000000    0.00012033    0.00023962
     atom   29 type  1   force =     0.00000000    0.00000000    0.00000000
     atom   30 type  2   force =     0.00002913   -0.00003480    0.00000000
     atom   31 type  3   force =    -0.00018831    0.00000000    0.00000307
     atom   32 type  4   force =     0.00000000    0.00012033   -0.00023962

     Total force =     0.000761     Total SCF correction =     0.002574
     SCF correction compared to forces is large: reduce conv_thr to get better values

     Computing stress (Cartesian axis) and pressure

     negative rho (up, down):  4.435E-03 4.435E-03
          total   stress  (Ry/bohr**3)                   (kbar)     P=     -285.89
  -0.00203263   0.00000000   0.00000000         -299.01        0.00        0.00
   0.00000000  -0.00176500   0.00000000            0.00     -259.64        0.00
   0.00000000   0.00000000  -0.00203270            0.00        0.00     -299.02

     Writing output data file /scratch/bxp912/fecohfcc120.save/

     General routines

     Parallel routines

   This run was terminated on:   6:26:47   2Dec2021

   JOB DONE.