     Program PWSCF v.6.7MaX starts on 26Nov2021 at 21:51:53

     R & G space division:  proc/nbgrp/npool/nimage =      72
     Reading input from fcc_104.in
Warning: card &CELL ignored
Warning: card CELL_DYNAMICS = 'BFGS', ignored
Warning: card CELL_FACTOR = 2.0, ignored
Warning: card PRESS = 0.0, ignored
Warning: card / ignored

     Current dimensions of program PWSCF are:
     Max number of different atomic species (ntypx) = 10
     Max number of k-points (npk) =  40000
     Max angular momentum in pseudopotentials (lmaxx) =  3
     file Fe.pbe-spn-kjpaw_psl.1.0.0.UPF: wavefunction(s)  3P 3D renormalized
     file Fe.pbe-spn-kjpaw_psl.1.0.0.UPF: wavefunction(s)  3P 3D renormalized
     file Fe.pbe-spn-kjpaw_psl.1.0.0.UPF: wavefunction(s)  3P 3D renormalized
     file Fe.pbe-spn-kjpaw_psl.1.0.0.UPF: wavefunction(s)  3P 3D renormalized

     Subspace diagonalization in iterative solution of the eigenvalue problem:
     one sub-group per band group will be used

     Found symmetry operation: I + (  0.0000  0.0000 -0.5000)
     This is a supercell, fractional translations are disabled
     Message from routine setup:
     using ibrav=0 with symmetry is DISCOURAGED, use correct ibrav instead

     bravais-lattice index     =            0
     lattice parameter (alat)  =      12.9382  a.u.
     unit-cell volume          =    2568.9431 (a.u.)^3
     number of atoms/cell      =           32
     number of atomic types    =            4
     number of electrons       =       512.00
     number of Kohn-Sham states=          307
     kinetic-energy cutoff     =      71.0000  Ry
     charge density cutoff     =     430.0000  Ry
     scf convergence threshold =      1.0E-06
     mixing beta               =       0.1000
     number of iterations used =           10  plain     mixing
     Exchange-correlation= SLA  PW   PBX  PBC
                           (   1   4   3   4   0   0   0)

     celldm(1)=  12.938187  celldm(2)=   0.000000  celldm(3)=   0.000000
     celldm(4)=   0.000000  celldm(5)=   0.000000  celldm(6)=   0.000000

     crystal axes: (cart. coord. in units of alat)
               a(1) = (   1.040000   0.000000   0.000000 )
               a(2) = (   0.000000   1.096649   0.000000 )
               a(3) = (   0.000000   0.000000   1.040000 )

     reciprocal axes: (cart. coord. in units 2 pi/alat)
               b(1) = (  0.961538  0.000000  0.000000 )
               b(2) = (  0.000000  0.911869  0.000000 )
               b(3) = (  0.000000  0.000000  0.961538 )

     PseudoPot. # 1 for Fe read from file:
     /rds/homes/b/bxp912/pp/Fe.pbe-spn-kjpaw_psl.1.0.0.UPF
     MD5 check sum: 42f43b795421b414b0dc916aa790dbcb
     Pseudo is Projector augmented-wave + core cor, Zval = 16.0
     Generated using &quot;atomic&quot; code by A. Dal Corso  v.6.3
     Shape of augmentation charge: PSQ
     Using radial grid of 1191 points,  6 beta functions with:
                l(1) =   0
                l(2) =   0
                l(3) =   1
                l(4) =   1
                l(5) =   2
                l(6) =   2
     Q(r) pseudized with 0 coefficients

[...]

     PseudoPot. # 4 for Fe read from file:
     /rds/homes/b/bxp912/pp/Fe.pbe-spn-kjpaw_psl.1.0.0.UPF
     MD5 check sum: 42f43b795421b414b0dc916aa790dbcb
     Pseudo is Projector augmented-wave + core cor, Zval = 16.0
     Generated using &quot;atomic&quot; code by A. Dal Corso  v.6.3
     Shape of augmentation charge: PSQ
     Using radial grid of 1191 points,  6 beta functions with:
                l(1) =   0
                l(2) =   0
                l(3) =   1
                l(4) =   1
                l(5) =   2
                l(6) =   2
     Q(r) pseudized with 0 coefficients

     atomic species   valence    mass     pseudopotential
        Fe1           16.00    55.84500     Fe( 1.00)
        Fe2           16.00    55.84500     Fe( 1.00)
        Fe3           16.00    55.84500     Fe( 1.00)
        Fe4           16.00    55.84500     Fe( 1.00)

     Starting magnetic structure
     atomic species   magnetization
        Fe1          0.100
        Fe2         -0.100
        Fe3          0.100
        Fe4         -0.100

      8 Sym. Ops., with inversion, found

   Cartesian axes

     site n.     atom                  positions (alat units)
         1           Fe1 tau(   1) = (   0.0000000   0.0000000   0.0000000  )
         2           Fe2 tau(   2) = (   0.2600000   0.2741622   0.0000000  )
         3           Fe3 tau(   3) = (   0.2600000   0.0000000   0.2600000  )
         4           Fe4 tau(   4) = (   0.0000000   0.2741622   0.2600000  )
         5           Fe1 tau(   5) = (   0.0000000   0.0000000   0.5200000  )
         6           Fe2 tau(   6) = (   0.2600000   0.2741622   0.5200000  )
         7           Fe3 tau(   7) = (   0.2600000   0.0000000   0.7800000  )
         8           Fe4 tau(   8) = (   0.0000000   0.2741622   0.7800000  )
         9           Fe1 tau(   9) = (   0.0000000   0.5483244   0.0000000  )
        10           Fe2 tau(  10) = (   0.2600000   0.8224866   0.0000000  )
        11           Fe3 tau(  11) = (   0.2600000   0.5483244   0.2600000  )
        12           Fe4 tau(  12) = (   0.0000000   0.8224866   0.2600000  )
        13           Fe1 tau(  13) = (   0.0000000   0.5483244   0.5200000  )
        14           Fe2 tau(  14) = (   0.2600000   0.8224866   0.5200000  )
        15           Fe3 tau(  15) = (   0.2600000   0.5483244   0.7800000  )
        16           Fe4 tau(  16) = (   0.0000000   0.8224866   0.7800000  )
        17           Fe1 tau(  17) = (   0.5200000   0.0000000   0.0000000  )
        18           Fe2 tau(  18) = (   0.7800000   0.2741622   0.0000000  )
        19           Fe3 tau(  19) = (   0.7800000   0.0000000   0.2600000  )
        20           Fe4 tau(  20) = (   0.5200000   0.2741622   0.2600000  )
        21           Fe1 tau(  21) = (   0.5200000   0.0000000   0.5200000  )
        22           Fe2 tau(  22) = (   0.7800000   0.2741622   0.5200000  )
        23           Fe3 tau(  23) = (   0.7800000   0.0000000   0.7800000  )
        24           Fe4 tau(  24) = (   0.5200000   0.2741622   0.7800000  )
        25           Fe1 tau(  25) = (   0.5200000   0.5483244   0.0000000  )
        26           Fe2 tau(  26) = (   0.7800000   0.8224866   0.0000000  )
        27           Fe3 tau(  27) = (   0.7800000   0.5483244   0.2600000  )
        28           Fe4 tau(  28) = (   0.5200000   0.8224866   0.2600000  )
        29           Fe1 tau(  29) = (   0.5200000   0.5483244   0.5200000  )
        30           Fe2 tau(  30) = (   0.7800000   0.8224866   0.5200000  )
        31           Fe3 tau(  31) = (   0.7800000   0.5483244   0.7800000  )
        32           Fe4 tau(  32) = (   0.5200000   0.8224866   0.7800000  )

     number of k points=   125  Marzari-Vanderbilt smearing, width (Ry)=  0.0400

     Number of k-points >= 100: set verbosity='high' to print them.

     Check: negative core charge=   -0.000006
     Generating pointlists ...
     new r_m :   0.1517 (alat units)  1.9624 (a.u.) for type    1
     new r_m :   0.1517 (alat units)  1.9624 (a.u.) for type    2
     new r_m :   0.1517 (alat units)  1.9624 (a.u.) for type    3
     new r_m :   0.1517 (alat units)  1.9624 (a.u.) for type    4

     Initial potential from superposition of free atoms

     starting charge  511.98600, renormalised to  512.00000
     Starting wfcs are  320 randomized atomic wfcs
     Checking if some PAW data can be deallocated...

     Self-consistent Calculation

     iteration #  1     ecut=    71.00 Ry     beta= 0.10
     Davidson diagonalization with overlap
     ethr =  1.00E-02,  avg # of iterations =  3.0

     Threshold (ethr) on eigenvalues was too large:
     Diagonalizing with lowered threshold

     Davidson diagonalization with overlap
     ethr =  1.02E-04,  avg # of iterations =  7.9

     total energy              =  -10536.23944620 Ry
     estimated scf accuracy    <       1.44432879 Ry

     total magnetization       =     0.02 Bohr mag/cell
     absolute magnetization    =    50.64 Bohr mag/cell

[...]

     negative rho (up, down):  0.000E+00 2.151E-06

[...]

     total energy              =  -10536.13700826 Ry
     estimated scf accuracy    <       0.00000140 Ry

[...]

     iteration # 37     ecut=    71.00 Ry     beta= 0.10
     Davidson diagonalization with overlap
     ethr =  2.73E-10,  avg # of iterations =  2.4

[...]

     Magnetic moment per site:
     atom:    1    charge:   14.4818    magn:    1.9053    constr:    0.0000
     atom:    2    charge:   14.4818    magn:   -1.9036    constr:    0.0000
     atom:    3    charge:   14.4811    magn:    1.9059    constr:    0.0000
     atom:    4    charge:   14.4819    magn:   -1.9057    constr:    0.0000
     atom:    5    charge:   14.4816    magn:    1.9040    constr:    0.0000
     atom:    6    charge:   14.4818    magn:   -1.9046    constr:    0.0000
     atom:    7    charge:   14.4811    magn:    1.9059    constr:    0.0000
     atom:    8    charge:   14.4819    magn:   -1.9057    constr:    0.0000
     atom:    9    charge:   14.4816    magn:    1.9054    constr:    0.0000
     atom:   10    charge:   14.4818    magn:   -1.9036    constr:    0.0000
     atom:   11    charge:   14.4812    magn:    1.9055    constr:    0.0000
     atom:   12    charge:   14.4819    magn:   -1.9057    constr:    0.0000
     atom:   13    charge:   14.4818    magn:    1.9044    constr:    0.0000
     atom:   14    charge:   14.4818    magn:   -1.9046    constr:    0.0000
     atom:   15    charge:   14.4812    magn:    1.9055    constr:    0.0000
     atom:   16    charge:   14.4819    magn:   -1.9057    constr:    0.0000
     atom:   17    charge:   14.4815    magn:    1.9035    constr:    0.0000
     atom:   18    charge:   14.4818    magn:   -1.9036    constr:    0.0000
     atom:   19    charge:   14.4811    magn:    1.9059    constr:    0.0000
     atom:   20    charge:   14.4816    magn:   -1.9074    constr:    0.0000
     atom:   21    charge:   14.4817    magn:    1.9040    constr:    0.0000
     atom:   22    charge:   14.4818    magn:   -1.9046    constr:    0.0000
     atom:   23    charge:   14.4811    magn:    1.9059    constr:    0.0000
     atom:   24    charge:   14.4816    magn:   -1.9074    constr:    0.0000
     atom:   25    charge:   14.4815    magn:    1.9045    constr:    0.0000
     atom:   26    charge:   14.4818    magn:   -1.9036    constr:    0.0000
     atom:   27    charge:   14.4812    magn:    1.9055    constr:    0.0000
     atom:   28    charge:   14.4816    magn:   -1.9074    constr:    0.0000
     atom:   29    charge:   14.4814    magn:    1.9043    constr:    0.0000
     atom:   30    charge:   14.4818    magn:   -1.9046    constr:    0.0000
     atom:   31    charge:   14.4812    magn:    1.9055    constr:    0.0000
     atom:   32    charge:   14.4816    magn:   -1.9074    constr:    0.0000

     End of self-consistent calculation

     Number of k-points >= 100: set verbosity='high' to print the bands.

     the Fermi energy is    17.5583 ev

!    total energy              =  -10536.13700869 Ry

     total all-electron energy =    -81457.626067 Ry
     estimated scf accuracy    <       0.00000087 Ry
     smearing contrib. (-TS)   =      -0.00673179 Ry
     internal energy E=F+TS    =  -10536.13027690 Ry

     The total energy is F=E-TS. E is the sum of the following terms:
     one-electron contribution =   -3639.97662140 Ry
     hartree contribution      =    2122.96679570 Ry
     xc contribution           =    -885.13832375 Ry
     ewald contribution        =   -5484.48830120 Ry
     one-center paw contrib.   =   -2649.49382625 Ry

     total magnetization       =    -0.00 Bohr mag/cell
     absolute magnetization    =    63.05 Bohr mag/cell

     convergence has been achieved in  37 iterations

     negative rho (up, down):  0.000E+00 2.177E-04

     Forces acting on atoms (cartesian axes, Ry/au):

     atom    1 type  1   force =     0.00000000    0.00000000    0.00000000
     atom    2 type  2   force =     0.00003763   -0.00006272   -0.00000000
     atom    3 type  3   force =     0.00009123    0.00000000    0.00003348
     atom    4 type  4   force =     0.00000000   -0.00004768   -0.00001813
     atom    5 type  1   force =     0.00000000    0.00000000    0.00000000
     atom    6 type  2   force =     0.00007187   -0.00006541   -0.00000000
     atom    7 type  3   force =     0.00009123    0.00000000   -0.00003348
     atom    8 type  4   force =     0.00000000   -0.00004768    0.00001813
     atom    9 type  1   force =     0.00000000    0.00000000    0.00000000
     atom   10 type  2   force =     0.00003763    0.00006272    0.00000000
     atom   11 type  3   force =    -0.00002580    0.00000000   -0.00000491
     atom   12 type  4   force =     0.00000000    0.00004768   -0.00001813
     atom   13 type  1   force =     0.00000000    0.00000000    0.00000000
     atom   14 type  2   force =     0.00007187    0.00006541    0.00000000
     atom   15 type  3   force =    -0.00002580    0.00000000    0.00000491
     atom   16 type  4   force =     0.00000000    0.00004768    0.00001813
     atom   17 type  1   force =     0.00000000    0.00000000    0.00000000
     atom   18 type  2   force =    -0.00003763   -0.00006272    0.00000000
     atom   19 type  3   force =    -0.00009123    0.00000000    0.00003348
     atom   20 type  4   force =    -0.00000000    0.00001614   -0.00011525
     atom   21 type  1   force =     0.00000000    0.00000000    0.00000000
     atom   22 type  2   force =    -0.00007187   -0.00006541    0.00000000
     atom   23 type  3   force =    -0.00009123    0.00000000   -0.00003348
     atom   24 type  4   force =     0.00000000    0.00001614    0.00011525
     atom   25 type  1   force =     0.00000000    0.00000000    0.00000000
     atom   26 type  2   force =    -0.00003763    0.00006272   -0.00000000
     atom   27 type  3   force =     0.00002580    0.00000000   -0.00000491
     atom   28 type  4   force =     0.00000000   -0.00001614   -0.00011525
     atom   29 type  1   force =     0.00000000    0.00000000    0.00000000
     atom   30 type  2   force =    -0.00007187    0.00006541    0.00000000
     atom   31 type  3   force =     0.00002580    0.00000000    0.00000491
     atom   32 type  4   force =     0.00000000   -0.00001614    0.00011525

     Total force =     0.000405     Total SCF correction =     0.003791
     SCF correction compared to forces is large: reduce conv_thr to get better values

     Computing stress (Cartesian axis) and pressure

     negative rho (up, down):  0.000E+00 2.177E-04
          total   stress  (Ry/bohr**3)                   (kbar)     P=     -185.93
  -0.00137701   0.00000000   0.00000000         -202.57        0.00        0.00
   0.00000000  -0.00103751   0.00000000            0.00     -152.62        0.00
   0.00000000   0.00000000  -0.00137718            0.00        0.00     -202.59

     Writing output data file /scratch/bxp912/fecohfcc104.save/

     General routines

     Parallel routines

   This run was terminated on:   0:13:47  27Nov2021

   JOB DONE.