     Program PWSCF v.6.7MaX starts on 26Nov2021 at 15: 8:21

     R & G space division:  proc/nbgrp/npool/nimage =      72
     Reading input from fcc_092.in
Warning: card &CELL ignored
Warning: card CELL_DYNAMICS = 'BFGS', ignored
Warning: card CELL_FACTOR = 2.0, ignored
Warning: card PRESS = 0.0, ignored
Warning: card / ignored

     Current dimensions of program PWSCF are:
     Max number of different atomic species (ntypx) = 10
     Max number of k-points (npk) =  40000
     Max angular momentum in pseudopotentials (lmaxx) =  3
     file Fe.pbe-spn-kjpaw_psl.1.0.0.UPF: wavefunction(s)  3P 3D renormalized
     file Fe.pbe-spn-kjpaw_psl.1.0.0.UPF: wavefunction(s)  3P 3D renormalized
     file Fe.pbe-spn-kjpaw_psl.1.0.0.UPF: wavefunction(s)  3P 3D renormalized
     file Fe.pbe-spn-kjpaw_psl.1.0.0.UPF: wavefunction(s)  3P 3D renormalized

     Subspace diagonalization in iterative solution of the eigenvalue problem:
     one sub-group per band group will be used

     Found symmetry operation: I + (  0.0000  0.0000 -0.5000)
     This is a supercell, fractional translations are disabled
     Message from routine setup:
     using ibrav=0 with symmetry is DISCOURAGED, use correct ibrav instead

     bravais-lattice index     =            0
     lattice parameter (alat)  =      12.9382  a.u.
     unit-cell volume          =    1778.3529 (a.u.)^3
     number of atoms/cell      =           32
     number of atomic types    =            4
     number of electrons       =       512.00
     number of Kohn-Sham states=          307
     kinetic-energy cutoff     =      71.0000  Ry
     charge density cutoff     =     430.0000  Ry
     scf convergence threshold =      1.0E-06
     mixing beta               =       0.1000
     number of iterations used =           10  plain     mixing
     Exchange-correlation= SLA  PW   PBX  PBC
                           (   1   4   3   4   0   0   0)

     celldm(1)=  12.938187  celldm(2)=   0.000000  celldm(3)=   0.000000
     celldm(4)=   0.000000  celldm(5)=   0.000000  celldm(6)=   0.000000

     crystal axes: (cart. coord. in units of alat)
               a(1) = (   0.920000   0.000000   0.000000 )
               a(2) = (   0.000000   0.970112   0.000000 )
               a(3) = (   0.000000   0.000000   0.920000 )

     reciprocal axes: (cart. coord. in units 2 pi/alat)
               b(1) = (  1.086957  0.000000  0.000000 )
               b(2) = (  0.000000  1.030808  0.000000 )
               b(3) = (  0.000000  0.000000  1.086957 )

     PseudoPot. # 1 for Fe read from file:
     /rds/homes/b/bxp912/pp/Fe.pbe-spn-kjpaw_psl.1.0.0.UPF
     MD5 check sum: 42f43b795421b414b0dc916aa790dbcb
     Pseudo is Projector augmented-wave + core cor, Zval = 16.0
     Generated using &quot;atomic&quot; code by A. Dal Corso  v.6.3
     Shape of augmentation charge: PSQ
     Using radial grid of 1191 points,  6 beta functions with:
                l(1) =   0
                l(2) =   0
                l(3) =   1
                l(4) =   1
                l(5) =   2
                l(6) =   2
     Q(r) pseudized with 0 coefficients

[...]

     PseudoPot. # 4 for Fe read from file:
     /rds/homes/b/bxp912/pp/Fe.pbe-spn-kjpaw_psl.1.0.0.UPF
     MD5 check sum: 42f43b795421b414b0dc916aa790dbcb
     Pseudo is Projector augmented-wave + core cor, Zval = 16.0
     Generated using &quot;atomic&quot; code by A. Dal Corso  v.6.3
     Shape of augmentation charge: PSQ
     Using radial grid of 1191 points,  6 beta functions with:
                l(1) =   0
                l(2) =   0
                l(3) =   1
                l(4) =   1
                l(5) =   2
                l(6) =   2
     Q(r) pseudized with 0 coefficients

     atomic species   valence    mass     pseudopotential
        Fe1           16.00    55.84500     Fe( 1.00)
        Fe2           16.00    55.84500     Fe( 1.00)
        Fe3           16.00    55.84500     Fe( 1.00)
        Fe4           16.00    55.84500     Fe( 1.00)

     Starting magnetic structure
     atomic species   magnetization
        Fe1          0.100
        Fe2         -0.100
        Fe3          0.100
        Fe4         -0.100

      8 Sym. Ops., with inversion, found

   Cartesian axes

     site n.     atom                  positions (alat units)
         1           Fe1 tau(   1) = (   0.0000000   0.0000000   0.0000000  )
         2           Fe2 tau(   2) = (   0.2300000   0.2425281   0.0000000  )
         3           Fe3 tau(   3) = (   0.2300000   0.0000000   0.2300000  )
         4           Fe4 tau(   4) = (   0.0000000   0.2425281   0.2300000  )
         5           Fe1 tau(   5) = (   0.0000000   0.0000000   0.4600000  )
         6           Fe2 tau(   6) = (   0.2300000   0.2425281   0.4600000  )
         7           Fe3 tau(   7) = (   0.2300000   0.0000000   0.6900000  )
         8           Fe4 tau(   8) = (   0.0000000   0.2425281   0.6900000  )
         9           Fe1 tau(   9) = (   0.0000000   0.4850562   0.0000000  )
        10           Fe2 tau(  10) = (   0.2300000   0.7275843   0.0000000  )
        11           Fe3 tau(  11) = (   0.2300000   0.4850562   0.2300000  )
        12           Fe4 tau(  12) = (   0.0000000   0.7275843   0.2300000  )
        13           Fe1 tau(  13) = (   0.0000000   0.4850562   0.4600000  )
        14           Fe2 tau(  14) = (   0.2300000   0.7275843   0.4600000  )
        15           Fe3 tau(  15) = (   0.2300000   0.4850562   0.6900000  )
        16           Fe4 tau(  16) = (   0.0000000   0.7275843   0.6900000  )
        17           Fe1 tau(  17) = (   0.4600000   0.0000000   0.0000000  )
        18           Fe2 tau(  18) = (   0.6900000   0.2425281   0.0000000  )
        19           Fe3 tau(  19) = (   0.6900000   0.0000000   0.2300000  )
        20           Fe4 tau(  20) = (   0.4600000   0.2425281   0.2300000  )
        21           Fe1 tau(  21) = (   0.4600000   0.0000000   0.4600000  )
        22           Fe2 tau(  22) = (   0.6900000   0.2425281   0.4600000  )
        23           Fe3 tau(  23) = (   0.6900000   0.0000000   0.6900000  )
        24           Fe4 tau(  24) = (   0.4600000   0.2425281   0.6900000  )
        25           Fe1 tau(  25) = (   0.4600000   0.4850562   0.0000000  )
        26           Fe2 tau(  26) = (   0.6900000   0.7275843   0.0000000  )
        27           Fe3 tau(  27) = (   0.6900000   0.4850562   0.2300000  )
        28           Fe4 tau(  28) = (   0.4600000   0.7275843   0.2300000  )
        29           Fe1 tau(  29) = (   0.4600000   0.4850562   0.4600000  )
        30           Fe2 tau(  30) = (   0.6900000   0.7275843   0.4600000  )
        31           Fe3 tau(  31) = (   0.6900000   0.4850562   0.6900000  )
        32           Fe4 tau(  32) = (   0.4600000   0.7275843   0.6900000  )

     number of k points=   125  Marzari-Vanderbilt smearing, width (Ry)=  0.0400

     Number of k-points >= 100: set verbosity='high' to print them.

     Check: negative core charge=   -0.000007
     Generating pointlists ...
     new r_m :   0.1342 (alat units)  1.7360 (a.u.) for type    1
     new r_m :   0.1342 (alat units)  1.7360 (a.u.) for type    2
     new r_m :   0.1342 (alat units)  1.7360 (a.u.) for type    3
     new r_m :   0.1342 (alat units)  1.7360 (a.u.) for type    4

     Initial potential from superposition of free atoms

     starting charge  511.98600, renormalised to  512.00000
     Starting wfcs are  320 randomized atomic wfcs
     Checking if some PAW data can be deallocated...

     Self-consistent Calculation

     iteration #  1     ecut=    71.00 Ry     beta= 0.10
     Davidson diagonalization with overlap
     ethr =  1.00E-02,  avg # of iterations =  3.3

     Threshold (ethr) on eigenvalues was too large:
     Diagonalizing with lowered threshold

     Davidson diagonalization with overlap
     ethr =  3.63E-04,  avg # of iterations =  5.9

     total energy              =  -10535.01260002 Ry
     estimated scf accuracy    <       2.79692552 Ry

     total magnetization       =    -0.00 Bohr mag/cell
     absolute magnetization    =    34.02 Bohr mag/cell

[...]

     iteration # 13     ecut=    71.00 Ry     beta= 0.10
     Davidson diagonalization with overlap
     c_bands:  1 eigenvalues not converged
     c_bands:  1 eigenvalues not converged
     ethr =  2.76E-06,  avg # of iterations =  3.6

[...]

     total energy              =  -10534.72167448 Ry
     estimated scf accuracy    <       0.00000134 Ry

[...]

     iteration # 42     ecut=    71.00 Ry     beta= 0.10
     Davidson diagonalization with overlap
     ethr =  2.62E-10,  avg # of iterations =  4.4

     Magnetic moment per site:
     atom:    1    charge:   14.1921    magn:    0.0150    constr:    0.0000
     atom:    2    charge:   14.1917    magn:   -0.0140    constr:    0.0000
     atom:    3    charge:   14.1923    magn:    0.0140    constr:    0.0000
     atom:    4    charge:   14.1916    magn:   -0.0141    constr:    0.0000
     atom:    5    charge:   14.1922    magn:    0.0173    constr:    0.0000
     atom:    6    charge:   14.1916    magn:   -0.0150    constr:    0.0000
     atom:    7    charge:   14.1923    magn:    0.0140    constr:    0.0000
     atom:    8    charge:   14.1916    magn:   -0.0141    constr:    0.0000
     atom:    9    charge:   14.1923    magn:    0.0147    constr:    0.0000
     atom:   10    charge:   14.1917    magn:   -0.0140    constr:    0.0000
     atom:   11    charge:   14.1922    magn:    0.0134    constr:    0.0000
     atom:   12    charge:   14.1916    magn:   -0.0141    constr:    0.0000
     atom:   13    charge:   14.1922    magn:    0.0161    constr:    0.0000
     atom:   14    charge:   14.1916    magn:   -0.0150    constr:    0.0000
     atom:   15    charge:   14.1922    magn:    0.0134    constr:    0.0000
     atom:   16    charge:   14.1916    magn:   -0.0141    constr:    0.0000
     atom:   17    charge:   14.1924    magn:    0.0151    constr:    0.0000
     atom:   18    charge:   14.1917    magn:   -0.0140    constr:    0.0000
     atom:   19    charge:   14.1923    magn:    0.0140    constr:    0.0000
     atom:   20    charge:   14.1916    magn:   -0.0116    constr:    0.0000
     atom:   21    charge:   14.1922    magn:    0.0134    constr:    0.0000
     atom:   22    charge:   14.1916    magn:   -0.0150    constr:    0.0000
     atom:   23    charge:   14.1923    magn:    0.0140    constr:    0.0000
     atom:   24    charge:   14.1916    magn:   -0.0116    constr:    0.0000
     atom:   25    charge:   14.1923    magn:    0.0130    constr:    0.0000
     atom:   26    charge:   14.1917    magn:   -0.0140    constr:    0.0000
     atom:   27    charge:   14.1922    magn:    0.0134    constr:    0.0000
     atom:   28    charge:   14.1916    magn:   -0.0116    constr:    0.0000
     atom:   29    charge:   14.1921    magn:    0.0137    constr:    0.0000
     atom:   30    charge:   14.1916    magn:   -0.0150    constr:    0.0000
     atom:   31    charge:   14.1922    magn:    0.0134    constr:    0.0000
     atom:   32    charge:   14.1916    magn:   -0.0116    constr:    0.0000

     End of self-consistent calculation

     Number of k-points >= 100: set verbosity='high' to print the bands.

     the Fermi energy is    26.6789 ev

!    total energy              =  -10534.72167865 Ry

     total all-electron energy =    -81456.210737 Ry
     estimated scf accuracy    <       0.00000085 Ry
     smearing contrib. (-TS)   =       0.00451796 Ry
     internal energy E=F+TS    =  -10534.72619662 Ry

     The total energy is F=E-TS. E is the sum of the following terms:
     one-electron contribution =   -2526.24079354 Ry
     hartree contribution      =    1734.39440741 Ry
     xc contribution           =    -893.51548829 Ry
     ewald contribution        =   -6199.85634049 Ry
     one-center paw contrib.   =   -2649.50798170 Ry

     total magnetization       =     0.01 Bohr mag/cell
     absolute magnetization    =     0.47 Bohr mag/cell

     convergence has been achieved in  42 iterations

     Forces acting on atoms (cartesian axes, Ry/au):

     atom    1 type  1   force =     0.00000000    0.00000000    0.00000000
     atom    2 type  2   force =     0.00000095    0.00000559    0.00000000
     atom    3 type  3   force =    -0.00000528    0.00000000    0.00000005
     atom    4 type  4   force =     0.00000000    0.00002688   -0.00000596
     atom    5 type  1   force =     0.00000000    0.00000000    0.00000000
     atom    6 type  2   force =    -0.00000400    0.00000779    0.00000000
     atom    7 type  3   force =    -0.00000528    0.00000000   -0.00000005
     atom    8 type  4   force =     0.00000000    0.00002688    0.00000596
     atom    9 type  1   force =     0.00000000    0.00000000    0.00000000
     atom   10 type  2   force =     0.00000095   -0.00000559   -0.00000000
     atom   11 type  3   force =     0.00000040    0.00000000    0.00001280
     atom   12 type  4   force =     0.00000000   -0.00002688   -0.00000596
     atom   13 type  1   force =     0.00000000    0.00000000    0.00000000
     atom   14 type  2   force =    -0.00000400   -0.00000779   -0.00000000
     atom   15 type  3   force =     0.00000040    0.00000000   -0.00001280
     atom   16 type  4   force =     0.00000000   -0.00002688    0.00000596
     atom   17 type  1   force =     0.00000000    0.00000000    0.00000000
     atom   18 type  2   force =    -0.00000095    0.00000559   -0.00000000
     atom   19 type  3   force =     0.00000528    0.00000000    0.00000005
     atom   20 type  4   force =     0.00000000    0.00000435    0.00004848
     atom   21 type  1   force =     0.00000000    0.00000000    0.00000000
     atom   22 type  2   force =     0.00000400    0.00000779   -0.00000000
     atom   23 type  3   force =     0.00000528    0.00000000   -0.00000005
     atom   24 type  4   force =     0.00000000    0.00000435   -0.00004848
     atom   25 type  1   force =     0.00000000    0.00000000    0.00000000
     atom   26 type  2   force =    -0.00000095   -0.00000559    0.00000000
     atom   27 type  3   force =    -0.00000040    0.00000000    0.00001280
     atom   28 type  4   force =     0.00000000   -0.00000435    0.00004848
     atom   29 type  1   force =     0.00000000    0.00000000    0.00000000
     atom   30 type  2   force =     0.00000400   -0.00000779   -0.00000000
     atom   31 type  3   force =    -0.00000040    0.00000000   -0.00001280
     atom   32 type  4   force =     0.00000000   -0.00000435   -0.00004848

     Total force =     0.000117     Total SCF correction =     0.002219
     SCF correction compared to forces is large: reduce conv_thr to get better values

     Computing stress (Cartesian axis) and pressure

          total   stress  (Ry/bohr**3)                   (kbar)     P=     1000.11
   0.00728193   0.00000000   0.00000000         1071.21        0.00        0.00
   0.00000000   0.00583186   0.00000000            0.00      857.90        0.00
   0.00000000   0.00000000   0.00728201            0.00        0.00     1071.22

     Writing output data file /scratch/bxp912/fecohfcc092.save/

     General routines

     Parallel routines

   This run was terminated on:  17:34:59  26Nov2021

   JOB DONE.