     Program PWSCF v.6.7MaX starts on 22Apr2022 at  0: 6:55

     R & G space division:  proc/nbgrp/npool/nimage =      72
     Reading input from fepd_relax.in

     Current dimensions of program PWSCF are:
     Max number of different atomic species (ntypx) = 10
     Max number of k-points (npk) =  40000
     Max angular momentum in pseudopotentials (lmaxx) =  3
     file Fe.pbe-spn-kjpaw_psl.1.0.0.UPF: wavefunction(s)  3P 3D renormalized
     file Fe.pbe-spn-kjpaw_psl.1.0.0.UPF: wavefunction(s)  3P 3D renormalized
     file Pd.pbe-spn-kjpaw_psl.1.0.0.UPF: wavefunction(s)  4S 5S 4D renormalized

     Subspace diagonalization in iterative solution of the eigenvalue problem:
     one sub-group per band group will be used

     Message from routine setup:
     using ibrav=0 with symmetry is DISCOURAGED, use correct ibrav instead

     bravais-lattice index     =            0
     lattice parameter (alat)  =      13.0000  a.u.
     unit-cell volume          =    2313.3941 (a.u.)^3
     number of atoms/cell      =           32
     number of atomic types    =            3
     number of electrons       =       514.00
     number of Kohn-Sham states=          308
     kinetic-energy cutoff     =      71.0000  Ry
     charge density cutoff     =     430.0000  Ry
     scf convergence threshold =      1.0E-08
     mixing beta               =       0.3000
     number of iterations used =           10  local-TF  mixing
     energy convergence thresh.=      1.0E-04
     force convergence thresh. =      1.0E-03
     press convergence thresh. =      5.0E-01
     Exchange-correlation= SLA  PW   PBX  PBC
                           (   1   4   3   4   0   0   0)
     nstep                     =           40

     celldm(1)=  13.000000  celldm(2)=   0.000000  celldm(3)=   0.000000
     celldm(4)=   0.000000  celldm(5)=   0.000000  celldm(6)=   0.000000

     crystal axes: (cart. coord. in units of alat)
               a(1) = (   1.000000   0.000000   0.000000 )
               a(2) = (   0.000000   1.052979   0.000000 )
               a(3) = (   0.000000   0.000000   1.000000 )

     reciprocal axes: (cart. coord. in units 2 pi/alat)
               b(1) = (  1.000000  0.000000  0.000000 )
               b(2) = (  0.000000  0.949687  0.000000 )
               b(3) = (  0.000000  0.000000  1.000000 )

     PseudoPot. # 1 for Fe read from file:
     /rds/homes/b/bxp912/pp/Fe.pbe-spn-kjpaw_psl.1.0.0.UPF
     MD5 check sum: 42f43b795421b414b0dc916aa790dbcb
     Pseudo is Projector augmented-wave + core cor, Zval = 16.0
     Generated using &quot;atomic&quot; code by A. Dal Corso  v.6.3
     Shape of augmentation charge: PSQ
     Using radial grid of 1191 points,  6 beta functions with:
                l(1) =   0
                l(2) =   0
                l(3) =   1
                l(4) =   1
                l(5) =   2
                l(6) =   2
     Q(r) pseudized with 0 coefficients

[...]

     PseudoPot. # 3 for Pd read from file:
     /rds/homes/b/bxp912/pp/Pd.pbe-spn-kjpaw_psl.1.0.0.UPF
     MD5 check sum: 790f2ebce206edfd9790dcb9844eca51
     Pseudo is Projector augmented-wave + core cor, Zval = 18.0
     Generated using &quot;atomic&quot; code by A. Dal Corso  v.6.3
     Shape of augmentation charge: PSQ
     Using radial grid of 1235 points,  6 beta functions with:
                l(1) =   0
                l(2) =   0
                l(3) =   1
                l(4) =   1
                l(5) =   2
                l(6) =   2
     Q(r) pseudized with 0 coefficients

     atomic species   valence    mass     pseudopotential
        Fe1           16.00    55.84500     Fe( 1.00)
        Fe2           16.00    55.84500     Fe( 1.00)
        Pd            18.00   106.42000     Pd( 1.00)

     Starting magnetic structure
     atomic species   magnetization
        Fe1          0.100
        Fe2         -0.100
        Pd           0.010

     16 Sym. Ops., with inversion, found

   Cartesian axes

     site n.     atom                  positions (alat units)
         1           Pd  tau(   1) = (   0.0000000   0.0000000   0.0000000  )
         2           Fe2 tau(   2) = (   0.2524147   0.2659678   0.0000000  )
         3           Fe1 tau(   3) = (   0.2548950   0.0000000   0.2548950  )
         4           Fe2 tau(   4) = (   0.0000000   0.2659678   0.2524147  )
         5           Fe1 tau(   5) = (   0.0000000   0.0000000   0.5000000  )
         6           Fe2 tau(   6) = (   0.2503874   0.2637919   0.5000000  )
         7           Fe1 tau(   7) = (   0.2548950   0.0000000   0.7451050  )
         8           Fe2 tau(   8) = (   0.0000000   0.2659678   0.7475853  )
         9           Fe1 tau(   9) = (   0.0000000   0.5264893   0.0000000  )
        10           Fe2 tau(  10) = (   0.2524147   0.7870108   0.0000000  )
        11           Fe1 tau(  11) = (   0.2503991   0.5264893   0.2503991  )
        12           Fe2 tau(  12) = (   0.0000000   0.7870108   0.2524147  )
        13           Fe1 tau(  13) = (   0.0000000   0.5264893   0.5000000  )
        14           Fe2 tau(  14) = (   0.2503874   0.7891868   0.5000000  )
        15           Fe1 tau(  15) = (   0.2503991   0.5264893   0.7496009  )
        16           Fe2 tau(  16) = (   0.0000000   0.7870108   0.7475853  )
        17           Fe1 tau(  17) = (   0.5000000   0.0000000   0.0000000  )
        18           Fe2 tau(  18) = (   0.7475853   0.2659678   0.0000000  )
        19           Fe1 tau(  19) = (   0.7451050   0.0000000   0.2548950  )
        20           Fe2 tau(  20) = (   0.5000000   0.2637919   0.2503874  )
        21           Fe1 tau(  21) = (   0.5000000   0.0000000   0.5000000  )
        22           Fe2 tau(  22) = (   0.7496126   0.2637919   0.5000000  )
        23           Fe1 tau(  23) = (   0.7451050   0.0000000   0.7451050  )
        24           Fe2 tau(  24) = (   0.5000000   0.2637919   0.7496126  )
        25           Fe1 tau(  25) = (   0.5000000   0.5264893   0.0000000  )
        26           Fe2 tau(  26) = (   0.7475853   0.7870108   0.0000000  )
        27           Fe1 tau(  27) = (   0.7496009   0.5264893   0.2503991  )
        28           Fe2 tau(  28) = (   0.5000000   0.7891868   0.2503874  )
        29           Fe1 tau(  29) = (   0.5000000   0.5264893   0.5000000  )
        30           Fe2 tau(  30) = (   0.7496126   0.7891868   0.5000000  )
        31           Fe1 tau(  31) = (   0.7496009   0.5264893   0.7496009  )
        32           Fe2 tau(  32) = (   0.5000000   0.7891868   0.7496126  )

     number of k points=    75  Marzari-Vanderbilt smearing, width (Ry)=  0.0400
                       cart. coord. in units 2pi/alat
        k(    1) = (   0.0555556   0.0527604   0.0555556), wk =   0.0109739
        k(    2) = (   0.0555556   0.0527604   0.1666667), wk =   0.0219479
        k(    3) = (   0.0555556   0.0527604   0.2777778), wk =   0.0219479
        k(    4) = (   0.0555556   0.0527604   0.3888889), wk =   0.0219479
        k(    5) = (   0.0555556   0.0527604  -0.5000000), wk =   0.0109739
        k(    6) = (   0.0555556   0.1582811   0.0555556), wk =   0.0109739
        k(    7) = (   0.0555556   0.1582811   0.1666667), wk =   0.0219479
        k(    8) = (   0.0555556   0.1582811   0.2777778), wk =   0.0219479
        k(    9) = (   0.0555556   0.1582811   0.3888889), wk =   0.0219479
        k(   10) = (   0.0555556   0.1582811  -0.5000000), wk =   0.0109739
        k(   11) = (   0.0555556   0.2638019   0.0555556), wk =   0.0109739
        k(   12) = (   0.0555556   0.2638019   0.1666667), wk =   0.0219479
        k(   13) = (   0.0555556   0.2638019   0.2777778), wk =   0.0219479
        k(   14) = (   0.0555556   0.2638019   0.3888889), wk =   0.0219479
        k(   15) = (   0.0555556   0.2638019  -0.5000000), wk =   0.0109739
        k(   16) = (   0.0555556   0.3693227   0.0555556), wk =   0.0109739
        k(   17) = (   0.0555556   0.3693227   0.1666667), wk =   0.0219479
        k(   18) = (   0.0555556   0.3693227   0.2777778), wk =   0.0219479
        k(   19) = (   0.0555556   0.3693227   0.3888889), wk =   0.0219479
        k(   20) = (   0.0555556   0.3693227  -0.5000000), wk =   0.0109739
        k(   21) = (   0.0555556  -0.4748434   0.0555556), wk =   0.0054870
        k(   22) = (   0.0555556  -0.4748434   0.1666667), wk =   0.0109739
        k(   23) = (   0.0555556  -0.4748434   0.2777778), wk =   0.0109739
        k(   24) = (   0.0555556  -0.4748434   0.3888889), wk =   0.0109739
        k(   25) = (   0.0555556  -0.4748434  -0.5000000), wk =   0.0054870
        k(   26) = (   0.1666667   0.0527604   0.1666667), wk =   0.0109739
        k(   27) = (   0.1666667   0.0527604   0.2777778), wk =   0.0219479
        k(   28) = (   0.1666667   0.0527604   0.3888889), wk =   0.0219479
        k(   29) = (   0.1666667   0.0527604  -0.5000000), wk =   0.0109739
        k(   30) = (   0.1666667   0.1582811   0.1666667), wk =   0.0109739
        k(   31) = (   0.1666667   0.1582811   0.2777778), wk =   0.0219479
        k(   32) = (   0.1666667   0.1582811   0.3888889), wk =   0.0219479
        k(   33) = (   0.1666667   0.1582811  -0.5000000), wk =   0.0109739
        k(   34) = (   0.1666667   0.2638019   0.1666667), wk =   0.0109739
        k(   35) = (   0.1666667   0.2638019   0.2777778), wk =   0.0219479
        k(   36) = (   0.1666667   0.2638019   0.3888889), wk =   0.0219479
        k(   37) = (   0.1666667   0.2638019  -0.5000000), wk =   0.0109739
        k(   38) = (   0.1666667   0.3693227   0.1666667), wk =   0.0109739
        k(   39) = (   0.1666667   0.3693227   0.2777778), wk =   0.0219479
        k(   40) = (   0.1666667   0.3693227   0.3888889), wk =   0.0219479
        k(   41) = (   0.1666667   0.3693227  -0.5000000), wk =   0.0109739
        k(   42) = (   0.1666667  -0.4748434   0.1666667), wk =   0.0054870
        k(   43) = (   0.1666667  -0.4748434   0.2777778), wk =   0.0109739
        k(   44) = (   0.1666667  -0.4748434   0.3888889), wk =   0.0109739
        k(   45) = (   0.1666667  -0.4748434  -0.5000000), wk =   0.0054870
        k(   46) = (   0.2777778   0.0527604   0.2777778), wk =   0.0109739
        k(   47) = (   0.2777778   0.0527604   0.3888889), wk =   0.0219479
        k(   48) = (   0.2777778   0.0527604  -0.5000000), wk =   0.0109739
        k(   49) = (   0.2777778   0.1582811   0.2777778), wk =   0.0109739
        k(   50) = (   0.2777778   0.1582811   0.3888889), wk =   0.0219479
        k(   51) = (   0.2777778   0.1582811  -0.5000000), wk =   0.0109739
        k(   52) = (   0.2777778   0.2638019   0.2777778), wk =   0.0109739
        k(   53) = (   0.2777778   0.2638019   0.3888889), wk =   0.0219479
        k(   54) = (   0.2777778   0.2638019  -0.5000000), wk =   0.0109739
        k(   55) = (   0.2777778   0.3693227   0.2777778), wk =   0.0109739
        k(   56) = (   0.2777778   0.3693227   0.3888889), wk =   0.0219479
        k(   57) = (   0.2777778   0.3693227  -0.5000000), wk =   0.0109739
        k(   58) = (   0.2777778  -0.4748434   0.2777778), wk =   0.0054870
        k(   59) = (   0.2777778  -0.4748434   0.3888889), wk =   0.0109739
[...]

     PseudoPot. # 3 for Pd read from file:
     /rds/homes/b/bxp912/pp/Pd.pbe-spn-kjpaw_psl.1.0.0.UPF
     MD5 check sum: 790f2ebce206edfd9790dcb9844eca51
     Pseudo is Projector augmented-wave + core cor, Zval = 18.0
     Generated using &quot;atomic&quot; code by A. Dal Corso  v.6.3
     Shape of augmentation charge: PSQ
     Using radial grid of 1235 points,  6 beta functions with:
                l(1) =   0
                l(2) =   0
                l(3) =   1
                l(4) =   1
                l(5) =   2
                l(6) =   2
     Q(r) pseudized with 0 coefficients

     atomic species   valence    mass     pseudopotential
        Fe1           16.00    55.84500     Fe( 1.00)
        Fe2           16.00    55.84500     Fe( 1.00)
        Pd            18.00   106.42000     Pd( 1.00)

     Starting magnetic structure
     atomic species   magnetization
        Fe1          0.105
        Fe2         -0.109
        Pd          -0.005

     16 Sym. Ops., with inversion, found

   Cartesian axes

     site n.     atom                  positions (alat units)
         1           Pd  tau(   1) = (   0.0000000   0.0000000   0.0000000  )
         2           Fe2 tau(   2) = (   0.2555539   0.2693071  -0.0000000  )
         3           Fe1 tau(   3) = (   0.2573743  -0.0000000   0.2573743  )
         4           Fe2 tau(   4) = (   0.0000000   0.2693071   0.2555539  )
         5           Fe1 tau(   5) = (   0.0000000   0.0000000   0.5006721  )
         6           Fe2 tau(   6) = (   0.2508237   0.2648177   0.5006721  )
         7           Fe1 tau(   7) = (   0.2573743  -0.0000000   0.7439699  )
         8           Fe2 tau(   8) = (   0.0000000   0.2693071   0.7457903  )
         9           Fe1 tau(   9) = (   0.0000000   0.5276477   0.0000000  )
        10           Fe2 tau(  10) = (   0.2555539   0.7859883   0.0000000  )
        11           Fe1 tau(  11) = (   0.2511858   0.5276477   0.2511858  )
        12           Fe2 tau(  12) = (   0.0000000   0.7859883   0.2555539  )
        13           Fe1 tau(  13) = (   0.0000000   0.5276477   0.5006721  )
        14           Fe2 tau(  14) = (   0.2508237   0.7904777   0.5006721  )
        15           Fe1 tau(  15) = (   0.2511858   0.5276477   0.7501583  )
        16           Fe2 tau(  16) = (  -0.0000000   0.7859883   0.7457903  )
        17           Fe1 tau(  17) = (   0.5006721   0.0000000   0.0000000  )
        18           Fe2 tau(  18) = (   0.7457903   0.2693071   0.0000000  )
        19           Fe1 tau(  19) = (   0.7439699  -0.0000000   0.2573743  )
        20           Fe2 tau(  20) = (   0.5006721   0.2648177   0.2508237  )
        21           Fe1 tau(  21) = (   0.5006721   0.0000000   0.5006721  )
        22           Fe2 tau(  22) = (   0.7505204   0.2648177   0.5006721  )
        23           Fe1 tau(  23) = (   0.7439699  -0.0000000   0.7439699  )
        24           Fe2 tau(  24) = (   0.5006721   0.2648177   0.7505204  )
        25           Fe1 tau(  25) = (   0.5006721   0.5276477   0.0000000  )
        26           Fe2 tau(  26) = (   0.7457903   0.7859883  -0.0000000  )
        27           Fe1 tau(  27) = (   0.7501583   0.5276477   0.2511858  )
        28           Fe2 tau(  28) = (   0.5006721   0.7904777   0.2508237  )
        29           Fe1 tau(  29) = (   0.5006721   0.5276477   0.5006721  )
        30           Fe2 tau(  30) = (   0.7505204   0.7904777   0.5006721  )
        31           Fe1 tau(  31) = (   0.7501583   0.5276477   0.7501583  )
        32           Fe2 tau(  32) = (   0.5006721   0.7904777   0.7505204  )

     number of k points=    75  Marzari-Vanderbilt smearing, width (Ry)=  0.0400
                       cart. coord. in units 2pi/alat
        k(    1) = (   0.0554810   0.0526446   0.0554810), wk =   0.0109739
        k(    2) = (   0.0554810   0.0526446   0.1664429), wk =   0.0219479
        k(    3) = (   0.0554810   0.0526446   0.2774049), wk =   0.0219479
        k(    4) = (   0.0554810   0.0526446   0.3883669), wk =   0.0219479
        k(    5) = (   0.0554810   0.0526446  -0.4993288), wk =   0.0109739
        k(    6) = (   0.0554810   0.1579337   0.0554810), wk =   0.0109739
        k(    7) = (   0.0554810   0.1579337   0.1664429), wk =   0.0219479
        k(    8) = (   0.0554810   0.1579337   0.2774049), wk =   0.0219479
        k(    9) = (   0.0554810   0.1579337   0.3883669), wk =   0.0219479
        k(   10) = (   0.0554810   0.1579337  -0.4993288), wk =   0.0109739
        k(   11) = (   0.0554810   0.2632228   0.0554810), wk =   0.0109739
        k(   12) = (   0.0554810   0.2632228   0.1664429), wk =   0.0219479
        k(   13) = (   0.0554810   0.2632228   0.2774049), wk =   0.0219479
        k(   14) = (   0.0554810   0.2632228   0.3883669), wk =   0.0219479
        k(   15) = (   0.0554810   0.2632228  -0.4993288), wk =   0.0109739
        k(   16) = (   0.0554810   0.3685119   0.0554810), wk =   0.0109739
        k(   17) = (   0.0554810   0.3685119   0.1664429), wk =   0.0219479
        k(   18) = (   0.0554810   0.3685119   0.2774049), wk =   0.0219479
        k(   19) = (   0.0554810   0.3685119   0.3883669), wk =   0.0219479
        k(   20) = (   0.0554810   0.3685119  -0.4993288), wk =   0.0109739
        k(   21) = (   0.0554810  -0.4738010   0.0554810), wk =   0.0054870
        k(   22) = (   0.0554810  -0.4738010   0.1664429), wk =   0.0109739
        k(   23) = (   0.0554810  -0.4738010   0.2774049), wk =   0.0109739
        k(   24) = (   0.0554810  -0.4738010   0.3883669), wk =   0.0109739
        k(   25) = (   0.0554810  -0.4738010  -0.4993288), wk =   0.0054870
        k(   26) = (   0.1664429   0.0526446   0.1664429), wk =   0.0109739
        k(   27) = (   0.1664429   0.0526446   0.2774049), wk =   0.0219479
        k(   28) = (   0.1664429   0.0526446   0.3883669), wk =   0.0219479
        k(   29) = (   0.1664429   0.0526446  -0.4993288), wk =   0.0109739
        k(   30) = (   0.1664429   0.1579337   0.1664429), wk =   0.0109739
        k(   31) = (   0.1664429   0.1579337   0.2774049), wk =   0.0219479
        k(   32) = (   0.1664429   0.1579337   0.3883669), wk =   0.0219479
        k(   33) = (   0.1664429   0.1579337  -0.4993288), wk =   0.0109739
        k(   34) = (   0.1664429   0.2632228   0.1664429), wk =   0.0109739
        k(   35) = (   0.1664429   0.2632228   0.2774049), wk =   0.0219479
        k(   36) = (   0.1664429   0.2632228   0.3883669), wk =   0.0219479
        k(   37) = (   0.1664429   0.2632228  -0.4993288), wk =   0.0109739
        k(   38) = (   0.1664429   0.3685119   0.1664429), wk =   0.0109739
        k(   39) = (   0.1664429   0.3685119   0.2774049), wk =   0.0219479
        k(   40) = (   0.1664429   0.3685119   0.3883669), wk =   0.0219479
        k(   41) = (   0.1664429   0.3685119  -0.4993288), wk =   0.0109739
        k(   42) = (   0.1664429  -0.4738010   0.1664429), wk =   0.0054870
        k(   43) = (   0.1664429  -0.4738010   0.2774049), wk =   0.0109739
        k(   44) = (   0.1664429  -0.4738010   0.3883669), wk =   0.0109739
        k(   45) = (   0.1664429  -0.4738010  -0.4993288), wk =   0.0054870
        k(   46) = (   0.2774049   0.0526446   0.2774049), wk =   0.0109739
        k(   47) = (   0.2774049   0.0526446   0.3883669), wk =   0.0219479
        k(   48) = (   0.2774049   0.0526446  -0.4993288), wk =   0.0109739
        k(   49) = (   0.2774049   0.1579337   0.2774049), wk =   0.0109739
        k(   50) = (   0.2774049   0.1579337   0.3883669), wk =   0.0219479
        k(   51) = (   0.2774049   0.1579337  -0.4993288), wk =   0.0109739
        k(   52) = (   0.2774049   0.2632228   0.2774049), wk =   0.0109739
        k(   53) = (   0.2774049   0.2632228   0.3883669), wk =   0.0219479
        k(   54) = (   0.2774049   0.2632228  -0.4993288), wk =   0.0109739
        k(   55) = (   0.2774049   0.3685119   0.2774049), wk =   0.0109739
        k(   56) = (   0.2774049   0.3685119   0.3883669), wk =   0.0219479
        k(   57) = (   0.2774049   0.3685119  -0.4993288), wk =   0.0109739
        k(   58) = (   0.2774049  -0.4738010   0.2774049), wk =   0.0054870
        k(   59) = (   0.2774049  -0.4738010   0.3883669), wk =   0.0109739
        k(   60) = (   0.2774049  -0.4738010  -0.4993288), wk =   0.0054870
        k(   61) = (   0.3883669   0.0526446   0.3883669), wk =   0.0109739
        k(   62) = (   0.3883669   0.0526446  -0.4993288), wk =   0.0109739
        k(   63) = (   0.3883669   0.1579337   0.3883669), wk =   0.0109739
        k(   64) = (   0.3883669   0.1579337  -0.4993288), wk =   0.0109739
        k(   65) = (   0.3883669   0.2632228   0.3883669), wk =   0.0109739
        k(   66) = (   0.3883669   0.2632228  -0.4993288), wk =   0.0109739
        k(   67) = (   0.3883669   0.3685119   0.3883669), wk =   0.0109739
        k(   68) = (   0.3883669   0.3685119  -0.4993288), wk =   0.0109739
        k(   69) = (   0.3883669  -0.4738010   0.3883669), wk =   0.0054870
        k(   70) = (   0.3883669  -0.4738010  -0.4993288), wk =   0.0054870
        k(   71) = (  -0.4993288   0.0526446  -0.4993288), wk =   0.0027435
        k(   72) = (  -0.4993288   0.1579337  -0.4993288), wk =   0.0027435
        k(   73) = (  -0.4993288   0.2632228  -0.4993288), wk =   0.0027435
        k(   74) = (  -0.4993288   0.3685119  -0.4993288), wk =   0.0027435
        k(   75) = (  -0.4993288  -0.4738010  -0.4993288), wk =   0.0013717

     Check: negative core charge=   -0.000006
     Generating pointlists ...

     Initial potential from superposition of free atoms

     starting charge  513.98605, renormalised to  514.00000
     Starting wfcs are  320 randomized atomic wfcs
     Checking if some PAW data can be deallocated...

     Self-consistent Calculation

[...]

     iteration #  7     ecut=    71.00 Ry     beta= 0.30
     Davidson diagonalization with overlap
     c_bands:  1 eigenvalues not converged
     ethr =  1.82E-06,  avg # of iterations =  5.6

[...]

     total energy              =  -10718.97608979 Ry
     estimated scf accuracy    <          1.7E-10 Ry

[...]

     iteration # 52     ecut=    71.00 Ry     beta= 0.30
     Davidson diagonalization with overlap
     ethr =  1.00E-13,  avg # of iterations =  2.1

     Magnetic moment per site:
     atom:    1    charge:   15.8074    magn:   -0.0798    constr:    0.0000
     atom:    2    charge:   14.3663    magn:   -1.6855    constr:    0.0000
     atom:    3    charge:   14.2691    magn:    1.7609    constr:    0.0000
     atom:    4    charge:   14.3663    magn:   -1.6855    constr:    0.0000
     atom:    5    charge:   14.2835    magn:    1.3031    constr:    0.0000
     atom:    6    charge:   14.3922    magn:   -1.4591    constr:    0.0000
     atom:    7    charge:   14.2691    magn:    1.7609    constr:    0.0000
     atom:    8    charge:   14.3663    magn:   -1.6855    constr:    0.0000
     atom:    9    charge:   14.2863    magn:    1.1806    constr:    0.0000
     atom:   10    charge:   14.3663    magn:   -1.6855    constr:    0.0000
     atom:   11    charge:   14.2872    magn:    1.5702    constr:    0.0000
     atom:   12    charge:   14.3663    magn:   -1.6855    constr:    0.0000
     atom:   13    charge:   14.3084    magn:    1.2086    constr:    0.0000
     atom:   14    charge:   14.3922    magn:   -1.4591    constr:    0.0000
     atom:   15    charge:   14.2872    magn:    1.5702    constr:    0.0000
     atom:   16    charge:   14.3663    magn:   -1.6855    constr:    0.0000
     atom:   17    charge:   14.2835    magn:    1.3031    constr:    0.0000
     atom:   18    charge:   14.3663    magn:   -1.6855    constr:    0.0000
     atom:   19    charge:   14.2691    magn:    1.7609    constr:    0.0000
     atom:   20    charge:   14.3922    magn:   -1.4591    constr:    0.0000
     atom:   21    charge:   14.3205    magn:    1.4122    constr:    0.0000
     atom:   22    charge:   14.3922    magn:   -1.4591    constr:    0.0000
     atom:   23    charge:   14.2691    magn:    1.7609    constr:    0.0000
     atom:   24    charge:   14.3922    magn:   -1.4591    constr:    0.0000
     atom:   25    charge:   14.3084    magn:    1.2086    constr:    0.0000
     atom:   26    charge:   14.3663    magn:   -1.6855    constr:    0.0000
     atom:   27    charge:   14.2872    magn:    1.5702    constr:    0.0000
     atom:   28    charge:   14.3922    magn:   -1.4591    constr:    0.0000
     atom:   29    charge:   14.2882    magn:    1.5005    constr:    0.0000
     atom:   30    charge:   14.3922    magn:   -1.4591    constr:    0.0000
     atom:   31    charge:   14.2872    magn:    1.5702    constr:    0.0000
     atom:   32    charge:   14.3922    magn:   -1.4591    constr:    0.0000

     End of self-consistent calculation

     Number of k-points >= 100: set verbosity='high' to print the bands.

     the Fermi energy is    20.0409 ev

!    total energy              =  -10718.97608979 Ry

     total all-electron energy =    -89004.195293 Ry
     estimated scf accuracy    <          8.8E-11 Ry
     smearing contrib. (-TS)   =       0.00719159 Ry
     internal energy E=F+TS    =  -10718.98328138 Ry

     The total energy is F=E-TS. E is the sum of the following terms:
     one-electron contribution =   -3288.45865205 Ry
     hartree contribution      =    1995.01318082 Ry
     xc contribution           =    -890.08029185 Ry
     ewald contribution        =   -5713.47107741 Ry
     one-center paw contrib.   =   -2821.98644091 Ry

     total magnetization       =    -2.63 Bohr mag/cell
     absolute magnetization    =    49.63 Bohr mag/cell

     convergence has been achieved in  52 iterations

     Forces acting on atoms (cartesian axes, Ry/au):

     atom    1 type  3   force =     0.00000000    0.00000000    0.00000000
     atom    2 type  2   force =    -0.00016027    0.00008443    0.00000000
     atom    3 type  1   force =    -0.00006363    0.00000000   -0.00006363
     atom    4 type  2   force =     0.00000000    0.00008443   -0.00016027
     atom    5 type  1   force =     0.00000000    0.00000000    0.00000000
     atom    6 type  2   force =    -0.00001308    0.00001510    0.00000000
     atom    7 type  1   force =    -0.00006363    0.00000000    0.00006363
     atom    8 type  2   force =     0.00000000    0.00008443    0.00016027
     atom    9 type  1   force =     0.00000000    0.00000000    0.00000000
     atom   10 type  2   force =    -0.00016027   -0.00008443    0.00000000
     atom   11 type  1   force =     0.00004852    0.00000000    0.00004852
     atom   12 type  2   force =     0.00000000   -0.00008443   -0.00016027
     atom   13 type  1   force =     0.00000000    0.00000000    0.00000000
     atom   14 type  2   force =    -0.00001308   -0.00001510    0.00000000
     atom   15 type  1   force =     0.00004852    0.00000000   -0.00004852
     atom   16 type  2   force =     0.00000000   -0.00008443    0.00016027
     atom   17 type  1   force =     0.00000000    0.00000000    0.00000000
     atom   18 type  2   force =     0.00016027    0.00008443    0.00000000
     atom   19 type  1   force =     0.00006363    0.00000000   -0.00006363
     atom   20 type  2   force =     0.00000000    0.00001510   -0.00001308
     atom   21 type  1   force =     0.00000000    0.00000000    0.00000000
     atom   22 type  2   force =     0.00001308    0.00001510    0.00000000
     atom   23 type  1   force =     0.00006363    0.00000000    0.00006363
     atom   24 type  2   force =     0.00000000    0.00001510    0.00001308
     atom   25 type  1   force =     0.00000000    0.00000000    0.00000000
     atom   26 type  2   force =     0.00016027   -0.00008443    0.00000000
     atom   27 type  1   force =    -0.00004852    0.00000000    0.00004852
     atom   28 type  2   force =     0.00000000   -0.00001510   -0.00001308
     atom   29 type  1   force =     0.00000000    0.00000000    0.00000000
     atom   30 type  2   force =     0.00001308   -0.00001510    0.00000000
     atom   31 type  1   force =    -0.00004852    0.00000000   -0.00004852
     atom   32 type  2   force =     0.00000000   -0.00001510    0.00001308

     Total force =     0.000563     Total SCF correction =     0.000032

     Computing stress (Cartesian axis) and pressure

          total   stress  (Ry/bohr**3)                   (kbar)     P=        0.10
   0.00000050   0.00000000   0.00000000            0.07        0.00        0.00
   0.00000000   0.00000104   0.00000000            0.00        0.15        0.00
   0.00000000   0.00000000   0.00000050            0.00        0.00        0.07

     Writing output data file /scratch/bxp912/fepd_relax.save/

     General routines

     Parallel routines

   This run was terminated on:  10:44: 2  22Apr2022

   JOB DONE.