     Program PWSCF v.6.7MaX starts on 20May2022 at 10:20:38

     R & G space division:  proc/nbgrp/npool/nimage =      72
     Reading input from fepd_02.in
Warning: card &CELL ignored
Warning: card CELL_DYNAMICS = 'BFGS', ignored
Warning: card CELL_FACTOR = 2.0, ignored
Warning: card PRESS = 0.0, ignored
Warning: card / ignored

     Current dimensions of program PWSCF are:
     Max number of different atomic species (ntypx) = 10
     Max number of k-points (npk) =  40000
     Max angular momentum in pseudopotentials (lmaxx) =  3
     file Fe.pbe-spn-kjpaw_psl.1.0.0.UPF: wavefunction(s)  3P 3D renormalized
     file Fe.pbe-spn-kjpaw_psl.1.0.0.UPF: wavefunction(s)  3P 3D renormalized
     file Pd.pbe-spn-kjpaw_psl.1.0.0.UPF: wavefunction(s)  4S 5S 4D renormalized

     Subspace diagonalization in iterative solution of the eigenvalue problem:
     one sub-group per band group will be used

     bravais-lattice index     =            0
     lattice parameter (alat)  =      13.0175  a.u.
     unit-cell volume          =    2324.7211 (a.u.)^3
     number of atoms/cell      =           32
     number of atomic types    =            3
     number of electrons       =       514.00
     number of Kohn-Sham states=          308
     kinetic-energy cutoff     =      71.0000  Ry
     charge density cutoff     =     430.0000  Ry
     scf convergence threshold =      1.0E-08
     mixing beta               =       0.3000
     number of iterations used =           10  local-TF  mixing
     Exchange-correlation= SLA  PW   PBX  PBC
                           (   1   4   3   4   0   0   0)

     celldm(1)=  13.017474  celldm(2)=   0.000000  celldm(3)=   0.000000
     celldm(4)=   0.000000  celldm(5)=   0.000000  celldm(6)=   0.000000

     crystal axes: (cart. coord. in units of alat)
               a(1) = (   1.000000   0.000000   0.000000 )
               a(2) = (   0.000000   1.053879   0.000000 )
               a(3) = (   0.000000   0.000000   1.000000 )

     reciprocal axes: (cart. coord. in units 2 pi/alat)
               b(1) = (  1.000000  0.000000  0.000000 )
               b(2) = (  0.000000  0.948876  0.000000 )
               b(3) = (  0.000000  0.000000  1.000000 )

     PseudoPot. # 1 for Fe read from file:
     /rds/homes/b/bxp912/pp/Fe.pbe-spn-kjpaw_psl.1.0.0.UPF
     MD5 check sum: 42f43b795421b414b0dc916aa790dbcb
     Pseudo is Projector augmented-wave + core cor, Zval = 16.0
     Generated using &quot;atomic&quot; code by A. Dal Corso  v.6.3
     Shape of augmentation charge: PSQ
     Using radial grid of 1191 points,  6 beta functions with:
                l(1) =   0
                l(2) =   0
                l(3) =   1
                l(4) =   1
                l(5) =   2
                l(6) =   2
     Q(r) pseudized with 0 coefficients

     PseudoPot. # 2 for Fe read from file:
     /rds/homes/b/bxp912/pp/Fe.pbe-spn-kjpaw_psl.1.0.0.UPF
     MD5 check sum: 42f43b795421b414b0dc916aa790dbcb
     Pseudo is Projector augmented-wave + core cor, Zval = 16.0
     Generated using &quot;atomic&quot; code by A. Dal Corso  v.6.3
     Shape of augmentation charge: PSQ
     Using radial grid of 1191 points,  6 beta functions with:
                l(1) =   0
                l(2) =   0
                l(3) =   1
                l(4) =   1
                l(5) =   2
                l(6) =   2
     Q(r) pseudized with 0 coefficients

     PseudoPot. # 3 for Pd read from file:
     /rds/homes/b/bxp912/pp/Pd.pbe-spn-kjpaw_psl.1.0.0.UPF
     MD5 check sum: 790f2ebce206edfd9790dcb9844eca51
     Pseudo is Projector augmented-wave + core cor, Zval = 18.0
     Generated using &quot;atomic&quot; code by A. Dal Corso  v.6.3
     Shape of augmentation charge: PSQ
     Using radial grid of 1235 points,  6 beta functions with:
                l(1) =   0
                l(2) =   0
                l(3) =   1
                l(4) =   1
                l(5) =   2
                l(6) =   2
     Q(r) pseudized with 0 coefficients

     atomic species   valence    mass     pseudopotential
        Fe1           16.00    55.84500     Fe( 1.00)
        Fe2           16.00    55.84500     Fe( 1.00)
        Pd            18.00   106.42000     Pd( 1.00)

     Starting magnetic structure
     atomic species   magnetization
        Fe1          0.100
        Fe2         -0.100
        Pd           0.010

     No symmetry found

   Cartesian axes

     site n.     atom                  positions (alat units)
         1           Pd  tau(   1) = (  -0.0062192  -0.0030163   0.0061349  )
         2           Fe2 tau(   2) = (   0.2552108   0.2689456   0.0000000  )
         3           Fe1 tau(   3) = (   0.2570288   0.0000000   0.2570288  )
         4           Fe2 tau(   4) = (   0.0000000   0.2689456   0.2552108  )
         5           Fe1 tau(   5) = (   0.0000000   0.0000000   0.5000000  )
         6           Fe2 tau(   6) = (   0.2504870   0.2644622   0.5000000  )
         7           Fe1 tau(   7) = (   0.2570288   0.0000000   0.7429712  )
         8           Fe2 tau(   8) = (   0.0000000   0.2689456   0.7447892  )
         9           Fe1 tau(   9) = (   0.0000000   0.5269394   0.0000000  )
        10           Fe2 tau(  10) = (   0.2552108   0.7849332   0.0000000  )
        11           Fe1 tau(  11) = (   0.2508487   0.5269394   0.2508487  )
        12           Fe2 tau(  12) = (   0.0000000   0.7849332   0.2552108  )
        13           Fe1 tau(  13) = (   0.0000000   0.5269394   0.5000000  )
        14           Fe2 tau(  14) = (   0.2504870   0.7894166   0.5000000  )
        15           Fe1 tau(  15) = (   0.2508487   0.5269394   0.7491513  )
        16           Fe2 tau(  16) = (   0.0000000   0.7849332   0.7447892  )
        17           Fe1 tau(  17) = (   0.5000000   0.0000000   0.0000000  )
        18           Fe2 tau(  18) = (   0.7447892   0.2689456   0.0000000  )
        19           Fe1 tau(  19) = (   0.7429712   0.0000000   0.2570288  )
        20           Fe2 tau(  20) = (   0.5000000   0.2644622   0.2504870  )
        21           Fe1 tau(  21) = (   0.5000000   0.0000000   0.5000000  )
        22           Fe2 tau(  22) = (   0.7495130   0.2644622   0.5000000  )
        23           Fe1 tau(  23) = (   0.7429712   0.0000000   0.7429712  )
        24           Fe2 tau(  24) = (   0.5000000   0.2644622   0.7495130  )
        25           Fe1 tau(  25) = (   0.5000000   0.5269394   0.0000000  )
        26           Fe2 tau(  26) = (   0.7447892   0.7849332   0.0000000  )
        27           Fe1 tau(  27) = (   0.7491513   0.5269394   0.2508487  )
        28           Fe2 tau(  28) = (   0.5000000   0.7894166   0.2504870  )
        29           Fe1 tau(  29) = (   0.5000000   0.5269394   0.5000000  )
        30           Fe2 tau(  30) = (   0.7495130   0.7894166   0.5000000  )
        31           Fe1 tau(  31) = (   0.7491513   0.5269394   0.7491513  )
        32           Fe2 tau(  32) = (   0.5000000   0.7894166   0.7495130  )

     number of k points=   365  Marzari-Vanderbilt smearing, width (Ry)=  0.0400

     Number of k-points >= 100: set verbosity='high' to print them.

     Check: negative core charge=   -0.000006
     Generating pointlists ...
     new r_m :   0.1417 (alat units)  1.8451 (a.u.) for type    1
     new r_m :   0.1445 (alat units)  1.8808 (a.u.) for type    2
     new r_m :   0.1463 (alat units)  1.9050 (a.u.) for type    3

     Initial potential from superposition of free atoms

     starting charge  513.98605, renormalised to  514.00000
     Starting wfcs are  320 randomized atomic wfcs
     Checking if some PAW data can be deallocated...

     Self-consistent Calculation

     iteration #  1     ecut=    71.00 Ry     beta= 0.30
     Davidson diagonalization with overlap
     ethr =  1.00E-02,  avg # of iterations =  5.0

     negative rho (up, down):  2.154E-02 6.441E-02

     total energy              =  -10718.45192440 Ry
     estimated scf accuracy    <      12.61929149 Ry

     total magnetization       =    -1.87 Bohr mag/cell
     absolute magnetization    =    51.76 Bohr mag/cell

[...]

     iteration #  5     ecut=    71.00 Ry     beta= 0.30
     Davidson diagonalization with overlap
     c_bands:  2 eigenvalues not converged
     ethr =  1.06E-04,  avg # of iterations =  4.5

[...]

     negative rho (up, down):  9.230E-05 1.751E-04

[...]

     iteration # 12     ecut=    71.00 Ry     beta= 0.30
     Davidson diagonalization with overlap
     c_bands:  1 eigenvalues not converged
     ethr =  5.10E-07,  avg # of iterations =  2.1

[...]

     total energy              =  -10718.97368773 Ry
     estimated scf accuracy    <       0.00000003 Ry

[...]

     iteration # 46     ecut=    71.00 Ry     beta= 0.30
     Davidson diagonalization with overlap
     ethr =  5.09E-12,  avg # of iterations =  5.0

     Magnetic moment per site:
     atom:    1    charge:   15.6845    magn:   -0.0793    constr:    0.0000
     atom:    2    charge:   14.3362    magn:   -1.6989    constr:    0.0000
     atom:    3    charge:   14.2241    magn:    1.7568    constr:    0.0000
     atom:    4    charge:   14.3437    magn:   -1.6766    constr:    0.0000
     atom:    5    charge:   14.2384    magn:    1.2999    constr:    0.0000
     atom:    6    charge:   14.3672    magn:   -1.4536    constr:    0.0000
     atom:    7    charge:   14.2170    magn:    1.7684    constr:    0.0000
     atom:    8    charge:   14.3363    magn:   -1.6989    constr:    0.0000
     atom:    9    charge:   14.2410    magn:    1.1821    constr:    0.0000
     atom:   10    charge:   14.3396    magn:   -1.6893    constr:    0.0000
     atom:   11    charge:   14.2418    magn:    1.5649    constr:    0.0000
     atom:   12    charge:   14.3479    magn:   -1.6666    constr:    0.0000
     atom:   13    charge:   14.2622    magn:    1.2088    constr:    0.0000
     atom:   14    charge:   14.3673    magn:   -1.4529    constr:    0.0000
     atom:   15    charge:   14.2419    magn:    1.5590    constr:    0.0000
     atom:   16    charge:   14.3397    magn:   -1.6892    constr:    0.0000
     atom:   17    charge:   14.2384    magn:    1.2999    constr:    0.0000
     atom:   18    charge:   14.3438    magn:   -1.6764    constr:    0.0000
     atom:   19    charge:   14.2331    magn:    1.7484    constr:    0.0000
     atom:   20    charge:   14.3671    magn:   -1.4625    constr:    0.0000
     atom:   21    charge:   14.2740    magn:    1.4075    constr:    0.0000
     atom:   22    charge:   14.3671    magn:   -1.4624    constr:    0.0000
     atom:   23    charge:   14.2242    magn:    1.7567    constr:    0.0000
     atom:   24    charge:   14.3673    magn:   -1.4539    constr:    0.0000
     atom:   25    charge:   14.2622    magn:    1.2087    constr:    0.0000
     atom:   26    charge:   14.3480    magn:   -1.6664    constr:    0.0000
     atom:   27    charge:   14.2417    magn:    1.5721    constr:    0.0000
     atom:   28    charge:   14.3671    magn:   -1.4617    constr:    0.0000
     atom:   29    charge:   14.2427    magn:    1.4976    constr:    0.0000
     atom:   30    charge:   14.3671    magn:   -1.4616    constr:    0.0000
     atom:   31    charge:   14.2418    magn:    1.5650    constr:    0.0000
     atom:   32    charge:   14.3673    magn:   -1.4531    constr:    0.0000

     End of self-consistent calculation

     Number of k-points >= 100: set verbosity='high' to print the bands.

     the Fermi energy is    20.0411 ev

!    total energy              =  -10718.97368784 Ry

     total all-electron energy =    -89004.192891 Ry
     estimated scf accuracy    <          9.5E-09 Ry
     smearing contrib. (-TS)   =       0.00720294 Ry
     internal energy E=F+TS    =  -10718.98089078 Ry

     The total energy is F=E-TS. E is the sum of the following terms:
     one-electron contribution =   -3288.91221880 Ry
     hartree contribution      =    1995.23934533 Ry
     xc contribution           =    -890.08320156 Ry
     ewald contribution        =   -5713.23845407 Ry
     one-center paw contrib.   =   -2821.98636168 Ry

     total magnetization       =    -2.62 Bohr mag/cell
     absolute magnetization    =    49.63 Bohr mag/cell

     convergence has been achieved in  46 iterations

     Forces acting on atoms (cartesian axes, Ry/au):

     atom    1 type  3   force =     0.02718277    0.01252883   -0.02681752
     atom    2 type  2   force =    -0.00354804   -0.00384336    0.00014682
     atom    3 type  1   force =     0.00020812    0.00000886   -0.00067730
     atom    4 type  2   force =    -0.00004087    0.00161817    0.00062328
     atom    5 type  1   force =     0.00021899   -0.00003176    0.00080781
     atom    6 type  2   force =    -0.00010585   -0.00010118    0.00032377
     atom    7 type  1   force =    -0.00612666   -0.00005571    0.00613221
     atom    8 type  2   force =    -0.00014442   -0.00381549    0.00352346
     atom    9 type  1   force =     0.00014710   -0.00034030   -0.00014539
     atom   10 type  2   force =    -0.00116219    0.00155490    0.00010645
     atom   11 type  1   force =    -0.00009200   -0.00003355    0.00015272
     atom   12 type  2   force =     0.00002979   -0.00491658    0.00391347
     atom   13 type  1   force =     0.00005562   -0.00028979    0.00036476
     atom   14 type  2   force =     0.00004866    0.00003311    0.00035117
     atom   15 type  1   force =     0.00004198   -0.00001610   -0.00004273
     atom   16 type  2   force =    -0.00010448    0.00151895    0.00113223
     atom   17 type  1   force =    -0.00081917   -0.00002229   -0.00020596
     atom   18 type  2   force =    -0.00066038    0.00166657    0.00003723
     atom   19 type  1   force =    -0.00812945    0.00009825    0.00814722
     atom   20 type  2   force =    -0.00040719    0.00004062   -0.00001156
     atom   21 type  1   force =    -0.00133351    0.00001738    0.00131024
     atom   22 type  2   force =     0.00001104    0.00004223    0.00040061
     atom   23 type  1   force =     0.00058439    0.00000881   -0.00030154
     atom   24 type  2   force =    -0.00033076   -0.00009855    0.00010168
     atom   25 type  1   force =    -0.00036902   -0.00028791   -0.00005625
     atom   26 type  2   force =    -0.00395546   -0.00497083   -0.00002977
     atom   27 type  1   force =    -0.00005452   -0.00005653    0.00005414
     atom   28 type  2   force =    -0.00044594   -0.00013298    0.00015136
     atom   29 type  1   force =    -0.00003507    0.00000907    0.00003344
     atom   30 type  2   force =    -0.00014985   -0.00013468    0.00043471
     atom   31 type  1   force =    -0.00015670   -0.00003245    0.00008928
     atom   32 type  2   force =    -0.00035691    0.00003429   -0.00005006

     Total force =     0.044478     Total SCF correction =     0.000302

     Computing stress (Cartesian axis) and pressure

          total   stress  (Ry/bohr**3)                   (kbar)     P=        0.51
   0.00000353   0.00000102  -0.00000268            0.52        0.15       -0.39
   0.00000102   0.00000354  -0.00000100            0.15        0.52       -0.15
  -0.00000268  -0.00000100   0.00000338           -0.39       -0.15        0.50

     Writing output data file /scratch/bxp912/fepd02.save/

     General routines

     Parallel routines

   This run was terminated on:  18:23:14  20May2022

   JOB DONE.