     Program PWSCF v.6.7MaX starts on 17Jan2022 at 13:48:51

     R & G space division:  proc/nbgrp/npool/nimage =      72
     Reading input from bcc_5.in
Warning: card &CELL ignored
Warning: card CELL_DYNAMICS = 'BFGS', ignored
Warning: card CELL_FACTOR = 2.0, ignored
Warning: card PRESS = 0.0, ignored
Warning: card / ignored

     Current dimensions of program PWSCF are:
     Max number of different atomic species (ntypx) = 10
     Max number of k-points (npk) =  40000
     Max angular momentum in pseudopotentials (lmaxx) =  3
     file Fe.pbe-spn-kjpaw_psl.1.0.0.UPF: wavefunction(s)  3P 3D renormalized
     file Fe.pbe-spn-kjpaw_psl.1.0.0.UPF: wavefunction(s)  3P 3D renormalized

     Subspace diagonalization in iterative solution of the eigenvalue problem:
     one sub-group per band group will be used

     Found symmetry operation: I + (  0.0000  0.0000  0.5000)
     This is a supercell, fractional translations are disabled
     Message from routine setup:
     using ibrav=0 with symmetry is DISCOURAGED, use correct ibrav instead

     bravais-lattice index     =            0
     lattice parameter (alat)  =      10.2690  a.u.
     unit-cell volume          =    1126.2145 (a.u.)^3
     number of atoms/cell      =           16
     number of atomic types    =            2
     number of electrons       =       256.00
     number of Kohn-Sham states=          154
     kinetic-energy cutoff     =      71.0000  Ry
     charge density cutoff     =     430.0000  Ry
     scf convergence threshold =      1.0E-07
     mixing beta               =       0.1000
     number of iterations used =           10  local-TF  mixing
     Exchange-correlation= SLA  PW   PBX  PBC
                           (   1   4   3   4   0   0   0)

     celldm(1)=  10.269041  celldm(2)=   0.000000  celldm(3)=   0.000000
     celldm(4)=   0.000000  celldm(5)=   0.000000  celldm(6)=   0.000000

     crystal axes: (cart. coord. in units of alat)
               a(1) = (   1.013158   0.000000   0.000000 )
               a(2) = (   0.000000   1.013158   0.000000 )
               a(3) = (   0.000000   0.000000   1.013158 )

     reciprocal axes: (cart. coord. in units 2 pi/alat)
               b(1) = (  0.987013  0.000000  0.000000 )
               b(2) = (  0.000000  0.987013  0.000000 )
               b(3) = (  0.000000  0.000000  0.987013 )

     PseudoPot. # 1 for Fe read from file:
     /rds/homes/b/bxp912/pp/Fe.pbe-spn-kjpaw_psl.1.0.0.UPF
     MD5 check sum: 42f43b795421b414b0dc916aa790dbcb
     Pseudo is Projector augmented-wave + core cor, Zval = 16.0
     Generated using &quot;atomic&quot; code by A. Dal Corso  v.6.3
     Shape of augmentation charge: PSQ
     Using radial grid of 1191 points,  6 beta functions with:
                l(1) =   0
                l(2) =   0
                l(3) =   1
                l(4) =   1
                l(5) =   2
                l(6) =   2
     Q(r) pseudized with 0 coefficients

     PseudoPot. # 2 for Fe read from file:
     /rds/homes/b/bxp912/pp/Fe.pbe-spn-kjpaw_psl.1.0.0.UPF
     MD5 check sum: 42f43b795421b414b0dc916aa790dbcb
     Pseudo is Projector augmented-wave + core cor, Zval = 16.0
     Generated using &quot;atomic&quot; code by A. Dal Corso  v.6.3
     Shape of augmentation charge: PSQ
     Using radial grid of 1191 points,  6 beta functions with:
                l(1) =   0
                l(2) =   0
                l(3) =   1
                l(4) =   1
                l(5) =   2
                l(6) =   2
     Q(r) pseudized with 0 coefficients

     atomic species   valence    mass     pseudopotential
        Fe1           16.00    55.84500     Fe( 1.00)
        Fe2           16.00    55.84500     Fe( 1.00)

     Starting magnetic structure
     atomic species   magnetization
        Fe1          0.100
        Fe2          0.100

     48 Sym. Ops., with inversion, found

   Cartesian axes

     site n.     atom                  positions (alat units)
         1           Fe1 tau(   1) = (   0.0000000   0.0000000   0.0000000  )
         2           Fe2 tau(   2) = (   0.2532895   0.2532895   0.2532895  )
         3           Fe1 tau(   3) = (   0.0000000   0.0000000   0.5065789  )
         4           Fe2 tau(   4) = (   0.2532895   0.2532895   0.7598684  )
         5           Fe1 tau(   5) = (   0.0000000   0.5065789   0.0000000  )
         6           Fe2 tau(   6) = (   0.2532895   0.7598684   0.2532895  )
         7           Fe1 tau(   7) = (   0.0000000   0.5065789   0.5065789  )
         8           Fe2 tau(   8) = (   0.2532895   0.7598684   0.7598684  )
         9           Fe1 tau(   9) = (   0.5065789   0.0000000   0.0000000  )
        10           Fe2 tau(  10) = (   0.7598684   0.2532895   0.2532895  )
        11           Fe1 tau(  11) = (   0.5065789   0.0000000   0.5065789  )
        12           Fe2 tau(  12) = (   0.7598684   0.2532895   0.7598684  )
        13           Fe1 tau(  13) = (   0.5065789   0.5065789   0.0000000  )
        14           Fe2 tau(  14) = (   0.7598684   0.7598684   0.2532895  )
        15           Fe1 tau(  15) = (   0.5065789   0.5065789   0.5065789  )
        16           Fe2 tau(  16) = (   0.7598684   0.7598684   0.7598684  )

     number of k points=    35  Marzari-Vanderbilt smearing, width (Ry)=  0.0400
                       cart. coord. in units 2pi/alat
        k(    1) = (   0.0548341   0.0548341   0.0548341), wk =   0.0109739
        k(    2) = (   0.0548341   0.0548341   0.1645022), wk =   0.0329218
        k(    3) = (   0.0548341   0.0548341   0.2741703), wk =   0.0329218
        k(    4) = (   0.0548341   0.0548341   0.3838384), wk =   0.0329218
        k(    5) = (   0.0548341   0.0548341  -0.4935065), wk =   0.0164609
        k(    6) = (   0.0548341   0.1645022   0.1645022), wk =   0.0329218
        k(    7) = (   0.0548341   0.1645022   0.2741703), wk =   0.0658436
        k(    8) = (   0.0548341   0.1645022   0.3838384), wk =   0.0658436
        k(    9) = (   0.0548341   0.1645022  -0.4935065), wk =   0.0329218
        k(   10) = (   0.0548341   0.2741703   0.2741703), wk =   0.0329218
        k(   11) = (   0.0548341   0.2741703   0.3838384), wk =   0.0658436
        k(   12) = (   0.0548341   0.2741703  -0.4935065), wk =   0.0329218
        k(   13) = (   0.0548341   0.3838384   0.3838384), wk =   0.0329218
        k(   14) = (   0.0548341   0.3838384  -0.4935065), wk =   0.0329218
        k(   15) = (   0.0548341  -0.4935065  -0.4935065), wk =   0.0082305
        k(   16) = (   0.1645022   0.1645022   0.1645022), wk =   0.0109739
        k(   17) = (   0.1645022   0.1645022   0.2741703), wk =   0.0329218
        k(   18) = (   0.1645022   0.1645022   0.3838384), wk =   0.0329218
        k(   19) = (   0.1645022   0.1645022  -0.4935065), wk =   0.0164609
        k(   20) = (   0.1645022   0.2741703   0.2741703), wk =   0.0329218
        k(   21) = (   0.1645022   0.2741703   0.3838384), wk =   0.0658436
        k(   22) = (   0.1645022   0.2741703  -0.4935065), wk =   0.0329218
        k(   23) = (   0.1645022   0.3838384   0.3838384), wk =   0.0329218
        k(   24) = (   0.1645022   0.3838384  -0.4935065), wk =   0.0329218
        k(   25) = (   0.1645022  -0.4935065  -0.4935065), wk =   0.0082305
        k(   26) = (   0.2741703   0.2741703   0.2741703), wk =   0.0109739
        k(   27) = (   0.2741703   0.2741703   0.3838384), wk =   0.0329218
        k(   28) = (   0.2741703   0.2741703  -0.4935065), wk =   0.0164609
        k(   29) = (   0.2741703   0.3838384   0.3838384), wk =   0.0329218
        k(   30) = (   0.2741703   0.3838384  -0.4935065), wk =   0.0329218
        k(   31) = (   0.2741703  -0.4935065  -0.4935065), wk =   0.0082305
        k(   32) = (   0.3838384   0.3838384   0.3838384), wk =   0.0109739
        k(   33) = (   0.3838384   0.3838384  -0.4935065), wk =   0.0164609
        k(   34) = (   0.3838384  -0.4935065  -0.4935065), wk =   0.0082305
        k(   35) = (  -0.4935065  -0.4935065  -0.4935065), wk =   0.0013717

     Check: negative core charge=   -0.000006
     Generating pointlists ...
     new r_m :   0.1810 (alat units)  1.8584 (a.u.) for type    1
     new r_m :   0.1810 (alat units)  1.8584 (a.u.) for type    2

     Initial potential from superposition of free atoms

     starting charge  255.99300, renormalised to  256.00000
     Starting wfcs are  160 randomized atomic wfcs
     Checking if some PAW data can be deallocated...

     Self-consistent Calculation

     iteration #  1     ecut=    71.00 Ry     beta= 0.10
     Davidson diagonalization with overlap
     ethr =  1.00E-02,  avg # of iterations =  3.4

     Threshold (ethr) on eigenvalues was too large:
     Diagonalizing with lowered threshold

     Davidson diagonalization with overlap
     ethr =  1.36E-04,  avg # of iterations =  5.3

     total energy              =   -5267.99859855 Ry
     estimated scf accuracy    <       0.64000847 Ry

     total magnetization       =    26.95 Bohr mag/cell
     absolute magnetization    =    27.03 Bohr mag/cell

[...]

     negative rho (up, down):  0.000E+00 9.164E-04

[...]

     total energy              =   -5268.14038050 Ry
     estimated scf accuracy    <       0.00000030 Ry

[...]

     iteration # 20     ecut=    71.00 Ry     beta= 0.10
     Davidson diagonalization with overlap
     ethr =  1.17E-10,  avg # of iterations =  2.0

[...]

     Magnetic moment per site:
     atom:    1    charge:   14.3225    magn:    2.0341    constr:    0.0000
     atom:    2    charge:   14.3225    magn:    2.0342    constr:    0.0000
     atom:    3    charge:   14.3225    magn:    2.0341    constr:    0.0000
     atom:    4    charge:   14.3225    magn:    2.0342    constr:    0.0000
     atom:    5    charge:   14.3225    magn:    2.0341    constr:    0.0000
     atom:    6    charge:   14.3225    magn:    2.0342    constr:    0.0000
     atom:    7    charge:   14.3225    magn:    2.0342    constr:    0.0000
     atom:    8    charge:   14.3225    magn:    2.0342    constr:    0.0000
     atom:    9    charge:   14.3225    magn:    2.0341    constr:    0.0000
     atom:   10    charge:   14.3225    magn:    2.0342    constr:    0.0000
     atom:   11    charge:   14.3225    magn:    2.0342    constr:    0.0000
     atom:   12    charge:   14.3225    magn:    2.0342    constr:    0.0000
     atom:   13    charge:   14.3225    magn:    2.0342    constr:    0.0000
     atom:   14    charge:   14.3225    magn:    2.0342    constr:    0.0000
     atom:   15    charge:   14.3225    magn:    2.0343    constr:    0.0000
     atom:   16    charge:   14.3225    magn:    2.0342    constr:    0.0000

     End of self-consistent calculation

 ------ SPIN UP ------------

          k = 0.0548 0.0548 0.0548 ( 11342 PWs)   bands (ev):

   -67.8449 -67.7494 -67.7494 -67.7494 -67.7336 -67.7336 -67.7336 -67.7325
   -67.7325 -67.7325 -67.7321 -67.7321 -67.7321 -67.7250 -67.7250 -67.6516
   -34.1090 -34.1090 -34.1090 -34.1062 -34.1062 -34.1062 -33.9496 -33.9496
   -33.9439 -33.8757 -33.8725 -33.8725 -33.8725 -33.8519 -33.8519 -33.8386
   -33.8386 -33.8386 -33.8033 -33.8033 -33.7798 -33.7650 -33.7650 -33.7650
   -33.7540 -33.7540 -33.7540 -33.7414 -33.7414 -33.7414 -33.7385 -33.7385
   -33.7385 -33.7306 -33.7306 -33.7306 -33.7202 -33.7202 -33.7202 -33.5627
   -33.5608 -33.5608 -33.5608 -33.5581 -33.5581 -33.5581 -33.5563 -33.5563
    11.3234  14.9027  14.9027  14.9027  14.9217  14.9217  14.9217  14.9246
    14.9246  15.0397  15.0397  15.0397  15.4450  15.4450  15.4450  16.6423
    16.6485  16.6485  16.6485  16.6624  16.6624  16.6624  16.7345  16.7345
    16.8103  16.8103  16.8103  16.8905  16.8905  16.9516  17.1799  17.1799
    17.1799  17.8871  17.8871  17.9324  18.2353  18.2353  18.2353  18.3217
    18.3217  18.3218  18.4220  18.4220  18.4220  18.5103  18.5103  18.5103
    19.2019  19.2019  19.2019  19.2307  19.2307  19.2715  19.2715  19.2715
    19.3258  19.3258  19.3259  19.3330  19.3330  19.3330  19.4427  19.4427
    19.4427  19.4652  19.4652  19.4652  19.5090  19.5090  19.5098  19.5098
    20.4019  20.4019  20.4019  20.4426  20.4426  20.4426  20.5953  20.6377
    20.6377  20.6377  20.6681  20.6681  21.0473  21.0473  21.0473  21.2065
    21.2065  21.2065

[...]

          k =-0.4935-0.4935-0.4935 ( 11296 PWs)   bands (ev):

[...]

 ------ SPIN DOWN ----------

[...]

          k = 0.3838-0.4935-0.4935 ( 11408 PWs)   bands (ev):

[...]

          k =-0.4935-0.4935-0.4935 ( 11296 PWs)   bands (ev):

   -65.3501 -65.3501 -65.3501 -65.3501 -65.3501 -65.3501 -65.3501 -65.3500
   -65.2754 -65.2753 -65.2753 -65.2753 -65.2753 -65.2753 -65.2753 -65.2753
   -31.6155 -31.6155 -31.6155 -31.6155 -31.6155 -31.6155 -31.6155 -31.6155
   -31.6154 -31.6154 -31.6154 -31.6154 -31.6154 -31.6154 -31.6154 -31.6154
   -31.5738 -31.5738 -31.5738 -31.5738 -31.5738 -31.5738 -31.5738 -31.5737
   -31.2944 -31.2943 -31.2943 -31.2943 -31.2943 -31.2943 -31.2943 -31.2943
   -31.2496 -31.2496 -31.2496 -31.2496 -31.2496 -31.2496 -31.2496 -31.2496
   -31.2495 -31.2495 -31.2495 -31.2495 -31.2495 -31.2495 -31.2495 -31.2495
    15.0444  15.0444  15.0444  15.0444  15.0444  15.0444  15.0444  15.0444
    18.0036  18.0036  18.0036  18.0036  18.0036  18.0036  18.0036  18.0036
    18.0036  18.0036  18.0036  18.0036  18.0036  18.0036  18.0036  18.0036
    18.4200  18.4200  18.4200  18.4200  18.4200  18.4200  18.4200  18.4200
    18.5115  18.5115  18.5115  18.5115  18.5115  18.5115  18.5115  18.5115
    18.5116  18.5116  18.5116  18.5116  18.5116  18.5116  18.5116  18.5116
    21.8781  21.8781  21.8781  21.8781  21.8781  21.8781  21.8781  21.8781
    21.8781  21.8781  21.8781  21.8781  21.8781  21.8781  21.8781  21.8781
    21.8864  21.8864  21.8864  21.8864  21.8864  21.8864  21.8864  21.8864
    21.8864  21.8864  21.8864  21.8864  21.8864  21.8864  21.8864  21.8864
    22.3071  22.3071  22.3071  22.3071  22.3071  22.3071  22.3071  22.3072
    29.0231  29.0231

     the Fermi energy is    20.3114 ev

!    total energy              =   -5268.14038089 Ry

     total all-electron energy =    -40728.884910 Ry
     estimated scf accuracy    <       0.00000007 Ry
     smearing contrib. (-TS)   =       0.09687303 Ry
     internal energy E=F+TS    =   -5268.23725393 Ry

     The total energy is F=E-TS. E is the sum of the following terms:
     one-electron contribution =   -1626.75422837 Ry
     hartree contribution      =     993.54078376 Ry
     xc contribution           =    -444.89443495 Ry
     ewald contribution        =   -2865.44991248 Ry
     one-center paw contrib.   =   -1324.67946188 Ry

     total magnetization       =    32.01 Bohr mag/cell
     absolute magnetization    =    33.51 Bohr mag/cell

     convergence has been achieved in  20 iterations

     negative rho (up, down):  0.000E+00 2.167E-03

     Forces acting on atoms (cartesian axes, Ry/au):

     atom    1 type  1   force =     0.00000000    0.00000000    0.00000000
     atom    2 type  2   force =    -0.00000084   -0.00000084   -0.00000084
     atom    3 type  1   force =     0.00000000    0.00000000    0.00000000
     atom    4 type  2   force =    -0.00000084   -0.00000084    0.00000084
     atom    5 type  1   force =     0.00000000    0.00000000    0.00000000
     atom    6 type  2   force =    -0.00000084    0.00000084   -0.00000084
     atom    7 type  1   force =     0.00000000    0.00000000    0.00000000
     atom    8 type  2   force =    -0.00000084    0.00000084    0.00000084
     atom    9 type  1   force =     0.00000000    0.00000000    0.00000000
     atom   10 type  2   force =     0.00000084   -0.00000084   -0.00000084
     atom   11 type  1   force =     0.00000000    0.00000000    0.00000000
     atom   12 type  2   force =     0.00000084   -0.00000084    0.00000084
     atom   13 type  1   force =     0.00000000    0.00000000    0.00000000
     atom   14 type  2   force =     0.00000084    0.00000084   -0.00000084
     atom   15 type  1   force =     0.00000000    0.00000000    0.00000000
     atom   16 type  2   force =     0.00000084    0.00000084    0.00000084

     Total force =     0.000004     Total SCF correction =     0.000053
     SCF correction compared to forces is large: reduce conv_thr to get better values

     Computing stress (Cartesian axis) and pressure

     negative rho (up, down):  0.000E+00 2.167E-03
          total   stress  (Ry/bohr**3)                   (kbar)     P=      144.81
   0.00098439   0.00000000   0.00000000          144.81        0.00        0.00
   0.00000000   0.00098439   0.00000000            0.00      144.81        0.00
   0.00000000   0.00000000   0.00098439            0.00        0.00      144.81

     Writing output data file /scratch/FZqOtCaAHYXXXUNx.save/

     General routines

     Parallel routines

   This run was terminated on:  13:54:10  17Jan2022

   JOB DONE.