     Program PWSCF v.6.7MaX starts on 17Jan2022 at 14:15:14

     R & G space division:  proc/nbgrp/npool/nimage =      72
     Reading input from bcc_9.in
Warning: card &CELL ignored
Warning: card CELL_DYNAMICS = 'BFGS', ignored
Warning: card CELL_FACTOR = 2.0, ignored
Warning: card PRESS = 0.0, ignored
Warning: card / ignored

     Current dimensions of program PWSCF are:
     Max number of different atomic species (ntypx) = 10
     Max number of k-points (npk) =  40000
     Max angular momentum in pseudopotentials (lmaxx) =  3
     file Fe.pbe-spn-kjpaw_psl.1.0.0.UPF: wavefunction(s)  3P 3D renormalized
     file Fe.pbe-spn-kjpaw_psl.1.0.0.UPF: wavefunction(s)  3P 3D renormalized

     Subspace diagonalization in iterative solution of the eigenvalue problem:
     one sub-group per band group will be used

     Found symmetry operation: I + (  0.0000  0.0000 -0.5000)
     This is a supercell, fractional translations are disabled
     Message from routine setup:
     using ibrav=0 with symmetry is DISCOURAGED, use correct ibrav instead

     bravais-lattice index     =            0
     lattice parameter (alat)  =      10.2690  a.u.
     unit-cell volume          =    2251.4595 (a.u.)^3
     number of atoms/cell      =           16
     number of atomic types    =            2
     number of electrons       =       256.00
     number of Kohn-Sham states=          154
     kinetic-energy cutoff     =      71.0000  Ry
     charge density cutoff     =     430.0000  Ry
     scf convergence threshold =      1.0E-07
     mixing beta               =       0.1000
     number of iterations used =           10  local-TF  mixing
     Exchange-correlation= SLA  PW   PBX  PBC
                           (   1   4   3   4   0   0   0)

     celldm(1)=  10.269041  celldm(2)=   0.000000  celldm(3)=   0.000000
     celldm(4)=   0.000000  celldm(5)=   0.000000  celldm(6)=   0.000000

     crystal axes: (cart. coord. in units of alat)
               a(1) = (   1.276316   0.000000   0.000000 )
               a(2) = (   0.000000   1.276316   0.000000 )
               a(3) = (   0.000000   0.000000   1.276316 )

     reciprocal axes: (cart. coord. in units 2 pi/alat)
               b(1) = (  0.783505  0.000000  0.000000 )
               b(2) = (  0.000000  0.783505  0.000000 )
               b(3) = (  0.000000  0.000000  0.783505 )

     PseudoPot. # 1 for Fe read from file:
     /rds/homes/b/bxp912/pp/Fe.pbe-spn-kjpaw_psl.1.0.0.UPF
     MD5 check sum: 42f43b795421b414b0dc916aa790dbcb
     Pseudo is Projector augmented-wave + core cor, Zval = 16.0
     Generated using &quot;atomic&quot; code by A. Dal Corso  v.6.3
     Shape of augmentation charge: PSQ
     Using radial grid of 1191 points,  6 beta functions with:
                l(1) =   0
                l(2) =   0
                l(3) =   1
                l(4) =   1
                l(5) =   2
                l(6) =   2
     Q(r) pseudized with 0 coefficients

     PseudoPot. # 2 for Fe read from file:
     /rds/homes/b/bxp912/pp/Fe.pbe-spn-kjpaw_psl.1.0.0.UPF
     MD5 check sum: 42f43b795421b414b0dc916aa790dbcb
     Pseudo is Projector augmented-wave + core cor, Zval = 16.0
     Generated using &quot;atomic&quot; code by A. Dal Corso  v.6.3
     Shape of augmentation charge: PSQ
     Using radial grid of 1191 points,  6 beta functions with:
                l(1) =   0
                l(2) =   0
                l(3) =   1
                l(4) =   1
                l(5) =   2
                l(6) =   2
     Q(r) pseudized with 0 coefficients

     atomic species   valence    mass     pseudopotential
        Fe1           16.00    55.84500     Fe( 1.00)
        Fe2           16.00    55.84500     Fe( 1.00)

     Starting magnetic structure
     atomic species   magnetization
        Fe1          0.100
        Fe2          0.100

     48 Sym. Ops., with inversion, found

   Cartesian axes

     site n.     atom                  positions (alat units)
         1           Fe1 tau(   1) = (   0.0000000   0.0000000   0.0000000  )
         2           Fe2 tau(   2) = (   0.3190789   0.3190789   0.3190789  )
         3           Fe1 tau(   3) = (   0.0000000   0.0000000   0.6381579  )
         4           Fe2 tau(   4) = (   0.3190789   0.3190789   0.9572368  )
         5           Fe1 tau(   5) = (   0.0000000   0.6381579   0.0000000  )
         6           Fe2 tau(   6) = (   0.3190789   0.9572368   0.3190789  )
         7           Fe1 tau(   7) = (   0.0000000   0.6381579   0.6381579  )
         8           Fe2 tau(   8) = (   0.3190789   0.9572368   0.9572368  )
         9           Fe1 tau(   9) = (   0.6381579   0.0000000   0.0000000  )
        10           Fe2 tau(  10) = (   0.9572368   0.3190789   0.3190789  )
        11           Fe1 tau(  11) = (   0.6381579   0.0000000   0.6381579  )
        12           Fe2 tau(  12) = (   0.9572368   0.3190789   0.9572368  )
        13           Fe1 tau(  13) = (   0.6381579   0.6381579   0.0000000  )
        14           Fe2 tau(  14) = (   0.9572368   0.9572368   0.3190789  )
        15           Fe1 tau(  15) = (   0.6381579   0.6381579   0.6381579  )
        16           Fe2 tau(  16) = (   0.9572368   0.9572368   0.9572368  )

     number of k points=    35  Marzari-Vanderbilt smearing, width (Ry)=  0.0400
                       cart. coord. in units 2pi/alat
        k(    1) = (   0.0435281   0.0435281   0.0435281), wk =   0.0109739
        k(    2) = (   0.0435281   0.0435281   0.1305842), wk =   0.0329218
        k(    3) = (   0.0435281   0.0435281   0.2176403), wk =   0.0329218
        k(    4) = (   0.0435281   0.0435281   0.3046964), wk =   0.0329218
        k(    5) = (   0.0435281   0.0435281  -0.3917526), wk =   0.0164609
        k(    6) = (   0.0435281   0.1305842   0.1305842), wk =   0.0329218
        k(    7) = (   0.0435281   0.1305842   0.2176403), wk =   0.0658436
        k(    8) = (   0.0435281   0.1305842   0.3046964), wk =   0.0658436
        k(    9) = (   0.0435281   0.1305842  -0.3917526), wk =   0.0329218
        k(   10) = (   0.0435281   0.2176403   0.2176403), wk =   0.0329218
        k(   11) = (   0.0435281   0.2176403   0.3046964), wk =   0.0658436
        k(   12) = (   0.0435281   0.2176403  -0.3917526), wk =   0.0329218
        k(   13) = (   0.0435281   0.3046964   0.3046964), wk =   0.0329218
        k(   14) = (   0.0435281   0.3046964  -0.3917526), wk =   0.0329218
        k(   15) = (   0.0435281  -0.3917526  -0.3917526), wk =   0.0082305
        k(   16) = (   0.1305842   0.1305842   0.1305842), wk =   0.0109739
        k(   17) = (   0.1305842   0.1305842   0.2176403), wk =   0.0329218
        k(   18) = (   0.1305842   0.1305842   0.3046964), wk =   0.0329218
        k(   19) = (   0.1305842   0.1305842  -0.3917526), wk =   0.0164609
        k(   20) = (   0.1305842   0.2176403   0.2176403), wk =   0.0329218
        k(   21) = (   0.1305842   0.2176403   0.3046964), wk =   0.0658436
        k(   22) = (   0.1305842   0.2176403  -0.3917526), wk =   0.0329218
        k(   23) = (   0.1305842   0.3046964   0.3046964), wk =   0.0329218
        k(   24) = (   0.1305842   0.3046964  -0.3917526), wk =   0.0329218
        k(   25) = (   0.1305842  -0.3917526  -0.3917526), wk =   0.0082305
        k(   26) = (   0.2176403   0.2176403   0.2176403), wk =   0.0109739
        k(   27) = (   0.2176403   0.2176403   0.3046964), wk =   0.0329218
        k(   28) = (   0.2176403   0.2176403  -0.3917526), wk =   0.0164609
        k(   29) = (   0.2176403   0.3046964   0.3046964), wk =   0.0329218
        k(   30) = (   0.2176403   0.3046964  -0.3917526), wk =   0.0329218
        k(   31) = (   0.2176403  -0.3917526  -0.3917526), wk =   0.0082305
        k(   32) = (   0.3046964   0.3046964   0.3046964), wk =   0.0109739
        k(   33) = (   0.3046964   0.3046964  -0.3917526), wk =   0.0164609
        k(   34) = (   0.3046964  -0.3917526  -0.3917526), wk =   0.0082305
        k(   35) = (  -0.3917526  -0.3917526  -0.3917526), wk =   0.0013717

     Check: negative core charge=   -0.000004
     Generating pointlists ...
     new r_m :   0.2280 (alat units)  2.3411 (a.u.) for type    1
     new r_m :   0.2280 (alat units)  2.3411 (a.u.) for type    2

     Initial potential from superposition of free atoms

     starting charge  255.99300, renormalised to  256.00000
     Starting wfcs are  160 randomized atomic wfcs
     Checking if some PAW data can be deallocated...

     Self-consistent Calculation

     iteration #  1     ecut=    71.00 Ry     beta= 0.10
     Davidson diagonalization with overlap
     ethr =  1.00E-02,  avg # of iterations =  3.8

     Threshold (ethr) on eigenvalues was too large:
     Diagonalizing with lowered threshold

     Davidson diagonalization with overlap
     ethr =  9.94E-04,  avg # of iterations =  3.6

     total energy              =   -5265.92738862 Ry
     estimated scf accuracy    <       2.00839563 Ry

     total magnetization       =    46.69 Bohr mag/cell
     absolute magnetization    =    46.73 Bohr mag/cell

[...]

     negative rho (up, down):  0.000E+00 2.677E-04

[...]

     total energy              =   -5266.65459348 Ry
     estimated scf accuracy    <       0.00000059 Ry

[...]

     iteration # 16     ecut=    71.00 Ry     beta= 0.10
     Davidson diagonalization with overlap
     ethr =  2.30E-10,  avg # of iterations =  4.9

[...]

     Magnetic moment per site:
     atom:    1    charge:   14.8168    magn:    3.1601    constr:    0.0000
     atom:    2    charge:   14.8169    magn:    3.1600    constr:    0.0000
     atom:    3    charge:   14.8168    magn:    3.1599    constr:    0.0000
     atom:    4    charge:   14.8169    magn:    3.1600    constr:    0.0000
     atom:    5    charge:   14.8168    magn:    3.1599    constr:    0.0000
     atom:    6    charge:   14.8169    magn:    3.1600    constr:    0.0000
     atom:    7    charge:   14.8168    magn:    3.1599    constr:    0.0000
     atom:    8    charge:   14.8169    magn:    3.1600    constr:    0.0000
     atom:    9    charge:   14.8168    magn:    3.1599    constr:    0.0000
     atom:   10    charge:   14.8169    magn:    3.1600    constr:    0.0000
     atom:   11    charge:   14.8168    magn:    3.1599    constr:    0.0000
     atom:   12    charge:   14.8169    magn:    3.1600    constr:    0.0000
     atom:   13    charge:   14.8168    magn:    3.1599    constr:    0.0000
     atom:   14    charge:   14.8169    magn:    3.1600    constr:    0.0000
     atom:   15    charge:   14.8169    magn:    3.1602    constr:    0.0000
     atom:   16    charge:   14.8169    magn:    3.1600    constr:    0.0000

     End of self-consistent calculation

 ------ SPIN UP ------------

          k = 0.0435 0.0435 0.0435 ( 22788 PWs)   bands (ev):

   -80.1867 -80.1828 -80.1827 -80.1827 -80.1823 -80.1822 -80.1822 -80.1821
   -80.1821 -80.1821 -80.1821 -80.1820 -80.1820 -80.1820 -80.1820 -80.1785
   -46.2343 -46.2343 -46.2342 -46.2342 -46.2341 -46.2341 -46.2262 -46.2262
   -46.2254 -46.2174 -46.2172 -46.2172 -46.2172 -46.2158 -46.2158 -46.2142
   -46.2142 -46.2141 -46.2123 -46.2123 -46.2112 -46.2112 -46.2112 -46.2103
   -46.2103 -46.2103 -46.2103 -46.2096 -46.2096 -46.2096 -46.2093 -46.2093
   -46.2093 -46.2086 -46.2086 -46.2086 -46.2076 -46.2075 -46.2075 -46.1954
   -46.1946 -46.1946 -46.1942 -46.1941 -46.1941 -46.1939 -46.1939 -46.1939
     2.6046   5.0003   5.0003   5.0003   5.0312   5.0312   5.0313   5.0422
     5.0422   5.0422   5.1512   5.1512   5.2623   5.2623   5.2623   5.6525
     5.6525   5.6525   5.6575   5.6575   5.6575   5.7141   5.7539   5.7539
     5.7681   5.7681   5.7681   5.8239   5.8239   5.8531   5.8802   5.8802
     5.8802   6.0299   6.0299   6.0445   6.1904   6.1904   6.1904   6.2181
     6.2181   6.2181   6.2563   6.2563   6.2563   6.2861   6.2861   6.2861
     6.4597   6.4597   6.4779   6.4779   6.4780   6.4804   6.4804   6.4805
     6.4816   6.4816   6.4817   6.4855   6.4855   6.4855   6.5090   6.5090
     6.5090   6.5199   6.5199   6.5206   6.5206   6.5616   6.5616   6.5616
     6.9329   6.9534   6.9534   6.9998   6.9998   6.9998   7.0306   7.0306
     7.0306   7.0403   7.0403   7.0403   7.4169   7.4169   7.4169   8.7303
     8.7304   8.7304

[...]

          k =-0.3918-0.3918-0.3918 ( 22784 PWs)   bands (ev):

[...]

 ------ SPIN DOWN ----------

[...]

          k = 0.3047-0.3918-0.3918 ( 22668 PWs)   bands (ev):

[...]

          k =-0.3918-0.3918-0.3918 ( 22784 PWs)   bands (ev):

   -76.6003 -76.6003 -76.6002 -76.6002 -76.6002 -76.6002 -76.6002 -76.6002
   -76.5968 -76.5968 -76.5968 -76.5968 -76.5968 -76.5968 -76.5968 -76.5968
   -42.7241 -42.7241 -42.7241 -42.7241 -42.7241 -42.7241 -42.7241 -42.7241
   -42.7241 -42.7241 -42.7241 -42.7241 -42.7241 -42.7241 -42.7241 -42.7241
   -42.7195 -42.7195 -42.7195 -42.7195 -42.7195 -42.7195 -42.7195 -42.7195
   -42.6980 -42.6980 -42.6980 -42.6980 -42.6980 -42.6980 -42.6980 -42.6980
   -42.6935 -42.6935 -42.6935 -42.6935 -42.6935 -42.6935 -42.6935 -42.6935
   -42.6935 -42.6935 -42.6935 -42.6935 -42.6935 -42.6935 -42.6935 -42.6935
     5.0144   5.0144   5.0144   5.0145   5.0145   5.0145   5.0145   5.0147
     8.0543   8.0543   8.0543   8.0544   8.0544   8.0544   8.0544   8.0544
     8.0544   8.0544   8.0544   8.0544   8.0544   8.0544   8.0544   8.0544
     8.2194   8.2194   8.2195   8.2195   8.2195   8.2195   8.2195   8.2195
     8.3945   8.3945   8.3945   8.3945   8.3945   8.3945   8.3945   8.3946
     8.3946   8.3946   8.3946   8.3946   8.3946   8.3946   8.3946   8.3946
     9.7683   9.7683   9.7684   9.7684   9.7684   9.7684   9.7684   9.7684
     9.7684   9.7684   9.7684   9.7684   9.7684   9.7684   9.7684   9.7684
     9.8149   9.8149   9.8149   9.8149   9.8149   9.8149   9.8149   9.8149
     9.8149   9.8149   9.8149   9.8149   9.8149   9.8149   9.8149   9.8149
     9.8895   9.8895   9.8896   9.8896   9.8896   9.8896   9.8896   9.8896
    13.2637  13.2637

     the Fermi energy is     8.7063 ev

!    total energy              =   -5266.65460402 Ry

     total all-electron energy =    -40727.399133 Ry
     estimated scf accuracy    <       0.00000007 Ry
     smearing contrib. (-TS)   =      -0.02981939 Ry
     internal energy E=F+TS    =   -5266.62478463 Ry

     The total energy is F=E-TS. E is the sum of the following terms:
     one-electron contribution =   -2590.74658418 Ry
     hartree contribution      =    1364.31975854 Ry
     xc contribution           =    -441.11097307 Ry
     ewald contribution        =   -2274.63549755 Ry
     one-center paw contrib.   =   -1324.45148837 Ry

     total magnetization       =    48.61 Bohr mag/cell
     absolute magnetization    =    52.71 Bohr mag/cell

     convergence has been achieved in  16 iterations

     negative rho (up, down):  0.000E+00 2.879E-03

     Forces acting on atoms (cartesian axes, Ry/au):

     atom    1 type  1   force =     0.00000000    0.00000000    0.00000000
     atom    2 type  2   force =    -0.00001514   -0.00001514   -0.00001514
     atom    3 type  1   force =     0.00000000    0.00000000    0.00000000
     atom    4 type  2   force =    -0.00001514   -0.00001514    0.00001514
     atom    5 type  1   force =     0.00000000    0.00000000    0.00000000
     atom    6 type  2   force =    -0.00001514    0.00001514   -0.00001514
     atom    7 type  1   force =     0.00000000    0.00000000    0.00000000
     atom    8 type  2   force =    -0.00001514    0.00001514    0.00001514
     atom    9 type  1   force =     0.00000000    0.00000000    0.00000000
     atom   10 type  2   force =     0.00001514   -0.00001514   -0.00001514
     atom   11 type  1   force =     0.00000000    0.00000000    0.00000000
     atom   12 type  2   force =     0.00001514   -0.00001514    0.00001514
     atom   13 type  1   force =     0.00000000    0.00000000    0.00000000
     atom   14 type  2   force =     0.00001514    0.00001514   -0.00001514
     atom   15 type  1   force =     0.00000000    0.00000000    0.00000000
     atom   16 type  2   force =     0.00001514    0.00001514    0.00001514

     Total force =     0.000074     Total SCF correction =     0.000679
     SCF correction compared to forces is large: reduce conv_thr to get better values

     Computing stress (Cartesian axis) and pressure

     negative rho (up, down):  0.000E+00 2.879E-03
          total   stress  (Ry/bohr**3)                   (kbar)     P=     -284.94
  -0.00193700   0.00000000   0.00000000         -284.94        0.00        0.00
   0.00000000  -0.00193700   0.00000000            0.00     -284.94        0.00
   0.00000000   0.00000000  -0.00193700            0.00        0.00     -284.94

     Writing output data file /scratch/earjFttDDnValtEN.save/

     General routines

     Parallel routines

   This run was terminated on:  14:21:58  17Jan2022

   JOB DONE.