     Program PWSCF v.6.7MaX starts on 17Jan2022 at 13:44:21

     R & G space division:  proc/nbgrp/npool/nimage =      72
     Reading input from bcc_4.in
Warning: card &CELL ignored
Warning: card CELL_DYNAMICS = 'BFGS', ignored
Warning: card CELL_FACTOR = 2.0, ignored
Warning: card PRESS = 0.0, ignored
Warning: card / ignored

     Current dimensions of program PWSCF are:
     Max number of different atomic species (ntypx) = 10
     Max number of k-points (npk) =  40000
     Max angular momentum in pseudopotentials (lmaxx) =  3
     file Fe.pbe-spn-kjpaw_psl.1.0.0.UPF: wavefunction(s)  3P 3D renormalized
     file Fe.pbe-spn-kjpaw_psl.1.0.0.UPF: wavefunction(s)  3P 3D renormalized

     Subspace diagonalization in iterative solution of the eigenvalue problem:
     one sub-group per band group will be used

     Found symmetry operation: I + (  0.0000  0.0000 -0.5000)
     This is a supercell, fractional translations are disabled
     Message from routine setup:
     using ibrav=0 with symmetry is DISCOURAGED, use correct ibrav instead

     bravais-lattice index     =            0
     lattice parameter (alat)  =      10.2690  a.u.
     unit-cell volume          =     920.7600 (a.u.)^3
     number of atoms/cell      =           16
     number of atomic types    =            2
     number of electrons       =       256.00
     number of Kohn-Sham states=          154
     kinetic-energy cutoff     =      71.0000  Ry
     charge density cutoff     =     430.0000  Ry
     scf convergence threshold =      1.0E-07
     mixing beta               =       0.1000
     number of iterations used =           10  local-TF  mixing
     Exchange-correlation= SLA  PW   PBX  PBC
                           (   1   4   3   4   0   0   0)

     celldm(1)=  10.269041  celldm(2)=   0.000000  celldm(3)=   0.000000
     celldm(4)=   0.000000  celldm(5)=   0.000000  celldm(6)=   0.000000

     crystal axes: (cart. coord. in units of alat)
               a(1) = (   0.947368   0.000000   0.000000 )
               a(2) = (   0.000000   0.947368   0.000000 )
               a(3) = (   0.000000   0.000000   0.947368 )

     reciprocal axes: (cart. coord. in units 2 pi/alat)
               b(1) = (  1.055556  0.000000  0.000000 )
               b(2) = (  0.000000  1.055556  0.000000 )
               b(3) = (  0.000000  0.000000  1.055556 )

     PseudoPot. # 1 for Fe read from file:
     /rds/homes/b/bxp912/pp/Fe.pbe-spn-kjpaw_psl.1.0.0.UPF
     MD5 check sum: 42f43b795421b414b0dc916aa790dbcb
     Pseudo is Projector augmented-wave + core cor, Zval = 16.0
     Generated using &quot;atomic&quot; code by A. Dal Corso  v.6.3
     Shape of augmentation charge: PSQ
     Using radial grid of 1191 points,  6 beta functions with:
                l(1) =   0
                l(2) =   0
                l(3) =   1
                l(4) =   1
                l(5) =   2
                l(6) =   2
     Q(r) pseudized with 0 coefficients

     PseudoPot. # 2 for Fe read from file:
     /rds/homes/b/bxp912/pp/Fe.pbe-spn-kjpaw_psl.1.0.0.UPF
     MD5 check sum: 42f43b795421b414b0dc916aa790dbcb
     Pseudo is Projector augmented-wave + core cor, Zval = 16.0
     Generated using &quot;atomic&quot; code by A. Dal Corso  v.6.3
     Shape of augmentation charge: PSQ
     Using radial grid of 1191 points,  6 beta functions with:
                l(1) =   0
                l(2) =   0
                l(3) =   1
                l(4) =   1
                l(5) =   2
                l(6) =   2
     Q(r) pseudized with 0 coefficients

     atomic species   valence    mass     pseudopotential
        Fe1           16.00    55.84500     Fe( 1.00)
        Fe2           16.00    55.84500     Fe( 1.00)

     Starting magnetic structure
     atomic species   magnetization
        Fe1          0.100
        Fe2          0.100

     48 Sym. Ops., with inversion, found

   Cartesian axes

     site n.     atom                  positions (alat units)
         1           Fe1 tau(   1) = (   0.0000000   0.0000000   0.0000000  )
         2           Fe2 tau(   2) = (   0.2368421   0.2368421   0.2368421  )
         3           Fe1 tau(   3) = (   0.0000000   0.0000000   0.4736842  )
         4           Fe2 tau(   4) = (   0.2368421   0.2368421   0.7105263  )
         5           Fe1 tau(   5) = (   0.0000000   0.4736842   0.0000000  )
         6           Fe2 tau(   6) = (   0.2368421   0.7105263   0.2368421  )
         7           Fe1 tau(   7) = (   0.0000000   0.4736842   0.4736842  )
         8           Fe2 tau(   8) = (   0.2368421   0.7105263   0.7105263  )
         9           Fe1 tau(   9) = (   0.4736842   0.0000000   0.0000000  )
        10           Fe2 tau(  10) = (   0.7105263   0.2368421   0.2368421  )
        11           Fe1 tau(  11) = (   0.4736842   0.0000000   0.4736842  )
        12           Fe2 tau(  12) = (   0.7105263   0.2368421   0.7105263  )
        13           Fe1 tau(  13) = (   0.4736842   0.4736842   0.0000000  )
        14           Fe2 tau(  14) = (   0.7105263   0.7105263   0.2368421  )
        15           Fe1 tau(  15) = (   0.4736842   0.4736842   0.4736842  )
        16           Fe2 tau(  16) = (   0.7105263   0.7105263   0.7105263  )

     number of k points=    35  Marzari-Vanderbilt smearing, width (Ry)=  0.0400
                       cart. coord. in units 2pi/alat
        k(    1) = (   0.0586420   0.0586420   0.0586420), wk =   0.0109739
        k(    2) = (   0.0586420   0.0586420   0.1759259), wk =   0.0329218
        k(    3) = (   0.0586420   0.0586420   0.2932099), wk =   0.0329218
        k(    4) = (   0.0586420   0.0586420   0.4104938), wk =   0.0329218
        k(    5) = (   0.0586420   0.0586420  -0.5277778), wk =   0.0164609
        k(    6) = (   0.0586420   0.1759259   0.1759259), wk =   0.0329218
        k(    7) = (   0.0586420   0.1759259   0.2932099), wk =   0.0658436
        k(    8) = (   0.0586420   0.1759259   0.4104938), wk =   0.0658436
        k(    9) = (   0.0586420   0.1759259  -0.5277778), wk =   0.0329218
        k(   10) = (   0.0586420   0.2932099   0.2932099), wk =   0.0329218
        k(   11) = (   0.0586420   0.2932099   0.4104938), wk =   0.0658436
        k(   12) = (   0.0586420   0.2932099  -0.5277778), wk =   0.0329218
        k(   13) = (   0.0586420   0.4104938   0.4104938), wk =   0.0329218
        k(   14) = (   0.0586420   0.4104938  -0.5277778), wk =   0.0329218
        k(   15) = (   0.0586420  -0.5277778  -0.5277778), wk =   0.0082305
        k(   16) = (   0.1759259   0.1759259   0.1759259), wk =   0.0109739
        k(   17) = (   0.1759259   0.1759259   0.2932099), wk =   0.0329218
        k(   18) = (   0.1759259   0.1759259   0.4104938), wk =   0.0329218
        k(   19) = (   0.1759259   0.1759259  -0.5277778), wk =   0.0164609
        k(   20) = (   0.1759259   0.2932099   0.2932099), wk =   0.0329218
        k(   21) = (   0.1759259   0.2932099   0.4104938), wk =   0.0658436
        k(   22) = (   0.1759259   0.2932099  -0.5277778), wk =   0.0329218
        k(   23) = (   0.1759259   0.4104938   0.4104938), wk =   0.0329218
        k(   24) = (   0.1759259   0.4104938  -0.5277778), wk =   0.0329218
        k(   25) = (   0.1759259  -0.5277778  -0.5277778), wk =   0.0082305
        k(   26) = (   0.2932099   0.2932099   0.2932099), wk =   0.0109739
        k(   27) = (   0.2932099   0.2932099   0.4104938), wk =   0.0329218
        k(   28) = (   0.2932099   0.2932099  -0.5277778), wk =   0.0164609
        k(   29) = (   0.2932099   0.4104938   0.4104938), wk =   0.0329218
        k(   30) = (   0.2932099   0.4104938  -0.5277778), wk =   0.0329218
        k(   31) = (   0.2932099  -0.5277778  -0.5277778), wk =   0.0082305
        k(   32) = (   0.4104938   0.4104938   0.4104938), wk =   0.0109739
        k(   33) = (   0.4104938   0.4104938  -0.5277778), wk =   0.0164609
        k(   34) = (   0.4104938  -0.5277778  -0.5277778), wk =   0.0082305
        k(   35) = (  -0.5277778  -0.5277778  -0.5277778), wk =   0.0013717

     Check: negative core charge=   -0.000007
     Generating pointlists ...
     new r_m :   0.1692 (alat units)  1.7377 (a.u.) for type    1
     new r_m :   0.1692 (alat units)  1.7377 (a.u.) for type    2

     Initial potential from superposition of free atoms

     starting charge  255.99300, renormalised to  256.00000
     Starting wfcs are  160 randomized atomic wfcs
     Checking if some PAW data can be deallocated...

     Self-consistent Calculation

     iteration #  1     ecut=    71.00 Ry     beta= 0.10
     Davidson diagonalization with overlap
     ethr =  1.00E-02,  avg # of iterations =  3.4

     Threshold (ethr) on eigenvalues was too large:
     Diagonalizing with lowered threshold

     Davidson diagonalization with overlap
     ethr =  1.88E-04,  avg # of iterations =  4.9

     total energy              =   -5267.30519484 Ry
     estimated scf accuracy    <       0.74879042 Ry

     total magnetization       =    22.71 Bohr mag/cell
     absolute magnetization    =    22.75 Bohr mag/cell

[...]

     negative rho (up, down):  0.000E+00 2.997E-04

[...]

     total energy              =   -5267.33452608 Ry
     estimated scf accuracy    <       0.00000023 Ry

[...]

     iteration # 19     ecut=    71.00 Ry     beta= 0.10
     Davidson diagonalization with overlap
     ethr =  8.95E-11,  avg # of iterations =  3.7

[...]

     Magnetic moment per site:
     atom:    1    charge:   14.1555    magn:    1.6723    constr:    0.0000
     atom:    2    charge:   14.1555    magn:    1.6724    constr:    0.0000
     atom:    3    charge:   14.1555    magn:    1.6724    constr:    0.0000
     atom:    4    charge:   14.1555    magn:    1.6724    constr:    0.0000
     atom:    5    charge:   14.1555    magn:    1.6724    constr:    0.0000
     atom:    6    charge:   14.1555    magn:    1.6724    constr:    0.0000
     atom:    7    charge:   14.1555    magn:    1.6724    constr:    0.0000
     atom:    8    charge:   14.1555    magn:    1.6724    constr:    0.0000
     atom:    9    charge:   14.1555    magn:    1.6724    constr:    0.0000
     atom:   10    charge:   14.1555    magn:    1.6724    constr:    0.0000
     atom:   11    charge:   14.1555    magn:    1.6724    constr:    0.0000
     atom:   12    charge:   14.1555    magn:    1.6724    constr:    0.0000
     atom:   13    charge:   14.1555    magn:    1.6724    constr:    0.0000
     atom:   14    charge:   14.1555    magn:    1.6724    constr:    0.0000
     atom:   15    charge:   14.1555    magn:    1.6724    constr:    0.0000
     atom:   16    charge:   14.1555    magn:    1.6724    constr:    0.0000

     End of self-consistent calculation

 ------ SPIN UP ------------

          k = 0.0586 0.0586 0.0586 (  9252 PWs)   bands (ev):

   -62.6199 -62.4039 -62.4039 -62.4039 -62.3659 -62.3659 -62.3659 -62.3655
   -62.3655 -62.3655 -62.3622 -62.3622 -62.3621 -62.3437 -62.3434 -62.1871
   -29.0949 -29.0949 -29.0949 -29.0896 -29.0896 -29.0896 -28.7647 -28.7647
   -28.7532 -28.6468 -28.6404 -28.6404 -28.6404 -28.6005 -28.6005 -28.5774
   -28.5774 -28.5774 -28.5077 -28.5077 -28.4623 -28.4164 -28.4164 -28.4164
   -28.3964 -28.3964 -28.3964 -28.3683 -28.3683 -28.3683 -28.3626 -28.3626
   -28.3626 -28.3516 -28.3516 -28.3516 -28.3329 -28.3329 -28.3329 -28.0389
   -28.0389 -28.0389 -28.0384 -28.0332 -28.0332 -28.0332 -28.0264 -28.0264
    15.5959  18.8983  18.8983  19.0588  19.0588  19.0588  19.0757  19.0757
    19.0757  19.7000  19.7000  19.7000  20.0615  20.0615  20.0615  21.1916
    21.1916  21.1916  21.2101  21.2101  21.2101  21.2575  21.3840  21.3840
    21.3899  21.3899  21.3899  21.6063  21.6063  21.6984  21.8918  21.8918
    21.8918  22.8796  22.8796  22.9416  23.3328  23.3328  23.3328  23.4505
    23.4505  23.4505  23.5828  23.5828  23.5828  23.7026  23.7026  23.7026
    24.6353  24.6354  24.6354  24.7804  24.7804  24.8324  24.8324  24.8324
    24.9126  24.9126  24.9126  24.9244  24.9244  24.9244  24.9603  24.9603
    24.9603  25.1416  25.1416  25.1416  25.2048  25.2048  25.2058  25.2058
    26.0307  26.0307  26.0307  26.4221  26.4221  26.4221  26.4729  26.4729
    26.4729  26.5362  26.6383  26.6383  27.2274  27.2274  27.2274  27.2563
    27.2563  27.2563

[...]

          k =-0.5278-0.5278-0.5278 (  9328 PWs)   bands (ev):

[...]

 ------ SPIN DOWN ----------

[...]

          k = 0.4105-0.5278-0.5278 (  9328 PWs)   bands (ev):

[...]

          k =-0.5278-0.5278-0.5278 (  9328 PWs)   bands (ev):

   -60.4367 -60.4367 -60.4367 -60.4367 -60.4367 -60.4367 -60.4367 -60.4367
   -60.2721 -60.2721 -60.2721 -60.2721 -60.2721 -60.2721 -60.2721 -60.2721
   -26.8568 -26.8568 -26.8568 -26.8568 -26.8568 -26.8568 -26.8568 -26.8568
   -26.8568 -26.8568 -26.8568 -26.8568 -26.8568 -26.8568 -26.8568 -26.8568
   -26.7862 -26.7862 -26.7862 -26.7862 -26.7862 -26.7862 -26.7862 -26.7862
   -26.2504 -26.2503 -26.2503 -26.2503 -26.2503 -26.2503 -26.2503 -26.2503
   -26.1743 -26.1743 -26.1743 -26.1743 -26.1743 -26.1743 -26.1743 -26.1743
   -26.1743 -26.1743 -26.1743 -26.1743 -26.1743 -26.1743 -26.1743 -26.1743
    19.8196  19.8196  19.8196  19.8196  19.8196  19.8196  19.8196  19.8196
    22.3209  22.3209  22.3209  22.3209  22.3209  22.3209  22.3209  22.3209
    22.3209  22.3209  22.3209  22.3209  22.3209  22.3209  22.3209  22.3209
    22.8502  22.8502  22.8502  22.8502  22.8502  22.8502  22.8502  22.8502
    22.8860  22.8860  22.8860  22.8860  22.8860  22.8860  22.8860  22.8860
    22.8860  22.8860  22.8860  22.8860  22.8860  22.8860  22.8860  22.8860
    27.1078  27.1078  27.1078  27.1078  27.1078  27.1079  27.1079  27.1079
    27.1079  27.1079  27.1079  27.1079  27.1079  27.1079  27.1079  27.1079
    27.2356  27.2356  27.2356  27.2356  27.2356  27.2356  27.2356  27.2356
    27.2356  27.2356  27.2356  27.2356  27.2356  27.2356  27.2356  27.2356
    27.8942  27.8942  27.8942  27.8942  27.8942  27.8942  27.8942  27.8942
    36.1334  36.1334

     the Fermi energy is    25.8634 ev

!    total energy              =   -5267.33452644 Ry

     total all-electron energy =    -40728.079055 Ry
     estimated scf accuracy    <          6.8E-09 Ry
     smearing contrib. (-TS)   =       0.03986816 Ry
     internal energy E=F+TS    =   -5267.37439460 Ry

     The total energy is F=E-TS. E is the sum of the following terms:
     one-electron contribution =   -1318.73264865 Ry
     hartree contribution      =     888.23531496 Ry
     xc contribution           =    -447.77525555 Ry
     ewald contribution        =   -3064.43948974 Ry
     one-center paw contrib.   =   -1324.66231561 Ry

     total magnetization       =    26.75 Bohr mag/cell
     absolute magnetization    =    27.52 Bohr mag/cell

     convergence has been achieved in  19 iterations

     negative rho (up, down):  0.000E+00 8.851E-04

     Forces acting on atoms (cartesian axes, Ry/au):

     atom    1 type  1   force =     0.00000000    0.00000000    0.00000000
     atom    2 type  2   force =     0.00001013    0.00001013    0.00001013
     atom    3 type  1   force =     0.00000000    0.00000000    0.00000000
     atom    4 type  2   force =     0.00001013    0.00001013   -0.00001013
     atom    5 type  1   force =     0.00000000    0.00000000    0.00000000
     atom    6 type  2   force =     0.00001013   -0.00001013    0.00001013
     atom    7 type  1   force =     0.00000000    0.00000000    0.00000000
     atom    8 type  2   force =     0.00001013   -0.00001013   -0.00001013
     atom    9 type  1   force =     0.00000000    0.00000000    0.00000000
     atom   10 type  2   force =    -0.00001013    0.00001013    0.00001013
     atom   11 type  1   force =     0.00000000    0.00000000    0.00000000
     atom   12 type  2   force =    -0.00001013    0.00001013   -0.00001013
     atom   13 type  1   force =     0.00000000    0.00000000    0.00000000
     atom   14 type  2   force =    -0.00001013   -0.00001013    0.00001013
     atom   15 type  1   force =     0.00000000    0.00000000    0.00000000
     atom   16 type  2   force =    -0.00001013   -0.00001013   -0.00001013

     Total force =     0.000050     Total SCF correction =     0.000171
     SCF correction compared to forces is large: reduce conv_thr to get better values

     Computing stress (Cartesian axis) and pressure

     negative rho (up, down):  0.000E+00 8.851E-04
          total   stress  (Ry/bohr**3)                   (kbar)     P=     1040.33
   0.00707204   0.00000000   0.00000000         1040.33        0.00        0.00
   0.00000000   0.00707204   0.00000000            0.00     1040.33        0.00
   0.00000000   0.00000000   0.00707204            0.00        0.00     1040.33

     Writing output data file /scratch/uIXsmMJEGztzlnVw.save/

     General routines

     Parallel routines

   This run was terminated on:  13:48:46  17Jan2022

   JOB DONE.