     Program PWSCF v.6.7MaX starts on 19Mar2022 at 16:43:37

     R & G space division:  proc/nbgrp/npool/nimage =      72
     Reading input from bcc_14.in
Warning: card &CELL ignored
Warning: card CELL_DYNAMICS = 'BFGS', ignored
Warning: card CELL_FACTOR = 2.0, ignored
Warning: card PRESS = 0.0, ignored
Warning: card / ignored

     Current dimensions of program PWSCF are:
     Max number of different atomic species (ntypx) = 10
     Max number of k-points (npk) =  40000
     Max angular momentum in pseudopotentials (lmaxx) =  3
     file Fe.pbe-spn-kjpaw_psl.1.0.0.UPF: wavefunction(s)  3P 3D renormalized
     file Fe.pbe-spn-kjpaw_psl.1.0.0.UPF: wavefunction(s)  3P 3D renormalized

     Subspace diagonalization in iterative solution of the eigenvalue problem:
     one sub-group per band group will be used

     Found symmetry operation: I + (  0.0000  0.0000  0.5000)
     This is a supercell, fractional translations are disabled
     Message from routine setup:
     using ibrav=0 with symmetry is DISCOURAGED, use correct ibrav instead

     bravais-lattice index     =            0
     lattice parameter (alat)  =      10.2690  a.u.
     unit-cell volume          =    4479.4885 (a.u.)^3
     number of atoms/cell      =           16
     number of atomic types    =            2
     number of electrons       =       256.00
     number of Kohn-Sham states=          154
     kinetic-energy cutoff     =      71.0000  Ry
     charge density cutoff     =     430.0000  Ry
     scf convergence threshold =      1.0E-07
     mixing beta               =       0.3000
     number of iterations used =           10  local-TF  mixing
     Exchange-correlation= SLA  PW   PBX  PBC
                           (   1   4   3   4   0   0   0)

     celldm(1)=  10.269041  celldm(2)=   0.000000  celldm(3)=   0.000000
     celldm(4)=   0.000000  celldm(5)=   0.000000  celldm(6)=   0.000000

     crystal axes: (cart. coord. in units of alat)
               a(1) = (   1.605263   0.000000   0.000000 )
               a(2) = (   0.000000   1.605263   0.000000 )
               a(3) = (   0.000000   0.000000   1.605263 )

     reciprocal axes: (cart. coord. in units 2 pi/alat)
               b(1) = (  0.622951  0.000000  0.000000 )
               b(2) = (  0.000000  0.622951  0.000000 )
               b(3) = (  0.000000  0.000000  0.622951 )

     PseudoPot. # 1 for Fe read from file:
     /rds/homes/b/bxp912/pp/Fe.pbe-spn-kjpaw_psl.1.0.0.UPF
     MD5 check sum: 42f43b795421b414b0dc916aa790dbcb
     Pseudo is Projector augmented-wave + core cor, Zval = 16.0
     Generated using &quot;atomic&quot; code by A. Dal Corso  v.6.3
     Shape of augmentation charge: PSQ
     Using radial grid of 1191 points,  6 beta functions with:
                l(1) =   0
                l(2) =   0
                l(3) =   1
                l(4) =   1
                l(5) =   2
                l(6) =   2
     Q(r) pseudized with 0 coefficients

     PseudoPot. # 2 for Fe read from file:
     /rds/homes/b/bxp912/pp/Fe.pbe-spn-kjpaw_psl.1.0.0.UPF
     MD5 check sum: 42f43b795421b414b0dc916aa790dbcb
     Pseudo is Projector augmented-wave + core cor, Zval = 16.0
     Generated using &quot;atomic&quot; code by A. Dal Corso  v.6.3
     Shape of augmentation charge: PSQ
     Using radial grid of 1191 points,  6 beta functions with:
                l(1) =   0
                l(2) =   0
                l(3) =   1
                l(4) =   1
                l(5) =   2
                l(6) =   2
     Q(r) pseudized with 0 coefficients

     atomic species   valence    mass     pseudopotential
        Fe1           16.00    55.84500     Fe( 1.00)
        Fe2           16.00    55.84500     Fe( 1.00)

     Starting magnetic structure
     atomic species   magnetization
        Fe1          0.100
        Fe2          0.100

     48 Sym. Ops., with inversion, found

   Cartesian axes

     site n.     atom                  positions (alat units)
         1           Fe1 tau(   1) = (   0.0000000   0.0000000   0.0000000  )
         2           Fe2 tau(   2) = (   0.4013158   0.4013158   0.4013158  )
         3           Fe1 tau(   3) = (   0.0000000   0.0000000   0.8026316  )
         4           Fe2 tau(   4) = (   0.4013158   0.4013158   1.2039474  )
         5           Fe1 tau(   5) = (   0.0000000   0.8026316   0.0000000  )
         6           Fe2 tau(   6) = (   0.4013158   1.2039474   0.4013158  )
         7           Fe1 tau(   7) = (   0.0000000   0.8026316   0.8026316  )
         8           Fe2 tau(   8) = (   0.4013158   1.2039474   1.2039474  )
         9           Fe1 tau(   9) = (   0.8026316   0.0000000   0.0000000  )
        10           Fe2 tau(  10) = (   1.2039474   0.4013158   0.4013158  )
        11           Fe1 tau(  11) = (   0.8026316   0.0000000   0.8026316  )
        12           Fe2 tau(  12) = (   1.2039474   0.4013158   1.2039474  )
        13           Fe1 tau(  13) = (   0.8026316   0.8026316   0.0000000  )
        14           Fe2 tau(  14) = (   1.2039474   1.2039474   0.4013158  )
        15           Fe1 tau(  15) = (   0.8026316   0.8026316   0.8026316  )
        16           Fe2 tau(  16) = (   1.2039474   1.2039474   1.2039474  )

     number of k points=    35  Marzari-Vanderbilt smearing, width (Ry)=  0.0400
                       cart. coord. in units 2pi/alat
        k(    1) = (   0.0346084   0.0346084   0.0346084), wk =   0.0109739
        k(    2) = (   0.0346084   0.0346084   0.1038251), wk =   0.0329218
        k(    3) = (   0.0346084   0.0346084   0.1730419), wk =   0.0329218
        k(    4) = (   0.0346084   0.0346084   0.2422587), wk =   0.0329218
        k(    5) = (   0.0346084   0.0346084  -0.3114754), wk =   0.0164609
        k(    6) = (   0.0346084   0.1038251   0.1038251), wk =   0.0329218
        k(    7) = (   0.0346084   0.1038251   0.1730419), wk =   0.0658436
        k(    8) = (   0.0346084   0.1038251   0.2422587), wk =   0.0658436
        k(    9) = (   0.0346084   0.1038251  -0.3114754), wk =   0.0329218
        k(   10) = (   0.0346084   0.1730419   0.1730419), wk =   0.0329218
        k(   11) = (   0.0346084   0.1730419   0.2422587), wk =   0.0658436
        k(   12) = (   0.0346084   0.1730419  -0.3114754), wk =   0.0329218
        k(   13) = (   0.0346084   0.2422587   0.2422587), wk =   0.0329218
        k(   14) = (   0.0346084   0.2422587  -0.3114754), wk =   0.0329218
        k(   15) = (   0.0346084  -0.3114754  -0.3114754), wk =   0.0082305
        k(   16) = (   0.1038251   0.1038251   0.1038251), wk =   0.0109739
        k(   17) = (   0.1038251   0.1038251   0.1730419), wk =   0.0329218
        k(   18) = (   0.1038251   0.1038251   0.2422587), wk =   0.0329218
        k(   19) = (   0.1038251   0.1038251  -0.3114754), wk =   0.0164609
        k(   20) = (   0.1038251   0.1730419   0.1730419), wk =   0.0329218
        k(   21) = (   0.1038251   0.1730419   0.2422587), wk =   0.0658436
        k(   22) = (   0.1038251   0.1730419  -0.3114754), wk =   0.0329218
        k(   23) = (   0.1038251   0.2422587   0.2422587), wk =   0.0329218
        k(   24) = (   0.1038251   0.2422587  -0.3114754), wk =   0.0329218
        k(   25) = (   0.1038251  -0.3114754  -0.3114754), wk =   0.0082305
        k(   26) = (   0.1730419   0.1730419   0.1730419), wk =   0.0109739
        k(   27) = (   0.1730419   0.1730419   0.2422587), wk =   0.0329218
        k(   28) = (   0.1730419   0.1730419  -0.3114754), wk =   0.0164609
        k(   29) = (   0.1730419   0.2422587   0.2422587), wk =   0.0329218
        k(   30) = (   0.1730419   0.2422587  -0.3114754), wk =   0.0329218
        k(   31) = (   0.1730419  -0.3114754  -0.3114754), wk =   0.0082305
        k(   32) = (   0.2422587   0.2422587   0.2422587), wk =   0.0109739
        k(   33) = (   0.2422587   0.2422587  -0.3114754), wk =   0.0164609
        k(   34) = (   0.2422587  -0.3114754  -0.3114754), wk =   0.0082305
        k(   35) = (  -0.3114754  -0.3114754  -0.3114754), wk =   0.0013717

     Check: negative core charge=   -0.000003
     Generating pointlists ...
     new r_m :   0.2867 (alat units)  2.9444 (a.u.) for type    1
     new r_m :   0.2867 (alat units)  2.9444 (a.u.) for type    2

     Initial potential from superposition of free atoms

     starting charge  255.99300, renormalised to  256.00000
     Starting wfcs are  160 randomized atomic wfcs
     Checking if some PAW data can be deallocated...

     Self-consistent Calculation

     iteration #  1     ecut=    71.00 Ry     beta= 0.30
     Davidson diagonalization with overlap
     ethr =  1.00E-02,  avg # of iterations =  2.0

     total energy              =   -5262.46714457 Ry
     estimated scf accuracy    <      10.21044469 Ry

     total magnetization       =    42.38 Bohr mag/cell
     absolute magnetization    =    42.38 Bohr mag/cell

[...]

     negative rho (up, down):  0.000E+00 8.765E-04

[...]

     iteration # 13     ecut=    71.00 Ry     beta= 0.30
     Davidson diagonalization with overlap
     c_bands:  1 eigenvalues not converged
     ethr =  4.85E-06,  avg # of iterations =  7.4

[...]

     iteration # 32     ecut=    71.00 Ry     beta= 0.30
     Davidson diagonalization with overlap
     ethr =  1.78E-10,  avg # of iterations =  1.1

[...]

     total energy              =   -5264.06172809 Ry
     estimated scf accuracy    <       0.00000016 Ry

[...]

     iteration # 36     ecut=    71.00 Ry     beta= 0.30
     Davidson diagonalization with overlap
     c_bands:  1 eigenvalues not converged
     c_bands:  2 eigenvalues not converged
     ethr =  6.28E-11,  avg # of iterations =  3.7

[...]

     Magnetic moment per site:
     atom:    1    charge:   15.2439    magn:    3.3387    constr:    0.0000
     atom:    2    charge:   15.2439    magn:    3.3370    constr:    0.0000
     atom:    3    charge:   15.2440    magn:    3.3366    constr:    0.0000
     atom:    4    charge:   15.2439    magn:    3.3370    constr:    0.0000
     atom:    5    charge:   15.2440    magn:    3.3366    constr:    0.0000
     atom:    6    charge:   15.2439    magn:    3.3370    constr:    0.0000
     atom:    7    charge:   15.2439    magn:    3.3364    constr:    0.0000
     atom:    8    charge:   15.2439    magn:    3.3370    constr:    0.0000
     atom:    9    charge:   15.2440    magn:    3.3366    constr:    0.0000
     atom:   10    charge:   15.2439    magn:    3.3370    constr:    0.0000
     atom:   11    charge:   15.2439    magn:    3.3364    constr:    0.0000
     atom:   12    charge:   15.2439    magn:    3.3370    constr:    0.0000
     atom:   13    charge:   15.2439    magn:    3.3364    constr:    0.0000
     atom:   14    charge:   15.2439    magn:    3.3370    constr:    0.0000
     atom:   15    charge:   15.2436    magn:    3.3379    constr:    0.0000
     atom:   16    charge:   15.2439    magn:    3.3370    constr:    0.0000

     End of self-consistent calculation

 ------ SPIN UP ------------

          k = 0.0346 0.0346 0.0346 ( 45271 PWs)   bands (ev):

   -86.1944 -86.1944 -86.1930 -86.1930 -86.1930 -86.1930 -86.1930 -86.1929
   -86.1929 -86.1929 -86.1925 -86.1925 -86.1925 -86.1924 -86.1924 -86.1924
   -52.2642 -52.2642 -52.2641 -52.2640 -52.2639 -52.2639 -52.2638 -52.2638
   -52.2638 -52.2636 -52.2635 -52.2635 -52.2634 -52.2634 -52.2634 -52.2633
   -52.2633 -52.2632 -52.2632 -52.2632 -52.2630 -52.2630 -52.2628 -52.2628
   -52.2628 -52.2623 -52.2622 -52.2622 -52.2622 -52.2621 -52.2621 -52.2619
   -52.2619 -52.2619 -52.2616 -52.2616 -52.2616 -52.2616 -52.2616 -52.2616
   -52.2614 -52.2613 -52.2613 -52.2613 -52.2612 -52.2612 -52.2611 -52.2610
    -1.2041  -0.3630  -0.3630  -0.2512  -0.2512  -0.2506  -0.2506  -0.2506
    -0.2496  -0.2014  -0.2014  -0.2012  -0.1922  -0.1922  -0.1921  -0.1887
    -0.1887  -0.1885  -0.1722  -0.1722  -0.1721  -0.0287  -0.0287  -0.0236
    -0.0236  -0.0234  -0.0203  -0.0203  -0.0200  -0.0200  -0.0200  -0.0200
    -0.0199   0.0763   0.0772   0.0772   0.0789   0.0789   0.0798   0.1357
     0.1546   0.1546   0.1572   0.1572   0.1590   0.1604   0.1604   0.1630
     0.1813   0.1813   0.1841   0.1841   0.1858   0.1942   0.2400   0.2400
     0.2413   0.2522   0.2537   0.2537   0.2637   0.2637   0.2658   0.2758
     0.2774   0.2774   0.3217   0.3217   0.3249   0.3471   0.3471   0.3499
     0.4612   0.4668   0.4668   0.4922   0.4922   0.4939   0.4943   0.4961
     0.4961   0.7337   0.7337   0.7337   1.1600   1.1601   1.1601   2.5364
     2.5364   2.5367

[...]

          k =-0.3115-0.3115-0.3115 ( 45104 PWs)   bands (ev):

[...]

 ------ SPIN DOWN ----------

[...]

          k = 0.2423-0.3115-0.3115 ( 45256 PWs)   bands (ev):

[...]

          k =-0.3115-0.3115-0.3115 ( 45104 PWs)   bands (ev):

   -82.5776 -82.5776 -82.5769 -82.5769 -82.5769 -82.5769 -82.5769 -82.5769
   -82.5769 -82.5769 -82.5766 -82.5766 -82.5766 -82.5766 -82.5766 -82.5766
   -48.7213 -48.7213 -48.7213 -48.7213 -48.7213 -48.7213 -48.7213 -48.7213
   -48.7213 -48.7213 -48.7213 -48.7212 -48.7212 -48.7212 -48.7212 -48.7212
   -48.7207 -48.7207 -48.7207 -48.7207 -48.7207 -48.7207 -48.7203 -48.7201
   -48.7201 -48.7201 -48.7200 -48.7199 -48.7199 -48.7199 -48.7197 -48.7197
   -48.7197 -48.7197 -48.7197 -48.7195 -48.7195 -48.7195 -48.7195 -48.7195
   -48.7195 -48.7194 -48.7193 -48.7193 -48.7193 -48.7193 -48.7193 -48.7193
     0.4891   0.4891   0.4891   0.4892   0.4892   0.4892   0.4900   0.4903
     2.5226   2.5229   2.5251   2.5251   2.5251   2.5252   2.5252   2.5252
     2.6810   2.6810   2.6810   2.6811   2.6811   2.6811   2.6827   2.6827
     2.6831   2.6831   2.6837   2.6837   2.6837   2.6839   2.6839   2.6839
     2.8125   2.8125   2.8125   2.8127   2.8127   2.8127   2.8128   2.8128
     2.8128   2.8128   2.8128   2.8128   2.8145   2.8145   2.8146   2.8146
     3.2116   3.2120   3.2145   3.2145   3.2145   3.2147   3.2147   3.2147
     3.3821   3.3821   3.3821   3.3822   3.3822   3.3823   3.3823   3.3824
     3.3824   3.3824   3.3849   3.3849   3.3849   3.3852   3.3852   3.3852
     3.6485   3.6485   3.6485   3.6486   3.6486   3.6486   3.6488   3.6488
     3.6490   3.6490   3.6490   3.6490   3.6490   3.6491   3.6491   3.6491
     4.6270   4.6271

     the Fermi energy is     2.9320 ev

!    total energy              =   -5264.06172808 Ry

     total all-electron energy =    -40724.806257 Ry
     estimated scf accuracy    <       0.00000010 Ry
     smearing contrib. (-TS)   =      -0.19875289 Ry
     internal energy E=F+TS    =   -5263.86297519 Ry

     The total energy is F=E-TS. E is the sum of the following terms:
     one-electron contribution =   -3407.22969256 Ry
     hartree contribution      =    1716.32363536 Ry
     xc contribution           =    -440.16301313 Ry
     ewald contribution        =   -1808.52166608 Ry
     one-center paw contrib.   =   -1324.27223877 Ry

     total magnetization       =    51.90 Bohr mag/cell
     absolute magnetization    =    55.33 Bohr mag/cell

     convergence has been achieved in  36 iterations

     negative rho (up, down):  0.000E+00 4.269E-03

     Forces acting on atoms (cartesian axes, Ry/au):

     atom    1 type  1   force =     0.00000000    0.00000000    0.00000000
     atom    2 type  2   force =     0.00000964    0.00000964    0.00000964
     atom    3 type  1   force =     0.00000000    0.00000000    0.00000000
     atom    4 type  2   force =     0.00000964    0.00000964   -0.00000964
     atom    5 type  1   force =     0.00000000    0.00000000    0.00000000
     atom    6 type  2   force =     0.00000964   -0.00000964    0.00000964
     atom    7 type  1   force =     0.00000000    0.00000000    0.00000000
     atom    8 type  2   force =     0.00000964   -0.00000964   -0.00000964
     atom    9 type  1   force =     0.00000000    0.00000000    0.00000000
     atom   10 type  2   force =    -0.00000964    0.00000964    0.00000964
     atom   11 type  1   force =     0.00000000    0.00000000    0.00000000
     atom   12 type  2   force =    -0.00000964    0.00000964   -0.00000964
     atom   13 type  1   force =     0.00000000    0.00000000    0.00000000
     atom   14 type  2   force =    -0.00000964   -0.00000964    0.00000964
     atom   15 type  1   force =     0.00000000    0.00000000    0.00000000
     atom   16 type  2   force =    -0.00000964   -0.00000964   -0.00000964

     Total force =     0.000047     Total SCF correction =     0.001366
     SCF correction compared to forces is large: reduce conv_thr to get better values

     Computing stress (Cartesian axis) and pressure

     negative rho (up, down):  0.000E+00 4.269E-03
          total   stress  (Ry/bohr**3)                   (kbar)     P=     -113.75
  -0.00077324   0.00000000   0.00000000         -113.75        0.00        0.00
   0.00000000  -0.00077324   0.00000000            0.00     -113.75        0.00
   0.00000000   0.00000000  -0.00077324            0.00        0.00     -113.75

     Writing output data file /scratch/gpKVJxzyOxxXhiiQ.save/

     General routines

     Parallel routines

   This run was terminated on:  17: 3:22  19Mar2022

   JOB DONE.