     Program PWSCF v.6.7MaX starts on 17Jan2022 at 14: 8: 1

     R & G space division:  proc/nbgrp/npool/nimage =      72
     Reading input from bcc_8.in
Warning: card &CELL ignored
Warning: card CELL_DYNAMICS = 'BFGS', ignored
Warning: card CELL_FACTOR = 2.0, ignored
Warning: card PRESS = 0.0, ignored
Warning: card / ignored

     Current dimensions of program PWSCF are:
     Max number of different atomic species (ntypx) = 10
     Max number of k-points (npk) =  40000
     Max angular momentum in pseudopotentials (lmaxx) =  3
     file Fe.pbe-spn-kjpaw_psl.1.0.0.UPF: wavefunction(s)  3P 3D renormalized
     file Fe.pbe-spn-kjpaw_psl.1.0.0.UPF: wavefunction(s)  3P 3D renormalized

     Subspace diagonalization in iterative solution of the eigenvalue problem:
     one sub-group per band group will be used

     Found symmetry operation: I + (  0.0000  0.0000 -0.5000)
     This is a supercell, fractional translations are disabled
     Message from routine setup:
     using ibrav=0 with symmetry is DISCOURAGED, use correct ibrav instead

     bravais-lattice index     =            0
     lattice parameter (alat)  =      10.2690  a.u.
     unit-cell volume          =    1920.9339 (a.u.)^3
     number of atoms/cell      =           16
     number of atomic types    =            2
     number of electrons       =       256.00
     number of Kohn-Sham states=          154
     kinetic-energy cutoff     =      71.0000  Ry
     charge density cutoff     =     430.0000  Ry
     scf convergence threshold =      1.0E-07
     mixing beta               =       0.1000
     number of iterations used =           10  local-TF  mixing
     Exchange-correlation= SLA  PW   PBX  PBC
                           (   1   4   3   4   0   0   0)

     celldm(1)=  10.269041  celldm(2)=   0.000000  celldm(3)=   0.000000
     celldm(4)=   0.000000  celldm(5)=   0.000000  celldm(6)=   0.000000

     crystal axes: (cart. coord. in units of alat)
               a(1) = (   1.210526   0.000000   0.000000 )
               a(2) = (   0.000000   1.210526   0.000000 )
               a(3) = (   0.000000   0.000000   1.210526 )

     reciprocal axes: (cart. coord. in units 2 pi/alat)
               b(1) = (  0.826087  0.000000  0.000000 )
               b(2) = (  0.000000  0.826087  0.000000 )
               b(3) = (  0.000000  0.000000  0.826087 )

     PseudoPot. # 1 for Fe read from file:
     /rds/homes/b/bxp912/pp/Fe.pbe-spn-kjpaw_psl.1.0.0.UPF
     MD5 check sum: 42f43b795421b414b0dc916aa790dbcb
     Pseudo is Projector augmented-wave + core cor, Zval = 16.0
     Generated using &quot;atomic&quot; code by A. Dal Corso  v.6.3
     Shape of augmentation charge: PSQ
     Using radial grid of 1191 points,  6 beta functions with:
                l(1) =   0
                l(2) =   0
                l(3) =   1
                l(4) =   1
                l(5) =   2
                l(6) =   2
     Q(r) pseudized with 0 coefficients

     PseudoPot. # 2 for Fe read from file:
     /rds/homes/b/bxp912/pp/Fe.pbe-spn-kjpaw_psl.1.0.0.UPF
     MD5 check sum: 42f43b795421b414b0dc916aa790dbcb
     Pseudo is Projector augmented-wave + core cor, Zval = 16.0
     Generated using &quot;atomic&quot; code by A. Dal Corso  v.6.3
     Shape of augmentation charge: PSQ
     Using radial grid of 1191 points,  6 beta functions with:
                l(1) =   0
                l(2) =   0
                l(3) =   1
                l(4) =   1
                l(5) =   2
                l(6) =   2
     Q(r) pseudized with 0 coefficients

     atomic species   valence    mass     pseudopotential
        Fe1           16.00    55.84500     Fe( 1.00)
        Fe2           16.00    55.84500     Fe( 1.00)

     Starting magnetic structure
     atomic species   magnetization
        Fe1          0.100
        Fe2          0.100

     48 Sym. Ops., with inversion, found

   Cartesian axes

     site n.     atom                  positions (alat units)
         1           Fe1 tau(   1) = (   0.0000000   0.0000000   0.0000000  )
         2           Fe2 tau(   2) = (   0.3026316   0.3026316   0.3026316  )
         3           Fe1 tau(   3) = (   0.0000000   0.0000000   0.6052632  )
         4           Fe2 tau(   4) = (   0.3026316   0.3026316   0.9078947  )
         5           Fe1 tau(   5) = (   0.0000000   0.6052632   0.0000000  )
         6           Fe2 tau(   6) = (   0.3026316   0.9078947   0.3026316  )
         7           Fe1 tau(   7) = (   0.0000000   0.6052632   0.6052632  )
         8           Fe2 tau(   8) = (   0.3026316   0.9078947   0.9078947  )
         9           Fe1 tau(   9) = (   0.6052632   0.0000000   0.0000000  )
        10           Fe2 tau(  10) = (   0.9078947   0.3026316   0.3026316  )
        11           Fe1 tau(  11) = (   0.6052632   0.0000000   0.6052632  )
        12           Fe2 tau(  12) = (   0.9078947   0.3026316   0.9078947  )
        13           Fe1 tau(  13) = (   0.6052632   0.6052632   0.0000000  )
        14           Fe2 tau(  14) = (   0.9078947   0.9078947   0.3026316  )
        15           Fe1 tau(  15) = (   0.6052632   0.6052632   0.6052632  )
        16           Fe2 tau(  16) = (   0.9078947   0.9078947   0.9078947  )

     number of k points=    35  Marzari-Vanderbilt smearing, width (Ry)=  0.0400
                       cart. coord. in units 2pi/alat
        k(    1) = (   0.0458937   0.0458937   0.0458937), wk =   0.0109739
        k(    2) = (   0.0458937   0.0458937   0.1376812), wk =   0.0329218
        k(    3) = (   0.0458937   0.0458937   0.2294686), wk =   0.0329218
        k(    4) = (   0.0458937   0.0458937   0.3212560), wk =   0.0329218
        k(    5) = (   0.0458937   0.0458937  -0.4130435), wk =   0.0164609
        k(    6) = (   0.0458937   0.1376812   0.1376812), wk =   0.0329218
        k(    7) = (   0.0458937   0.1376812   0.2294686), wk =   0.0658436
        k(    8) = (   0.0458937   0.1376812   0.3212560), wk =   0.0658436
        k(    9) = (   0.0458937   0.1376812  -0.4130435), wk =   0.0329218
        k(   10) = (   0.0458937   0.2294686   0.2294686), wk =   0.0329218
        k(   11) = (   0.0458937   0.2294686   0.3212560), wk =   0.0658436
        k(   12) = (   0.0458937   0.2294686  -0.4130435), wk =   0.0329218
        k(   13) = (   0.0458937   0.3212560   0.3212560), wk =   0.0329218
        k(   14) = (   0.0458937   0.3212560  -0.4130435), wk =   0.0329218
        k(   15) = (   0.0458937  -0.4130435  -0.4130435), wk =   0.0082305
        k(   16) = (   0.1376812   0.1376812   0.1376812), wk =   0.0109739
        k(   17) = (   0.1376812   0.1376812   0.2294686), wk =   0.0329218
        k(   18) = (   0.1376812   0.1376812   0.3212560), wk =   0.0329218
        k(   19) = (   0.1376812   0.1376812  -0.4130435), wk =   0.0164609
        k(   20) = (   0.1376812   0.2294686   0.2294686), wk =   0.0329218
        k(   21) = (   0.1376812   0.2294686   0.3212560), wk =   0.0658436
        k(   22) = (   0.1376812   0.2294686  -0.4130435), wk =   0.0329218
        k(   23) = (   0.1376812   0.3212560   0.3212560), wk =   0.0329218
        k(   24) = (   0.1376812   0.3212560  -0.4130435), wk =   0.0329218
        k(   25) = (   0.1376812  -0.4130435  -0.4130435), wk =   0.0082305
        k(   26) = (   0.2294686   0.2294686   0.2294686), wk =   0.0109739
        k(   27) = (   0.2294686   0.2294686   0.3212560), wk =   0.0329218
        k(   28) = (   0.2294686   0.2294686  -0.4130435), wk =   0.0164609
        k(   29) = (   0.2294686   0.3212560   0.3212560), wk =   0.0329218
        k(   30) = (   0.2294686   0.3212560  -0.4130435), wk =   0.0329218
        k(   31) = (   0.2294686  -0.4130435  -0.4130435), wk =   0.0082305
        k(   32) = (   0.3212560   0.3212560   0.3212560), wk =   0.0109739
        k(   33) = (   0.3212560   0.3212560  -0.4130435), wk =   0.0164609
        k(   34) = (   0.3212560  -0.4130435  -0.4130435), wk =   0.0082305
        k(   35) = (  -0.4130435  -0.4130435  -0.4130435), wk =   0.0013717

     Check: negative core charge=   -0.000004
     Generating pointlists ...
     new r_m :   0.2162 (alat units)  2.2204 (a.u.) for type    1
     new r_m :   0.2162 (alat units)  2.2204 (a.u.) for type    2

     Initial potential from superposition of free atoms

     starting charge  255.99300, renormalised to  256.00000
     Starting wfcs are  160 randomized atomic wfcs
     Checking if some PAW data can be deallocated...

     Self-consistent Calculation

     iteration #  1     ecut=    71.00 Ry     beta= 0.10
     Davidson diagonalization with overlap
     ethr =  1.00E-02,  avg # of iterations =  3.7

     Threshold (ethr) on eigenvalues was too large:
     Diagonalizing with lowered threshold

     Davidson diagonalization with overlap
     ethr =  4.49E-04,  avg # of iterations =  4.9

     total energy              =   -5266.57055744 Ry
     estimated scf accuracy    <       0.77110620 Ry

     total magnetization       =    40.71 Bohr mag/cell
     absolute magnetization    =    40.84 Bohr mag/cell

[...]

     negative rho (up, down):  0.000E+00 9.697E-04

[...]

     total energy              =   -5267.25413144 Ry
     estimated scf accuracy    <       0.00000012 Ry

[...]

     iteration # 18     ecut=    71.00 Ry     beta= 0.10
     Davidson diagonalization with overlap
     ethr =  4.80E-11,  avg # of iterations =  4.7

[...]

     Magnetic moment per site:
     atom:    1    charge:   14.7141    magn:    3.0402    constr:    0.0000
     atom:    2    charge:   14.7143    magn:    3.0403    constr:    0.0000
     atom:    3    charge:   14.7141    magn:    3.0403    constr:    0.0000
     atom:    4    charge:   14.7143    magn:    3.0403    constr:    0.0000
     atom:    5    charge:   14.7141    magn:    3.0403    constr:    0.0000
     atom:    6    charge:   14.7143    magn:    3.0403    constr:    0.0000
     atom:    7    charge:   14.7141    magn:    3.0403    constr:    0.0000
     atom:    8    charge:   14.7143    magn:    3.0403    constr:    0.0000
     atom:    9    charge:   14.7141    magn:    3.0403    constr:    0.0000
     atom:   10    charge:   14.7143    magn:    3.0403    constr:    0.0000
     atom:   11    charge:   14.7141    magn:    3.0403    constr:    0.0000
     atom:   12    charge:   14.7143    magn:    3.0403    constr:    0.0000
     atom:   13    charge:   14.7141    magn:    3.0403    constr:    0.0000
     atom:   14    charge:   14.7143    magn:    3.0403    constr:    0.0000
     atom:   15    charge:   14.7141    magn:    3.0402    constr:    0.0000
     atom:   16    charge:   14.7143    magn:    3.0403    constr:    0.0000

     End of self-consistent calculation

 ------ SPIN UP ------------

          k = 0.0459 0.0459 0.0459 ( 19414 PWs)   bands (ev):

   -78.0107 -78.0021 -78.0021 -78.0021 -78.0010 -78.0010 -78.0010 -78.0009
   -78.0009 -78.0008 -78.0006 -78.0006 -78.0005 -78.0005 -78.0004 -77.9931
   -44.0712 -44.0712 -44.0712 -44.0708 -44.0708 -44.0708 -44.0543 -44.0543
   -44.0529 -44.0384 -44.0372 -44.0372 -44.0372 -44.0351 -44.0351 -44.0324
   -44.0323 -44.0323 -44.0282 -44.0282 -44.0255 -44.0255 -44.0255 -44.0245
   -44.0235 -44.0235 -44.0235 -44.0229 -44.0229 -44.0229 -44.0225 -44.0225
   -44.0224 -44.0203 -44.0203 -44.0203 -44.0184 -44.0184 -44.0184 -43.9951
   -43.9938 -43.9938 -43.9935 -43.9935 -43.9935 -43.9931 -43.9931 -43.9931
     4.0247   6.7158   6.7158   6.7158   6.8077   6.8077   6.8077   6.8217
     6.8217   6.8217   6.9725   6.9725   7.0426   7.0426   7.0426   7.6148
     7.6148   7.6148   7.6212   7.6212   7.6212   7.6612   7.7092   7.7092
     7.7894   7.7894   7.7894   7.7920   7.7920   7.8246   7.9390   7.9390
     7.9390   8.1180   8.1180   8.1369   8.3108   8.3108   8.3108   8.3484
     8.3485   8.3485   8.3956   8.3956   8.3956   8.4341   8.4341   8.4341
     8.7016   8.7016   8.7016   8.7261   8.7261   8.7372   8.7372   8.7372
     8.7410   8.7410   8.7410   8.7597   8.7597   8.7597   8.7981   8.7981
     8.7981   8.8056   8.8056   8.8056   8.8130   8.8130   8.8136   8.8136
     9.2903   9.3179   9.3179   9.3286   9.3286   9.3286   9.4095   9.4095
     9.4095   9.4246   9.4247   9.4247   9.7499   9.7499   9.7499  10.7643
    10.7643  10.7644

[...]

          k =-0.4130-0.4130-0.4130 ( 19400 PWs)   bands (ev):

[...]

 ------ SPIN DOWN ----------

[...]

          k = 0.3213-0.4130-0.4130 ( 19416 PWs)   bands (ev):

[...]

          k =-0.4130-0.4130-0.4130 ( 19400 PWs)   bands (ev):

   -74.5190 -74.5190 -74.5190 -74.5190 -74.5190 -74.5190 -74.5190 -74.5190
   -74.5115 -74.5115 -74.5115 -74.5115 -74.5115 -74.5115 -74.5115 -74.5115
   -40.6509 -40.6509 -40.6509 -40.6509 -40.6509 -40.6509 -40.6509 -40.6509
   -40.6509 -40.6509 -40.6509 -40.6509 -40.6509 -40.6509 -40.6509 -40.6509
   -40.6434 -40.6434 -40.6434 -40.6434 -40.6434 -40.6434 -40.6434 -40.6434
   -40.6013 -40.6013 -40.6013 -40.6013 -40.6013 -40.6013 -40.6013 -40.6013
   -40.5936 -40.5936 -40.5936 -40.5936 -40.5935 -40.5935 -40.5935 -40.5935
   -40.5935 -40.5935 -40.5935 -40.5935 -40.5935 -40.5935 -40.5935 -40.5935
     6.6741   6.6741   6.6743   6.6743   6.6743   6.6743   6.6743   6.6743
     9.8411   9.8411   9.8411   9.8411   9.8411   9.8411   9.8411   9.8411
     9.8411   9.8411   9.8411   9.8411   9.8411   9.8411   9.8411   9.8411
    10.1157  10.1157  10.1157  10.1157  10.1157  10.1157  10.1157  10.1157
    10.2857  10.2857  10.2857  10.2857  10.2857  10.2857  10.2858  10.2858
    10.2858  10.2858  10.2858  10.2858  10.2858  10.2858  10.2858  10.2858
    11.9836  11.9836  11.9836  11.9836  11.9836  11.9836  11.9836  11.9836
    11.9836  11.9836  11.9836  11.9836  11.9836  11.9836  11.9836  11.9836
    11.9988  11.9988  11.9988  11.9988  11.9988  11.9988  11.9988  11.9988
    11.9988  11.9988  11.9988  11.9988  11.9988  11.9988  11.9988  11.9988
    12.1580  12.1580  12.1580  12.1580  12.1580  12.1580  12.1580  12.1580
    16.0030  16.0030

     the Fermi energy is    10.6657 ev

!    total energy              =   -5267.25413675 Ry

     total all-electron energy =    -40727.998666 Ry
     estimated scf accuracy    <       0.00000004 Ry
     smearing contrib. (-TS)   =       0.00838028 Ry
     internal energy E=F+TS    =   -5267.26251704 Ry

     The total energy is F=E-TS. E is the sum of the following terms:
     one-electron contribution =   -2383.29865570 Ry
     hartree contribution      =    1280.52759019 Ry
     xc contribution           =    -441.73818482 Ry
     ewald contribution        =   -2398.25699197 Ry
     one-center paw contrib.   =   -1324.49627473 Ry

     total magnetization       =    46.79 Bohr mag/cell
     absolute magnetization    =    50.67 Bohr mag/cell

     convergence has been achieved in  18 iterations

     negative rho (up, down):  0.000E+00 2.387E-03

     Forces acting on atoms (cartesian axes, Ry/au):

     atom    1 type  1   force =     0.00000000    0.00000000    0.00000000
     atom    2 type  2   force =    -0.00000086   -0.00000086   -0.00000086
     atom    3 type  1   force =     0.00000000    0.00000000    0.00000000
     atom    4 type  2   force =    -0.00000086   -0.00000086    0.00000086
     atom    5 type  1   force =     0.00000000    0.00000000    0.00000000
     atom    6 type  2   force =    -0.00000086    0.00000086   -0.00000086
     atom    7 type  1   force =     0.00000000    0.00000000    0.00000000
     atom    8 type  2   force =    -0.00000086    0.00000086    0.00000086
     atom    9 type  1   force =     0.00000000    0.00000000    0.00000000
     atom   10 type  2   force =     0.00000086   -0.00000086   -0.00000086
     atom   11 type  1   force =     0.00000000    0.00000000    0.00000000
     atom   12 type  2   force =     0.00000086   -0.00000086    0.00000086
     atom   13 type  1   force =     0.00000000    0.00000000    0.00000000
     atom   14 type  2   force =     0.00000086    0.00000086   -0.00000086
     atom   15 type  1   force =     0.00000000    0.00000000    0.00000000
     atom   16 type  2   force =     0.00000086    0.00000086    0.00000086

     Total force =     0.000004     Total SCF correction =     0.000029
     SCF correction compared to forces is large: reduce conv_thr to get better values

     Computing stress (Cartesian axis) and pressure

     negative rho (up, down):  0.000E+00 2.387E-03
          total   stress  (Ry/bohr**3)                   (kbar)     P=     -300.13
  -0.00204024   0.00000000   0.00000000         -300.13        0.00        0.00
   0.00000000  -0.00204024   0.00000000            0.00     -300.13        0.00
   0.00000000   0.00000000  -0.00204024            0.00        0.00     -300.13

     Writing output data file /scratch/xkgJwqUxZzdoUWvg.save/

     General routines

     Parallel routines

   This run was terminated on:  14:15: 9  17Jan2022

   JOB DONE.