     Program PWSCF v.6.7MaX starts on 17Jan2022 at 13:32:13

     R & G space division:  proc/nbgrp/npool/nimage =      72
     Reading input from bcc_1.in
Warning: card &CELL ignored
Warning: card CELL_DYNAMICS = 'BFGS', ignored
Warning: card CELL_FACTOR = 2.0, ignored
Warning: card PRESS = 0.0, ignored
Warning: card / ignored

     Current dimensions of program PWSCF are:
     Max number of different atomic species (ntypx) = 10
     Max number of k-points (npk) =  40000
     Max angular momentum in pseudopotentials (lmaxx) =  3
     file Fe.pbe-spn-kjpaw_psl.1.0.0.UPF: wavefunction(s)  3P 3D renormalized
     file Fe.pbe-spn-kjpaw_psl.1.0.0.UPF: wavefunction(s)  3P 3D renormalized

     Subspace diagonalization in iterative solution of the eigenvalue problem:
     one sub-group per band group will be used

     Found symmetry operation: I + (  0.0000  0.0000 -0.5000)
     This is a supercell, fractional translations are disabled
     Message from routine setup:
     using ibrav=0 with symmetry is DISCOURAGED, use correct ibrav instead

     bravais-lattice index     =            0
     lattice parameter (alat)  =      10.2690  a.u.
     unit-cell volume          =     456.8499 (a.u.)^3
     number of atoms/cell      =           16
     number of atomic types    =            2
     number of electrons       =       256.00
     number of Kohn-Sham states=          154
     kinetic-energy cutoff     =      71.0000  Ry
     charge density cutoff     =     430.0000  Ry
     scf convergence threshold =      1.0E-07
     mixing beta               =       0.1000
     number of iterations used =           10  local-TF  mixing
     Exchange-correlation= SLA  PW   PBX  PBC
                           (   1   4   3   4   0   0   0)

     celldm(1)=  10.269041  celldm(2)=   0.000000  celldm(3)=   0.000000
     celldm(4)=   0.000000  celldm(5)=   0.000000  celldm(6)=   0.000000

     crystal axes: (cart. coord. in units of alat)
               a(1) = (   0.750000   0.000000   0.000000 )
               a(2) = (   0.000000   0.750000   0.000000 )
               a(3) = (   0.000000   0.000000   0.750000 )

     reciprocal axes: (cart. coord. in units 2 pi/alat)
               b(1) = (  1.333333  0.000000  0.000000 )
               b(2) = (  0.000000  1.333333  0.000000 )
               b(3) = (  0.000000  0.000000  1.333333 )

     PseudoPot. # 1 for Fe read from file:
     /rds/homes/b/bxp912/pp/Fe.pbe-spn-kjpaw_psl.1.0.0.UPF
     MD5 check sum: 42f43b795421b414b0dc916aa790dbcb
     Pseudo is Projector augmented-wave + core cor, Zval = 16.0
     Generated using &quot;atomic&quot; code by A. Dal Corso  v.6.3
     Shape of augmentation charge: PSQ
     Using radial grid of 1191 points,  6 beta functions with:
                l(1) =   0
                l(2) =   0
                l(3) =   1
                l(4) =   1
                l(5) =   2
                l(6) =   2
     Q(r) pseudized with 0 coefficients

     PseudoPot. # 2 for Fe read from file:
     /rds/homes/b/bxp912/pp/Fe.pbe-spn-kjpaw_psl.1.0.0.UPF
     MD5 check sum: 42f43b795421b414b0dc916aa790dbcb
     Pseudo is Projector augmented-wave + core cor, Zval = 16.0
     Generated using &quot;atomic&quot; code by A. Dal Corso  v.6.3
     Shape of augmentation charge: PSQ
     Using radial grid of 1191 points,  6 beta functions with:
                l(1) =   0
                l(2) =   0
                l(3) =   1
                l(4) =   1
                l(5) =   2
                l(6) =   2
     Q(r) pseudized with 0 coefficients

     atomic species   valence    mass     pseudopotential
        Fe1           16.00    55.84500     Fe( 1.00)
        Fe2           16.00    55.84500     Fe( 1.00)

     Starting magnetic structure
     atomic species   magnetization
        Fe1          0.100
        Fe2          0.100

     48 Sym. Ops., with inversion, found

   Cartesian axes

     site n.     atom                  positions (alat units)
         1           Fe1 tau(   1) = (   0.0000000   0.0000000   0.0000000  )
         2           Fe2 tau(   2) = (   0.1875000   0.1875000   0.1875000  )
         3           Fe1 tau(   3) = (   0.0000000   0.0000000   0.3750000  )
         4           Fe2 tau(   4) = (   0.1875000   0.1875000   0.5625000  )
         5           Fe1 tau(   5) = (   0.0000000   0.3750000   0.0000000  )
         6           Fe2 tau(   6) = (   0.1875000   0.5625000   0.1875000  )
         7           Fe1 tau(   7) = (   0.0000000   0.3750000   0.3750000  )
         8           Fe2 tau(   8) = (   0.1875000   0.5625000   0.5625000  )
         9           Fe1 tau(   9) = (   0.3750000   0.0000000   0.0000000  )
        10           Fe2 tau(  10) = (   0.5625000   0.1875000   0.1875000  )
        11           Fe1 tau(  11) = (   0.3750000   0.0000000   0.3750000  )
        12           Fe2 tau(  12) = (   0.5625000   0.1875000   0.5625000  )
        13           Fe1 tau(  13) = (   0.3750000   0.3750000   0.0000000  )
        14           Fe2 tau(  14) = (   0.5625000   0.5625000   0.1875000  )
        15           Fe1 tau(  15) = (   0.3750000   0.3750000   0.3750000  )
        16           Fe2 tau(  16) = (   0.5625000   0.5625000   0.5625000  )

     number of k points=    35  Marzari-Vanderbilt smearing, width (Ry)=  0.0400
                       cart. coord. in units 2pi/alat
        k(    1) = (   0.0740741   0.0740741   0.0740741), wk =   0.0109739
        k(    2) = (   0.0740741   0.0740741   0.2222222), wk =   0.0329218
        k(    3) = (   0.0740741   0.0740741   0.3703704), wk =   0.0329218
        k(    4) = (   0.0740741   0.0740741   0.5185185), wk =   0.0329218
        k(    5) = (   0.0740741   0.0740741  -0.6666667), wk =   0.0164609
        k(    6) = (   0.0740741   0.2222222   0.2222222), wk =   0.0329218
        k(    7) = (   0.0740741   0.2222222   0.3703704), wk =   0.0658436
        k(    8) = (   0.0740741   0.2222222   0.5185185), wk =   0.0658436
        k(    9) = (   0.0740741   0.2222222  -0.6666667), wk =   0.0329218
        k(   10) = (   0.0740741   0.3703704   0.3703704), wk =   0.0329218
        k(   11) = (   0.0740741   0.3703704   0.5185185), wk =   0.0658436
        k(   12) = (   0.0740741   0.3703704  -0.6666667), wk =   0.0329218
        k(   13) = (   0.0740741   0.5185185   0.5185185), wk =   0.0329218
        k(   14) = (   0.0740741   0.5185185  -0.6666667), wk =   0.0329218
        k(   15) = (   0.0740741  -0.6666667  -0.6666667), wk =   0.0082305
        k(   16) = (   0.2222222   0.2222222   0.2222222), wk =   0.0109739
        k(   17) = (   0.2222222   0.2222222   0.3703704), wk =   0.0329218
        k(   18) = (   0.2222222   0.2222222   0.5185185), wk =   0.0329218
        k(   19) = (   0.2222222   0.2222222  -0.6666667), wk =   0.0164609
        k(   20) = (   0.2222222   0.3703704   0.3703704), wk =   0.0329218
        k(   21) = (   0.2222222   0.3703704   0.5185185), wk =   0.0658436
        k(   22) = (   0.2222222   0.3703704  -0.6666667), wk =   0.0329218
        k(   23) = (   0.2222222   0.5185185   0.5185185), wk =   0.0329218
        k(   24) = (   0.2222222   0.5185185  -0.6666667), wk =   0.0329218
        k(   25) = (   0.2222222  -0.6666667  -0.6666667), wk =   0.0082305
        k(   26) = (   0.3703704   0.3703704   0.3703704), wk =   0.0109739
        k(   27) = (   0.3703704   0.3703704   0.5185185), wk =   0.0329218
        k(   28) = (   0.3703704   0.3703704  -0.6666667), wk =   0.0164609
        k(   29) = (   0.3703704   0.5185185   0.5185185), wk =   0.0329218
        k(   30) = (   0.3703704   0.5185185  -0.6666667), wk =   0.0329218
        k(   31) = (   0.3703704  -0.6666667  -0.6666667), wk =   0.0082305
        k(   32) = (   0.5185185   0.5185185   0.5185185), wk =   0.0109739
        k(   33) = (   0.5185185   0.5185185  -0.6666667), wk =   0.0164609
        k(   34) = (   0.5185185  -0.6666667  -0.6666667), wk =   0.0082305
        k(   35) = (  -0.6666667  -0.6666667  -0.6666667), wk =   0.0013717

     Check: negative core charge=   -0.000008
     Generating pointlists ...
     new r_m :   0.1340 (alat units)  1.3757 (a.u.) for type    1
     new r_m :   0.1340 (alat units)  1.3757 (a.u.) for type    2

     Initial potential from superposition of free atoms

     starting charge  255.99300, renormalised to  256.00000
     Starting wfcs are  160 randomized atomic wfcs
     Checking if some PAW data can be deallocated...

     Self-consistent Calculation

     iteration #  1     ecut=    71.00 Ry     beta= 0.10
     Davidson diagonalization with overlap
     ethr =  1.00E-02,  avg # of iterations =  3.5

     Threshold (ethr) on eigenvalues was too large:
     Diagonalizing with lowered threshold

     Davidson diagonalization with overlap
     ethr =  1.83E-04,  avg # of iterations =  3.8

     total energy              =   -5248.94824134 Ry
     estimated scf accuracy    <       0.44102352 Ry

     total magnetization       =    11.30 Bohr mag/cell
     absolute magnetization    =    11.43 Bohr mag/cell

[...]

     iteration #  6     ecut=    71.00 Ry     beta= 0.10
     Davidson diagonalization with overlap
     c_bands:  1 eigenvalues not converged
     ethr =  4.31E-06,  avg # of iterations =  4.2

[...]

     total energy              =   -5249.25335842 Ry
     estimated scf accuracy    <       0.00000236 Ry

[...]

     iteration # 16     ecut=    71.00 Ry     beta= 0.10
     Davidson diagonalization with overlap
     ethr =  9.21E-10,  avg # of iterations =  2.1

     Magnetic moment per site:
     atom:    1    charge:   13.5387    magn:    0.0000    constr:    0.0000
     atom:    2    charge:   13.5412    magn:   -0.0000    constr:    0.0000
     atom:    3    charge:   13.5387    magn:    0.0000    constr:    0.0000
     atom:    4    charge:   13.5412    magn:   -0.0000    constr:    0.0000
     atom:    5    charge:   13.5387    magn:    0.0000    constr:    0.0000
     atom:    6    charge:   13.5412    magn:   -0.0000    constr:    0.0000
     atom:    7    charge:   13.5387    magn:   -0.0000    constr:    0.0000
     atom:    8    charge:   13.5412    magn:   -0.0000    constr:    0.0000
     atom:    9    charge:   13.5387    magn:    0.0000    constr:    0.0000
     atom:   10    charge:   13.5412    magn:   -0.0000    constr:    0.0000
     atom:   11    charge:   13.5387    magn:   -0.0000    constr:    0.0000
     atom:   12    charge:   13.5412    magn:   -0.0000    constr:    0.0000
     atom:   13    charge:   13.5387    magn:   -0.0000    constr:    0.0000
     atom:   14    charge:   13.5412    magn:   -0.0000    constr:    0.0000
     atom:   15    charge:   13.5387    magn:   -0.0001    constr:    0.0000
     atom:   16    charge:   13.5412    magn:   -0.0000    constr:    0.0000

     End of self-consistent calculation

 ------ SPIN UP ------------

          k = 0.0741 0.0741 0.0741 (  4635 PWs)   bands (ev):

   -37.5812 -35.2395 -35.2395 -35.2395 -34.8055 -34.8055 -34.8054 -34.5941
   -34.5941 -34.5940 -34.5540 -34.5540 -34.5540 -34.2151 -34.2113 -32.7422
    -5.7879  -5.7879  -5.7879  -5.7497  -5.7497  -5.7497  -2.9120  -2.9120
    -2.8781  -2.8251  -2.5638  -2.5638  -2.5309  -2.5309  -2.5309  -2.1038
    -2.1038  -2.1038  -1.9048  -1.9048  -1.5683  -0.6866  -0.6865  -0.6865
    -0.5560  -0.5560  -0.5559  -0.2550  -0.2550  -0.2550  -0.2291  -0.2291
    -0.2291  -0.1895  -0.1895  -0.1895  -0.1332  -0.1332  -0.1332   1.7398
     1.7398   1.7398   1.7793   1.7793   1.7793   1.8906   1.9841   1.9841
    38.6016  38.6016  41.0329  41.0329  41.0329  41.0353  41.0353  41.0353
    43.7360  44.0739  44.0739  44.0739  44.1304  44.1304  44.1304  44.3125
    44.3125  44.3125  45.5834  45.5834  45.5834  46.4612  46.8567  46.8567
    46.8567  46.9256  46.9256  47.4379  47.4379  47.4379  47.8368  47.8368
    48.2831  48.5701  48.5701  48.7444  50.0832  50.0832  50.0832  50.3402
    50.3402  50.3402  50.7187  50.7187  50.7187  51.0568  51.0568  51.0568
    53.0450  53.0450  53.0450  53.9016  53.9016  53.9016  54.2155  54.2155
    54.7755  54.7755  54.7755  54.8516  54.8516  54.8516  55.1896  55.1896
    55.1896  55.6461  55.6461  55.6461  55.8823  55.8823  55.8836  55.8836
    58.3761  58.6538  58.6538  59.2901  59.2901  59.2901  59.5643  59.5644
    59.5644  61.0021  61.0021  61.0021  61.2083  61.2083  61.2083  61.6976
    61.6977  61.6977

[...]

          k =-0.6667-0.6667-0.6667 (  4632 PWs)   bands (ev):

[...]

 ------ SPIN DOWN ----------

[...]

          k = 0.5185-0.6667-0.6667 (  4656 PWs)   bands (ev):

[...]

          k =-0.6667-0.6667-0.6667 (  4632 PWs)   bands (ev):

   -35.6868 -35.6868 -35.6868 -35.6868 -35.6867 -35.6867 -35.6867 -35.6867
   -33.8639 -33.8639 -33.8639 -33.8639 -33.8639 -33.8639 -33.8639 -33.8639
    -3.5778  -3.5778  -3.5778  -3.5778  -3.5778  -3.5778  -3.5778  -3.5778
    -3.5778  -3.5778  -3.5778  -3.5778  -3.5778  -3.5778  -3.5778  -3.5778
    -3.0238  -3.0237  -3.0237  -3.0237  -3.0237  -3.0237  -3.0237  -3.0237
     0.6764   0.6765   0.6765   0.6765   0.6765   0.6765   0.6765   0.6765
     0.9204   0.9204   0.9204   0.9204   0.9204   0.9204   0.9204   0.9204
     0.9204   0.9204   0.9204   0.9204   0.9204   0.9204   0.9204   0.9204
    45.1427  45.1427  45.1428  45.1428  45.1428  45.1428  45.1428  45.1428
    45.1428  45.1428  45.1428  45.1428  45.1428  45.1428  45.1428  45.1428
    45.7003  45.7003  45.7003  45.7003  45.7003  45.7003  45.7003  45.7003
    45.7003  45.7003  45.7003  45.7003  45.7003  45.7003  45.7003  45.7003
    46.0415  46.0415  46.0415  46.0415  46.0415  46.0415  46.0415  46.0415
    48.5401  48.5401  48.5401  48.5401  48.5401  48.5401  48.5401  48.5401
    54.4387  54.4387  54.4387  54.4387  54.4387  54.4387  54.4387  54.4387
    54.4387  54.4387  54.4387  54.4387  54.4387  54.4387  54.4387  54.4387
    56.2642  56.2642  56.2642  56.2642  56.2642  56.2642  56.2642  56.2642
    56.2642  56.2642  56.2642  56.2642  56.2642  56.2642  56.2642  56.2642
    59.4426  59.4427  59.4427  59.4427  59.4427  59.4427  59.4427  59.4428
    75.8637  75.8638

     the Fermi energy is    54.9826 ev

!    total energy              =   -5249.25336071 Ry

     total all-electron energy =    -40709.997890 Ry
     estimated scf accuracy    <       0.00000003 Ry
     smearing contrib. (-TS)   =      -0.00956504 Ry
     internal energy E=F+TS    =   -5249.24379567 Ry

     The total energy is F=E-TS. E is the sum of the following terms:
     one-electron contribution =    -143.35553034 Ry
     hartree contribution      =     557.60378488 Ry
     xc contribution           =    -469.51729649 Ry
     ewald contribution        =   -3870.87093441 Ry
     one-center paw contrib.   =   -1323.10381931 Ry

     total magnetization       =     0.00 Bohr mag/cell
     absolute magnetization    =     0.00 Bohr mag/cell

     convergence has been achieved in  16 iterations

     Forces acting on atoms (cartesian axes, Ry/au):

     atom    1 type  1   force =     0.00000000    0.00000000    0.00000000
     atom    2 type  2   force =     0.00007574    0.00007574    0.00007574
     atom    3 type  1   force =     0.00000000    0.00000000    0.00000000
     atom    4 type  2   force =     0.00007574    0.00007574   -0.00007574
     atom    5 type  1   force =     0.00000000    0.00000000    0.00000000
     atom    6 type  2   force =     0.00007574   -0.00007574    0.00007574
     atom    7 type  1   force =     0.00000000    0.00000000    0.00000000
     atom    8 type  2   force =     0.00007574   -0.00007574   -0.00007574
     atom    9 type  1   force =     0.00000000    0.00000000    0.00000000
     atom   10 type  2   force =    -0.00007574    0.00007574    0.00007574
     atom   11 type  1   force =     0.00000000    0.00000000    0.00000000
     atom   12 type  2   force =    -0.00007574    0.00007574   -0.00007574
     atom   13 type  1   force =     0.00000000    0.00000000    0.00000000
     atom   14 type  2   force =    -0.00007574   -0.00007574    0.00007574
     atom   15 type  1   force =     0.00000000    0.00000000    0.00000000
     atom   16 type  2   force =    -0.00007574   -0.00007574   -0.00007574

     Total force =     0.000371     Total SCF correction =     0.001374
     SCF correction compared to forces is large: reduce conv_thr to get better values

     Computing stress (Cartesian axis) and pressure

          total   stress  (Ry/bohr**3)                   (kbar)     P=    17486.21
   0.11886883   0.00000000   0.00000000        17486.21        0.00        0.00
   0.00000000   0.11886883   0.00000000            0.00    17486.21        0.00
   0.00000000   0.00000000   0.11886883            0.00        0.00    17486.21

     Writing output data file /scratch/JvANHODdUNcshDiL.save/

     General routines

     Parallel routines

   This run was terminated on:  13:35:25  17Jan2022

   JOB DONE.