     Program PWSCF v.6.7MaX starts on 17Jan2022 at 13:35:31

     R & G space division:  proc/nbgrp/npool/nimage =      72
     Reading input from bcc_2.in
Warning: card &CELL ignored
Warning: card CELL_DYNAMICS = 'BFGS', ignored
Warning: card CELL_FACTOR = 2.0, ignored
Warning: card PRESS = 0.0, ignored
Warning: card / ignored

     Current dimensions of program PWSCF are:
     Max number of different atomic species (ntypx) = 10
     Max number of k-points (npk) =  40000
     Max angular momentum in pseudopotentials (lmaxx) =  3
     file Fe.pbe-spn-kjpaw_psl.1.0.0.UPF: wavefunction(s)  3P 3D renormalized
     file Fe.pbe-spn-kjpaw_psl.1.0.0.UPF: wavefunction(s)  3P 3D renormalized

     Subspace diagonalization in iterative solution of the eigenvalue problem:
     one sub-group per band group will be used

     Found symmetry operation: I + (  0.0000  0.0000 -0.5000)
     This is a supercell, fractional translations are disabled
     Message from routine setup:
     using ibrav=0 with symmetry is DISCOURAGED, use correct ibrav instead

     bravais-lattice index     =            0
     lattice parameter (alat)  =      10.2690  a.u.
     unit-cell volume          =     587.9278 (a.u.)^3
     number of atoms/cell      =           16
     number of atomic types    =            2
     number of electrons       =       256.00
     number of Kohn-Sham states=          154
     kinetic-energy cutoff     =      71.0000  Ry
     charge density cutoff     =     430.0000  Ry
     scf convergence threshold =      1.0E-07
     mixing beta               =       0.1000
     number of iterations used =           10  local-TF  mixing
     Exchange-correlation= SLA  PW   PBX  PBC
                           (   1   4   3   4   0   0   0)

     celldm(1)=  10.269041  celldm(2)=   0.000000  celldm(3)=   0.000000
     celldm(4)=   0.000000  celldm(5)=   0.000000  celldm(6)=   0.000000

     crystal axes: (cart. coord. in units of alat)
               a(1) = (   0.815789   0.000000   0.000000 )
               a(2) = (   0.000000   0.815789   0.000000 )
               a(3) = (   0.000000   0.000000   0.815789 )

     reciprocal axes: (cart. coord. in units 2 pi/alat)
               b(1) = (  1.225806  0.000000  0.000000 )
               b(2) = (  0.000000  1.225806  0.000000 )
               b(3) = (  0.000000  0.000000  1.225806 )

     PseudoPot. # 1 for Fe read from file:
     /rds/homes/b/bxp912/pp/Fe.pbe-spn-kjpaw_psl.1.0.0.UPF
     MD5 check sum: 42f43b795421b414b0dc916aa790dbcb
     Pseudo is Projector augmented-wave + core cor, Zval = 16.0
     Generated using &quot;atomic&quot; code by A. Dal Corso  v.6.3
     Shape of augmentation charge: PSQ
     Using radial grid of 1191 points,  6 beta functions with:
                l(1) =   0
                l(2) =   0
                l(3) =   1
                l(4) =   1
                l(5) =   2
                l(6) =   2
     Q(r) pseudized with 0 coefficients

     PseudoPot. # 2 for Fe read from file:
     /rds/homes/b/bxp912/pp/Fe.pbe-spn-kjpaw_psl.1.0.0.UPF
     MD5 check sum: 42f43b795421b414b0dc916aa790dbcb
     Pseudo is Projector augmented-wave + core cor, Zval = 16.0
     Generated using &quot;atomic&quot; code by A. Dal Corso  v.6.3
     Shape of augmentation charge: PSQ
     Using radial grid of 1191 points,  6 beta functions with:
                l(1) =   0
                l(2) =   0
                l(3) =   1
                l(4) =   1
                l(5) =   2
                l(6) =   2
     Q(r) pseudized with 0 coefficients

     atomic species   valence    mass     pseudopotential
        Fe1           16.00    55.84500     Fe( 1.00)
        Fe2           16.00    55.84500     Fe( 1.00)

     Starting magnetic structure
     atomic species   magnetization
        Fe1          0.100
        Fe2          0.100

     48 Sym. Ops., with inversion, found

   Cartesian axes

     site n.     atom                  positions (alat units)
         1           Fe1 tau(   1) = (   0.0000000   0.0000000   0.0000000  )
         2           Fe2 tau(   2) = (   0.2039474   0.2039474   0.2039474  )
         3           Fe1 tau(   3) = (   0.0000000   0.0000000   0.4078947  )
         4           Fe2 tau(   4) = (   0.2039474   0.2039474   0.6118421  )
         5           Fe1 tau(   5) = (   0.0000000   0.4078947   0.0000000  )
         6           Fe2 tau(   6) = (   0.2039474   0.6118421   0.2039474  )
         7           Fe1 tau(   7) = (   0.0000000   0.4078947   0.4078947  )
         8           Fe2 tau(   8) = (   0.2039474   0.6118421   0.6118421  )
         9           Fe1 tau(   9) = (   0.4078947   0.0000000   0.0000000  )
        10           Fe2 tau(  10) = (   0.6118421   0.2039474   0.2039474  )
        11           Fe1 tau(  11) = (   0.4078947   0.0000000   0.4078947  )
        12           Fe2 tau(  12) = (   0.6118421   0.2039474   0.6118421  )
        13           Fe1 tau(  13) = (   0.4078947   0.4078947   0.0000000  )
        14           Fe2 tau(  14) = (   0.6118421   0.6118421   0.2039474  )
        15           Fe1 tau(  15) = (   0.4078947   0.4078947   0.4078947  )
        16           Fe2 tau(  16) = (   0.6118421   0.6118421   0.6118421  )

     number of k points=    35  Marzari-Vanderbilt smearing, width (Ry)=  0.0400
                       cart. coord. in units 2pi/alat
        k(    1) = (   0.0681004   0.0681004   0.0681004), wk =   0.0109739
        k(    2) = (   0.0681004   0.0681004   0.2043011), wk =   0.0329218
        k(    3) = (   0.0681004   0.0681004   0.3405018), wk =   0.0329218
        k(    4) = (   0.0681004   0.0681004   0.4767025), wk =   0.0329218
        k(    5) = (   0.0681004   0.0681004  -0.6129032), wk =   0.0164609
        k(    6) = (   0.0681004   0.2043011   0.2043011), wk =   0.0329218
        k(    7) = (   0.0681004   0.2043011   0.3405018), wk =   0.0658436
        k(    8) = (   0.0681004   0.2043011   0.4767025), wk =   0.0658436
        k(    9) = (   0.0681004   0.2043011  -0.6129032), wk =   0.0329218
        k(   10) = (   0.0681004   0.3405018   0.3405018), wk =   0.0329218
        k(   11) = (   0.0681004   0.3405018   0.4767025), wk =   0.0658436
        k(   12) = (   0.0681004   0.3405018  -0.6129032), wk =   0.0329218
        k(   13) = (   0.0681004   0.4767025   0.4767025), wk =   0.0329218
        k(   14) = (   0.0681004   0.4767025  -0.6129032), wk =   0.0329218
        k(   15) = (   0.0681004  -0.6129032  -0.6129032), wk =   0.0082305
        k(   16) = (   0.2043011   0.2043011   0.2043011), wk =   0.0109739
        k(   17) = (   0.2043011   0.2043011   0.3405018), wk =   0.0329218
        k(   18) = (   0.2043011   0.2043011   0.4767025), wk =   0.0329218
        k(   19) = (   0.2043011   0.2043011  -0.6129032), wk =   0.0164609
        k(   20) = (   0.2043011   0.3405018   0.3405018), wk =   0.0329218
        k(   21) = (   0.2043011   0.3405018   0.4767025), wk =   0.0658436
        k(   22) = (   0.2043011   0.3405018  -0.6129032), wk =   0.0329218
        k(   23) = (   0.2043011   0.4767025   0.4767025), wk =   0.0329218
        k(   24) = (   0.2043011   0.4767025  -0.6129032), wk =   0.0329218
        k(   25) = (   0.2043011  -0.6129032  -0.6129032), wk =   0.0082305
        k(   26) = (   0.3405018   0.3405018   0.3405018), wk =   0.0109739
        k(   27) = (   0.3405018   0.3405018   0.4767025), wk =   0.0329218
        k(   28) = (   0.3405018   0.3405018  -0.6129032), wk =   0.0164609
        k(   29) = (   0.3405018   0.4767025   0.4767025), wk =   0.0329218
        k(   30) = (   0.3405018   0.4767025  -0.6129032), wk =   0.0329218
        k(   31) = (   0.3405018  -0.6129032  -0.6129032), wk =   0.0082305
        k(   32) = (   0.4767025   0.4767025   0.4767025), wk =   0.0109739
        k(   33) = (   0.4767025   0.4767025  -0.6129032), wk =   0.0164609
        k(   34) = (   0.4767025  -0.6129032  -0.6129032), wk =   0.0082305
        k(   35) = (  -0.6129032  -0.6129032  -0.6129032), wk =   0.0013717

     Check: negative core charge=   -0.000008
     Generating pointlists ...
     new r_m :   0.1457 (alat units)  1.4963 (a.u.) for type    1
     new r_m :   0.1457 (alat units)  1.4963 (a.u.) for type    2

     Initial potential from superposition of free atoms

     starting charge  255.99300, renormalised to  256.00000
     Starting wfcs are  160 randomized atomic wfcs
     Checking if some PAW data can be deallocated...

     Self-consistent Calculation

     iteration #  1     ecut=    71.00 Ry     beta= 0.10
     Davidson diagonalization with overlap
     ethr =  1.00E-02,  avg # of iterations =  3.5

     Threshold (ethr) on eigenvalues was too large:
     Diagonalizing with lowered threshold

     Davidson diagonalization with overlap
     ethr =  1.38E-04,  avg # of iterations =  4.3

     total energy              =   -5259.60197909 Ry
     estimated scf accuracy    <       0.46446251 Ry

     total magnetization       =    14.29 Bohr mag/cell
     absolute magnetization    =    14.33 Bohr mag/cell

[...]

     iteration # 10     ecut=    71.00 Ry     beta= 0.10
     Davidson diagonalization with overlap
     c_bands:  1 eigenvalues not converged
     ethr =  2.10E-06,  avg # of iterations =  2.3

[...]

     total energy              =   -5259.78863171 Ry
     estimated scf accuracy    <       0.00000011 Ry

[...]

     iteration # 22     ecut=    71.00 Ry     beta= 0.10
     Davidson diagonalization with overlap
     ethr =  4.29E-11,  avg # of iterations =  1.5

     Magnetic moment per site:
     atom:    1    charge:   13.7628    magn:   -0.0001    constr:    0.0000
     atom:    2    charge:   13.7628    magn:   -0.0000    constr:    0.0000
     atom:    3    charge:   13.7628    magn:    0.0002    constr:    0.0000
     atom:    4    charge:   13.7628    magn:   -0.0000    constr:    0.0000
     atom:    5    charge:   13.7628    magn:    0.0002    constr:    0.0000
     atom:    6    charge:   13.7628    magn:   -0.0000    constr:    0.0000
     atom:    7    charge:   13.7628    magn:   -0.0001    constr:    0.0000
     atom:    8    charge:   13.7628    magn:   -0.0000    constr:    0.0000
     atom:    9    charge:   13.7628    magn:    0.0002    constr:    0.0000
     atom:   10    charge:   13.7628    magn:   -0.0000    constr:    0.0000
     atom:   11    charge:   13.7628    magn:   -0.0001    constr:    0.0000
     atom:   12    charge:   13.7628    magn:   -0.0000    constr:    0.0000
     atom:   13    charge:   13.7628    magn:   -0.0001    constr:    0.0000
     atom:   14    charge:   13.7628    magn:   -0.0000    constr:    0.0000
     atom:   15    charge:   13.7628    magn:   -0.0004    constr:    0.0000
     atom:   16    charge:   13.7628    magn:   -0.0000    constr:    0.0000

     End of self-consistent calculation

 ------ SPIN UP ------------

          k = 0.0681 0.0681 0.0681 (  5935 PWs)   bands (ev):

   -47.3627 -46.2712 -46.2712 -46.2711 -46.0770 -46.0770 -46.0769 -46.0250
   -46.0250 -46.0249 -46.0077 -46.0077 -46.0076 -45.8790 -45.8774 -45.1708
   -14.8169 -14.8169 -14.8169 -14.7977 -14.7977 -14.7977 -13.3716 -13.3716
   -13.3264 -13.1902 -13.1171 -13.1171 -13.1171 -13.0201 -13.0201 -12.8921
   -12.8920 -12.8920 -12.6686 -12.6686 -12.4923 -12.1436 -12.1436 -12.1436
   -12.0758 -12.0758 -12.0758 -11.9311 -11.9311 -11.9311 -11.9113 -11.9112
   -11.9112 -11.9100 -11.9100 -11.9100 -11.8476 -11.8476 -11.8475 -10.8285
   -10.8285 -10.8284 -10.8074 -10.8074 -10.8074 -10.7798 -10.7305 -10.7305
    30.4919  30.6164  30.6164  31.7176  31.7176  31.7176  31.7255  31.7255
    31.7255  34.6033  34.6033  34.6033  34.6404  34.6404  34.6404  35.0030
    35.0030  35.0030  35.1081  35.1081  35.1081  35.1330  35.1330  35.1330
    35.5212  35.8097  35.8097  35.9478  35.9479  35.9479  36.3568  36.3568
    36.6131  37.8511  37.8511  37.9722  38.7589  38.7589  38.7589  38.9764
    38.9764  38.9764  39.2305  39.2305  39.2305  39.4645  39.4645  39.4645
    41.0941  41.0941  41.0941  41.7100  41.7100  41.7100  42.0153  42.0153
    42.2424  42.2425  42.2425  42.2882  42.2882  42.2882  42.3883  42.3883
    42.3883  42.9185  42.9185  42.9185  43.0689  43.0689  43.0693  43.0693
    44.5256  44.5256  44.5256  44.8295  45.0308  45.0308  45.0949  45.0949
    45.0949  45.8796  45.8797  45.8797  46.2542  46.2542  46.2542  46.4722
    46.4723  46.4723

[...]

          k =-0.6129-0.6129-0.6129 (  5904 PWs)   bands (ev):

[...]

 ------ SPIN DOWN ----------

[...]

          k = 0.4767-0.6129-0.6129 (  5940 PWs)   bands (ev):

[...]

          k =-0.6129-0.6129-0.6129 (  5904 PWs)   bands (ev):

   -46.4916 -46.4914 -46.4914 -46.4914 -46.4914 -46.4913 -46.4913 -46.4913
   -45.6897 -45.6896 -45.6896 -45.6896 -45.6895 -45.6894 -45.6894 -45.6894
   -13.6341 -13.6341 -13.6341 -13.6341 -13.6341 -13.6341 -13.6341 -13.6341
   -13.6341 -13.6341 -13.6341 -13.6340 -13.6340 -13.6340 -13.6340 -13.6340
   -13.3994 -13.3994 -13.3994 -13.3994 -13.3994 -13.3994 -13.3994 -13.3993
   -11.4441 -11.4441 -11.4441 -11.4441 -11.4440 -11.4440 -11.4440 -11.4439
   -11.2504 -11.2504 -11.2504 -11.2504 -11.2504 -11.2504 -11.2503 -11.2503
   -11.2503 -11.2503 -11.2503 -11.2502 -11.2502 -11.2502 -11.2502 -11.2502
    34.9077  34.9077  34.9078  34.9078  34.9078  34.9078  34.9078  34.9078
    34.9078  34.9078  34.9079  34.9079  34.9079  34.9079  34.9079  34.9079
    35.3733  35.3734  35.3734  35.3734  35.3734  35.3734  35.3734  35.3734
    35.6269  35.6269  35.6269  35.6269  35.6269  35.6269  35.6270  35.6270
    35.6270  35.6270  35.6270  35.6270  35.6270  35.6270  35.6270  35.6270
    35.8279  35.8279  35.8279  35.8279  35.8279  35.8279  35.8279  35.8280
    42.1284  42.1284  42.1285  42.1285  42.1285  42.1285  42.1285  42.1285
    42.1285  42.1285  42.1287  42.1287  42.1287  42.1287  42.1287  42.1287
    43.2204  43.2204  43.2204  43.2204  43.2204  43.2204  43.2204  43.2204
    43.2204  43.2204  43.2204  43.2204  43.2204  43.2205  43.2205  43.2205
    45.0352  45.0352  45.0352  45.0352  45.0352  45.0352  45.0352  45.0353
    58.0020  58.0021

     the Fermi energy is    42.3984 ev

!    total energy              =   -5259.78863265 Ry

     total all-electron energy =    -40720.533162 Ry
     estimated scf accuracy    <       0.00000007 Ry
     smearing contrib. (-TS)   =      -0.01993389 Ry
     internal energy E=F+TS    =   -5259.76869876 Ry

     The total energy is F=E-TS. E is the sum of the following terms:
     one-electron contribution =    -586.30437613 Ry
     hartree contribution      =     668.11521211 Ry
     xc contribution           =    -458.77617098 Ry
     ewald contribution        =   -3558.70392358 Ry
     one-center paw contrib.   =   -1324.09944018 Ry

     total magnetization       =    -0.00 Bohr mag/cell
     absolute magnetization    =     0.00 Bohr mag/cell

     convergence has been achieved in  22 iterations

     Forces acting on atoms (cartesian axes, Ry/au):

     atom    1 type  1   force =     0.00000000    0.00000000    0.00000000
     atom    2 type  2   force =    -0.00000469   -0.00000469   -0.00000469
     atom    3 type  1   force =     0.00000000    0.00000000    0.00000000
     atom    4 type  2   force =    -0.00000469   -0.00000469    0.00000469
     atom    5 type  1   force =     0.00000000    0.00000000    0.00000000
     atom    6 type  2   force =    -0.00000469    0.00000469   -0.00000469
     atom    7 type  1   force =     0.00000000    0.00000000    0.00000000
     atom    8 type  2   force =    -0.00000469    0.00000469    0.00000469
     atom    9 type  1   force =     0.00000000    0.00000000    0.00000000
     atom   10 type  2   force =     0.00000469   -0.00000469   -0.00000469
     atom   11 type  1   force =     0.00000000    0.00000000    0.00000000
     atom   12 type  2   force =     0.00000469   -0.00000469    0.00000469
     atom   13 type  1   force =     0.00000000    0.00000000    0.00000000
     atom   14 type  2   force =     0.00000469    0.00000469   -0.00000469
     atom   15 type  1   force =     0.00000000    0.00000000    0.00000000
     atom   16 type  2   force =     0.00000469    0.00000469    0.00000469

     Total force =     0.000023     Total SCF correction =     0.000653
     SCF correction compared to forces is large: reduce conv_thr to get better values

     Computing stress (Cartesian axis) and pressure

          total   stress  (Ry/bohr**3)                   (kbar)     P=     7503.29
   0.05100631   0.00000000   0.00000000         7503.29        0.00        0.00
   0.00000000   0.05100631   0.00000000            0.00     7503.29        0.00
   0.00000000   0.00000000   0.05100631            0.00        0.00     7503.29

     Writing output data file /scratch/iDIdlMoegBsVLRsz.save/

     General routines

     Parallel routines

   This run was terminated on:  13:39:59  17Jan2022

   JOB DONE.