     Program PWSCF v.6.7MaX starts on 17Jan2022 at 14:36:42

     R & G space division:  proc/nbgrp/npool/nimage =      72
     Reading input from bcc_11.in
Warning: card &CELL ignored
Warning: card CELL_DYNAMICS = 'BFGS', ignored
Warning: card CELL_FACTOR = 2.0, ignored
Warning: card PRESS = 0.0, ignored
Warning: card / ignored

     Current dimensions of program PWSCF are:
     Max number of different atomic species (ntypx) = 10
     Max number of k-points (npk) =  40000
     Max angular momentum in pseudopotentials (lmaxx) =  3
     file Fe.pbe-spn-kjpaw_psl.1.0.0.UPF: wavefunction(s)  3P 3D renormalized
     file Fe.pbe-spn-kjpaw_psl.1.0.0.UPF: wavefunction(s)  3P 3D renormalized

     Subspace diagonalization in iterative solution of the eigenvalue problem:
     one sub-group per band group will be used

     Found symmetry operation: I + (  0.0000  0.0000 -0.5000)
     This is a supercell, fractional translations are disabled
     Message from routine setup:
     using ibrav=0 with symmetry is DISCOURAGED, use correct ibrav instead

     bravais-lattice index     =            0
     lattice parameter (alat)  =      10.2690  a.u.
     unit-cell volume          =    3022.0404 (a.u.)^3
     number of atoms/cell      =           16
     number of atomic types    =            2
     number of electrons       =       256.00
     number of Kohn-Sham states=          154
     kinetic-energy cutoff     =      71.0000  Ry
     charge density cutoff     =     430.0000  Ry
     scf convergence threshold =      1.0E-07
     mixing beta               =       0.1000
     number of iterations used =           10  local-TF  mixing
     Exchange-correlation= SLA  PW   PBX  PBC
                           (   1   4   3   4   0   0   0)

     celldm(1)=  10.269041  celldm(2)=   0.000000  celldm(3)=   0.000000
     celldm(4)=   0.000000  celldm(5)=   0.000000  celldm(6)=   0.000000

     crystal axes: (cart. coord. in units of alat)
               a(1) = (   1.407895   0.000000   0.000000 )
               a(2) = (   0.000000   1.407895   0.000000 )
               a(3) = (   0.000000   0.000000   1.407895 )

     reciprocal axes: (cart. coord. in units 2 pi/alat)
               b(1) = (  0.710280  0.000000  0.000000 )
               b(2) = (  0.000000  0.710280  0.000000 )
               b(3) = (  0.000000  0.000000  0.710280 )

     PseudoPot. # 1 for Fe read from file:
     /rds/homes/b/bxp912/pp/Fe.pbe-spn-kjpaw_psl.1.0.0.UPF
     MD5 check sum: 42f43b795421b414b0dc916aa790dbcb
     Pseudo is Projector augmented-wave + core cor, Zval = 16.0
     Generated using &quot;atomic&quot; code by A. Dal Corso  v.6.3
     Shape of augmentation charge: PSQ
     Using radial grid of 1191 points,  6 beta functions with:
                l(1) =   0
                l(2) =   0
                l(3) =   1
                l(4) =   1
                l(5) =   2
                l(6) =   2
     Q(r) pseudized with 0 coefficients

     PseudoPot. # 2 for Fe read from file:
     /rds/homes/b/bxp912/pp/Fe.pbe-spn-kjpaw_psl.1.0.0.UPF
     MD5 check sum: 42f43b795421b414b0dc916aa790dbcb
     Pseudo is Projector augmented-wave + core cor, Zval = 16.0
     Generated using &quot;atomic&quot; code by A. Dal Corso  v.6.3
     Shape of augmentation charge: PSQ
     Using radial grid of 1191 points,  6 beta functions with:
                l(1) =   0
                l(2) =   0
                l(3) =   1
                l(4) =   1
                l(5) =   2
                l(6) =   2
     Q(r) pseudized with 0 coefficients

     atomic species   valence    mass     pseudopotential
        Fe1           16.00    55.84500     Fe( 1.00)
        Fe2           16.00    55.84500     Fe( 1.00)

     Starting magnetic structure
     atomic species   magnetization
        Fe1          0.100
        Fe2          0.100

     48 Sym. Ops., with inversion, found

   Cartesian axes

     site n.     atom                  positions (alat units)
         1           Fe1 tau(   1) = (   0.0000000   0.0000000   0.0000000  )
         2           Fe2 tau(   2) = (   0.3519737   0.3519737   0.3519737  )
         3           Fe1 tau(   3) = (   0.0000000   0.0000000   0.7039474  )
         4           Fe2 tau(   4) = (   0.3519737   0.3519737   1.0559211  )
         5           Fe1 tau(   5) = (   0.0000000   0.7039474   0.0000000  )
         6           Fe2 tau(   6) = (   0.3519737   1.0559211   0.3519737  )
         7           Fe1 tau(   7) = (   0.0000000   0.7039474   0.7039474  )
         8           Fe2 tau(   8) = (   0.3519737   1.0559211   1.0559211  )
         9           Fe1 tau(   9) = (   0.7039474   0.0000000   0.0000000  )
        10           Fe2 tau(  10) = (   1.0559211   0.3519737   0.3519737  )
        11           Fe1 tau(  11) = (   0.7039474   0.0000000   0.7039474  )
        12           Fe2 tau(  12) = (   1.0559211   0.3519737   1.0559211  )
        13           Fe1 tau(  13) = (   0.7039474   0.7039474   0.0000000  )
        14           Fe2 tau(  14) = (   1.0559211   1.0559211   0.3519737  )
        15           Fe1 tau(  15) = (   0.7039474   0.7039474   0.7039474  )
        16           Fe2 tau(  16) = (   1.0559211   1.0559211   1.0559211  )

     number of k points=    35  Marzari-Vanderbilt smearing, width (Ry)=  0.0400
                       cart. coord. in units 2pi/alat
        k(    1) = (   0.0394600   0.0394600   0.0394600), wk =   0.0109739
        k(    2) = (   0.0394600   0.0394600   0.1183801), wk =   0.0329218
        k(    3) = (   0.0394600   0.0394600   0.1973001), wk =   0.0329218
        k(    4) = (   0.0394600   0.0394600   0.2762201), wk =   0.0329218
        k(    5) = (   0.0394600   0.0394600  -0.3551402), wk =   0.0164609
        k(    6) = (   0.0394600   0.1183801   0.1183801), wk =   0.0329218
        k(    7) = (   0.0394600   0.1183801   0.1973001), wk =   0.0658436
        k(    8) = (   0.0394600   0.1183801   0.2762201), wk =   0.0658436
        k(    9) = (   0.0394600   0.1183801  -0.3551402), wk =   0.0329218
        k(   10) = (   0.0394600   0.1973001   0.1973001), wk =   0.0329218
        k(   11) = (   0.0394600   0.1973001   0.2762201), wk =   0.0658436
        k(   12) = (   0.0394600   0.1973001  -0.3551402), wk =   0.0329218
        k(   13) = (   0.0394600   0.2762201   0.2762201), wk =   0.0329218
        k(   14) = (   0.0394600   0.2762201  -0.3551402), wk =   0.0329218
        k(   15) = (   0.0394600  -0.3551402  -0.3551402), wk =   0.0082305
        k(   16) = (   0.1183801   0.1183801   0.1183801), wk =   0.0109739
        k(   17) = (   0.1183801   0.1183801   0.1973001), wk =   0.0329218
        k(   18) = (   0.1183801   0.1183801   0.2762201), wk =   0.0329218
        k(   19) = (   0.1183801   0.1183801  -0.3551402), wk =   0.0164609
        k(   20) = (   0.1183801   0.1973001   0.1973001), wk =   0.0329218
        k(   21) = (   0.1183801   0.1973001   0.2762201), wk =   0.0658436
        k(   22) = (   0.1183801   0.1973001  -0.3551402), wk =   0.0329218
        k(   23) = (   0.1183801   0.2762201   0.2762201), wk =   0.0329218
        k(   24) = (   0.1183801   0.2762201  -0.3551402), wk =   0.0329218
        k(   25) = (   0.1183801  -0.3551402  -0.3551402), wk =   0.0082305
        k(   26) = (   0.1973001   0.1973001   0.1973001), wk =   0.0109739
        k(   27) = (   0.1973001   0.1973001   0.2762201), wk =   0.0329218
        k(   28) = (   0.1973001   0.1973001  -0.3551402), wk =   0.0164609
        k(   29) = (   0.1973001   0.2762201   0.2762201), wk =   0.0329218
        k(   30) = (   0.1973001   0.2762201  -0.3551402), wk =   0.0329218
        k(   31) = (   0.1973001  -0.3551402  -0.3551402), wk =   0.0082305
        k(   32) = (   0.2762201   0.2762201   0.2762201), wk =   0.0109739
        k(   33) = (   0.2762201   0.2762201  -0.3551402), wk =   0.0164609
        k(   34) = (   0.2762201  -0.3551402  -0.3551402), wk =   0.0082305
        k(   35) = (  -0.3551402  -0.3551402  -0.3551402), wk =   0.0013717

     Check: negative core charge=   -0.000004
     Generating pointlists ...
     new r_m :   0.2515 (alat units)  2.5824 (a.u.) for type    1
     new r_m :   0.2515 (alat units)  2.5824 (a.u.) for type    2

     Initial potential from superposition of free atoms

     starting charge  255.99300, renormalised to  256.00000
     Starting wfcs are  160 randomized atomic wfcs
     Checking if some PAW data can be deallocated...

     Self-consistent Calculation

     iteration #  1     ecut=    71.00 Ry     beta= 0.10
     Davidson diagonalization with overlap
     ethr =  1.00E-02,  avg # of iterations =  3.5

     total energy              =   -5264.67849035 Ry
     estimated scf accuracy    <       5.17731880 Ry

     total magnetization       =    46.87 Bohr mag/cell
     absolute magnetization    =    46.90 Bohr mag/cell

[...]

     negative rho (up, down):  0.000E+00 4.290E-03

[...]

     iteration # 25     ecut=    71.00 Ry     beta= 0.10
     Davidson diagonalization with overlap
     c_bands:  1 eigenvalues not converged
     ethr =  3.02E-10,  avg # of iterations =  6.8

[...]

     iteration # 36     ecut=    71.00 Ry     beta= 0.10
     Davidson diagonalization with overlap
     c_bands:  1 eigenvalues not converged
     ethr =  9.24E-11,  avg # of iterations =  7.7

[...]

     total energy              =   -5265.46796477 Ry
     estimated scf accuracy    <       0.00000023 Ry

[...]

     iteration # 46     ecut=    71.00 Ry     beta= 0.10
     Davidson diagonalization with overlap
     ethr =  8.79E-11,  avg # of iterations =  1.7

[...]

     Magnetic moment per site:
     atom:    1    charge:   15.0028    magn:    3.2856    constr:    0.0000
     atom:    2    charge:   15.0030    magn:    3.2876    constr:    0.0000
     atom:    3    charge:   15.0031    magn:    3.2882    constr:    0.0000
     atom:    4    charge:   15.0030    magn:    3.2876    constr:    0.0000
     atom:    5    charge:   15.0031    magn:    3.2882    constr:    0.0000
     atom:    6    charge:   15.0030    magn:    3.2876    constr:    0.0000
     atom:    7    charge:   15.0031    magn:    3.2882    constr:    0.0000
     atom:    8    charge:   15.0030    magn:    3.2876    constr:    0.0000
     atom:    9    charge:   15.0031    magn:    3.2882    constr:    0.0000
     atom:   10    charge:   15.0030    magn:    3.2876    constr:    0.0000
     atom:   11    charge:   15.0031    magn:    3.2882    constr:    0.0000
     atom:   12    charge:   15.0030    magn:    3.2876    constr:    0.0000
     atom:   13    charge:   15.0031    magn:    3.2882    constr:    0.0000
     atom:   14    charge:   15.0030    magn:    3.2876    constr:    0.0000
     atom:   15    charge:   15.0028    magn:    3.2856    constr:    0.0000
     atom:   16    charge:   15.0030    magn:    3.2876    constr:    0.0000

     End of self-consistent calculation

 ------ SPIN UP ------------

          k = 0.0395 0.0395 0.0395 ( 30614 PWs)   bands (ev):

   -83.3552 -83.3547 -83.3547 -83.3547 -83.3546 -83.3546 -83.3542 -83.3541
   -83.3541 -83.3541 -83.3541 -83.3541 -83.3541 -83.3538 -83.3530 -83.3528
   -49.4046 -49.4045 -49.4045 -49.4041 -49.4041 -49.4040 -49.4026 -49.4026
   -49.4025 -49.4000 -49.3998 -49.3998 -49.3995 -49.3995 -49.3992 -49.3988
   -49.3988 -49.3988 -49.3986 -49.3985 -49.3985 -49.3982 -49.3982 -49.3981
   -49.3978 -49.3978 -49.3978 -49.3978 -49.3978 -49.3978 -49.3977 -49.3977
   -49.3977 -49.3975 -49.3973 -49.3973 -49.3969 -49.3969 -49.3964 -49.3937
   -49.3937 -49.3936 -49.3936 -49.3935 -49.3935 -49.3928 -49.3928 -49.3928
     0.5818   2.3530   2.3530   2.3531   2.3582   2.3582   2.3582   2.3588
     2.3588   2.4288   2.4288   2.4289   2.5487   2.5488   2.5488   2.7154
     2.7157   2.7157   2.7439   2.7442   2.7442   2.7473   2.7473   2.7476
     2.7801   2.7804   2.7804   2.8152   2.8416   2.8416   2.8906   2.8906
     2.9148   2.9638   2.9638   2.9728   3.0726   3.0726   3.0731   3.0895
     3.0898   3.0898   3.1035   3.1035   3.1139   3.1139   3.1140   3.1174
     3.1176   3.1176   3.1274   3.1277   3.1277   3.1335   3.1338   3.1338
     3.1351   3.1351   3.1361   3.1361   3.1567   3.1567   3.1567   3.1568
     3.1568   3.1568   3.2409   3.2409   3.2410   3.2896   3.2896   3.2901
     3.5141   3.5258   3.5258   3.5755   3.5755   3.5759   3.5806   3.5809
     3.5809   3.6332   3.6332   3.6333   4.0762   4.0762   4.0763   5.7025
     5.7025   5.7029

[...]

          k =-0.3551-0.3551-0.3551 ( 30592 PWs)   bands (ev):

[...]

 ------ SPIN DOWN ----------

[...]

          k = 0.2762-0.3551-0.3551 ( 30520 PWs)   bands (ev):

[...]

          k =-0.3551-0.3551-0.3551 ( 30592 PWs)   bands (ev):

   -79.7020 -79.7020 -79.7020 -79.7020 -79.7020 -79.7020 -79.7017 -79.7017
   -79.7012 -79.7012 -79.7012 -79.7012 -79.7012 -79.7012 -79.7006 -79.7006
   -45.8287 -45.8287 -45.8287 -45.8287 -45.8286 -45.8286 -45.8286 -45.8286
   -45.8286 -45.8286 -45.8285 -45.8285 -45.8285 -45.8285 -45.8285 -45.8285
   -45.8275 -45.8275 -45.8272 -45.8272 -45.8272 -45.8272 -45.8272 -45.8272
   -45.8213 -45.8213 -45.8210 -45.8210 -45.8210 -45.8210 -45.8210 -45.8210
   -45.8199 -45.8199 -45.8199 -45.8199 -45.8198 -45.8198 -45.8198 -45.8198
   -45.8198 -45.8198 -45.8197 -45.8197 -45.8197 -45.8197 -45.8197 -45.8197
     2.6299   2.6299   2.6313   2.6313   2.6313   2.6314   2.6314   2.6314
     5.3324   5.3324   5.3325   5.3325   5.3325   5.3325   5.3325   5.3325
     5.3815   5.3815   5.3815   5.3815   5.3815   5.3815   5.3817   5.3817
     5.3817   5.3817   5.3822   5.3822   5.3822   5.3822   5.3822   5.3822
     5.5053   5.5053   5.5053   5.5053   5.5053   5.5053   5.5058   5.5058
     5.5058   5.5058   5.5058   5.5058   5.5059   5.5059   5.5059   5.5059
     6.4520   6.4520   6.4520   6.4520   6.4520   6.4520   6.4522   6.4522
     6.4522   6.4522   6.4522   6.4523   6.4523   6.4523   6.4523   6.4523
     6.4771   6.4771   6.4774   6.4774   6.4774   6.4774   6.4774   6.4774
     6.5846   6.5846   6.5846   6.5846   6.5846   6.5846   6.5846   6.5846
     6.5847   6.5847   6.5847   6.5847   6.5847   6.5847   6.5847   6.5847
     9.0634   9.0637

     the Fermi energy is     5.7679 ev

!    total energy              =   -5265.46796474 Ry

     total all-electron energy =    -40726.212494 Ry
     estimated scf accuracy    <       0.00000010 Ry
     smearing contrib. (-TS)   =      -0.10668971 Ry
     internal energy E=F+TS    =   -5265.36127503 Ry

     The total energy is F=E-TS. E is the sum of the following terms:
     one-electron contribution =   -2956.27284243 Ry
     hartree contribution      =    1517.72436204 Ry
     xc contribution           =    -440.39447945 Ry
     ewald contribution        =   -2062.05274077 Ry
     one-center paw contrib.   =   -1324.36557442 Ry

     total magnetization       =    50.72 Bohr mag/cell
     absolute magnetization    =    54.78 Bohr mag/cell

     convergence has been achieved in  46 iterations

     negative rho (up, down):  0.000E+00 6.258E-03

     Forces acting on atoms (cartesian axes, Ry/au):

     atom    1 type  1   force =     0.00000000    0.00000000    0.00000000
     atom    2 type  2   force =    -0.00002589   -0.00002589   -0.00002589
     atom    3 type  1   force =     0.00000000    0.00000000    0.00000000
     atom    4 type  2   force =    -0.00002589   -0.00002589    0.00002589
     atom    5 type  1   force =     0.00000000    0.00000000    0.00000000
     atom    6 type  2   force =    -0.00002589    0.00002589   -0.00002589
     atom    7 type  1   force =     0.00000000    0.00000000    0.00000000
     atom    8 type  2   force =    -0.00002589    0.00002589    0.00002589
     atom    9 type  1   force =     0.00000000    0.00000000    0.00000000
     atom   10 type  2   force =     0.00002589   -0.00002589   -0.00002589
     atom   11 type  1   force =     0.00000000    0.00000000    0.00000000
     atom   12 type  2   force =     0.00002589   -0.00002589    0.00002589
     atom   13 type  1   force =     0.00000000    0.00000000    0.00000000
     atom   14 type  2   force =     0.00002589    0.00002589   -0.00002589
     atom   15 type  1   force =     0.00000000    0.00000000    0.00000000
     atom   16 type  2   force =     0.00002589    0.00002589    0.00002589

     Total force =     0.000127     Total SCF correction =     0.000508
     SCF correction compared to forces is large: reduce conv_thr to get better values

     Computing stress (Cartesian axis) and pressure

     negative rho (up, down):  0.000E+00 6.258E-03
          total   stress  (Ry/bohr**3)                   (kbar)     P=     -212.34
  -0.00144345   0.00000000   0.00000000         -212.34        0.00        0.00
   0.00000000  -0.00144345   0.00000000            0.00     -212.34        0.00
   0.00000000   0.00000000  -0.00144345            0.00        0.00     -212.34

     Writing output data file /scratch/oXaUjgtYdfYGsaCW.save/

     General routines

     Parallel routines

   This run was terminated on:  14:56: 4  17Jan2022

   JOB DONE.