     Program PWSCF v.6.7MaX starts on 19Mar2022 at 17: 3:26

     R & G space division:  proc/nbgrp/npool/nimage =      72
     Reading input from bcc_15.in
Warning: card &CELL ignored
Warning: card CELL_DYNAMICS = 'BFGS', ignored
Warning: card CELL_FACTOR = 2.0, ignored
Warning: card PRESS = 0.0, ignored
Warning: card / ignored

     Current dimensions of program PWSCF are:
     Max number of different atomic species (ntypx) = 10
     Max number of k-points (npk) =  40000
     Max angular momentum in pseudopotentials (lmaxx) =  3
     file Fe.pbe-spn-kjpaw_psl.1.0.0.UPF: wavefunction(s)  3P 3D renormalized
     file Fe.pbe-spn-kjpaw_psl.1.0.0.UPF: wavefunction(s)  3P 3D renormalized

     Subspace diagonalization in iterative solution of the eigenvalue problem:
     one sub-group per band group will be used

     Found symmetry operation: I + (  0.0000  0.0000 -0.5000)
     This is a supercell, fractional translations are disabled
     Message from routine setup:
     using ibrav=0 with symmetry is DISCOURAGED, use correct ibrav instead

     bravais-lattice index     =            0
     lattice parameter (alat)  =      10.2690  a.u.
     unit-cell volume          =    5053.1257 (a.u.)^3
     number of atoms/cell      =           16
     number of atomic types    =            2
     number of electrons       =       256.00
     number of Kohn-Sham states=          154
     kinetic-energy cutoff     =      71.0000  Ry
     charge density cutoff     =     430.0000  Ry
     scf convergence threshold =      1.0E-07
     mixing beta               =       0.3000
     number of iterations used =           10  local-TF  mixing
     Exchange-correlation= SLA  PW   PBX  PBC
                           (   1   4   3   4   0   0   0)

     celldm(1)=  10.269041  celldm(2)=   0.000000  celldm(3)=   0.000000
     celldm(4)=   0.000000  celldm(5)=   0.000000  celldm(6)=   0.000000

     crystal axes: (cart. coord. in units of alat)
               a(1) = (   1.671053   0.000000   0.000000 )
               a(2) = (   0.000000   1.671053   0.000000 )
               a(3) = (   0.000000   0.000000   1.671053 )

     reciprocal axes: (cart. coord. in units 2 pi/alat)
               b(1) = (  0.598425  0.000000  0.000000 )
               b(2) = (  0.000000  0.598425  0.000000 )
               b(3) = (  0.000000  0.000000  0.598425 )

     PseudoPot. # 1 for Fe read from file:
     /rds/homes/b/bxp912/pp/Fe.pbe-spn-kjpaw_psl.1.0.0.UPF
     MD5 check sum: 42f43b795421b414b0dc916aa790dbcb
     Pseudo is Projector augmented-wave + core cor, Zval = 16.0
     Generated using &quot;atomic&quot; code by A. Dal Corso  v.6.3
     Shape of augmentation charge: PSQ
     Using radial grid of 1191 points,  6 beta functions with:
                l(1) =   0
                l(2) =   0
                l(3) =   1
                l(4) =   1
                l(5) =   2
                l(6) =   2
     Q(r) pseudized with 0 coefficients

     PseudoPot. # 2 for Fe read from file:
     /rds/homes/b/bxp912/pp/Fe.pbe-spn-kjpaw_psl.1.0.0.UPF
     MD5 check sum: 42f43b795421b414b0dc916aa790dbcb
     Pseudo is Projector augmented-wave + core cor, Zval = 16.0
     Generated using &quot;atomic&quot; code by A. Dal Corso  v.6.3
     Shape of augmentation charge: PSQ
     Using radial grid of 1191 points,  6 beta functions with:
                l(1) =   0
                l(2) =   0
                l(3) =   1
                l(4) =   1
                l(5) =   2
                l(6) =   2
     Q(r) pseudized with 0 coefficients

     atomic species   valence    mass     pseudopotential
        Fe1           16.00    55.84500     Fe( 1.00)
        Fe2           16.00    55.84500     Fe( 1.00)

     Starting magnetic structure
     atomic species   magnetization
        Fe1          0.100
        Fe2          0.100

     48 Sym. Ops., with inversion, found

   Cartesian axes

     site n.     atom                  positions (alat units)
         1           Fe1 tau(   1) = (   0.0000000   0.0000000   0.0000000  )
         2           Fe2 tau(   2) = (   0.4177632   0.4177632   0.4177632  )
         3           Fe1 tau(   3) = (   0.0000000   0.0000000   0.8355263  )
         4           Fe2 tau(   4) = (   0.4177632   0.4177632   1.2532895  )
         5           Fe1 tau(   5) = (   0.0000000   0.8355263   0.0000000  )
         6           Fe2 tau(   6) = (   0.4177632   1.2532895   0.4177632  )
         7           Fe1 tau(   7) = (   0.0000000   0.8355263   0.8355263  )
         8           Fe2 tau(   8) = (   0.4177632   1.2532895   1.2532895  )
         9           Fe1 tau(   9) = (   0.8355263   0.0000000   0.0000000  )
        10           Fe2 tau(  10) = (   1.2532895   0.4177632   0.4177632  )
        11           Fe1 tau(  11) = (   0.8355263   0.0000000   0.8355263  )
        12           Fe2 tau(  12) = (   1.2532895   0.4177632   1.2532895  )
        13           Fe1 tau(  13) = (   0.8355263   0.8355263   0.0000000  )
        14           Fe2 tau(  14) = (   1.2532895   1.2532895   0.4177632  )
        15           Fe1 tau(  15) = (   0.8355263   0.8355263   0.8355263  )
        16           Fe2 tau(  16) = (   1.2532895   1.2532895   1.2532895  )

     number of k points=    35  Marzari-Vanderbilt smearing, width (Ry)=  0.0400
                       cart. coord. in units 2pi/alat
        k(    1) = (   0.0332458   0.0332458   0.0332458), wk =   0.0109739
        k(    2) = (   0.0332458   0.0332458   0.0997375), wk =   0.0329218
        k(    3) = (   0.0332458   0.0332458   0.1662292), wk =   0.0329218
        k(    4) = (   0.0332458   0.0332458   0.2327209), wk =   0.0329218
        k(    5) = (   0.0332458   0.0332458  -0.2992126), wk =   0.0164609
        k(    6) = (   0.0332458   0.0997375   0.0997375), wk =   0.0329218
        k(    7) = (   0.0332458   0.0997375   0.1662292), wk =   0.0658436
        k(    8) = (   0.0332458   0.0997375   0.2327209), wk =   0.0658436
        k(    9) = (   0.0332458   0.0997375  -0.2992126), wk =   0.0329218
        k(   10) = (   0.0332458   0.1662292   0.1662292), wk =   0.0329218
        k(   11) = (   0.0332458   0.1662292   0.2327209), wk =   0.0658436
        k(   12) = (   0.0332458   0.1662292  -0.2992126), wk =   0.0329218
        k(   13) = (   0.0332458   0.2327209   0.2327209), wk =   0.0329218
        k(   14) = (   0.0332458   0.2327209  -0.2992126), wk =   0.0329218
        k(   15) = (   0.0332458  -0.2992126  -0.2992126), wk =   0.0082305
        k(   16) = (   0.0997375   0.0997375   0.0997375), wk =   0.0109739
        k(   17) = (   0.0997375   0.0997375   0.1662292), wk =   0.0329218
        k(   18) = (   0.0997375   0.0997375   0.2327209), wk =   0.0329218
        k(   19) = (   0.0997375   0.0997375  -0.2992126), wk =   0.0164609
        k(   20) = (   0.0997375   0.1662292   0.1662292), wk =   0.0329218
        k(   21) = (   0.0997375   0.1662292   0.2327209), wk =   0.0658436
        k(   22) = (   0.0997375   0.1662292  -0.2992126), wk =   0.0329218
        k(   23) = (   0.0997375   0.2327209   0.2327209), wk =   0.0329218
        k(   24) = (   0.0997375   0.2327209  -0.2992126), wk =   0.0329218
        k(   25) = (   0.0997375  -0.2992126  -0.2992126), wk =   0.0082305
        k(   26) = (   0.1662292   0.1662292   0.1662292), wk =   0.0109739
        k(   27) = (   0.1662292   0.1662292   0.2327209), wk =   0.0329218
        k(   28) = (   0.1662292   0.1662292  -0.2992126), wk =   0.0164609
        k(   29) = (   0.1662292   0.2327209   0.2327209), wk =   0.0329218
        k(   30) = (   0.1662292   0.2327209  -0.2992126), wk =   0.0329218
        k(   31) = (   0.1662292  -0.2992126  -0.2992126), wk =   0.0082305
        k(   32) = (   0.2327209   0.2327209   0.2327209), wk =   0.0109739
        k(   33) = (   0.2327209   0.2327209  -0.2992126), wk =   0.0164609
        k(   34) = (   0.2327209  -0.2992126  -0.2992126), wk =   0.0082305
        k(   35) = (  -0.2992126  -0.2992126  -0.2992126), wk =   0.0013717

     Check: negative core charge=   -0.000003
     Generating pointlists ...
     new r_m :   0.2985 (alat units)  3.0651 (a.u.) for type    1
     new r_m :   0.2985 (alat units)  3.0651 (a.u.) for type    2

     Initial potential from superposition of free atoms

     starting charge  255.99300, renormalised to  256.00000
     Starting wfcs are  160 randomized atomic wfcs
     Checking if some PAW data can be deallocated...

     Self-consistent Calculation

     iteration #  1     ecut=    71.00 Ry     beta= 0.30
     Davidson diagonalization with overlap
     ethr =  1.00E-02,  avg # of iterations =  2.0

     total energy              =   -5261.93037551 Ry
     estimated scf accuracy    <      12.28435383 Ry

     total magnetization       =    40.86 Bohr mag/cell
     absolute magnetization    =    40.86 Bohr mag/cell

[...]

     negative rho (up, down):  0.000E+00 8.113E-04

[...]

     iteration #  9     ecut=    71.00 Ry     beta= 0.30
     Davidson diagonalization with overlap
     c_bands:  2 eigenvalues not converged
     ethr =  7.79E-06,  avg # of iterations =  5.1

[...]

     iteration # 36     ecut=    71.00 Ry     beta= 0.30
     Davidson diagonalization with overlap
     ethr =  9.23E-09,  avg # of iterations =  1.7

[...]

     total energy              =   -5263.71119739 Ry
     estimated scf accuracy    <       0.00000011 Ry

[...]

     iteration # 54     ecut=    71.00 Ry     beta= 0.30
     Davidson diagonalization with overlap
     c_bands:  1 eigenvalues not converged
     c_bands:  1 eigenvalues not converged
     c_bands:  1 eigenvalues not converged
     c_bands:  1 eigenvalues not converged
     c_bands:  1 eigenvalues not converged
     c_bands:  2 eigenvalues not converged
     c_bands:  1 eigenvalues not converged
     ethr =  4.26E-11,  avg # of iterations =  6.3

[...]

     Magnetic moment per site:
     atom:    1    charge:   15.3098    magn:    3.3127    constr:    0.0000
     atom:    2    charge:   15.3140    magn:    3.3437    constr:    0.0000
     atom:    3    charge:   15.3155    magn:    3.3547    constr:    0.0000
     atom:    4    charge:   15.3140    magn:    3.3437    constr:    0.0000
     atom:    5    charge:   15.3155    magn:    3.3547    constr:    0.0000
     atom:    6    charge:   15.3140    magn:    3.3437    constr:    0.0000
     atom:    7    charge:   15.3154    magn:    3.3543    constr:    0.0000
     atom:    8    charge:   15.3140    magn:    3.3437    constr:    0.0000
     atom:    9    charge:   15.3155    magn:    3.3547    constr:    0.0000
     atom:   10    charge:   15.3140    magn:    3.3437    constr:    0.0000
     atom:   11    charge:   15.3154    magn:    3.3543    constr:    0.0000
     atom:   12    charge:   15.3140    magn:    3.3437    constr:    0.0000
     atom:   13    charge:   15.3154    magn:    3.3543    constr:    0.0000
     atom:   14    charge:   15.3140    magn:    3.3437    constr:    0.0000
     atom:   15    charge:   15.3096    magn:    3.3105    constr:    0.0000
     atom:   16    charge:   15.3140    magn:    3.3437    constr:    0.0000

     End of self-consistent calculation

 ------ SPIN UP ------------

          k = 0.0332 0.0332 0.0332 ( 51051 PWs)   bands (ev):

   -86.8601 -86.8601 -86.8601 -86.8597 -86.8597 -86.8597 -86.8527 -86.8527
   -86.8527 -86.8527 -86.8527 -86.8527 -86.8527 -86.8527 -86.8314 -86.8294
   -52.9373 -52.9372 -52.9372 -52.9368 -52.9368 -52.9368 -52.9353 -52.9353
   -52.9353 -52.9353 -52.9352 -52.9352 -52.9344 -52.9344 -52.9344 -52.9344
   -52.9343 -52.9343 -52.9305 -52.9304 -52.9304 -52.9304 -52.9303 -52.9303
   -52.9303 -52.9303 -52.9282 -52.9282 -52.9282 -52.9281 -52.9280 -52.9280
   -52.9279 -52.9279 -52.9279 -52.9279 -52.9279 -52.9279 -52.9279 -52.9278
   -52.9278 -52.9278 -52.9090 -52.9089 -52.9089 -52.9071 -52.9070 -52.9070
    -1.5945  -1.0182  -1.0182  -0.9102  -0.9054  -0.9054  -0.9053  -0.9030
    -0.9030  -0.8953  -0.8926  -0.8926  -0.8730  -0.8725  -0.8725  -0.8723
    -0.8667  -0.8667  -0.8602  -0.8558  -0.8558  -0.7613  -0.7613  -0.7591
    -0.7544  -0.7544  -0.7538  -0.7526  -0.7526  -0.7520  -0.7520  -0.7492
    -0.7492  -0.5571  -0.5563  -0.5563  -0.5535  -0.5535  -0.5532  -0.5171
    -0.5118  -0.5118  -0.5105  -0.5078  -0.5078  -0.5030  -0.4885  -0.4885
    -0.4728  -0.4728  -0.4692  -0.4641  -0.4641  -0.4554  -0.4272  -0.4272
    -0.4210  -0.4169  -0.4131  -0.4131  -0.4059  -0.4059  -0.4056  -0.3955
    -0.3917  -0.3917  -0.3652  -0.3562  -0.3562  -0.3393  -0.3393  -0.3386
    -0.2493  -0.2449  -0.2449  -0.2250  -0.2250  -0.2235  -0.2213  -0.2198
    -0.2198   0.1195   0.1195   0.1207   0.5155   0.5155   0.5170   1.6984
     1.6984   1.7005

[...]

          k =-0.2992-0.2992-0.2992 ( 51104 PWs)   bands (ev):

[...]

 ------ SPIN DOWN ----------

[...]

          k = 0.2327-0.2992-0.2992 ( 51128 PWs)   bands (ev):

[...]

          k =-0.2992-0.2992-0.2992 ( 51104 PWs)   bands (ev):

   -83.2538 -83.2538 -83.2538 -83.2535 -83.2535 -83.2535 -83.2509 -83.2509
   -83.2509 -83.2509 -83.2509 -83.2509 -83.2509 -83.2509 -83.2426 -83.2416
   -49.4024 -49.4024 -49.4022 -49.4022 -49.4022 -49.4022 -49.4019 -49.4019
   -49.4019 -49.4018 -49.4018 -49.4018 -49.4016 -49.4016 -49.4016 -49.4015
   -49.4015 -49.4015 -49.4013 -49.4013 -49.4013 -49.4013 -49.4013 -49.4013
   -49.4011 -49.4011 -49.3987 -49.3987 -49.3987 -49.3987 -49.3987 -49.3987
   -49.3986 -49.3986 -49.3986 -49.3986 -49.3986 -49.3986 -49.3986 -49.3986
   -49.3986 -49.3986 -49.3929 -49.3929 -49.3929 -49.3921 -49.3921 -49.3921
    -0.0038  -0.0033   0.0073   0.0073   0.0073   0.0074   0.0074   0.0074
     1.8554   1.8554   1.8554   1.8555   1.8555   1.8555   1.8571   1.8573
     2.0070   2.0070   2.0070   2.0071   2.0071   2.0072   2.0072   2.0072
     2.0074   2.0074   2.0088   2.0088   2.0088   2.0089   2.0089   2.0089
     2.1658   2.1658   2.1661   2.1661   2.1679   2.1679   2.1679   2.1679
     2.1679   2.1679   2.1699   2.1699   2.1699   2.1701   2.1701   2.1701
     2.4450   2.4450   2.4450   2.4451   2.4451   2.4451   2.4484   2.4487
     2.6904   2.6904   2.6904   2.6908   2.6908   2.6908   2.6930   2.6930
     2.6930   2.6932   2.6932   2.6932   2.6937   2.6937   2.6939   2.6939
     2.9566   2.9566   2.9566   2.9568   2.9568   2.9568   2.9577   2.9577
     2.9580   2.9580   2.9581   2.9581   2.9581   2.9585   2.9585   2.9585
     3.5734   3.5741

     the Fermi energy is     2.2463 ev

!    total energy              =   -5263.71119743 Ry

     total all-electron energy =    -40724.455726 Ry
     estimated scf accuracy    <       0.00000008 Ry
     smearing contrib. (-TS)   =      -0.21354973 Ry
     internal energy E=F+TS    =   -5263.49764770 Ry

     The total energy is F=E-TS. E is the sum of the following terms:
     one-electron contribution =   -3536.35213455 Ry
     hartree contribution      =    1774.59427243 Ry
     xc contribution           =    -440.16573392 Ry
     ewald contribution        =   -1737.32002568 Ry
     one-center paw contrib.   =   -1324.25402598 Ry

     total magnetization       =    52.10 Bohr mag/cell
     absolute magnetization    =    55.40 Bohr mag/cell

     convergence has been achieved in  54 iterations

     negative rho (up, down):  0.000E+00 4.673E-03

     Forces acting on atoms (cartesian axes, Ry/au):

     atom    1 type  1   force =     0.00000000    0.00000000    0.00000000
     atom    2 type  2   force =     0.00000627    0.00000627    0.00000627
     atom    3 type  1   force =     0.00000000    0.00000000    0.00000000
     atom    4 type  2   force =     0.00000627    0.00000627   -0.00000627
     atom    5 type  1   force =     0.00000000    0.00000000    0.00000000
     atom    6 type  2   force =     0.00000627   -0.00000627    0.00000627
     atom    7 type  1   force =     0.00000000    0.00000000    0.00000000
     atom    8 type  2   force =     0.00000627   -0.00000627   -0.00000627
     atom    9 type  1   force =     0.00000000    0.00000000    0.00000000
     atom   10 type  2   force =    -0.00000627    0.00000627    0.00000627
     atom   11 type  1   force =     0.00000000    0.00000000    0.00000000
     atom   12 type  2   force =    -0.00000627    0.00000627   -0.00000627
     atom   13 type  1   force =     0.00000000    0.00000000    0.00000000
     atom   14 type  2   force =    -0.00000627   -0.00000627    0.00000627
     atom   15 type  1   force =     0.00000000    0.00000000    0.00000000
     atom   16 type  2   force =    -0.00000627   -0.00000627   -0.00000627

     Total force =     0.000031     Total SCF correction =     0.000016
     SCF correction compared to forces is large: reduce conv_thr to get better values

     Computing stress (Cartesian axis) and pressure

     negative rho (up, down):  0.000E+00 4.673E-03
          total   stress  (Ry/bohr**3)                   (kbar)     P=      -91.02
  -0.00061871   0.00000000   0.00000000          -91.02        0.00        0.00
   0.00000000  -0.00061871   0.00000000            0.00      -91.02        0.00
   0.00000000   0.00000000  -0.00061871            0.00        0.00      -91.02

     Writing output data file /scratch/IZCWHZldhepAXiec.save/

     General routines

     Parallel routines

   This run was terminated on:  17:38: 7  19Mar2022

   JOB DONE.