     Program PWSCF v.6.7MaX starts on 17Jan2022 at 13:59:41

     R & G space division:  proc/nbgrp/npool/nimage =      72
     Reading input from bcc_7.in
Warning: card &CELL ignored
Warning: card CELL_DYNAMICS = 'BFGS', ignored
Warning: card CELL_FACTOR = 2.0, ignored
Warning: card PRESS = 0.0, ignored
Warning: card / ignored

     Current dimensions of program PWSCF are:
     Max number of different atomic species (ntypx) = 10
     Max number of k-points (npk) =  40000
     Max angular momentum in pseudopotentials (lmaxx) =  3
     file Fe.pbe-spn-kjpaw_psl.1.0.0.UPF: wavefunction(s)  3P 3D renormalized
     file Fe.pbe-spn-kjpaw_psl.1.0.0.UPF: wavefunction(s)  3P 3D renormalized

     Subspace diagonalization in iterative solution of the eigenvalue problem:
     one sub-group per band group will be used

     Found symmetry operation: I + (  0.0000  0.0000 -0.5000)
     This is a supercell, fractional translations are disabled
     Message from routine setup:
     using ibrav=0 with symmetry is DISCOURAGED, use correct ibrav instead

     bravais-lattice index     =            0
     lattice parameter (alat)  =      10.2690  a.u.
     unit-cell volume          =    1624.4513 (a.u.)^3
     number of atoms/cell      =           16
     number of atomic types    =            2
     number of electrons       =       256.00
     number of Kohn-Sham states=          154
     kinetic-energy cutoff     =      71.0000  Ry
     charge density cutoff     =     430.0000  Ry
     scf convergence threshold =      1.0E-07
     mixing beta               =       0.1000
     number of iterations used =           10  local-TF  mixing
     Exchange-correlation= SLA  PW   PBX  PBC
                           (   1   4   3   4   0   0   0)

     celldm(1)=  10.269041  celldm(2)=   0.000000  celldm(3)=   0.000000
     celldm(4)=   0.000000  celldm(5)=   0.000000  celldm(6)=   0.000000

     crystal axes: (cart. coord. in units of alat)
               a(1) = (   1.144737   0.000000   0.000000 )
               a(2) = (   0.000000   1.144737   0.000000 )
               a(3) = (   0.000000   0.000000   1.144737 )

     reciprocal axes: (cart. coord. in units 2 pi/alat)
               b(1) = (  0.873563  0.000000  0.000000 )
               b(2) = (  0.000000  0.873563  0.000000 )
               b(3) = (  0.000000  0.000000  0.873563 )

     PseudoPot. # 1 for Fe read from file:
     /rds/homes/b/bxp912/pp/Fe.pbe-spn-kjpaw_psl.1.0.0.UPF
     MD5 check sum: 42f43b795421b414b0dc916aa790dbcb
     Pseudo is Projector augmented-wave + core cor, Zval = 16.0
     Generated using &quot;atomic&quot; code by A. Dal Corso  v.6.3
     Shape of augmentation charge: PSQ
     Using radial grid of 1191 points,  6 beta functions with:
                l(1) =   0
                l(2) =   0
                l(3) =   1
                l(4) =   1
                l(5) =   2
                l(6) =   2
     Q(r) pseudized with 0 coefficients

     PseudoPot. # 2 for Fe read from file:
     /rds/homes/b/bxp912/pp/Fe.pbe-spn-kjpaw_psl.1.0.0.UPF
     MD5 check sum: 42f43b795421b414b0dc916aa790dbcb
     Pseudo is Projector augmented-wave + core cor, Zval = 16.0
     Generated using &quot;atomic&quot; code by A. Dal Corso  v.6.3
     Shape of augmentation charge: PSQ
     Using radial grid of 1191 points,  6 beta functions with:
                l(1) =   0
                l(2) =   0
                l(3) =   1
                l(4) =   1
                l(5) =   2
                l(6) =   2
     Q(r) pseudized with 0 coefficients

     atomic species   valence    mass     pseudopotential
        Fe1           16.00    55.84500     Fe( 1.00)
        Fe2           16.00    55.84500     Fe( 1.00)

     Starting magnetic structure
     atomic species   magnetization
        Fe1          0.100
        Fe2          0.100

     48 Sym. Ops., with inversion, found

   Cartesian axes

     site n.     atom                  positions (alat units)
         1           Fe1 tau(   1) = (   0.0000000   0.0000000   0.0000000  )
         2           Fe2 tau(   2) = (   0.2861842   0.2861842   0.2861842  )
         3           Fe1 tau(   3) = (   0.0000000   0.0000000   0.5723684  )
         4           Fe2 tau(   4) = (   0.2861842   0.2861842   0.8585526  )
         5           Fe1 tau(   5) = (   0.0000000   0.5723684   0.0000000  )
         6           Fe2 tau(   6) = (   0.2861842   0.8585526   0.2861842  )
         7           Fe1 tau(   7) = (   0.0000000   0.5723684   0.5723684  )
         8           Fe2 tau(   8) = (   0.2861842   0.8585526   0.8585526  )
         9           Fe1 tau(   9) = (   0.5723684   0.0000000   0.0000000  )
        10           Fe2 tau(  10) = (   0.8585526   0.2861842   0.2861842  )
        11           Fe1 tau(  11) = (   0.5723684   0.0000000   0.5723684  )
        12           Fe2 tau(  12) = (   0.8585526   0.2861842   0.8585526  )
        13           Fe1 tau(  13) = (   0.5723684   0.5723684   0.0000000  )
        14           Fe2 tau(  14) = (   0.8585526   0.8585526   0.2861842  )
        15           Fe1 tau(  15) = (   0.5723684   0.5723684   0.5723684  )
        16           Fe2 tau(  16) = (   0.8585526   0.8585526   0.8585526  )

     number of k points=    35  Marzari-Vanderbilt smearing, width (Ry)=  0.0400
                       cart. coord. in units 2pi/alat
        k(    1) = (   0.0485313   0.0485313   0.0485313), wk =   0.0109739
        k(    2) = (   0.0485313   0.0485313   0.1455939), wk =   0.0329218
        k(    3) = (   0.0485313   0.0485313   0.2426564), wk =   0.0329218
        k(    4) = (   0.0485313   0.0485313   0.3397190), wk =   0.0329218
        k(    5) = (   0.0485313   0.0485313  -0.4367816), wk =   0.0164609
        k(    6) = (   0.0485313   0.1455939   0.1455939), wk =   0.0329218
        k(    7) = (   0.0485313   0.1455939   0.2426564), wk =   0.0658436
        k(    8) = (   0.0485313   0.1455939   0.3397190), wk =   0.0658436
        k(    9) = (   0.0485313   0.1455939  -0.4367816), wk =   0.0329218
        k(   10) = (   0.0485313   0.2426564   0.2426564), wk =   0.0329218
        k(   11) = (   0.0485313   0.2426564   0.3397190), wk =   0.0658436
        k(   12) = (   0.0485313   0.2426564  -0.4367816), wk =   0.0329218
        k(   13) = (   0.0485313   0.3397190   0.3397190), wk =   0.0329218
        k(   14) = (   0.0485313   0.3397190  -0.4367816), wk =   0.0329218
        k(   15) = (   0.0485313  -0.4367816  -0.4367816), wk =   0.0082305
        k(   16) = (   0.1455939   0.1455939   0.1455939), wk =   0.0109739
        k(   17) = (   0.1455939   0.1455939   0.2426564), wk =   0.0329218
        k(   18) = (   0.1455939   0.1455939   0.3397190), wk =   0.0329218
        k(   19) = (   0.1455939   0.1455939  -0.4367816), wk =   0.0164609
        k(   20) = (   0.1455939   0.2426564   0.2426564), wk =   0.0329218
        k(   21) = (   0.1455939   0.2426564   0.3397190), wk =   0.0658436
        k(   22) = (   0.1455939   0.2426564  -0.4367816), wk =   0.0329218
        k(   23) = (   0.1455939   0.3397190   0.3397190), wk =   0.0329218
        k(   24) = (   0.1455939   0.3397190  -0.4367816), wk =   0.0329218
        k(   25) = (   0.1455939  -0.4367816  -0.4367816), wk =   0.0082305
        k(   26) = (   0.2426564   0.2426564   0.2426564), wk =   0.0109739
        k(   27) = (   0.2426564   0.2426564   0.3397190), wk =   0.0329218
        k(   28) = (   0.2426564   0.2426564  -0.4367816), wk =   0.0164609
        k(   29) = (   0.2426564   0.3397190   0.3397190), wk =   0.0329218
        k(   30) = (   0.2426564   0.3397190  -0.4367816), wk =   0.0329218
        k(   31) = (   0.2426564  -0.4367816  -0.4367816), wk =   0.0082305
        k(   32) = (   0.3397190   0.3397190   0.3397190), wk =   0.0109739
        k(   33) = (   0.3397190   0.3397190  -0.4367816), wk =   0.0164609
        k(   34) = (   0.3397190  -0.4367816  -0.4367816), wk =   0.0082305
        k(   35) = (  -0.4367816  -0.4367816  -0.4367816), wk =   0.0013717

     Check: negative core charge=   -0.000005
     Generating pointlists ...
     new r_m :   0.2045 (alat units)  2.0997 (a.u.) for type    1
     new r_m :   0.2045 (alat units)  2.0997 (a.u.) for type    2

     Initial potential from superposition of free atoms

     starting charge  255.99300, renormalised to  256.00000
     Starting wfcs are  160 randomized atomic wfcs
     Checking if some PAW data can be deallocated...

     Self-consistent Calculation

     iteration #  1     ecut=    71.00 Ry     beta= 0.10
     Davidson diagonalization with overlap
     ethr =  1.00E-02,  avg # of iterations =  3.5

     Threshold (ethr) on eigenvalues was too large:
     Diagonalizing with lowered threshold

     Davidson diagonalization with overlap
     ethr =  1.28E-04,  avg # of iterations =  5.6

     total energy              =   -5267.24634152 Ry
     estimated scf accuracy    <       0.30642240 Ry

     total magnetization       =    33.73 Bohr mag/cell
     absolute magnetization    =    33.99 Bohr mag/cell

[...]

     negative rho (up, down):  0.000E+00 5.980E-03

[...]

     total energy              =   -5267.77559427 Ry
     estimated scf accuracy    <       0.00000016 Ry

[...]

     iteration # 23     ecut=    71.00 Ry     beta= 0.10
     Davidson diagonalization with overlap
     ethr =  6.28E-11,  avg # of iterations =  2.9

[...]

     Magnetic moment per site:
     atom:    1    charge:   14.6017    magn:    2.9195    constr:    0.0000
     atom:    2    charge:   14.6017    magn:    2.9194    constr:    0.0000
     atom:    3    charge:   14.6017    magn:    2.9194    constr:    0.0000
     atom:    4    charge:   14.6017    magn:    2.9194    constr:    0.0000
     atom:    5    charge:   14.6017    magn:    2.9194    constr:    0.0000
     atom:    6    charge:   14.6017    magn:    2.9194    constr:    0.0000
     atom:    7    charge:   14.6017    magn:    2.9194    constr:    0.0000
     atom:    8    charge:   14.6017    magn:    2.9194    constr:    0.0000
     atom:    9    charge:   14.6017    magn:    2.9194    constr:    0.0000
     atom:   10    charge:   14.6017    magn:    2.9194    constr:    0.0000
     atom:   11    charge:   14.6017    magn:    2.9194    constr:    0.0000
     atom:   12    charge:   14.6017    magn:    2.9194    constr:    0.0000
     atom:   13    charge:   14.6017    magn:    2.9194    constr:    0.0000
     atom:   14    charge:   14.6017    magn:    2.9194    constr:    0.0000
     atom:   15    charge:   14.6017    magn:    2.9195    constr:    0.0000
     atom:   16    charge:   14.6017    magn:    2.9194    constr:    0.0000

     End of self-consistent calculation

 ------ SPIN UP ------------

          k = 0.0485 0.0485 0.0485 ( 16456 PWs)   bands (ev):

   -75.3312 -75.3121 -75.3121 -75.3121 -75.3093 -75.3092 -75.3092 -75.3089
   -75.3089 -75.3089 -75.3086 -75.3086 -75.3086 -75.3078 -75.3077 -75.2920
   -41.4219 -41.4219 -41.4219 -41.4212 -41.4212 -41.4212 -41.3861 -41.3861
   -41.3844 -41.3591 -41.3580 -41.3580 -41.3580 -41.3519 -41.3519 -41.3486
   -41.3486 -41.3486 -41.3389 -41.3389 -41.3333 -41.3333 -41.3333 -41.3326
   -41.3296 -41.3296 -41.3296 -41.3274 -41.3274 -41.3274 -41.3266 -41.3266
   -41.3266 -41.3235 -41.3235 -41.3235 -41.3202 -41.3202 -41.3202 -41.2752
   -41.2742 -41.2742 -41.2738 -41.2738 -41.2738 -41.2730 -41.2730 -41.2730
     5.8299   8.8416   8.8416   8.8416   8.9552   8.9552   8.9552   8.9725
     8.9725   8.9725   9.1518   9.1518   9.2208   9.2208   9.2208   9.9966
     9.9966   9.9966  10.0048  10.0048  10.0048  10.0214  10.0803  10.0803
    10.1793  10.1793  10.2163  10.2339  10.2339  10.2340  10.4349  10.4349
    10.4349  10.6698  10.6698  10.6952  10.9031  10.9031  10.9031  10.9543
    10.9543  10.9543  11.0129  11.0129  11.0129  11.0632  11.0632  11.0632
    11.4295  11.4295  11.4295  11.5141  11.5141  11.5196  11.5196  11.5196
    11.5251  11.5251  11.5251  11.5525  11.5525  11.5525  11.5658  11.5658
    11.5658  11.6187  11.6187  11.6187  11.6399  11.6399  11.6404  11.6404
    12.2055  12.2268  12.2268  12.2268  12.2434  12.2434  12.3400  12.3400
    12.3400  12.3683  12.3683  12.3683  12.6720  12.6720  12.6720  13.3136
    13.3136  13.3136

[...]

          k =-0.4368-0.4368-0.4368 ( 16368 PWs)   bands (ev):

[...]

 ------ SPIN DOWN ----------

[...]

          k = 0.3397-0.4368-0.4368 ( 16436 PWs)   bands (ev):

[...]

          k =-0.4368-0.4368-0.4368 ( 16368 PWs)   bands (ev):

   -71.9371 -71.9371 -71.9371 -71.9371 -71.9371 -71.9371 -71.9371 -71.9371
   -71.9215 -71.9215 -71.9215 -71.9215 -71.9215 -71.9215 -71.9215 -71.9215
   -38.0923 -38.0923 -38.0923 -38.0923 -38.0923 -38.0923 -38.0923 -38.0923
   -38.0923 -38.0923 -38.0923 -38.0923 -38.0923 -38.0923 -38.0923 -38.0923
   -38.0776 -38.0776 -38.0776 -38.0776 -38.0776 -38.0776 -38.0776 -38.0776
   -37.9994 -37.9994 -37.9994 -37.9994 -37.9994 -37.9994 -37.9994 -37.9994
   -37.9843 -37.9843 -37.9843 -37.9843 -37.9843 -37.9843 -37.9843 -37.9843
   -37.9843 -37.9843 -37.9843 -37.9843 -37.9843 -37.9843 -37.9843 -37.9843
     8.7960   8.7960   8.7960   8.7960   8.7960   8.7960   8.7960   8.7961
    12.0485  12.0485  12.0485  12.0485  12.0485  12.0485  12.0485  12.0485
    12.0485  12.0485  12.0485  12.0485  12.0485  12.0485  12.0485  12.0485
    12.4462  12.4462  12.4462  12.4462  12.4462  12.4462  12.4462  12.4462
    12.6060  12.6060  12.6060  12.6060  12.6060  12.6060  12.6060  12.6060
    12.6060  12.6060  12.6060  12.6060  12.6060  12.6060  12.6060  12.6060
    14.7021  14.7021  14.7021  14.7021  14.7021  14.7021  14.7021  14.7021
    14.7021  14.7021  14.7021  14.7021  14.7021  14.7021  14.7021  14.7021
    14.7275  14.7275  14.7275  14.7275  14.7275  14.7275  14.7275  14.7275
    14.7275  14.7275  14.7275  14.7275  14.7275  14.7275  14.7275  14.7275
    14.9737  14.9737  14.9737  14.9737  14.9737  14.9737  14.9737  14.9737
    19.4348  19.4348

     the Fermi energy is    13.0886 ev

!    total energy              =   -5267.77559567 Ry

     total all-electron energy =    -40728.520125 Ry
     estimated scf accuracy    <       0.00000005 Ry
     smearing contrib. (-TS)   =       0.07474920 Ry
     internal energy E=F+TS    =   -5267.85034486 Ry

     The total energy is F=E-TS. E is the sum of the following terms:
     one-electron contribution =   -2156.06141266 Ry
     hartree contribution      =    1191.55635470 Ry
     xc contribution           =    -442.72281478 Ry
     ewald contribution        =   -2536.08785357 Ry
     one-center paw contrib.   =   -1324.53461855 Ry

     total magnetization       =    45.17 Bohr mag/cell
     absolute magnetization    =    48.45 Bohr mag/cell

     convergence has been achieved in  23 iterations

     negative rho (up, down):  0.000E+00 5.603E-03

     Forces acting on atoms (cartesian axes, Ry/au):

     atom    1 type  1   force =     0.00000000    0.00000000    0.00000000
     atom    2 type  2   force =    -0.00000240   -0.00000240   -0.00000240
     atom    3 type  1   force =     0.00000000    0.00000000    0.00000000
     atom    4 type  2   force =    -0.00000240   -0.00000240    0.00000240
     atom    5 type  1   force =     0.00000000    0.00000000    0.00000000
     atom    6 type  2   force =    -0.00000240    0.00000240   -0.00000240
     atom    7 type  1   force =     0.00000000    0.00000000    0.00000000
     atom    8 type  2   force =    -0.00000240    0.00000240    0.00000240
     atom    9 type  1   force =     0.00000000    0.00000000    0.00000000
     atom   10 type  2   force =     0.00000240   -0.00000240   -0.00000240
     atom   11 type  1   force =     0.00000000    0.00000000    0.00000000
     atom   12 type  2   force =     0.00000240   -0.00000240    0.00000240
     atom   13 type  1   force =     0.00000000    0.00000000    0.00000000
     atom   14 type  2   force =     0.00000240    0.00000240   -0.00000240
     atom   15 type  1   force =     0.00000000    0.00000000    0.00000000
     atom   16 type  2   force =     0.00000240    0.00000240    0.00000240

     Total force =     0.000012     Total SCF correction =     0.000004
     SCF correction compared to forces is large: reduce conv_thr to get better values

     Computing stress (Cartesian axis) and pressure

     negative rho (up, down):  0.000E+00 5.603E-03
          total   stress  (Ry/bohr**3)                   (kbar)     P=     -266.73
  -0.00181320   0.00000000   0.00000000         -266.73        0.00        0.00
   0.00000000  -0.00181320   0.00000000            0.00     -266.73        0.00
   0.00000000   0.00000000  -0.00181320            0.00        0.00     -266.73

     Writing output data file /scratch/ZdwbXCwNLzYqYbTa.save/

     General routines

     Parallel routines

   This run was terminated on:  14: 7:56  17Jan2022

   JOB DONE.