     Program PWSCF v.6.7MaX starts on 20Mar2022 at 12:40:51

     R & G space division:  proc/nbgrp/npool/nimage =      72
     Reading input from bcc_17.in
Warning: card &CELL ignored
Warning: card CELL_DYNAMICS = 'BFGS', ignored
Warning: card CELL_FACTOR = 2.0, ignored
Warning: card PRESS = 0.0, ignored
Warning: card / ignored

     Current dimensions of program PWSCF are:
     Max number of different atomic species (ntypx) = 10
     Max number of k-points (npk) =  40000
     Max angular momentum in pseudopotentials (lmaxx) =  3
     file Fe.pbe-spn-kjpaw_psl.1.0.0.UPF: wavefunction(s)  3P 3D renormalized
     file Fe.pbe-spn-kjpaw_psl.1.0.0.UPF: wavefunction(s)  3P 3D renormalized

     Subspace diagonalization in iterative solution of the eigenvalue problem:
     one sub-group per band group will be used

     Found symmetry operation: I + (  0.0000  0.0000 -0.5000)
     This is a supercell, fractional translations are disabled
     Message from routine setup:
     using ibrav=0 with symmetry is DISCOURAGED, use correct ibrav instead

     bravais-lattice index     =            0
     lattice parameter (alat)  =      10.2690  a.u.
     unit-cell volume          =    6343.2326 (a.u.)^3
     number of atoms/cell      =           16
     number of atomic types    =            2
     number of electrons       =       256.00
     number of Kohn-Sham states=          154
     kinetic-energy cutoff     =      71.0000  Ry
     charge density cutoff     =     430.0000  Ry
     scf convergence threshold =      1.0E-07
     mixing beta               =       0.3000
     number of iterations used =           10  plain     mixing
     Exchange-correlation= SLA  PW   PBX  PBC
                           (   1   4   3   4   0   0   0)

     celldm(1)=  10.269041  celldm(2)=   0.000000  celldm(3)=   0.000000
     celldm(4)=   0.000000  celldm(5)=   0.000000  celldm(6)=   0.000000

     crystal axes: (cart. coord. in units of alat)
               a(1) = (   1.802632   0.000000   0.000000 )
               a(2) = (   0.000000   1.802632   0.000000 )
               a(3) = (   0.000000   0.000000   1.802632 )

     reciprocal axes: (cart. coord. in units 2 pi/alat)
               b(1) = (  0.554745  0.000000  0.000000 )
               b(2) = (  0.000000  0.554745  0.000000 )
               b(3) = (  0.000000  0.000000  0.554745 )

     PseudoPot. # 1 for Fe read from file:
     /rds/homes/b/bxp912/pp/Fe.pbe-spn-kjpaw_psl.1.0.0.UPF
     MD5 check sum: 42f43b795421b414b0dc916aa790dbcb
     Pseudo is Projector augmented-wave + core cor, Zval = 16.0
     Generated using &quot;atomic&quot; code by A. Dal Corso  v.6.3
     Shape of augmentation charge: PSQ
     Using radial grid of 1191 points,  6 beta functions with:
                l(1) =   0
                l(2) =   0
                l(3) =   1
                l(4) =   1
                l(5) =   2
                l(6) =   2
     Q(r) pseudized with 0 coefficients

     PseudoPot. # 2 for Fe read from file:
     /rds/homes/b/bxp912/pp/Fe.pbe-spn-kjpaw_psl.1.0.0.UPF
     MD5 check sum: 42f43b795421b414b0dc916aa790dbcb
     Pseudo is Projector augmented-wave + core cor, Zval = 16.0
     Generated using &quot;atomic&quot; code by A. Dal Corso  v.6.3
     Shape of augmentation charge: PSQ
     Using radial grid of 1191 points,  6 beta functions with:
                l(1) =   0
                l(2) =   0
                l(3) =   1
                l(4) =   1
                l(5) =   2
                l(6) =   2
     Q(r) pseudized with 0 coefficients

     atomic species   valence    mass     pseudopotential
        Fe1           16.00    55.84500     Fe( 1.00)
        Fe2           16.00    55.84500     Fe( 1.00)

     Starting magnetic structure
     atomic species   magnetization
        Fe1          0.100
        Fe2          0.100

     48 Sym. Ops., with inversion, found

   Cartesian axes

     site n.     atom                  positions (alat units)
         1           Fe1 tau(   1) = (   0.0000000   0.0000000   0.0000000  )
         2           Fe2 tau(   2) = (   0.4506579   0.4506579   0.4506579  )
         3           Fe1 tau(   3) = (   0.0000000   0.0000000   0.9013158  )
         4           Fe2 tau(   4) = (   0.4506579   0.4506579   1.3519737  )
         5           Fe1 tau(   5) = (   0.0000000   0.9013158   0.0000000  )
         6           Fe2 tau(   6) = (   0.4506579   1.3519737   0.4506579  )
         7           Fe1 tau(   7) = (   0.0000000   0.9013158   0.9013158  )
         8           Fe2 tau(   8) = (   0.4506579   1.3519737   1.3519737  )
         9           Fe1 tau(   9) = (   0.9013158   0.0000000   0.0000000  )
        10           Fe2 tau(  10) = (   1.3519737   0.4506579   0.4506579  )
        11           Fe1 tau(  11) = (   0.9013158   0.0000000   0.9013158  )
        12           Fe2 tau(  12) = (   1.3519737   0.4506579   1.3519737  )
        13           Fe1 tau(  13) = (   0.9013158   0.9013158   0.0000000  )
        14           Fe2 tau(  14) = (   1.3519737   1.3519737   0.4506579  )
        15           Fe1 tau(  15) = (   0.9013158   0.9013158   0.9013158  )
        16           Fe2 tau(  16) = (   1.3519737   1.3519737   1.3519737  )

     number of k points=    35  Marzari-Vanderbilt smearing, width (Ry)=  0.0400
                       cart. coord. in units 2pi/alat
        k(    1) = (   0.0308191   0.0308191   0.0308191), wk =   0.0109739
        k(    2) = (   0.0308191   0.0308191   0.0924574), wk =   0.0329218
        k(    3) = (   0.0308191   0.0308191   0.1540957), wk =   0.0329218
        k(    4) = (   0.0308191   0.0308191   0.2157340), wk =   0.0329218
        k(    5) = (   0.0308191   0.0308191  -0.2773723), wk =   0.0164609
        k(    6) = (   0.0308191   0.0924574   0.0924574), wk =   0.0329218
        k(    7) = (   0.0308191   0.0924574   0.1540957), wk =   0.0658436
        k(    8) = (   0.0308191   0.0924574   0.2157340), wk =   0.0658436
        k(    9) = (   0.0308191   0.0924574  -0.2773723), wk =   0.0329218
        k(   10) = (   0.0308191   0.1540957   0.1540957), wk =   0.0329218
        k(   11) = (   0.0308191   0.1540957   0.2157340), wk =   0.0658436
        k(   12) = (   0.0308191   0.1540957  -0.2773723), wk =   0.0329218
        k(   13) = (   0.0308191   0.2157340   0.2157340), wk =   0.0329218
        k(   14) = (   0.0308191   0.2157340  -0.2773723), wk =   0.0329218
        k(   15) = (   0.0308191  -0.2773723  -0.2773723), wk =   0.0082305
        k(   16) = (   0.0924574   0.0924574   0.0924574), wk =   0.0109739
        k(   17) = (   0.0924574   0.0924574   0.1540957), wk =   0.0329218
        k(   18) = (   0.0924574   0.0924574   0.2157340), wk =   0.0329218
        k(   19) = (   0.0924574   0.0924574  -0.2773723), wk =   0.0164609
        k(   20) = (   0.0924574   0.1540957   0.1540957), wk =   0.0329218
        k(   21) = (   0.0924574   0.1540957   0.2157340), wk =   0.0658436
        k(   22) = (   0.0924574   0.1540957  -0.2773723), wk =   0.0329218
        k(   23) = (   0.0924574   0.2157340   0.2157340), wk =   0.0329218
        k(   24) = (   0.0924574   0.2157340  -0.2773723), wk =   0.0329218
        k(   25) = (   0.0924574  -0.2773723  -0.2773723), wk =   0.0082305
        k(   26) = (   0.1540957   0.1540957   0.1540957), wk =   0.0109739
        k(   27) = (   0.1540957   0.1540957   0.2157340), wk =   0.0329218
        k(   28) = (   0.1540957   0.1540957  -0.2773723), wk =   0.0164609
        k(   29) = (   0.1540957   0.2157340   0.2157340), wk =   0.0329218
        k(   30) = (   0.1540957   0.2157340  -0.2773723), wk =   0.0329218
        k(   31) = (   0.1540957  -0.2773723  -0.2773723), wk =   0.0082305
        k(   32) = (   0.2157340   0.2157340   0.2157340), wk =   0.0109739
        k(   33) = (   0.2157340   0.2157340  -0.2773723), wk =   0.0164609
        k(   34) = (   0.2157340  -0.2773723  -0.2773723), wk =   0.0082305
        k(   35) = (  -0.2773723  -0.2773723  -0.2773723), wk =   0.0013717

     Check: negative core charge=   -0.000002
     Generating pointlists ...
     new r_m :   0.3220 (alat units)  3.3064 (a.u.) for type    1
     new r_m :   0.3220 (alat units)  3.3064 (a.u.) for type    2

     Initial potential from superposition of free atoms

     starting charge  255.99300, renormalised to  256.00000
     Starting wfcs are  160 randomized atomic wfcs
     Checking if some PAW data can be deallocated...

     Self-consistent Calculation

     iteration #  1     ecut=    71.00 Ry     beta= 0.30
     Davidson diagonalization with overlap
     ethr =  1.00E-02,  avg # of iterations =  2.0

     total energy              =   -5256.42070491 Ry
     estimated scf accuracy    <      16.80410565 Ry

     total magnetization       =    37.61 Bohr mag/cell
     absolute magnetization    =    37.61 Bohr mag/cell

[...]

     negative rho (up, down):  0.000E+00 1.888E-05

[...]

     iteration # 14     ecut=    71.00 Ry     beta= 0.30
     Davidson diagonalization with overlap
     c_bands:  5 eigenvalues not converged
     c_bands:  1 eigenvalues not converged
     c_bands:  4 eigenvalues not converged
     c_bands:  4 eigenvalues not converged
     c_bands:  1 eigenvalues not converged
     c_bands:  1 eigenvalues not converged
     c_bands:  3 eigenvalues not converged
     ethr =  7.23E-05,  avg # of iterations =  8.6

[...]

     iteration # 78     ecut=    71.00 Ry     beta= 0.30
     Davidson diagonalization with overlap
     ethr =  2.55E-10,  avg # of iterations =  6.4

[...]

     total energy              =   -5263.16220105 Ry
     estimated scf accuracy    <       0.00000014 Ry

[...]

     iteration # 88     ecut=    71.00 Ry     beta= 0.30
     Davidson diagonalization with overlap
     c_bands:  1 eigenvalues not converged
     c_bands:  1 eigenvalues not converged
     c_bands:  1 eigenvalues not converged
     c_bands:  4 eigenvalues not converged
     c_bands:  4 eigenvalues not converged
     ethr =  5.49E-11,  avg # of iterations =  9.5

[...]

     Magnetic moment per site:
     atom:    1    charge:   15.4441    magn:    3.3866    constr:    0.0000
     atom:    2    charge:   15.4399    magn:    3.3523    constr:    0.0000
     atom:    3    charge:   15.4387    magn:    3.3438    constr:    0.0000
     atom:    4    charge:   15.4399    magn:    3.3523    constr:    0.0000
     atom:    5    charge:   15.4387    magn:    3.3438    constr:    0.0000
     atom:    6    charge:   15.4399    magn:    3.3523    constr:    0.0000
     atom:    7    charge:   15.4384    magn:    3.3411    constr:    0.0000
     atom:    8    charge:   15.4399    magn:    3.3523    constr:    0.0000
     atom:    9    charge:   15.4387    magn:    3.3438    constr:    0.0000
     atom:   10    charge:   15.4399    magn:    3.3523    constr:    0.0000
     atom:   11    charge:   15.4384    magn:    3.3411    constr:    0.0000
     atom:   12    charge:   15.4399    magn:    3.3523    constr:    0.0000
     atom:   13    charge:   15.4384    magn:    3.3411    constr:    0.0000
     atom:   14    charge:   15.4399    magn:    3.3523    constr:    0.0000
     atom:   15    charge:   15.4431    magn:    3.3762    constr:    0.0000
     atom:   16    charge:   15.4399    magn:    3.3523    constr:    0.0000

     End of self-consistent calculation

 ------ SPIN UP ------------

          k = 0.0308 0.0308 0.0308 ( 64052 PWs)   bands (ev):

   -87.9666 -87.9596 -87.9451 -87.9451 -87.9451 -87.9451 -87.9451 -87.9450
   -87.9450 -87.9450 -87.9395 -87.9394 -87.9394 -87.9376 -87.9376 -87.9376
   -54.0492 -54.0492 -54.0492 -54.0425 -54.0425 -54.0425 -54.0294 -54.0294
   -54.0294 -54.0294 -54.0294 -54.0294 -54.0294 -54.0291 -54.0289 -54.0289
   -54.0289 -54.0289 -54.0289 -54.0289 -54.0289 -54.0289 -54.0288 -54.0288
   -54.0288 -54.0288 -54.0287 -54.0287 -54.0286 -54.0286 -54.0253 -54.0253
   -54.0253 -54.0245 -54.0245 -54.0245 -54.0230 -54.0230 -54.0230 -54.0229
   -54.0229 -54.0229 -54.0208 -54.0207 -54.0207 -54.0206 -54.0206 -54.0206
    -2.1834  -2.0956  -2.0956  -2.0235  -2.0235  -2.0201  -2.0139  -2.0139
    -2.0108  -2.0107  -2.0107  -2.0098  -2.0098  -2.0071  -2.0064  -1.9955
    -1.9955  -1.9934  -1.9838  -1.9838  -1.9808  -1.9455  -1.9455  -1.9401
    -1.9401  -1.9401  -1.9392  -1.9392  -1.9391  -1.9391  -1.9383  -1.9383
    -1.9368  -1.6142  -1.6142  -1.6128  -1.6094  -1.6088  -1.6088  -1.5903
    -1.5903  -1.5896  -1.5880  -1.5872  -1.5872  -1.5700  -1.5610  -1.5610
    -1.5606  -1.5606  -1.5585  -1.5445  -1.5445  -1.5392  -1.5270  -1.5235
    -1.5235  -1.5198  -1.5198  -1.5177  -1.5133  -1.5133  -1.5115  -1.5064
    -1.5064  -1.5045  -1.4870  -1.4870  -1.4834  -1.4757  -1.4717  -1.4717
    -1.4164  -1.4138  -1.4138  -1.3992  -1.3984  -1.3984  -1.3969  -1.3969
    -1.3962  -0.8139  -0.8123  -0.8123  -0.4877  -0.4860  -0.4860   0.3229
     0.3254   0.3254

[...]

          k =-0.2774-0.2774-0.2774 ( 64024 PWs)   bands (ev):

[...]

 ------ SPIN DOWN ----------

[...]

          k = 0.2157-0.2774-0.2774 ( 64052 PWs)   bands (ev):

[...]

          k =-0.2774-0.2774-0.2774 ( 64024 PWs)   bands (ev):

   -84.3648 -84.3618 -84.3555 -84.3555 -84.3555 -84.3555 -84.3555 -84.3555
   -84.3555 -84.3555 -84.3527 -84.3527 -84.3527 -84.3519 -84.3519 -84.3519
   -50.5184 -50.5184 -50.5184 -50.5162 -50.5162 -50.5162 -50.5113 -50.5113
   -50.5113 -50.5113 -50.5113 -50.5113 -50.5113 -50.5113 -50.5113 -50.5113
   -50.5110 -50.5110 -50.5110 -50.5110 -50.5110 -50.5110 -50.5107 -50.5107
   -50.5107 -50.5107 -50.5107 -50.5107 -50.5105 -50.5105 -50.5095 -50.5095
   -50.5093 -50.5091 -50.5091 -50.5089 -50.5081 -50.5081 -50.5081 -50.5079
   -50.5079 -50.5079 -50.5075 -50.5075 -50.5075 -50.5074 -50.5074 -50.5074
    -0.7606  -0.7606  -0.7606  -0.7594  -0.7594  -0.7594  -0.7514  -0.7472
     0.7676   0.7681   0.7681   0.7681   0.7681   0.7682   0.7682   0.7682
     0.9078   0.9078   0.9082   0.9082   0.9100   0.9100   0.9100   0.9100
     0.9100   0.9100   0.9108   0.9108   0.9108   0.9112   0.9112   0.9112
     1.0701   1.0701   1.0702   1.0702   1.0713   1.0713   1.0713   1.0713
     1.0713   1.0713   1.0726   1.0726   1.0726   1.0726   1.0726   1.0726
     1.2081   1.2084   1.2105   1.2105   1.2105   1.2106   1.2106   1.2106
     1.5980   1.5980   1.5980   1.5982   1.5982   1.5982   1.5983   1.5983
     1.5984   1.5984   1.6002   1.6002   1.6002   1.6003   1.6003   1.6003
     1.8137   1.8137   1.8138   1.8138   1.8138   1.8139   1.8139   1.8139
     1.8141   1.8141   1.8165   1.8165   1.8165   1.8167   1.8167   1.8167
     1.9051   1.9051

     the Fermi energy is     1.1178 ev

!    total energy              =   -5263.16220108 Ry

     total all-electron energy =    -40723.906730 Ry
     estimated scf accuracy    <       0.00000007 Ry
     smearing contrib. (-TS)   =      -0.23564609 Ry
     internal energy E=F+TS    =   -5262.92655499 Ry

     The total energy is F=E-TS. E is the sum of the following terms:
     one-electron contribution =   -3768.23917872 Ry
     hartree contribution      =    1880.20817885 Ry
     xc contribution           =    -440.14902014 Ry
     ewald contribution        =   -1610.50834497 Ry
     one-center paw contrib.   =   -1324.23819000 Ry

     total magnetization       =    52.33 Bohr mag/cell
     absolute magnetization    =    55.58 Bohr mag/cell

     convergence has been achieved in  88 iterations

     negative rho (up, down):  0.000E+00 1.690E-03

     Forces acting on atoms (cartesian axes, Ry/au):

     atom    1 type  1   force =     0.00000000    0.00000000    0.00000000
     atom    2 type  2   force =    -0.00008872   -0.00008872   -0.00008872
     atom    3 type  1   force =     0.00000000    0.00000000    0.00000000
     atom    4 type  2   force =    -0.00008872   -0.00008872    0.00008872
     atom    5 type  1   force =     0.00000000    0.00000000    0.00000000
     atom    6 type  2   force =    -0.00008872    0.00008872   -0.00008872
     atom    7 type  1   force =     0.00000000    0.00000000    0.00000000
     atom    8 type  2   force =    -0.00008872    0.00008872    0.00008872
     atom    9 type  1   force =     0.00000000    0.00000000    0.00000000
     atom   10 type  2   force =     0.00008872   -0.00008872   -0.00008872
     atom   11 type  1   force =     0.00000000    0.00000000    0.00000000
     atom   12 type  2   force =     0.00008872   -0.00008872    0.00008872
     atom   13 type  1   force =     0.00000000    0.00000000    0.00000000
     atom   14 type  2   force =     0.00008872    0.00008872   -0.00008872
     atom   15 type  1   force =     0.00000000    0.00000000    0.00000000
     atom   16 type  2   force =     0.00008872    0.00008872    0.00008872

     Total force =     0.000435     Total SCF correction =     0.000104
     SCF correction compared to forces is large: reduce conv_thr to get better values

     Computing stress (Cartesian axis) and pressure

     negative rho (up, down):  0.000E+00 1.690E-03
          total   stress  (Ry/bohr**3)                   (kbar)     P=      -57.46
  -0.00039064   0.00000000   0.00000000          -57.46        0.00        0.00
   0.00000000  -0.00039064   0.00000000            0.00      -57.46        0.00
   0.00000000   0.00000000  -0.00039064            0.00        0.00      -57.46

     Writing output data file /scratch/XzBfwbJNNJDtFxaT.save/

     General routines

     Parallel routines

   This run was terminated on:  13:48:40  20Mar2022

   JOB DONE.