     Program PWSCF v.6.7MaX starts on 17Jan2022 at 15:19:46

     R & G space division:  proc/nbgrp/npool/nimage =      72
     Reading input from bcc_13.in
Warning: card &CELL ignored
Warning: card CELL_DYNAMICS = 'BFGS', ignored
Warning: card CELL_FACTOR = 2.0, ignored
Warning: card PRESS = 0.0, ignored
Warning: card / ignored

     Current dimensions of program PWSCF are:
     Max number of different atomic species (ntypx) = 10
     Max number of k-points (npk) =  40000
     Max angular momentum in pseudopotentials (lmaxx) =  3
     file Fe.pbe-spn-kjpaw_psl.1.0.0.UPF: wavefunction(s)  3P 3D renormalized
     file Fe.pbe-spn-kjpaw_psl.1.0.0.UPF: wavefunction(s)  3P 3D renormalized

     Subspace diagonalization in iterative solution of the eigenvalue problem:
     one sub-group per band group will be used

     Found symmetry operation: I + (  0.0000  0.0000 -0.5000)
     This is a supercell, fractional translations are disabled
     Message from routine setup:
     using ibrav=0 with symmetry is DISCOURAGED, use correct ibrav instead

     bravais-lattice index     =            0
     lattice parameter (alat)  =      10.2690  a.u.
     unit-cell volume          =    3950.9954 (a.u.)^3
     number of atoms/cell      =           16
     number of atomic types    =            2
     number of electrons       =       256.00
     number of Kohn-Sham states=          154
     kinetic-energy cutoff     =      71.0000  Ry
     charge density cutoff     =     430.0000  Ry
     scf convergence threshold =      1.0E-07
     mixing beta               =       0.1000
     number of iterations used =           10  local-TF  mixing
     Exchange-correlation= SLA  PW   PBX  PBC
                           (   1   4   3   4   0   0   0)

     celldm(1)=  10.269041  celldm(2)=   0.000000  celldm(3)=   0.000000
     celldm(4)=   0.000000  celldm(5)=   0.000000  celldm(6)=   0.000000

     crystal axes: (cart. coord. in units of alat)
               a(1) = (   1.539474   0.000000   0.000000 )
               a(2) = (   0.000000   1.539474   0.000000 )
               a(3) = (   0.000000   0.000000   1.539474 )

     reciprocal axes: (cart. coord. in units 2 pi/alat)
               b(1) = (  0.649573  0.000000  0.000000 )
               b(2) = (  0.000000  0.649573  0.000000 )
               b(3) = (  0.000000  0.000000  0.649573 )

     PseudoPot. # 1 for Fe read from file:
     /rds/homes/b/bxp912/pp/Fe.pbe-spn-kjpaw_psl.1.0.0.UPF
     MD5 check sum: 42f43b795421b414b0dc916aa790dbcb
     Pseudo is Projector augmented-wave + core cor, Zval = 16.0
     Generated using &quot;atomic&quot; code by A. Dal Corso  v.6.3
     Shape of augmentation charge: PSQ
     Using radial grid of 1191 points,  6 beta functions with:
                l(1) =   0
                l(2) =   0
                l(3) =   1
                l(4) =   1
                l(5) =   2
                l(6) =   2
     Q(r) pseudized with 0 coefficients

     PseudoPot. # 2 for Fe read from file:
     /rds/homes/b/bxp912/pp/Fe.pbe-spn-kjpaw_psl.1.0.0.UPF
     MD5 check sum: 42f43b795421b414b0dc916aa790dbcb
     Pseudo is Projector augmented-wave + core cor, Zval = 16.0
     Generated using &quot;atomic&quot; code by A. Dal Corso  v.6.3
     Shape of augmentation charge: PSQ
     Using radial grid of 1191 points,  6 beta functions with:
                l(1) =   0
                l(2) =   0
                l(3) =   1
                l(4) =   1
                l(5) =   2
                l(6) =   2
     Q(r) pseudized with 0 coefficients

     atomic species   valence    mass     pseudopotential
        Fe1           16.00    55.84500     Fe( 1.00)
        Fe2           16.00    55.84500     Fe( 1.00)

     Starting magnetic structure
     atomic species   magnetization
        Fe1          0.100
        Fe2          0.100

     48 Sym. Ops., with inversion, found

   Cartesian axes

     site n.     atom                  positions (alat units)
         1           Fe1 tau(   1) = (   0.0000000   0.0000000   0.0000000  )
         2           Fe2 tau(   2) = (   0.3848684   0.3848684   0.3848684  )
         3           Fe1 tau(   3) = (   0.0000000   0.0000000   0.7697368  )
         4           Fe2 tau(   4) = (   0.3848684   0.3848684   1.1546053  )
         5           Fe1 tau(   5) = (   0.0000000   0.7697368   0.0000000  )
         6           Fe2 tau(   6) = (   0.3848684   1.1546053   0.3848684  )
         7           Fe1 tau(   7) = (   0.0000000   0.7697368   0.7697368  )
         8           Fe2 tau(   8) = (   0.3848684   1.1546053   1.1546053  )
         9           Fe1 tau(   9) = (   0.7697368   0.0000000   0.0000000  )
        10           Fe2 tau(  10) = (   1.1546053   0.3848684   0.3848684  )
        11           Fe1 tau(  11) = (   0.7697368   0.0000000   0.7697368  )
        12           Fe2 tau(  12) = (   1.1546053   0.3848684   1.1546053  )
        13           Fe1 tau(  13) = (   0.7697368   0.7697368   0.0000000  )
        14           Fe2 tau(  14) = (   1.1546053   1.1546053   0.3848684  )
        15           Fe1 tau(  15) = (   0.7697368   0.7697368   0.7697368  )
        16           Fe2 tau(  16) = (   1.1546053   1.1546053   1.1546053  )

     number of k points=    35  Marzari-Vanderbilt smearing, width (Ry)=  0.0400
                       cart. coord. in units 2pi/alat
        k(    1) = (   0.0360874   0.0360874   0.0360874), wk =   0.0109739
        k(    2) = (   0.0360874   0.0360874   0.1082621), wk =   0.0329218
        k(    3) = (   0.0360874   0.0360874   0.1804368), wk =   0.0329218
        k(    4) = (   0.0360874   0.0360874   0.2526116), wk =   0.0329218
        k(    5) = (   0.0360874   0.0360874  -0.3247863), wk =   0.0164609
        k(    6) = (   0.0360874   0.1082621   0.1082621), wk =   0.0329218
        k(    7) = (   0.0360874   0.1082621   0.1804368), wk =   0.0658436
        k(    8) = (   0.0360874   0.1082621   0.2526116), wk =   0.0658436
        k(    9) = (   0.0360874   0.1082621  -0.3247863), wk =   0.0329218
        k(   10) = (   0.0360874   0.1804368   0.1804368), wk =   0.0329218
        k(   11) = (   0.0360874   0.1804368   0.2526116), wk =   0.0658436
        k(   12) = (   0.0360874   0.1804368  -0.3247863), wk =   0.0329218
        k(   13) = (   0.0360874   0.2526116   0.2526116), wk =   0.0329218
        k(   14) = (   0.0360874   0.2526116  -0.3247863), wk =   0.0329218
        k(   15) = (   0.0360874  -0.3247863  -0.3247863), wk =   0.0082305
        k(   16) = (   0.1082621   0.1082621   0.1082621), wk =   0.0109739
        k(   17) = (   0.1082621   0.1082621   0.1804368), wk =   0.0329218
        k(   18) = (   0.1082621   0.1082621   0.2526116), wk =   0.0329218
        k(   19) = (   0.1082621   0.1082621  -0.3247863), wk =   0.0164609
        k(   20) = (   0.1082621   0.1804368   0.1804368), wk =   0.0329218
        k(   21) = (   0.1082621   0.1804368   0.2526116), wk =   0.0658436
        k(   22) = (   0.1082621   0.1804368  -0.3247863), wk =   0.0329218
        k(   23) = (   0.1082621   0.2526116   0.2526116), wk =   0.0329218
        k(   24) = (   0.1082621   0.2526116  -0.3247863), wk =   0.0329218
        k(   25) = (   0.1082621  -0.3247863  -0.3247863), wk =   0.0082305
        k(   26) = (   0.1804368   0.1804368   0.1804368), wk =   0.0109739
        k(   27) = (   0.1804368   0.1804368   0.2526116), wk =   0.0329218
        k(   28) = (   0.1804368   0.1804368  -0.3247863), wk =   0.0164609
        k(   29) = (   0.1804368   0.2526116   0.2526116), wk =   0.0329218
        k(   30) = (   0.1804368   0.2526116  -0.3247863), wk =   0.0329218
        k(   31) = (   0.1804368  -0.3247863  -0.3247863), wk =   0.0082305
        k(   32) = (   0.2526116   0.2526116   0.2526116), wk =   0.0109739
        k(   33) = (   0.2526116   0.2526116  -0.3247863), wk =   0.0164609
        k(   34) = (   0.2526116  -0.3247863  -0.3247863), wk =   0.0082305
        k(   35) = (  -0.3247863  -0.3247863  -0.3247863), wk =   0.0013717

     Check: negative core charge=   -0.000003
     Generating pointlists ...
     new r_m :   0.2750 (alat units)  2.8238 (a.u.) for type    1
     new r_m :   0.2750 (alat units)  2.8238 (a.u.) for type    2

     Initial potential from superposition of free atoms

     starting charge  255.99300, renormalised to  256.00000
     Starting wfcs are  160 randomized atomic wfcs
     Checking if some PAW data can be deallocated...

     Self-consistent Calculation

     iteration #  1     ecut=    71.00 Ry     beta= 0.10
     Davidson diagonalization with overlap
     ethr =  1.00E-02,  avg # of iterations =  2.3

     total energy              =   -5263.87779280 Ry
     estimated scf accuracy    <       8.32875504 Ry

     total magnetization       =    43.86 Bohr mag/cell
     absolute magnetization    =    43.86 Bohr mag/cell

[...]

     negative rho (up, down):  0.000E+00 1.285E-04

[...]

     iteration # 24     ecut=    71.00 Ry     beta= 0.10
     Davidson diagonalization with overlap
     c_bands:  1 eigenvalues not converged
     c_bands:  1 eigenvalues not converged
     ethr =  3.44E-09,  avg # of iterations =  6.6

[...]

     iteration # 52     ecut=    71.00 Ry     beta= 0.10
     Davidson diagonalization with overlap
     c_bands:  1 eigenvalues not converged
     ethr =  6.44E-11,  avg # of iterations =  6.3

[...]

     total energy              =   -5264.46961772 Ry
     estimated scf accuracy    <       0.00000016 Ry

[...]

     iteration # 54     ecut=    71.00 Ry     beta= 0.10
     Davidson diagonalization with overlap
     ethr =  6.19E-11,  avg # of iterations =  3.1

[...]

     Magnetic moment per site:
     atom:    1    charge:   15.1678    magn:    3.3186    constr:    0.0000
     atom:    2    charge:   15.1686    magn:    3.3282    constr:    0.0000
     atom:    3    charge:   15.1688    magn:    3.3296    constr:    0.0000
     atom:    4    charge:   15.1686    magn:    3.3282    constr:    0.0000
     atom:    5    charge:   15.1688    magn:    3.3296    constr:    0.0000
     atom:    6    charge:   15.1686    magn:    3.3282    constr:    0.0000
     atom:    7    charge:   15.1689    magn:    3.3314    constr:    0.0000
     atom:    8    charge:   15.1686    magn:    3.3282    constr:    0.0000
     atom:    9    charge:   15.1688    magn:    3.3296    constr:    0.0000
     atom:   10    charge:   15.1686    magn:    3.3282    constr:    0.0000
     atom:   11    charge:   15.1689    magn:    3.3314    constr:    0.0000
     atom:   12    charge:   15.1686    magn:    3.3282    constr:    0.0000
     atom:   13    charge:   15.1689    magn:    3.3314    constr:    0.0000
     atom:   14    charge:   15.1686    magn:    3.3282    constr:    0.0000
     atom:   15    charge:   15.1681    magn:    3.3239    constr:    0.0000
     atom:   16    charge:   15.1686    magn:    3.3282    constr:    0.0000

     End of self-consistent calculation

 ------ SPIN UP ------------

          k = 0.0361 0.0361 0.0361 ( 39904 PWs)   bands (ev):

   -85.4234 -85.4234 -85.4234 -85.4221 -85.4221 -85.4220 -85.4211 -85.4211
   -85.4211 -85.4211 -85.4211 -85.4211 -85.4211 -85.4210 -85.4185 -85.4146
   -51.4861 -51.4860 -51.4860 -51.4856 -51.4855 -51.4855 -51.4851 -51.4851
   -51.4851 -51.4844 -51.4844 -51.4844 -51.4842 -51.4841 -51.4841 -51.4839
   -51.4839 -51.4839 -51.4835 -51.4835 -51.4834 -51.4834 -51.4834 -51.4833
   -51.4833 -51.4833 -51.4833 -51.4833 -51.4823 -51.4822 -51.4822 -51.4822
   -51.4822 -51.4822 -51.4821 -51.4821 -51.4821 -51.4818 -51.4817 -51.4817
   -51.4817 -51.4817 -51.4800 -51.4800 -51.4799 -51.4766 -51.4766 -51.4766
    -0.7275   0.3979   0.3979   0.4901   0.4901   0.4903   0.4912   0.4912
     0.4914   0.5700   0.5702   0.5702   0.5883   0.5887   0.5887   0.6070
     0.6079   0.6079   0.6449   0.6458   0.6458   0.8091   0.8102   0.8102
     0.8124   0.8124   0.8135   0.8324   0.8324   0.8393   0.8393   0.8396
     0.8405   0.8405   0.8413   0.8413   0.8447   0.8456   0.8456   0.8746
     0.9031   0.9031   0.9363   0.9363   0.9436   0.9436   0.9443   0.9492
     0.9626   0.9626   0.9632   0.9646   0.9646   0.9655   1.0140   1.0140
     1.0164   1.0281   1.0297   1.0297   1.0432   1.0432   1.0440   1.0569
     1.0586   1.0586   1.1187   1.1187   1.1197   1.1494   1.1494   1.1519
     1.2914   1.2986   1.2986   1.3295   1.3295   1.3316   1.3321   1.3342
     1.3342   1.4908   1.4908   1.4913   1.9377   1.9377   1.9383   3.4769
     3.4769   3.4777

[...]

          k =-0.3248-0.3248-0.3248 ( 39816 PWs)   bands (ev):

[...]

 ------ SPIN DOWN ----------

[...]

          k = 0.2526-0.3248-0.3248 ( 39836 PWs)   bands (ev):

[...]

          k =-0.3248-0.3248-0.3248 ( 39816 PWs)   bands (ev):

   -81.7890 -81.7890 -81.7890 -81.7886 -81.7886 -81.7886 -81.7882 -81.7882
   -81.7882 -81.7882 -81.7882 -81.7882 -81.7882 -81.7882 -81.7870 -81.7858
   -47.9272 -47.9272 -47.9271 -47.9271 -47.9271 -47.9271 -47.9271 -47.9269
   -47.9269 -47.9269 -47.9269 -47.9269 -47.9269 -47.9268 -47.9267 -47.9267
   -47.9267 -47.9267 -47.9261 -47.9261 -47.9261 -47.9259 -47.9259 -47.9259
   -47.9248 -47.9248 -47.9246 -47.9246 -47.9246 -47.9245 -47.9245 -47.9245
   -47.9240 -47.9240 -47.9240 -47.9240 -47.9240 -47.9240 -47.9240 -47.9238
   -47.9238 -47.9238 -47.9233 -47.9233 -47.9233 -47.9227 -47.9227 -47.9227
     1.0647   1.0680   1.0694   1.0694   1.0694   1.0705   1.0705   1.0705
     3.3063   3.3068   3.3076   3.3076   3.3076   3.3077   3.3077   3.3077
     3.4699   3.4699   3.4699   3.4701   3.4701   3.4701   3.4719   3.4719
     3.4720   3.4720   3.4720   3.4721   3.4721   3.4723   3.4723   3.4723
     3.5403   3.5403   3.5403   3.5407   3.5407   3.5407   3.5413   3.5413
     3.5417   3.5417   3.5417   3.5419   3.5419   3.5419   3.5422   3.5422
     4.1159   4.1162   4.1174   4.1174   4.1174   4.1175   4.1175   4.1175
     4.2117   4.2117   4.2117   4.2117   4.2117   4.2117   4.2119   4.2119
     4.2123   4.2123   4.2133   4.2133   4.2133   4.2134   4.2134   4.2134
     4.4507   4.4507   4.4507   4.4507   4.4507   4.4507   4.4507   4.4507
     4.4507   4.4508   4.4508   4.4508   4.4508   4.4508   4.4510   4.4510
     5.8551   5.8564

     the Fermi energy is     3.7265 ev

!    total energy              =   -5264.46961764 Ry

     total all-electron energy =    -40725.214147 Ry
     estimated scf accuracy    <       0.00000008 Ry
     smearing contrib. (-TS)   =      -0.17754577 Ry
     internal energy E=F+TS    =   -5264.29207186 Ry

     The total energy is F=E-TS. E is the sum of the following terms:
     one-electron contribution =   -3268.14518700 Ry
     hartree contribution      =    1654.13116838 Ry
     xc contribution           =    -440.17213303 Ry
     ewald contribution        =   -1885.80891677 Ry
     one-center paw contrib.   =   -1324.29700345 Ry

     total magnetization       =    51.63 Bohr mag/cell
     absolute magnetization    =    55.27 Bohr mag/cell

     convergence has been achieved in  54 iterations

     negative rho (up, down):  0.000E+00 5.356E-03

     Forces acting on atoms (cartesian axes, Ry/au):

     atom    1 type  1   force =     0.00000000    0.00000000    0.00000000
     atom    2 type  2   force =     0.00001142    0.00001142    0.00001142
     atom    3 type  1   force =     0.00000000    0.00000000    0.00000000
     atom    4 type  2   force =     0.00001142    0.00001142   -0.00001142
     atom    5 type  1   force =     0.00000000    0.00000000    0.00000000
     atom    6 type  2   force =     0.00001142   -0.00001142    0.00001142
     atom    7 type  1   force =     0.00000000    0.00000000    0.00000000
     atom    8 type  2   force =     0.00001142   -0.00001142   -0.00001142
     atom    9 type  1   force =     0.00000000    0.00000000    0.00000000
     atom   10 type  2   force =    -0.00001142    0.00001142    0.00001142
     atom   11 type  1   force =     0.00000000    0.00000000    0.00000000
     atom   12 type  2   force =    -0.00001142    0.00001142   -0.00001142
     atom   13 type  1   force =     0.00000000    0.00000000    0.00000000
     atom   14 type  2   force =    -0.00001142   -0.00001142    0.00001142
     atom   15 type  1   force =     0.00000000    0.00000000    0.00000000
     atom   16 type  2   force =    -0.00001142   -0.00001142   -0.00001142

     Total force =     0.000056     Total SCF correction =     0.000348
     SCF correction compared to forces is large: reduce conv_thr to get better values

     Computing stress (Cartesian axis) and pressure

     negative rho (up, down):  0.000E+00 5.356E-03
          total   stress  (Ry/bohr**3)                   (kbar)     P=     -142.14
  -0.00096628   0.00000000   0.00000000         -142.14        0.00        0.00
   0.00000000  -0.00096628   0.00000000            0.00     -142.14        0.00
   0.00000000   0.00000000  -0.00096628            0.00        0.00     -142.14

     Writing output data file /scratch/jjpyEGSrXzAmCiYr.save/

     General routines

     Parallel routines

   This run was terminated on:  15:48:58  17Jan2022

   JOB DONE.