     Program PWSCF v.6.7MaX starts on 17Jan2022 at 14:56: 9

     R & G space division:  proc/nbgrp/npool/nimage =      72
     Reading input from bcc_12.in
Warning: card &CELL ignored
Warning: card CELL_DYNAMICS = 'BFGS', ignored
Warning: card CELL_FACTOR = 2.0, ignored
Warning: card PRESS = 0.0, ignored
Warning: card / ignored

     Current dimensions of program PWSCF are:
     Max number of different atomic species (ntypx) = 10
     Max number of k-points (npk) =  40000
     Max angular momentum in pseudopotentials (lmaxx) =  3
     file Fe.pbe-spn-kjpaw_psl.1.0.0.UPF: wavefunction(s)  3P 3D renormalized
     file Fe.pbe-spn-kjpaw_psl.1.0.0.UPF: wavefunction(s)  3P 3D renormalized

     Subspace diagonalization in iterative solution of the eigenvalue problem:
     one sub-group per band group will be used

     Found symmetry operation: I + (  0.0000  0.0000 -0.5000)
     This is a supercell, fractional translations are disabled
     Message from routine setup:
     using ibrav=0 with symmetry is DISCOURAGED, use correct ibrav instead

     bravais-lattice index     =            0
     lattice parameter (alat)  =      10.2690  a.u.
     unit-cell volume          =    3465.7961 (a.u.)^3
     number of atoms/cell      =           16
     number of atomic types    =            2
     number of electrons       =       256.00
     number of Kohn-Sham states=          154
     kinetic-energy cutoff     =      71.0000  Ry
     charge density cutoff     =     430.0000  Ry
     scf convergence threshold =      1.0E-07
     mixing beta               =       0.1000
     number of iterations used =           10  local-TF  mixing
     Exchange-correlation= SLA  PW   PBX  PBC
                           (   1   4   3   4   0   0   0)

     celldm(1)=  10.269041  celldm(2)=   0.000000  celldm(3)=   0.000000
     celldm(4)=   0.000000  celldm(5)=   0.000000  celldm(6)=   0.000000

     crystal axes: (cart. coord. in units of alat)
               a(1) = (   1.473684   0.000000   0.000000 )
               a(2) = (   0.000000   1.473684   0.000000 )
               a(3) = (   0.000000   0.000000   1.473684 )

     reciprocal axes: (cart. coord. in units 2 pi/alat)
               b(1) = (  0.678571  0.000000  0.000000 )
               b(2) = (  0.000000  0.678571  0.000000 )
               b(3) = (  0.000000  0.000000  0.678571 )

     PseudoPot. # 1 for Fe read from file:
     /rds/homes/b/bxp912/pp/Fe.pbe-spn-kjpaw_psl.1.0.0.UPF
     MD5 check sum: 42f43b795421b414b0dc916aa790dbcb
     Pseudo is Projector augmented-wave + core cor, Zval = 16.0
     Generated using &quot;atomic&quot; code by A. Dal Corso  v.6.3
     Shape of augmentation charge: PSQ
     Using radial grid of 1191 points,  6 beta functions with:
                l(1) =   0
                l(2) =   0
                l(3) =   1
                l(4) =   1
                l(5) =   2
                l(6) =   2
     Q(r) pseudized with 0 coefficients

     PseudoPot. # 2 for Fe read from file:
     /rds/homes/b/bxp912/pp/Fe.pbe-spn-kjpaw_psl.1.0.0.UPF
     MD5 check sum: 42f43b795421b414b0dc916aa790dbcb
     Pseudo is Projector augmented-wave + core cor, Zval = 16.0
     Generated using &quot;atomic&quot; code by A. Dal Corso  v.6.3
     Shape of augmentation charge: PSQ
     Using radial grid of 1191 points,  6 beta functions with:
                l(1) =   0
                l(2) =   0
                l(3) =   1
                l(4) =   1
                l(5) =   2
                l(6) =   2
     Q(r) pseudized with 0 coefficients

     atomic species   valence    mass     pseudopotential
        Fe1           16.00    55.84500     Fe( 1.00)
        Fe2           16.00    55.84500     Fe( 1.00)

     Starting magnetic structure
     atomic species   magnetization
        Fe1          0.100
        Fe2          0.100

     48 Sym. Ops., with inversion, found

   Cartesian axes

     site n.     atom                  positions (alat units)
         1           Fe1 tau(   1) = (   0.0000000   0.0000000   0.0000000  )
         2           Fe2 tau(   2) = (   0.3684211   0.3684211   0.3684211  )
         3           Fe1 tau(   3) = (   0.0000000   0.0000000   0.7368421  )
         4           Fe2 tau(   4) = (   0.3684211   0.3684211   1.1052632  )
         5           Fe1 tau(   5) = (   0.0000000   0.7368421   0.0000000  )
         6           Fe2 tau(   6) = (   0.3684211   1.1052632   0.3684211  )
         7           Fe1 tau(   7) = (   0.0000000   0.7368421   0.7368421  )
         8           Fe2 tau(   8) = (   0.3684211   1.1052632   1.1052632  )
         9           Fe1 tau(   9) = (   0.7368421   0.0000000   0.0000000  )
        10           Fe2 tau(  10) = (   1.1052632   0.3684211   0.3684211  )
        11           Fe1 tau(  11) = (   0.7368421   0.0000000   0.7368421  )
        12           Fe2 tau(  12) = (   1.1052632   0.3684211   1.1052632  )
        13           Fe1 tau(  13) = (   0.7368421   0.7368421   0.0000000  )
        14           Fe2 tau(  14) = (   1.1052632   1.1052632   0.3684211  )
        15           Fe1 tau(  15) = (   0.7368421   0.7368421   0.7368421  )
        16           Fe2 tau(  16) = (   1.1052632   1.1052632   1.1052632  )

     number of k points=    35  Marzari-Vanderbilt smearing, width (Ry)=  0.0400
                       cart. coord. in units 2pi/alat
        k(    1) = (   0.0376984   0.0376984   0.0376984), wk =   0.0109739
        k(    2) = (   0.0376984   0.0376984   0.1130952), wk =   0.0329218
        k(    3) = (   0.0376984   0.0376984   0.1884921), wk =   0.0329218
        k(    4) = (   0.0376984   0.0376984   0.2638889), wk =   0.0329218
        k(    5) = (   0.0376984   0.0376984  -0.3392857), wk =   0.0164609
        k(    6) = (   0.0376984   0.1130952   0.1130952), wk =   0.0329218
        k(    7) = (   0.0376984   0.1130952   0.1884921), wk =   0.0658436
        k(    8) = (   0.0376984   0.1130952   0.2638889), wk =   0.0658436
        k(    9) = (   0.0376984   0.1130952  -0.3392857), wk =   0.0329218
        k(   10) = (   0.0376984   0.1884921   0.1884921), wk =   0.0329218
        k(   11) = (   0.0376984   0.1884921   0.2638889), wk =   0.0658436
        k(   12) = (   0.0376984   0.1884921  -0.3392857), wk =   0.0329218
        k(   13) = (   0.0376984   0.2638889   0.2638889), wk =   0.0329218
        k(   14) = (   0.0376984   0.2638889  -0.3392857), wk =   0.0329218
        k(   15) = (   0.0376984  -0.3392857  -0.3392857), wk =   0.0082305
        k(   16) = (   0.1130952   0.1130952   0.1130952), wk =   0.0109739
        k(   17) = (   0.1130952   0.1130952   0.1884921), wk =   0.0329218
        k(   18) = (   0.1130952   0.1130952   0.2638889), wk =   0.0329218
        k(   19) = (   0.1130952   0.1130952  -0.3392857), wk =   0.0164609
        k(   20) = (   0.1130952   0.1884921   0.1884921), wk =   0.0329218
        k(   21) = (   0.1130952   0.1884921   0.2638889), wk =   0.0658436
        k(   22) = (   0.1130952   0.1884921  -0.3392857), wk =   0.0329218
        k(   23) = (   0.1130952   0.2638889   0.2638889), wk =   0.0329218
        k(   24) = (   0.1130952   0.2638889  -0.3392857), wk =   0.0329218
        k(   25) = (   0.1130952  -0.3392857  -0.3392857), wk =   0.0082305
        k(   26) = (   0.1884921   0.1884921   0.1884921), wk =   0.0109739
        k(   27) = (   0.1884921   0.1884921   0.2638889), wk =   0.0329218
        k(   28) = (   0.1884921   0.1884921  -0.3392857), wk =   0.0164609
        k(   29) = (   0.1884921   0.2638889   0.2638889), wk =   0.0329218
        k(   30) = (   0.1884921   0.2638889  -0.3392857), wk =   0.0329218
        k(   31) = (   0.1884921  -0.3392857  -0.3392857), wk =   0.0082305
        k(   32) = (   0.2638889   0.2638889   0.2638889), wk =   0.0109739
        k(   33) = (   0.2638889   0.2638889  -0.3392857), wk =   0.0164609
        k(   34) = (   0.2638889  -0.3392857  -0.3392857), wk =   0.0082305
        k(   35) = (  -0.3392857  -0.3392857  -0.3392857), wk =   0.0013717

     Check: negative core charge=   -0.000003
     Generating pointlists ...
     new r_m :   0.2632 (alat units)  2.7031 (a.u.) for type    1
     new r_m :   0.2632 (alat units)  2.7031 (a.u.) for type    2

     Initial potential from superposition of free atoms

     starting charge  255.99300, renormalised to  256.00000
     Starting wfcs are  160 randomized atomic wfcs
     Checking if some PAW data can be deallocated...

     Self-consistent Calculation

     iteration #  1     ecut=    71.00 Ry     beta= 0.10
     Davidson diagonalization with overlap
     ethr =  1.00E-02,  avg # of iterations =  3.2

     total energy              =   -5264.23977897 Ry
     estimated scf accuracy    <       6.64038509 Ry

     total magnetization       =    45.34 Bohr mag/cell
     absolute magnetization    =    45.34 Bohr mag/cell

[...]

     negative rho (up, down):  0.000E+00 1.876E-03

[...]

     iteration # 47     ecut=    71.00 Ry     beta= 0.10
     Davidson diagonalization with overlap
     c_bands:  1 eigenvalues not converged
     ethr =  1.13E-10,  avg # of iterations =  5.2

[...]

     total energy              =   -5264.93889776 Ry
     estimated scf accuracy    <       0.00000019 Ry

[...]

     iteration # 48     ecut=    71.00 Ry     beta= 0.10
     Davidson diagonalization with overlap
     ethr =  7.52E-11,  avg # of iterations =  4.1

[...]

     Magnetic moment per site:
     atom:    1    charge:   15.0874    magn:    3.3082    constr:    0.0000
     atom:    2    charge:   15.0879    magn:    3.3139    constr:    0.0000
     atom:    3    charge:   15.0880    magn:    3.3157    constr:    0.0000
     atom:    4    charge:   15.0879    magn:    3.3139    constr:    0.0000
     atom:    5    charge:   15.0880    magn:    3.3157    constr:    0.0000
     atom:    6    charge:   15.0879    magn:    3.3139    constr:    0.0000
     atom:    7    charge:   15.0880    magn:    3.3159    constr:    0.0000
     atom:    8    charge:   15.0879    magn:    3.3139    constr:    0.0000
     atom:    9    charge:   15.0880    magn:    3.3157    constr:    0.0000
     atom:   10    charge:   15.0879    magn:    3.3139    constr:    0.0000
     atom:   11    charge:   15.0880    magn:    3.3159    constr:    0.0000
     atom:   12    charge:   15.0879    magn:    3.3139    constr:    0.0000
     atom:   13    charge:   15.0880    magn:    3.3159    constr:    0.0000
     atom:   14    charge:   15.0879    magn:    3.3139    constr:    0.0000
     atom:   15    charge:   15.0874    magn:    3.3088    constr:    0.0000
     atom:   16    charge:   15.0879    magn:    3.3139    constr:    0.0000

     End of self-consistent calculation

 ------ SPIN UP ------------

          k = 0.0377 0.0377 0.0377 ( 35054 PWs)   bands (ev):

   -84.4955 -84.4954 -84.4954 -84.4953 -84.4953 -84.4953 -84.4940 -84.4940
   -84.4940 -84.4940 -84.4940 -84.4940 -84.4940 -84.4940 -84.4902 -84.4897
   -50.5515 -50.5514 -50.5514 -50.5507 -50.5507 -50.5507 -50.5492 -50.5492
   -50.5491 -50.5488 -50.5488 -50.5487 -50.5484 -50.5484 -50.5483 -50.5481
   -50.5481 -50.5480 -50.5477 -50.5477 -50.5475 -50.5475 -50.5473 -50.5472
   -50.5472 -50.5472 -50.5471 -50.5471 -50.5465 -50.5465 -50.5464 -50.5463
   -50.5458 -50.5458 -50.5458 -50.5456 -50.5454 -50.5454 -50.5454 -50.5451
   -50.5451 -50.5451 -50.5433 -50.5433 -50.5431 -50.5419 -50.5418 -50.5418
    -0.1416   1.2942   1.2942   1.3437   1.3437   1.3440   1.3468   1.3468
     1.3471   1.4337   1.4337   1.4338   1.4933   1.4935   1.4935   1.5668
     1.5676   1.5676   1.6163   1.6171   1.6171   1.6816   1.6826   1.6826
     1.6849   1.6849   1.6859   1.7510   1.7697   1.7697   1.8071   1.8071
     1.8344   1.8523   1.8523   1.8597   1.8620   1.8620   1.8711   1.8720
     1.8720   1.8783   1.8791   1.8791   1.8877   1.8877   1.8923   1.8923
     1.9402   1.9402   1.9421   1.9461   1.9461   1.9463   1.9470   1.9470
     1.9473   1.9552   1.9564   1.9564   1.9744   1.9744   1.9750   1.9906
     1.9919   1.9919   2.0719   2.0719   2.0724   2.1101   2.1101   2.1119
     2.2876   2.2966   2.2966   2.3363   2.3363   2.3378   2.3399   2.3414
     2.3414   2.4394   2.4394   2.4397   2.8917   2.8917   2.8922   4.5228
     4.5228   4.5237

[...]

          k =-0.3393-0.3393-0.3393 ( 35016 PWs)   bands (ev):

[...]

 ------ SPIN DOWN ----------

[...]

          k = 0.2639-0.3393-0.3393 ( 35000 PWs)   bands (ev):

[...]

          k =-0.3393-0.3393-0.3393 ( 35016 PWs)   bands (ev):

   -80.8468 -80.8468 -80.8468 -80.8467 -80.8467 -80.8467 -80.8462 -80.8462
   -80.8462 -80.8462 -80.8462 -80.8462 -80.8462 -80.8462 -80.8445 -80.8444
   -46.9793 -46.9793 -46.9793 -46.9793 -46.9791 -46.9791 -46.9791 -46.9791
   -46.9791 -46.9791 -46.9788 -46.9788 -46.9788 -46.9788 -46.9788 -46.9788
   -46.9782 -46.9782 -46.9776 -46.9776 -46.9776 -46.9776 -46.9776 -46.9776
   -46.9749 -46.9749 -46.9744 -46.9744 -46.9744 -46.9744 -46.9744 -46.9744
   -46.9738 -46.9738 -46.9738 -46.9738 -46.9737 -46.9737 -46.9737 -46.9737
   -46.9737 -46.9737 -46.9731 -46.9731 -46.9731 -46.9730 -46.9730 -46.9730
     1.7682   1.7685   1.7718   1.7718   1.7718   1.7719   1.7719   1.7719
     4.2319   4.2320   4.2324   4.2324   4.2324   4.2325   4.2325   4.2325
     4.3813   4.3813   4.3813   4.3813   4.3813   4.3813   4.3820   4.3820
     4.3821   4.3821   4.3828   4.3828   4.3828   4.3828   4.3828   4.3828
     4.4009   4.4009   4.4009   4.4009   4.4009   4.4009   4.4023   4.4023
     4.4024   4.4024   4.4024   4.4024   4.4024   4.4024   4.4024   4.4024
     5.1904   5.1905   5.1914   5.1914   5.1914   5.1914   5.1914   5.1914
     5.2207   5.2207   5.2207   5.2207   5.2207   5.2207   5.2212   5.2212
     5.2213   5.2213   5.2217   5.2217   5.2217   5.2217   5.2217   5.2217
     5.4092   5.4092   5.4092   5.4092   5.4092   5.4092   5.4095   5.4095
     5.4095   5.4095   5.4095   5.4095   5.4095   5.4095   5.4096   5.4096
     7.3151   7.3165

     the Fermi energy is     4.6591 ev

!    total energy              =   -5264.93889819 Ry

     total all-electron energy =    -40725.683427 Ry
     estimated scf accuracy    <       0.00000003 Ry
     smearing contrib. (-TS)   =      -0.14614141 Ry
     internal energy E=F+TS    =   -5264.79275679 Ry

     The total energy is F=E-TS. E is the sum of the following terms:
     one-electron contribution =   -3118.18788239 Ry
     hartree contribution      =    1587.95590836 Ry
     xc contribution           =    -440.23555078 Ry
     ewald contribution        =   -1969.99681483 Ry
     one-center paw contrib.   =   -1324.32841714 Ry

     total magnetization       =    51.26 Bohr mag/cell
     absolute magnetization    =    55.13 Bohr mag/cell

     convergence has been achieved in  48 iterations

     negative rho (up, down):  0.000E+00 6.148E-03

     Forces acting on atoms (cartesian axes, Ry/au):

     atom    1 type  1   force =     0.00000000    0.00000000    0.00000000
     atom    2 type  2   force =    -0.00002756   -0.00002756   -0.00002756
     atom    3 type  1   force =     0.00000000    0.00000000    0.00000000
     atom    4 type  2   force =    -0.00002756   -0.00002756    0.00002756
     atom    5 type  1   force =     0.00000000    0.00000000    0.00000000
     atom    6 type  2   force =    -0.00002756    0.00002756   -0.00002756
     atom    7 type  1   force =     0.00000000    0.00000000    0.00000000
     atom    8 type  2   force =    -0.00002756    0.00002756    0.00002756
     atom    9 type  1   force =     0.00000000    0.00000000    0.00000000
     atom   10 type  2   force =     0.00002756   -0.00002756   -0.00002756
     atom   11 type  1   force =     0.00000000    0.00000000    0.00000000
     atom   12 type  2   force =     0.00002756   -0.00002756    0.00002756
     atom   13 type  1   force =     0.00000000    0.00000000    0.00000000
     atom   14 type  2   force =     0.00002756    0.00002756   -0.00002756
     atom   15 type  1   force =     0.00000000    0.00000000    0.00000000
     atom   16 type  2   force =     0.00002756    0.00002756    0.00002756

     Total force =     0.000135     Total SCF correction =     0.000343
     SCF correction compared to forces is large: reduce conv_thr to get better values

     Computing stress (Cartesian axis) and pressure

     negative rho (up, down):  0.000E+00 6.148E-03
          total   stress  (Ry/bohr**3)                   (kbar)     P=     -175.09
  -0.00119023   0.00000000   0.00000000         -175.09        0.00        0.00
   0.00000000  -0.00119023   0.00000000            0.00     -175.09        0.00
   0.00000000   0.00000000  -0.00119023            0.00        0.00     -175.09

     Writing output data file /scratch/sgRwWoFkvddguqNZ.save/

     General routines

     Parallel routines

   This run was terminated on:  15:19:40  17Jan2022

   JOB DONE.