     Program PWSCF v.6.7MaX starts on 17Jan2022 at 13:54:16

     R & G space division:  proc/nbgrp/npool/nimage =      72
     Reading input from bcc_6.in
Warning: card &CELL ignored
Warning: card CELL_DYNAMICS = 'BFGS', ignored
Warning: card CELL_FACTOR = 2.0, ignored
Warning: card PRESS = 0.0, ignored
Warning: card / ignored

     Current dimensions of program PWSCF are:
     Max number of different atomic species (ntypx) = 10
     Max number of k-points (npk) =  40000
     Max angular momentum in pseudopotentials (lmaxx) =  3
     file Fe.pbe-spn-kjpaw_psl.1.0.0.UPF: wavefunction(s)  3P 3D renormalized
     file Fe.pbe-spn-kjpaw_psl.1.0.0.UPF: wavefunction(s)  3P 3D renormalized

     Subspace diagonalization in iterative solution of the eigenvalue problem:
     one sub-group per band group will be used

     Found symmetry operation: I + (  0.0000  0.0000 -0.5000)
     This is a supercell, fractional translations are disabled
     Message from routine setup:
     using ibrav=0 with symmetry is DISCOURAGED, use correct ibrav instead

     bravais-lattice index     =            0
     lattice parameter (alat)  =      10.2690  a.u.
     unit-cell volume          =    1360.1616 (a.u.)^3
     number of atoms/cell      =           16
     number of atomic types    =            2
     number of electrons       =       256.00
     number of Kohn-Sham states=          154
     kinetic-energy cutoff     =      71.0000  Ry
     charge density cutoff     =     430.0000  Ry
     scf convergence threshold =      1.0E-07
     mixing beta               =       0.1000
     number of iterations used =           10  local-TF  mixing
     Exchange-correlation= SLA  PW   PBX  PBC
                           (   1   4   3   4   0   0   0)

     celldm(1)=  10.269041  celldm(2)=   0.000000  celldm(3)=   0.000000
     celldm(4)=   0.000000  celldm(5)=   0.000000  celldm(6)=   0.000000

     crystal axes: (cart. coord. in units of alat)
               a(1) = (   1.078947   0.000000   0.000000 )
               a(2) = (   0.000000   1.078947   0.000000 )
               a(3) = (   0.000000   0.000000   1.078947 )

     reciprocal axes: (cart. coord. in units 2 pi/alat)
               b(1) = (  0.926829  0.000000  0.000000 )
               b(2) = (  0.000000  0.926829  0.000000 )
               b(3) = (  0.000000  0.000000  0.926829 )

     PseudoPot. # 1 for Fe read from file:
     /rds/homes/b/bxp912/pp/Fe.pbe-spn-kjpaw_psl.1.0.0.UPF
     MD5 check sum: 42f43b795421b414b0dc916aa790dbcb
     Pseudo is Projector augmented-wave + core cor, Zval = 16.0
     Generated using &quot;atomic&quot; code by A. Dal Corso  v.6.3
     Shape of augmentation charge: PSQ
     Using radial grid of 1191 points,  6 beta functions with:
                l(1) =   0
                l(2) =   0
                l(3) =   1
                l(4) =   1
                l(5) =   2
                l(6) =   2
     Q(r) pseudized with 0 coefficients

     PseudoPot. # 2 for Fe read from file:
     /rds/homes/b/bxp912/pp/Fe.pbe-spn-kjpaw_psl.1.0.0.UPF
     MD5 check sum: 42f43b795421b414b0dc916aa790dbcb
     Pseudo is Projector augmented-wave + core cor, Zval = 16.0
     Generated using &quot;atomic&quot; code by A. Dal Corso  v.6.3
     Shape of augmentation charge: PSQ
     Using radial grid of 1191 points,  6 beta functions with:
                l(1) =   0
                l(2) =   0
                l(3) =   1
                l(4) =   1
                l(5) =   2
                l(6) =   2
     Q(r) pseudized with 0 coefficients

     atomic species   valence    mass     pseudopotential
        Fe1           16.00    55.84500     Fe( 1.00)
        Fe2           16.00    55.84500     Fe( 1.00)

     Starting magnetic structure
     atomic species   magnetization
        Fe1          0.100
        Fe2          0.100

     48 Sym. Ops., with inversion, found

   Cartesian axes

     site n.     atom                  positions (alat units)
         1           Fe1 tau(   1) = (   0.0000000   0.0000000   0.0000000  )
         2           Fe2 tau(   2) = (   0.2697368   0.2697368   0.2697368  )
         3           Fe1 tau(   3) = (   0.0000000   0.0000000   0.5394737  )
         4           Fe2 tau(   4) = (   0.2697368   0.2697368   0.8092105  )
         5           Fe1 tau(   5) = (   0.0000000   0.5394737   0.0000000  )
         6           Fe2 tau(   6) = (   0.2697368   0.8092105   0.2697368  )
         7           Fe1 tau(   7) = (   0.0000000   0.5394737   0.5394737  )
         8           Fe2 tau(   8) = (   0.2697368   0.8092105   0.8092105  )
         9           Fe1 tau(   9) = (   0.5394737   0.0000000   0.0000000  )
        10           Fe2 tau(  10) = (   0.8092105   0.2697368   0.2697368  )
        11           Fe1 tau(  11) = (   0.5394737   0.0000000   0.5394737  )
        12           Fe2 tau(  12) = (   0.8092105   0.2697368   0.8092105  )
        13           Fe1 tau(  13) = (   0.5394737   0.5394737   0.0000000  )
        14           Fe2 tau(  14) = (   0.8092105   0.8092105   0.2697368  )
        15           Fe1 tau(  15) = (   0.5394737   0.5394737   0.5394737  )
        16           Fe2 tau(  16) = (   0.8092105   0.8092105   0.8092105  )

     number of k points=    35  Marzari-Vanderbilt smearing, width (Ry)=  0.0400
                       cart. coord. in units 2pi/alat
        k(    1) = (   0.0514905   0.0514905   0.0514905), wk =   0.0109739
        k(    2) = (   0.0514905   0.0514905   0.1544715), wk =   0.0329218
        k(    3) = (   0.0514905   0.0514905   0.2574526), wk =   0.0329218
        k(    4) = (   0.0514905   0.0514905   0.3604336), wk =   0.0329218
        k(    5) = (   0.0514905   0.0514905  -0.4634146), wk =   0.0164609
        k(    6) = (   0.0514905   0.1544715   0.1544715), wk =   0.0329218
        k(    7) = (   0.0514905   0.1544715   0.2574526), wk =   0.0658436
        k(    8) = (   0.0514905   0.1544715   0.3604336), wk =   0.0658436
        k(    9) = (   0.0514905   0.1544715  -0.4634146), wk =   0.0329218
        k(   10) = (   0.0514905   0.2574526   0.2574526), wk =   0.0329218
        k(   11) = (   0.0514905   0.2574526   0.3604336), wk =   0.0658436
        k(   12) = (   0.0514905   0.2574526  -0.4634146), wk =   0.0329218
        k(   13) = (   0.0514905   0.3604336   0.3604336), wk =   0.0329218
        k(   14) = (   0.0514905   0.3604336  -0.4634146), wk =   0.0329218
        k(   15) = (   0.0514905  -0.4634146  -0.4634146), wk =   0.0082305
        k(   16) = (   0.1544715   0.1544715   0.1544715), wk =   0.0109739
        k(   17) = (   0.1544715   0.1544715   0.2574526), wk =   0.0329218
        k(   18) = (   0.1544715   0.1544715   0.3604336), wk =   0.0329218
        k(   19) = (   0.1544715   0.1544715  -0.4634146), wk =   0.0164609
        k(   20) = (   0.1544715   0.2574526   0.2574526), wk =   0.0329218
        k(   21) = (   0.1544715   0.2574526   0.3604336), wk =   0.0658436
        k(   22) = (   0.1544715   0.2574526  -0.4634146), wk =   0.0329218
        k(   23) = (   0.1544715   0.3604336   0.3604336), wk =   0.0329218
        k(   24) = (   0.1544715   0.3604336  -0.4634146), wk =   0.0329218
        k(   25) = (   0.1544715  -0.4634146  -0.4634146), wk =   0.0082305
        k(   26) = (   0.2574526   0.2574526   0.2574526), wk =   0.0109739
        k(   27) = (   0.2574526   0.2574526   0.3604336), wk =   0.0329218
        k(   28) = (   0.2574526   0.2574526  -0.4634146), wk =   0.0164609
        k(   29) = (   0.2574526   0.3604336   0.3604336), wk =   0.0329218
        k(   30) = (   0.2574526   0.3604336  -0.4634146), wk =   0.0329218
        k(   31) = (   0.2574526  -0.4634146  -0.4634146), wk =   0.0082305
        k(   32) = (   0.3604336   0.3604336   0.3604336), wk =   0.0109739
        k(   33) = (   0.3604336   0.3604336  -0.4634146), wk =   0.0164609
        k(   34) = (   0.3604336  -0.4634146  -0.4634146), wk =   0.0082305
        k(   35) = (  -0.4634146  -0.4634146  -0.4634146), wk =   0.0013717

     Check: negative core charge=   -0.000005
     Generating pointlists ...
     new r_m :   0.1927 (alat units)  1.9790 (a.u.) for type    1
     new r_m :   0.1927 (alat units)  1.9790 (a.u.) for type    2

     Initial potential from superposition of free atoms

     starting charge  255.99300, renormalised to  256.00000
     Starting wfcs are  160 randomized atomic wfcs
     Checking if some PAW data can be deallocated...

     Self-consistent Calculation

     iteration #  1     ecut=    71.00 Ry     beta= 0.10
     Davidson diagonalization with overlap
     ethr =  1.00E-02,  avg # of iterations =  3.3

     Threshold (ethr) on eigenvalues was too large:
     Diagonalizing with lowered threshold

     Davidson diagonalization with overlap
     ethr =  8.43E-05,  avg # of iterations =  6.3

     total energy              =   -5267.82665230 Ry
     estimated scf accuracy    <       0.43938325 Ry

     total magnetization       =    30.03 Bohr mag/cell
     absolute magnetization    =    30.21 Bohr mag/cell

[...]

     negative rho (up, down):  0.000E+00 8.166E-05

[...]

     total energy              =   -5268.10460229 Ry
     estimated scf accuracy    <       0.00000439 Ry

[...]

     iteration # 19     ecut=    71.00 Ry     beta= 0.10
     Davidson diagonalization with overlap
     ethr =  5.36E-10,  avg # of iterations =  4.0

[...]

     Magnetic moment per site:
     atom:    1    charge:   14.4744    magn:    2.5115    constr:    0.0000
     atom:    2    charge:   14.4743    magn:    2.5117    constr:    0.0000
     atom:    3    charge:   14.4741    magn:    2.5117    constr:    0.0000
     atom:    4    charge:   14.4743    magn:    2.5117    constr:    0.0000
     atom:    5    charge:   14.4741    magn:    2.5117    constr:    0.0000
     atom:    6    charge:   14.4743    magn:    2.5117    constr:    0.0000
     atom:    7    charge:   14.4742    magn:    2.5117    constr:    0.0000
     atom:    8    charge:   14.4743    magn:    2.5117    constr:    0.0000
     atom:    9    charge:   14.4741    magn:    2.5117    constr:    0.0000
     atom:   10    charge:   14.4743    magn:    2.5117    constr:    0.0000
     atom:   11    charge:   14.4742    magn:    2.5117    constr:    0.0000
     atom:   12    charge:   14.4743    magn:    2.5117    constr:    0.0000
     atom:   13    charge:   14.4742    magn:    2.5117    constr:    0.0000
     atom:   14    charge:   14.4743    magn:    2.5117    constr:    0.0000
     atom:   15    charge:   14.4739    magn:    2.5116    constr:    0.0000
     atom:   16    charge:   14.4743    magn:    2.5117    constr:    0.0000

     End of self-consistent calculation

 ------ SPIN UP ------------

          k = 0.0515 0.0515 0.0515 ( 13721 PWs)   bands (ev):

   -71.9833 -71.9403 -71.9403 -71.9403 -71.9337 -71.9337 -71.9337 -71.9330
   -71.9330 -71.9330 -71.9327 -71.9327 -71.9327 -71.9304 -71.9303 -71.8960
   -38.1324 -38.1324 -38.1324 -38.1312 -38.1312 -38.1311 -38.0576 -38.0576
   -38.0543 -38.0119 -38.0097 -38.0097 -38.0097 -38.0000 -38.0000 -37.9914
   -37.9914 -37.9914 -37.9751 -37.9751 -37.9623 -37.9593 -37.9593 -37.9593
   -37.9531 -37.9531 -37.9531 -37.9471 -37.9471 -37.9471 -37.9455 -37.9455
   -37.9455 -37.9411 -37.9411 -37.9411 -37.9351 -37.9351 -37.9351 -37.8523
   -37.8493 -37.8493 -37.8493 -37.8490 -37.8490 -37.8478 -37.8478 -37.8478
     8.1868  11.5398  11.5398  11.5398  11.6150  11.6150  11.6150  11.6342
    11.6342  11.6342  11.7538  11.7538  11.9474  11.9474  11.9475  12.9839
    12.9870  12.9871  12.9871  12.9975  12.9975  12.9976  13.0559  13.0559
    13.1763  13.1763  13.1850  13.1850  13.1850  13.2220  13.4580  13.4580
    13.4580  13.8990  13.8990  13.9328  14.1821  14.1821  14.1822  14.2477
    14.2478  14.2478  14.3244  14.3244  14.3244  14.3910  14.3910  14.3910
    14.8966  14.8967  14.8967  14.9384  14.9384  14.9825  14.9825  14.9825
    14.9845  14.9845  14.9845  14.9907  14.9907  14.9907  15.0774  15.0774
    15.0775  15.0975  15.0975  15.0975  15.1272  15.1272  15.1280  15.1280
    15.8455  15.8455  15.8455  15.9340  15.9864  15.9864  16.0068  16.0068
    16.0069  16.0926  16.0926  16.0926  16.3491  16.3491  16.3491  16.6563
    16.6563  16.6563

[...]

          k =-0.4634-0.4634-0.4634 ( 13776 PWs)   bands (ev):

[...]

 ------ SPIN DOWN ----------

[...]

          k = 0.3604-0.4634-0.4634 ( 13744 PWs)   bands (ev):

[...]

          k =-0.4634-0.4634-0.4634 ( 13776 PWs)   bands (ev):

   -69.0055 -69.0055 -69.0055 -69.0055 -69.0055 -69.0054 -69.0054 -69.0054
   -68.9712 -68.9712 -68.9712 -68.9712 -68.9712 -68.9711 -68.9711 -68.9711
   -35.1970 -35.1970 -35.1970 -35.1969 -35.1969 -35.1969 -35.1969 -35.1969
   -35.1969 -35.1969 -35.1969 -35.1969 -35.1969 -35.1969 -35.1969 -35.1969
   -35.1718 -35.1718 -35.1718 -35.1717 -35.1717 -35.1717 -35.1717 -35.1717
   -35.0256 -35.0256 -35.0256 -35.0256 -35.0255 -35.0255 -35.0255 -35.0255
   -34.9996 -34.9996 -34.9996 -34.9996 -34.9996 -34.9996 -34.9996 -34.9996
   -34.9996 -34.9996 -34.9996 -34.9995 -34.9995 -34.9995 -34.9995 -34.9995
    11.5036  11.5036  11.5036  11.5036  11.5037  11.5037  11.5037  11.5037
    14.6964  14.6964  14.6964  14.6965  14.6965  14.6965  14.6965  14.6965
    14.6965  14.6965  14.6965  14.6965  14.6965  14.6965  14.6965  14.6965
    15.1000  15.1000  15.1000  15.1000  15.1000  15.1000  15.1000  15.1001
    15.2324  15.2324  15.2324  15.2324  15.2324  15.2324  15.2324  15.2324
    15.2324  15.2324  15.2324  15.2324  15.2324  15.2324  15.2325  15.2325
    17.8966  17.8966  17.8966  17.8966  17.8966  17.8966  17.8966  17.8966
    17.8966  17.8966  17.8966  17.8967  17.8967  17.8967  17.8968  17.8968
    17.9075  17.9075  17.9076  17.9076  17.9076  17.9076  17.9076  17.9076
    17.9076  17.9076  17.9076  17.9076  17.9076  17.9076  17.9077  17.9077
    18.2045  18.2046  18.2046  18.2046  18.2046  18.2046  18.2046  18.2047
    23.6498  23.6498

     the Fermi energy is    16.0679 ev

!    total energy              =   -5268.10460584 Ry

     total all-electron energy =    -40728.849135 Ry
     estimated scf accuracy    <       0.00000008 Ry
     smearing contrib. (-TS)   =       0.14149365 Ry
     internal energy E=F+TS    =   -5268.24609949 Ry

     The total energy is F=E-TS. E is the sum of the following terms:
     one-electron contribution =   -1905.03590340 Ry
     hartree contribution      =    1095.62205896 Ry
     xc contribution           =    -443.50249276 Ry
     ewald contribution        =   -2690.72735685 Ry
     one-center paw contrib.   =   -1324.60240544 Ry

     total magnetization       =    39.15 Bohr mag/cell
     absolute magnetization    =    41.51 Bohr mag/cell

     convergence has been achieved in  19 iterations

     negative rho (up, down):  0.000E+00 8.609E-04

     Forces acting on atoms (cartesian axes, Ry/au):

     atom    1 type  1   force =     0.00000000    0.00000000    0.00000000
     atom    2 type  2   force =     0.00011924    0.00011924    0.00011924
     atom    3 type  1   force =     0.00000000    0.00000000    0.00000000
     atom    4 type  2   force =     0.00011924    0.00011924   -0.00011924
     atom    5 type  1   force =     0.00000000    0.00000000    0.00000000
     atom    6 type  2   force =     0.00011924   -0.00011924    0.00011924
     atom    7 type  1   force =     0.00000000    0.00000000    0.00000000
     atom    8 type  2   force =     0.00011924   -0.00011924   -0.00011924
     atom    9 type  1   force =     0.00000000    0.00000000    0.00000000
     atom   10 type  2   force =    -0.00011924    0.00011924    0.00011924
     atom   11 type  1   force =     0.00000000    0.00000000    0.00000000
     atom   12 type  2   force =    -0.00011924    0.00011924   -0.00011924
     atom   13 type  1   force =     0.00000000    0.00000000    0.00000000
     atom   14 type  2   force =    -0.00011924   -0.00011924    0.00011924
     atom   15 type  1   force =     0.00000000    0.00000000    0.00000000
     atom   16 type  2   force =    -0.00011924   -0.00011924   -0.00011924

     Total force =     0.000584     Total SCF correction =     0.000475
     SCF correction compared to forces is large: reduce conv_thr to get better values

     Computing stress (Cartesian axis) and pressure

     negative rho (up, down):  0.000E+00 8.609E-04
          total   stress  (Ry/bohr**3)                   (kbar)     P=     -179.73
  -0.00122181   0.00000000   0.00000000         -179.73        0.00        0.00
   0.00000000  -0.00122181   0.00000000            0.00     -179.73        0.00
   0.00000000   0.00000000  -0.00122181            0.00        0.00     -179.73

     Writing output data file /scratch/NEgKAsBmnVQLRnWC.save/

     General routines

     Parallel routines

   This run was terminated on:  13:59:36  17Jan2022

   JOB DONE.