     Program PWSCF v.6.7MaX starts on 19Mar2022 at 17:38:11

     R & G space division:  proc/nbgrp/npool/nimage =      72
     Reading input from bcc_16.in
Warning: card &CELL ignored
Warning: card CELL_DYNAMICS = 'BFGS', ignored
Warning: card CELL_FACTOR = 2.0, ignored
Warning: card PRESS = 0.0, ignored
Warning: card / ignored

     Current dimensions of program PWSCF are:
     Max number of different atomic species (ntypx) = 10
     Max number of k-points (npk) =  40000
     Max angular momentum in pseudopotentials (lmaxx) =  3
     file Fe.pbe-spn-kjpaw_psl.1.0.0.UPF: wavefunction(s)  3P 3D renormalized
     file Fe.pbe-spn-kjpaw_psl.1.0.0.UPF: wavefunction(s)  3P 3D renormalized

     Subspace diagonalization in iterative solution of the eigenvalue problem:
     one sub-group per band group will be used

     Found symmetry operation: I + (  0.0000  0.0000  0.5000)
     This is a supercell, fractional translations are disabled
     Message from routine setup:
     using ibrav=0 with symmetry is DISCOURAGED, use correct ibrav instead

     bravais-lattice index     =            0
     lattice parameter (alat)  =      10.2690  a.u.
     unit-cell volume          =    5673.7570 (a.u.)^3
     number of atoms/cell      =           16
     number of atomic types    =            2
     number of electrons       =       256.00
     number of Kohn-Sham states=          154
     kinetic-energy cutoff     =      71.0000  Ry
     charge density cutoff     =     430.0000  Ry
     scf convergence threshold =      1.0E-07
     mixing beta               =       0.3000
     number of iterations used =           10  local-TF  mixing
     Exchange-correlation= SLA  PW   PBX  PBC
                           (   1   4   3   4   0   0   0)

     celldm(1)=  10.269041  celldm(2)=   0.000000  celldm(3)=   0.000000
     celldm(4)=   0.000000  celldm(5)=   0.000000  celldm(6)=   0.000000

     crystal axes: (cart. coord. in units of alat)
               a(1) = (   1.736842   0.000000   0.000000 )
               a(2) = (   0.000000   1.736842   0.000000 )
               a(3) = (   0.000000   0.000000   1.736842 )

     reciprocal axes: (cart. coord. in units 2 pi/alat)
               b(1) = (  0.575758  0.000000  0.000000 )
               b(2) = (  0.000000  0.575758  0.000000 )
               b(3) = (  0.000000  0.000000  0.575758 )

     PseudoPot. # 1 for Fe read from file:
     /rds/homes/b/bxp912/pp/Fe.pbe-spn-kjpaw_psl.1.0.0.UPF
     MD5 check sum: 42f43b795421b414b0dc916aa790dbcb
     Pseudo is Projector augmented-wave + core cor, Zval = 16.0
     Generated using &quot;atomic&quot; code by A. Dal Corso  v.6.3
     Shape of augmentation charge: PSQ
     Using radial grid of 1191 points,  6 beta functions with:
                l(1) =   0
                l(2) =   0
                l(3) =   1
                l(4) =   1
                l(5) =   2
                l(6) =   2
     Q(r) pseudized with 0 coefficients

     PseudoPot. # 2 for Fe read from file:
     /rds/homes/b/bxp912/pp/Fe.pbe-spn-kjpaw_psl.1.0.0.UPF
     MD5 check sum: 42f43b795421b414b0dc916aa790dbcb
     Pseudo is Projector augmented-wave + core cor, Zval = 16.0
     Generated using &quot;atomic&quot; code by A. Dal Corso  v.6.3
     Shape of augmentation charge: PSQ
     Using radial grid of 1191 points,  6 beta functions with:
                l(1) =   0
                l(2) =   0
                l(3) =   1
                l(4) =   1
                l(5) =   2
                l(6) =   2
     Q(r) pseudized with 0 coefficients

     atomic species   valence    mass     pseudopotential
        Fe1           16.00    55.84500     Fe( 1.00)
        Fe2           16.00    55.84500     Fe( 1.00)

     Starting magnetic structure
     atomic species   magnetization
        Fe1          0.100
        Fe2          0.100

     48 Sym. Ops., with inversion, found

   Cartesian axes

     site n.     atom                  positions (alat units)
         1           Fe1 tau(   1) = (   0.0000000   0.0000000   0.0000000  )
         2           Fe2 tau(   2) = (   0.4342105   0.4342105   0.4342105  )
         3           Fe1 tau(   3) = (   0.0000000   0.0000000   0.8684211  )
         4           Fe2 tau(   4) = (   0.4342105   0.4342105   1.3026316  )
         5           Fe1 tau(   5) = (   0.0000000   0.8684211   0.0000000  )
         6           Fe2 tau(   6) = (   0.4342105   1.3026316   0.4342105  )
         7           Fe1 tau(   7) = (   0.0000000   0.8684211   0.8684211  )
         8           Fe2 tau(   8) = (   0.4342105   1.3026316   1.3026316  )
         9           Fe1 tau(   9) = (   0.8684211   0.0000000   0.0000000  )
        10           Fe2 tau(  10) = (   1.3026316   0.4342105   0.4342105  )
        11           Fe1 tau(  11) = (   0.8684211   0.0000000   0.8684211  )
        12           Fe2 tau(  12) = (   1.3026316   0.4342105   1.3026316  )
        13           Fe1 tau(  13) = (   0.8684211   0.8684211   0.0000000  )
        14           Fe2 tau(  14) = (   1.3026316   1.3026316   0.4342105  )
        15           Fe1 tau(  15) = (   0.8684211   0.8684211   0.8684211  )
        16           Fe2 tau(  16) = (   1.3026316   1.3026316   1.3026316  )

     number of k points=    35  Marzari-Vanderbilt smearing, width (Ry)=  0.0400
                       cart. coord. in units 2pi/alat
        k(    1) = (   0.0319865   0.0319865   0.0319865), wk =   0.0109739
        k(    2) = (   0.0319865   0.0319865   0.0959596), wk =   0.0329218
        k(    3) = (   0.0319865   0.0319865   0.1599327), wk =   0.0329218
        k(    4) = (   0.0319865   0.0319865   0.2239057), wk =   0.0329218
        k(    5) = (   0.0319865   0.0319865  -0.2878788), wk =   0.0164609
        k(    6) = (   0.0319865   0.0959596   0.0959596), wk =   0.0329218
        k(    7) = (   0.0319865   0.0959596   0.1599327), wk =   0.0658436
        k(    8) = (   0.0319865   0.0959596   0.2239057), wk =   0.0658436
        k(    9) = (   0.0319865   0.0959596  -0.2878788), wk =   0.0329218
        k(   10) = (   0.0319865   0.1599327   0.1599327), wk =   0.0329218
        k(   11) = (   0.0319865   0.1599327   0.2239057), wk =   0.0658436
        k(   12) = (   0.0319865   0.1599327  -0.2878788), wk =   0.0329218
        k(   13) = (   0.0319865   0.2239057   0.2239057), wk =   0.0329218
        k(   14) = (   0.0319865   0.2239057  -0.2878788), wk =   0.0329218
        k(   15) = (   0.0319865  -0.2878788  -0.2878788), wk =   0.0082305
        k(   16) = (   0.0959596   0.0959596   0.0959596), wk =   0.0109739
        k(   17) = (   0.0959596   0.0959596   0.1599327), wk =   0.0329218
        k(   18) = (   0.0959596   0.0959596   0.2239057), wk =   0.0329218
        k(   19) = (   0.0959596   0.0959596  -0.2878788), wk =   0.0164609
        k(   20) = (   0.0959596   0.1599327   0.1599327), wk =   0.0329218
        k(   21) = (   0.0959596   0.1599327   0.2239057), wk =   0.0658436
        k(   22) = (   0.0959596   0.1599327  -0.2878788), wk =   0.0329218
        k(   23) = (   0.0959596   0.2239057   0.2239057), wk =   0.0329218
        k(   24) = (   0.0959596   0.2239057  -0.2878788), wk =   0.0329218
        k(   25) = (   0.0959596  -0.2878788  -0.2878788), wk =   0.0082305
        k(   26) = (   0.1599327   0.1599327   0.1599327), wk =   0.0109739
        k(   27) = (   0.1599327   0.1599327   0.2239057), wk =   0.0329218
        k(   28) = (   0.1599327   0.1599327  -0.2878788), wk =   0.0164609
        k(   29) = (   0.1599327   0.2239057   0.2239057), wk =   0.0329218
        k(   30) = (   0.1599327   0.2239057  -0.2878788), wk =   0.0329218
        k(   31) = (   0.1599327  -0.2878788  -0.2878788), wk =   0.0082305
        k(   32) = (   0.2239057   0.2239057   0.2239057), wk =   0.0109739
        k(   33) = (   0.2239057   0.2239057  -0.2878788), wk =   0.0164609
        k(   34) = (   0.2239057  -0.2878788  -0.2878788), wk =   0.0082305
        k(   35) = (  -0.2878788  -0.2878788  -0.2878788), wk =   0.0013717

     Check: negative core charge=   -0.000002
     Generating pointlists ...
     new r_m :   0.3102 (alat units)  3.1858 (a.u.) for type    1
     new r_m :   0.3102 (alat units)  3.1858 (a.u.) for type    2

     Initial potential from superposition of free atoms

     starting charge  255.99300, renormalised to  256.00000
     Starting wfcs are  160 randomized atomic wfcs
     Checking if some PAW data can be deallocated...

     Self-consistent Calculation

     iteration #  1     ecut=    71.00 Ry     beta= 0.30
     Davidson diagonalization with overlap
     ethr =  1.00E-02,  avg # of iterations =  2.0

     total energy              =   -5261.41785085 Ry
     estimated scf accuracy    <      14.52960851 Ry

     total magnetization       =    39.23 Bohr mag/cell
     absolute magnetization    =    39.23 Bohr mag/cell

[...]

     negative rho (up, down):  0.000E+00 6.624E-04

[...]

     iteration # 14     ecut=    71.00 Ry     beta= 0.30
     Davidson diagonalization with overlap
     c_bands:  1 eigenvalues not converged
     c_bands:  3 eigenvalues not converged
     c_bands:  3 eigenvalues not converged
     c_bands:  5 eigenvalues not converged
     c_bands:  1 eigenvalues not converged
     c_bands:  2 eigenvalues not converged
     c_bands:  1 eigenvalues not converged
     ethr =  4.19E-06,  avg # of iterations = 12.0

[...]

     iteration # 72     ecut=    71.00 Ry     beta= 0.30
     Davidson diagonalization with overlap
     ethr =  9.02E-10,  avg # of iterations =  4.3

[...]

     total energy              =   -5263.41336037 Ry
     estimated scf accuracy    <       0.00000013 Ry

[...]

     iteration # 80     ecut=    71.00 Ry     beta= 0.30
     Davidson diagonalization with overlap
     c_bands:  2 eigenvalues not converged
     c_bands:  1 eigenvalues not converged
     c_bands:  1 eigenvalues not converged
     c_bands:  1 eigenvalues not converged
     c_bands:  2 eigenvalues not converged
     ethr =  3.97E-11,  avg # of iterations =  6.4

[...]

     Magnetic moment per site:
     atom:    1    charge:   15.3730    magn:    3.3038    constr:    0.0000
     atom:    2    charge:   15.3792    magn:    3.3495    constr:    0.0000
     atom:    3    charge:   15.3804    magn:    3.3590    constr:    0.0000
     atom:    4    charge:   15.3792    magn:    3.3495    constr:    0.0000
     atom:    5    charge:   15.3804    magn:    3.3590    constr:    0.0000
     atom:    6    charge:   15.3792    magn:    3.3495    constr:    0.0000
     atom:    7    charge:   15.3810    magn:    3.3628    constr:    0.0000
     atom:    8    charge:   15.3792    magn:    3.3495    constr:    0.0000
     atom:    9    charge:   15.3804    magn:    3.3590    constr:    0.0000
     atom:   10    charge:   15.3792    magn:    3.3495    constr:    0.0000
     atom:   11    charge:   15.3810    magn:    3.3628    constr:    0.0000
     atom:   12    charge:   15.3792    magn:    3.3495    constr:    0.0000
     atom:   13    charge:   15.3810    magn:    3.3628    constr:    0.0000
     atom:   14    charge:   15.3792    magn:    3.3495    constr:    0.0000
     atom:   15    charge:   15.3766    magn:    3.3262    constr:    0.0000
     atom:   16    charge:   15.3792    magn:    3.3495    constr:    0.0000

     End of self-consistent calculation

 ------ SPIN UP ------------

          k = 0.0320 0.0320 0.0320 ( 57339 PWs)   bands (ev):

   -87.4383 -87.4383 -87.4383 -87.4362 -87.4362 -87.4361 -87.4297 -87.4297
   -87.4297 -87.4297 -87.4297 -87.4297 -87.4296 -87.4296 -87.4144 -87.4000
   -53.5188 -53.5188 -53.5188 -53.5188 -53.5188 -53.5188 -53.5180 -53.5180
   -53.5180 -53.5178 -53.5178 -53.5178 -53.5160 -53.5160 -53.5160 -53.5160
   -53.5160 -53.5160 -53.5109 -53.5107 -53.5107 -53.5107 -53.5107 -53.5107
   -53.5107 -53.5106 -53.5106 -53.5106 -53.5105 -53.5105 -53.5105 -53.5104
   -53.5104 -53.5104 -53.5104 -53.5104 -53.5103 -53.5103 -53.5103 -53.5103
   -53.5103 -53.5103 -53.4963 -53.4963 -53.4962 -53.4829 -53.4829 -53.4828
    -1.9162  -1.5883  -1.5883  -1.4947  -1.4926  -1.4917  -1.4917  -1.4881
    -1.4881  -1.4879  -1.4859  -1.4859  -1.4766  -1.4749  -1.4749  -1.4683
    -1.4633  -1.4633  -1.4541  -1.4503  -1.4503  -1.3914  -1.3914  -1.3914
    -1.3863  -1.3863  -1.3860  -1.3848  -1.3848  -1.3845  -1.3845  -1.3793
    -1.3793  -1.1157  -1.1150  -1.1150  -1.1116  -1.1116  -1.1116  -1.0880
    -1.0856  -1.0856  -1.0838  -1.0829  -1.0829  -1.0660  -1.0544  -1.0544
    -1.0485  -1.0485  -1.0456  -1.0341  -1.0341  -1.0266  -1.0100  -1.0100
    -1.0026  -1.0022  -0.9987  -0.9987  -0.9918  -0.9918  -0.9918  -0.9848
    -0.9806  -0.9806  -0.9603  -0.9535  -0.9535  -0.9409  -0.9409  -0.9375
    -0.8679  -0.8645  -0.8645  -0.8494  -0.8494  -0.8482  -0.8440  -0.8428
    -0.8428  -0.3873  -0.3873  -0.3854  -0.0257  -0.0257  -0.0238   0.9634
     0.9634   0.9660

[...]

          k =-0.2879-0.2879-0.2879 ( 57160 PWs)   bands (ev):

[...]

 ------ SPIN DOWN ----------

[...]

          k = 0.2239-0.2879-0.2879 ( 57332 PWs)   bands (ev):

[...]

          k =-0.2879-0.2879-0.2879 ( 57160 PWs)   bands (ev):

   -83.8402 -83.8402 -83.8402 -83.8394 -83.8394 -83.8394 -83.8366 -83.8366
   -83.8366 -83.8366 -83.8366 -83.8366 -83.8366 -83.8366 -83.8304 -83.8241
   -49.9922 -49.9922 -49.9922 -49.9922 -49.9921 -49.9921 -49.9921 -49.9920
   -49.9920 -49.9918 -49.9916 -49.9916 -49.9914 -49.9914 -49.9914 -49.9913
   -49.9913 -49.9913 -49.9903 -49.9903 -49.9901 -49.9901 -49.9901 -49.9901
   -49.9901 -49.9901 -49.9888 -49.9888 -49.9888 -49.9888 -49.9888 -49.9888
   -49.9886 -49.9886 -49.9886 -49.9886 -49.9886 -49.9886 -49.9886 -49.9886
   -49.9886 -49.9886 -49.9842 -49.9842 -49.9842 -49.9791 -49.9791 -49.9791
    -0.4184  -0.4133  -0.4031  -0.4031  -0.4031  -0.4023  -0.4023  -0.4023
     1.2770   1.2770   1.2770   1.2770   1.2773   1.2773   1.2773   1.2774
     1.4230   1.4230   1.4230   1.4235   1.4235   1.4237   1.4237   1.4237
     1.4238   1.4238   1.4238   1.4239   1.4239   1.4239   1.4243   1.4243
     1.5905   1.5905   1.5909   1.5909   1.5909   1.5910   1.5910   1.5910
     1.5912   1.5912   1.5929   1.5929   1.5929   1.5932   1.5932   1.5932
     1.7860   1.7860   1.7860   1.7863   1.7863   1.7863   1.7876   1.7882
     2.1055   2.1055   2.1055   2.1060   2.1060   2.1060   2.1062   2.1062
     2.1062   2.1064   2.1064   2.1066   2.1066   2.1068   2.1068   2.1068
     2.3512   2.3512   2.3512   2.3518   2.3518   2.3519   2.3519   2.3519
     2.3520   2.3520   2.3520   2.3523   2.3523   2.3526   2.3526   2.3526
     2.6725   2.6784

     the Fermi energy is     1.6478 ev

!    total energy              =   -5263.41336039 Ry

     total all-electron energy =    -40724.157889 Ry
     estimated scf accuracy    <       0.00000006 Ry
     smearing contrib. (-TS)   =      -0.22491956 Ry
     internal energy E=F+TS    =   -5263.18844084 Ry

     The total energy is F=E-TS. E is the sum of the following terms:
     one-electron contribution =   -3656.42894084 Ry
     hartree contribution      =    1829.16109511 Ry
     xc contribution           =    -440.16555027 Ry
     ewald contribution        =   -1671.51244895 Ry
     one-center paw contrib.   =   -1324.24259589 Ry

     total magnetization       =    52.25 Bohr mag/cell
     absolute magnetization    =    55.50 Bohr mag/cell

     convergence has been achieved in  80 iterations

     negative rho (up, down):  0.000E+00 5.135E-03

     Forces acting on atoms (cartesian axes, Ry/au):

     atom    1 type  1   force =     0.00000000    0.00000000    0.00000000
     atom    2 type  2   force =    -0.00006626   -0.00006626   -0.00006626
     atom    3 type  1   force =     0.00000000    0.00000000    0.00000000
     atom    4 type  2   force =    -0.00006626   -0.00006626    0.00006626
     atom    5 type  1   force =     0.00000000    0.00000000    0.00000000
     atom    6 type  2   force =    -0.00006626    0.00006626   -0.00006626
     atom    7 type  1   force =     0.00000000    0.00000000    0.00000000
     atom    8 type  2   force =    -0.00006626    0.00006626    0.00006626
     atom    9 type  1   force =     0.00000000    0.00000000    0.00000000
     atom   10 type  2   force =     0.00006626   -0.00006626   -0.00006626
     atom   11 type  1   force =     0.00000000    0.00000000    0.00000000
     atom   12 type  2   force =     0.00006626   -0.00006626    0.00006626
     atom   13 type  1   force =     0.00000000    0.00000000    0.00000000
     atom   14 type  2   force =     0.00006626    0.00006626   -0.00006626
     atom   15 type  1   force =     0.00000000    0.00000000    0.00000000
     atom   16 type  2   force =     0.00006626    0.00006626    0.00006626

     Total force =     0.000325     Total SCF correction =     0.000510
     SCF correction compared to forces is large: reduce conv_thr to get better values

     Computing stress (Cartesian axis) and pressure

     negative rho (up, down):  0.000E+00 5.135E-03
          total   stress  (Ry/bohr**3)                   (kbar)     P=      -72.35
  -0.00049182   0.00000000   0.00000000          -72.35        0.00        0.00
   0.00000000  -0.00049182   0.00000000            0.00      -72.35        0.00
   0.00000000   0.00000000  -0.00049182            0.00        0.00      -72.35

     Writing output data file /scratch/ZlQrXtFswzsRUZlZ.save/

     General routines

     Parallel routines

   This run was terminated on:  18:29: 0  19Mar2022

   JOB DONE.