     Program PWSCF v.6.7MaX starts on 17Jan2022 at 13:40: 4

     R & G space division:  proc/nbgrp/npool/nimage =      72
     Reading input from bcc_3.in
Warning: card &CELL ignored
Warning: card CELL_DYNAMICS = 'BFGS', ignored
Warning: card CELL_FACTOR = 2.0, ignored
Warning: card PRESS = 0.0, ignored
Warning: card / ignored

     Current dimensions of program PWSCF are:
     Max number of different atomic species (ntypx) = 10
     Max number of k-points (npk) =  40000
     Max angular momentum in pseudopotentials (lmaxx) =  3
     file Fe.pbe-spn-kjpaw_psl.1.0.0.UPF: wavefunction(s)  3P 3D renormalized
     file Fe.pbe-spn-kjpaw_psl.1.0.0.UPF: wavefunction(s)  3P 3D renormalized

     Subspace diagonalization in iterative solution of the eigenvalue problem:
     one sub-group per band group will be used

     Found symmetry operation: I + (  0.0000  0.0000 -0.5000)
     This is a supercell, fractional translations are disabled
     Message from routine setup:
     using ibrav=0 with symmetry is DISCOURAGED, use correct ibrav instead

     bravais-lattice index     =            0
     lattice parameter (alat)  =      10.2690  a.u.
     unit-cell volume          =     741.9478 (a.u.)^3
     number of atoms/cell      =           16
     number of atomic types    =            2
     number of electrons       =       256.00
     number of Kohn-Sham states=          154
     kinetic-energy cutoff     =      71.0000  Ry
     charge density cutoff     =     430.0000  Ry
     scf convergence threshold =      1.0E-07
     mixing beta               =       0.1000
     number of iterations used =           10  local-TF  mixing
     Exchange-correlation= SLA  PW   PBX  PBC
                           (   1   4   3   4   0   0   0)

     celldm(1)=  10.269041  celldm(2)=   0.000000  celldm(3)=   0.000000
     celldm(4)=   0.000000  celldm(5)=   0.000000  celldm(6)=   0.000000

     crystal axes: (cart. coord. in units of alat)
               a(1) = (   0.881579   0.000000   0.000000 )
               a(2) = (   0.000000   0.881579   0.000000 )
               a(3) = (   0.000000   0.000000   0.881579 )

     reciprocal axes: (cart. coord. in units 2 pi/alat)
               b(1) = (  1.134328  0.000000  0.000000 )
               b(2) = (  0.000000  1.134328  0.000000 )
               b(3) = (  0.000000  0.000000  1.134328 )

     PseudoPot. # 1 for Fe read from file:
     /rds/homes/b/bxp912/pp/Fe.pbe-spn-kjpaw_psl.1.0.0.UPF
     MD5 check sum: 42f43b795421b414b0dc916aa790dbcb
     Pseudo is Projector augmented-wave + core cor, Zval = 16.0
     Generated using &quot;atomic&quot; code by A. Dal Corso  v.6.3
     Shape of augmentation charge: PSQ
     Using radial grid of 1191 points,  6 beta functions with:
                l(1) =   0
                l(2) =   0
                l(3) =   1
                l(4) =   1
                l(5) =   2
                l(6) =   2
     Q(r) pseudized with 0 coefficients

     PseudoPot. # 2 for Fe read from file:
     /rds/homes/b/bxp912/pp/Fe.pbe-spn-kjpaw_psl.1.0.0.UPF
     MD5 check sum: 42f43b795421b414b0dc916aa790dbcb
     Pseudo is Projector augmented-wave + core cor, Zval = 16.0
     Generated using &quot;atomic&quot; code by A. Dal Corso  v.6.3
     Shape of augmentation charge: PSQ
     Using radial grid of 1191 points,  6 beta functions with:
                l(1) =   0
                l(2) =   0
                l(3) =   1
                l(4) =   1
                l(5) =   2
                l(6) =   2
     Q(r) pseudized with 0 coefficients

     atomic species   valence    mass     pseudopotential
        Fe1           16.00    55.84500     Fe( 1.00)
        Fe2           16.00    55.84500     Fe( 1.00)

     Starting magnetic structure
     atomic species   magnetization
        Fe1          0.100
        Fe2          0.100

     48 Sym. Ops., with inversion, found

   Cartesian axes

     site n.     atom                  positions (alat units)
         1           Fe1 tau(   1) = (   0.0000000   0.0000000   0.0000000  )
         2           Fe2 tau(   2) = (   0.2203947   0.2203947   0.2203947  )
         3           Fe1 tau(   3) = (   0.0000000   0.0000000   0.4407895  )
         4           Fe2 tau(   4) = (   0.2203947   0.2203947   0.6611842  )
         5           Fe1 tau(   5) = (   0.0000000   0.4407895   0.0000000  )
         6           Fe2 tau(   6) = (   0.2203947   0.6611842   0.2203947  )
         7           Fe1 tau(   7) = (   0.0000000   0.4407895   0.4407895  )
         8           Fe2 tau(   8) = (   0.2203947   0.6611842   0.6611842  )
         9           Fe1 tau(   9) = (   0.4407895   0.0000000   0.0000000  )
        10           Fe2 tau(  10) = (   0.6611842   0.2203947   0.2203947  )
        11           Fe1 tau(  11) = (   0.4407895   0.0000000   0.4407895  )
        12           Fe2 tau(  12) = (   0.6611842   0.2203947   0.6611842  )
        13           Fe1 tau(  13) = (   0.4407895   0.4407895   0.0000000  )
        14           Fe2 tau(  14) = (   0.6611842   0.6611842   0.2203947  )
        15           Fe1 tau(  15) = (   0.4407895   0.4407895   0.4407895  )
        16           Fe2 tau(  16) = (   0.6611842   0.6611842   0.6611842  )

     number of k points=    35  Marzari-Vanderbilt smearing, width (Ry)=  0.0400
                       cart. coord. in units 2pi/alat
        k(    1) = (   0.0630182   0.0630182   0.0630182), wk =   0.0109739
        k(    2) = (   0.0630182   0.0630182   0.1890547), wk =   0.0329218
        k(    3) = (   0.0630182   0.0630182   0.3150912), wk =   0.0329218
        k(    4) = (   0.0630182   0.0630182   0.4411277), wk =   0.0329218
        k(    5) = (   0.0630182   0.0630182  -0.5671642), wk =   0.0164609
        k(    6) = (   0.0630182   0.1890547   0.1890547), wk =   0.0329218
        k(    7) = (   0.0630182   0.1890547   0.3150912), wk =   0.0658436
        k(    8) = (   0.0630182   0.1890547   0.4411277), wk =   0.0658436
        k(    9) = (   0.0630182   0.1890547  -0.5671642), wk =   0.0329218
        k(   10) = (   0.0630182   0.3150912   0.3150912), wk =   0.0329218
        k(   11) = (   0.0630182   0.3150912   0.4411277), wk =   0.0658436
        k(   12) = (   0.0630182   0.3150912  -0.5671642), wk =   0.0329218
        k(   13) = (   0.0630182   0.4411277   0.4411277), wk =   0.0329218
        k(   14) = (   0.0630182   0.4411277  -0.5671642), wk =   0.0329218
        k(   15) = (   0.0630182  -0.5671642  -0.5671642), wk =   0.0082305
        k(   16) = (   0.1890547   0.1890547   0.1890547), wk =   0.0109739
        k(   17) = (   0.1890547   0.1890547   0.3150912), wk =   0.0329218
        k(   18) = (   0.1890547   0.1890547   0.4411277), wk =   0.0329218
        k(   19) = (   0.1890547   0.1890547  -0.5671642), wk =   0.0164609
        k(   20) = (   0.1890547   0.3150912   0.3150912), wk =   0.0329218
        k(   21) = (   0.1890547   0.3150912   0.4411277), wk =   0.0658436
        k(   22) = (   0.1890547   0.3150912  -0.5671642), wk =   0.0329218
        k(   23) = (   0.1890547   0.4411277   0.4411277), wk =   0.0329218
        k(   24) = (   0.1890547   0.4411277  -0.5671642), wk =   0.0329218
        k(   25) = (   0.1890547  -0.5671642  -0.5671642), wk =   0.0082305
        k(   26) = (   0.3150912   0.3150912   0.3150912), wk =   0.0109739
        k(   27) = (   0.3150912   0.3150912   0.4411277), wk =   0.0329218
        k(   28) = (   0.3150912   0.3150912  -0.5671642), wk =   0.0164609
        k(   29) = (   0.3150912   0.4411277   0.4411277), wk =   0.0329218
        k(   30) = (   0.3150912   0.4411277  -0.5671642), wk =   0.0329218
        k(   31) = (   0.3150912  -0.5671642  -0.5671642), wk =   0.0082305
        k(   32) = (   0.4411277   0.4411277   0.4411277), wk =   0.0109739
        k(   33) = (   0.4411277   0.4411277  -0.5671642), wk =   0.0164609
        k(   34) = (   0.4411277  -0.5671642  -0.5671642), wk =   0.0082305
        k(   35) = (  -0.5671642  -0.5671642  -0.5671642), wk =   0.0013717

     Check: negative core charge=   -0.000007
     Generating pointlists ...
     new r_m :   0.1575 (alat units)  1.6170 (a.u.) for type    1
     new r_m :   0.1575 (alat units)  1.6170 (a.u.) for type    2

     Initial potential from superposition of free atoms

     starting charge  255.99300, renormalised to  256.00000
     Starting wfcs are  160 randomized atomic wfcs
     Checking if some PAW data can be deallocated...

     Self-consistent Calculation

     iteration #  1     ecut=    71.00 Ry     beta= 0.10
     Davidson diagonalization with overlap
     ethr =  1.00E-02,  avg # of iterations =  3.5

     Threshold (ethr) on eigenvalues was too large:
     Diagonalizing with lowered threshold

     Davidson diagonalization with overlap
     ethr =  1.83E-04,  avg # of iterations =  4.5

     total energy              =   -5264.95852075 Ry
     estimated scf accuracy    <       0.68185954 Ry

     total magnetization       =    18.28 Bohr mag/cell
     absolute magnetization    =    18.30 Bohr mag/cell

[...]

     iteration #  4     ecut=    71.00 Ry     beta= 0.10
     Davidson diagonalization with overlap
     c_bands:  1 eigenvalues not converged
     ethr =  1.22E-05,  avg # of iterations =  2.7

[...]

     total energy              =   -5264.97158521 Ry
     estimated scf accuracy    <       0.00000010 Ry

[...]

     iteration # 19     ecut=    71.00 Ry     beta= 0.10
     Davidson diagonalization with overlap
     ethr =  3.99E-11,  avg # of iterations =  2.8

     Magnetic moment per site:
     atom:    1    charge:   13.9683    magn:    0.9263    constr:    0.0000
     atom:    2    charge:   13.9683    magn:    0.9260    constr:    0.0000
     atom:    3    charge:   13.9683    magn:    0.9264    constr:    0.0000
     atom:    4    charge:   13.9683    magn:    0.9260    constr:    0.0000
     atom:    5    charge:   13.9683    magn:    0.9264    constr:    0.0000
     atom:    6    charge:   13.9683    magn:    0.9260    constr:    0.0000
     atom:    7    charge:   13.9683    magn:    0.9259    constr:    0.0000
     atom:    8    charge:   13.9683    magn:    0.9260    constr:    0.0000
     atom:    9    charge:   13.9683    magn:    0.9264    constr:    0.0000
     atom:   10    charge:   13.9683    magn:    0.9260    constr:    0.0000
     atom:   11    charge:   13.9683    magn:    0.9259    constr:    0.0000
     atom:   12    charge:   13.9683    magn:    0.9260    constr:    0.0000
     atom:   13    charge:   13.9683    magn:    0.9259    constr:    0.0000
     atom:   14    charge:   13.9683    magn:    0.9260    constr:    0.0000
     atom:   15    charge:   13.9683    magn:    0.9253    constr:    0.0000
     atom:   16    charge:   13.9683    magn:    0.9260    constr:    0.0000

     End of self-consistent calculation

 ------ SPIN UP ------------

          k = 0.0630 0.0630 0.0630 (  7478 PWs)   bands (ev):

   -55.8752 -55.3881 -55.3881 -55.3880 -55.3026 -55.3026 -55.3025 -55.2925
   -55.2925 -55.2924 -55.2850 -55.2850 -55.2849 -55.2368 -55.2361 -54.9031
   -22.7263 -22.7263 -22.7263 -22.7162 -22.7162 -22.7162 -22.0320 -22.0320
   -22.0088 -21.8656 -21.8484 -21.8484 -21.8484 -21.7772 -21.7772 -21.7290
   -21.7290 -21.7290 -21.5963 -21.5963 -21.5063 -21.3744 -21.3743 -21.3743
   -21.3382 -21.3382 -21.3382 -21.2743 -21.2743 -21.2743 -21.2632 -21.2632
   -21.2632 -21.2516 -21.2516 -21.2516 -21.2182 -21.2182 -21.2182 -20.6728
   -20.6728 -20.6728 -20.6624 -20.6624 -20.6624 -20.6583 -20.6334 -20.6334
    21.6515  24.0244  24.0244  24.5126  24.5126  24.5126  24.5254  24.5254
    24.5254  26.1245  26.1245  26.1245  26.3669  26.3669  26.3669  27.0548
    27.0549  27.0549  27.0807  27.0807  27.0807  27.3315  27.3315  27.3315
    27.3539  27.5388  27.5388  27.8770  27.8770  28.0196  28.0196  28.0196
    28.0268  29.3861  29.3861  29.4716  30.0018  30.0018  30.0019  30.1639
    30.1640  30.1640  30.3431  30.3431  30.3431  30.5092  30.5092  30.5092
    31.7563  31.7563  31.7563  32.1759  32.1759  32.2008  32.2008  32.2008
    32.2922  32.2923  32.2923  32.3450  32.3451  32.3451  32.3675  32.3676
    32.3676  32.7367  32.7367  32.7367  32.8320  32.8320  32.8329  32.8329
    33.7281  33.7281  33.7281  34.2628  34.2628  34.2628  34.3958  34.5386
    34.5386  34.6493  34.6494  34.6494  35.3582  35.3582  35.3582  35.4867
    35.4867  35.4867

[...]

          k =-0.5672-0.5672-0.5672 (  7568 PWs)   bands (ev):

[...]

 ------ SPIN DOWN ----------

[...]

          k = 0.4411-0.5672-0.5672 (  7544 PWs)   bands (ev):

[...]

          k =-0.5672-0.5672-0.5672 (  7568 PWs)   bands (ev):

   -54.3565 -54.3562 -54.3562 -54.3562 -54.3560 -54.3560 -54.3560 -54.3560
   -53.9955 -53.9953 -53.9953 -53.9953 -53.9951 -53.9950 -53.9950 -53.9950
   -21.0458 -21.0458 -21.0458 -21.0458 -21.0458 -21.0457 -21.0457 -21.0457
   -21.0456 -21.0456 -21.0456 -21.0455 -21.0455 -21.0455 -21.0455 -21.0455
   -20.9209 -20.9208 -20.9208 -20.9208 -20.9208 -20.9208 -20.9208 -20.9206
   -19.8955 -19.8954 -19.8954 -19.8954 -19.8954 -19.8954 -19.8954 -19.8952
   -19.7693 -19.7693 -19.7693 -19.7693 -19.7693 -19.7692 -19.7692 -19.7692
   -19.7691 -19.7691 -19.7691 -19.7690 -19.7690 -19.7690 -19.7690 -19.7690
    26.2996  26.2996  26.2996  26.2996  26.2996  26.2996  26.2996  26.2996
    27.7548  27.7548  27.7549  27.7549  27.7549  27.7549  27.7549  27.7549
    27.7550  27.7550  27.7550  27.7550  27.7550  27.7551  27.7551  27.7551
    28.3886  28.3886  28.3886  28.3887  28.3887  28.3887  28.3887  28.3887
    28.3887  28.3887  28.3887  28.3888  28.3888  28.3888  28.3888  28.3888
    28.4472  28.4472  28.4472  28.4472  28.4472  28.4472  28.4472  28.4473
    33.6015  33.6015  33.6018  33.6018  33.6018  33.6018  33.6018  33.6018
    33.6020  33.6020  33.6020  33.6020  33.6020  33.6020  33.6020  33.6020
    34.0633  34.0633  34.0633  34.0633  34.0633  34.0633  34.0634  34.0634
    34.0634  34.0634  34.0634  34.0634  34.0634  34.0635  34.0635  34.0635
    35.1373  35.1373  35.1373  35.1373  35.1373  35.1373  35.1373  35.1374
    45.4244  45.4245

     the Fermi energy is    32.9827 ev

!    total energy              =   -5264.97158564 Ry

     total all-electron energy =    -40725.716115 Ry
     estimated scf accuracy    <       0.00000006 Ry
     smearing contrib. (-TS)   =      -0.00938029 Ry
     internal energy E=F+TS    =   -5264.96220535 Ry

     The total energy is F=E-TS. E is the sum of the following terms:
     one-electron contribution =    -974.40203649 Ry
     hartree contribution      =     778.97416770 Ry
     xc contribution           =    -451.88300699 Ry
     ewald contribution        =   -3293.12900391 Ry
     one-center paw contrib.   =   -1324.52232567 Ry

     total magnetization       =    14.98 Bohr mag/cell
     absolute magnetization    =    15.30 Bohr mag/cell

     convergence has been achieved in  19 iterations

     Forces acting on atoms (cartesian axes, Ry/au):

     atom    1 type  1   force =     0.00000000    0.00000000    0.00000000
     atom    2 type  2   force =     0.00002546    0.00002546    0.00002546
     atom    3 type  1   force =     0.00000000    0.00000000    0.00000000
     atom    4 type  2   force =     0.00002546    0.00002546   -0.00002546
     atom    5 type  1   force =     0.00000000    0.00000000    0.00000000
     atom    6 type  2   force =     0.00002546   -0.00002546    0.00002546
     atom    7 type  1   force =     0.00000000    0.00000000    0.00000000
     atom    8 type  2   force =     0.00002546   -0.00002546   -0.00002546
     atom    9 type  1   force =     0.00000000    0.00000000    0.00000000
     atom   10 type  2   force =    -0.00002546    0.00002546    0.00002546
     atom   11 type  1   force =     0.00000000    0.00000000    0.00000000
     atom   12 type  2   force =    -0.00002546    0.00002546   -0.00002546
     atom   13 type  1   force =     0.00000000    0.00000000    0.00000000
     atom   14 type  2   force =    -0.00002546   -0.00002546    0.00002546
     atom   15 type  1   force =     0.00000000    0.00000000    0.00000000
     atom   16 type  2   force =    -0.00002546   -0.00002546   -0.00002546

     Total force =     0.000125     Total SCF correction =     0.000072
     SCF correction compared to forces is large: reduce conv_thr to get better values

     Computing stress (Cartesian axis) and pressure

          total   stress  (Ry/bohr**3)                   (kbar)     P=     3008.91
   0.02045416   0.00000000   0.00000000         3008.91        0.00        0.00
   0.00000000   0.02045416   0.00000000            0.00     3008.91        0.00
   0.00000000   0.00000000   0.02045416            0.00        0.00     3008.91

     Writing output data file /scratch/xjmeiigjVJircXId.save/

     General routines

     Parallel routines

   This run was terminated on:  13:44:16  17Jan2022

   JOB DONE.