     Program PWSCF v.6.7MaX starts on 17Jan2022 at 14:22: 3

     R & G space division:  proc/nbgrp/npool/nimage =      72
     Reading input from bcc_10.in
Warning: card &CELL ignored
Warning: card CELL_DYNAMICS = 'BFGS', ignored
Warning: card CELL_FACTOR = 2.0, ignored
Warning: card PRESS = 0.0, ignored
Warning: card / ignored

     Current dimensions of program PWSCF are:
     Max number of different atomic species (ntypx) = 10
     Max number of k-points (npk) =  40000
     Max angular momentum in pseudopotentials (lmaxx) =  3
     file Fe.pbe-spn-kjpaw_psl.1.0.0.UPF: wavefunction(s)  3P 3D renormalized
     file Fe.pbe-spn-kjpaw_psl.1.0.0.UPF: wavefunction(s)  3P 3D renormalized

     Subspace diagonalization in iterative solution of the eigenvalue problem:
     one sub-group per band group will be used

     Found symmetry operation: I + (  0.0000  0.0000 -0.5000)
     This is a supercell, fractional translations are disabled
     Message from routine setup:
     using ibrav=0 with symmetry is DISCOURAGED, use correct ibrav instead

     bravais-lattice index     =            0
     lattice parameter (alat)  =      10.2690  a.u.
     unit-cell volume          =    2617.8783 (a.u.)^3
     number of atoms/cell      =           16
     number of atomic types    =            2
     number of electrons       =       256.00
     number of Kohn-Sham states=          154
     kinetic-energy cutoff     =      71.0000  Ry
     charge density cutoff     =     430.0000  Ry
     scf convergence threshold =      1.0E-07
     mixing beta               =       0.1000
     number of iterations used =           10  local-TF  mixing
     Exchange-correlation= SLA  PW   PBX  PBC
                           (   1   4   3   4   0   0   0)

     celldm(1)=  10.269041  celldm(2)=   0.000000  celldm(3)=   0.000000
     celldm(4)=   0.000000  celldm(5)=   0.000000  celldm(6)=   0.000000

     crystal axes: (cart. coord. in units of alat)
               a(1) = (   1.342105   0.000000   0.000000 )
               a(2) = (   0.000000   1.342105   0.000000 )
               a(3) = (   0.000000   0.000000   1.342105 )

     reciprocal axes: (cart. coord. in units 2 pi/alat)
               b(1) = (  0.745098  0.000000  0.000000 )
               b(2) = (  0.000000  0.745098  0.000000 )
               b(3) = (  0.000000  0.000000  0.745098 )

     PseudoPot. # 1 for Fe read from file:
     /rds/homes/b/bxp912/pp/Fe.pbe-spn-kjpaw_psl.1.0.0.UPF
     MD5 check sum: 42f43b795421b414b0dc916aa790dbcb
     Pseudo is Projector augmented-wave + core cor, Zval = 16.0
     Generated using &quot;atomic&quot; code by A. Dal Corso  v.6.3
     Shape of augmentation charge: PSQ
     Using radial grid of 1191 points,  6 beta functions with:
                l(1) =   0
                l(2) =   0
                l(3) =   1
                l(4) =   1
                l(5) =   2
                l(6) =   2
     Q(r) pseudized with 0 coefficients

     PseudoPot. # 2 for Fe read from file:
     /rds/homes/b/bxp912/pp/Fe.pbe-spn-kjpaw_psl.1.0.0.UPF
     MD5 check sum: 42f43b795421b414b0dc916aa790dbcb
     Pseudo is Projector augmented-wave + core cor, Zval = 16.0
     Generated using &quot;atomic&quot; code by A. Dal Corso  v.6.3
     Shape of augmentation charge: PSQ
     Using radial grid of 1191 points,  6 beta functions with:
                l(1) =   0
                l(2) =   0
                l(3) =   1
                l(4) =   1
                l(5) =   2
                l(6) =   2
     Q(r) pseudized with 0 coefficients

     atomic species   valence    mass     pseudopotential
        Fe1           16.00    55.84500     Fe( 1.00)
        Fe2           16.00    55.84500     Fe( 1.00)

     Starting magnetic structure
     atomic species   magnetization
        Fe1          0.100
        Fe2          0.100

     48 Sym. Ops., with inversion, found

   Cartesian axes

     site n.     atom                  positions (alat units)
         1           Fe1 tau(   1) = (   0.0000000   0.0000000   0.0000000  )
         2           Fe2 tau(   2) = (   0.3355263   0.3355263   0.3355263  )
         3           Fe1 tau(   3) = (   0.0000000   0.0000000   0.6710526  )
         4           Fe2 tau(   4) = (   0.3355263   0.3355263   1.0065789  )
         5           Fe1 tau(   5) = (   0.0000000   0.6710526   0.0000000  )
         6           Fe2 tau(   6) = (   0.3355263   1.0065789   0.3355263  )
         7           Fe1 tau(   7) = (   0.0000000   0.6710526   0.6710526  )
         8           Fe2 tau(   8) = (   0.3355263   1.0065789   1.0065789  )
         9           Fe1 tau(   9) = (   0.6710526   0.0000000   0.0000000  )
        10           Fe2 tau(  10) = (   1.0065789   0.3355263   0.3355263  )
        11           Fe1 tau(  11) = (   0.6710526   0.0000000   0.6710526  )
        12           Fe2 tau(  12) = (   1.0065789   0.3355263   1.0065789  )
        13           Fe1 tau(  13) = (   0.6710526   0.6710526   0.0000000  )
        14           Fe2 tau(  14) = (   1.0065789   1.0065789   0.3355263  )
        15           Fe1 tau(  15) = (   0.6710526   0.6710526   0.6710526  )
        16           Fe2 tau(  16) = (   1.0065789   1.0065789   1.0065789  )

     number of k points=    35  Marzari-Vanderbilt smearing, width (Ry)=  0.0400
                       cart. coord. in units 2pi/alat
        k(    1) = (   0.0413943   0.0413943   0.0413943), wk =   0.0109739
        k(    2) = (   0.0413943   0.0413943   0.1241830), wk =   0.0329218
        k(    3) = (   0.0413943   0.0413943   0.2069717), wk =   0.0329218
        k(    4) = (   0.0413943   0.0413943   0.2897603), wk =   0.0329218
        k(    5) = (   0.0413943   0.0413943  -0.3725490), wk =   0.0164609
        k(    6) = (   0.0413943   0.1241830   0.1241830), wk =   0.0329218
        k(    7) = (   0.0413943   0.1241830   0.2069717), wk =   0.0658436
        k(    8) = (   0.0413943   0.1241830   0.2897603), wk =   0.0658436
        k(    9) = (   0.0413943   0.1241830  -0.3725490), wk =   0.0329218
        k(   10) = (   0.0413943   0.2069717   0.2069717), wk =   0.0329218
        k(   11) = (   0.0413943   0.2069717   0.2897603), wk =   0.0658436
        k(   12) = (   0.0413943   0.2069717  -0.3725490), wk =   0.0329218
        k(   13) = (   0.0413943   0.2897603   0.2897603), wk =   0.0329218
        k(   14) = (   0.0413943   0.2897603  -0.3725490), wk =   0.0329218
        k(   15) = (   0.0413943  -0.3725490  -0.3725490), wk =   0.0082305
        k(   16) = (   0.1241830   0.1241830   0.1241830), wk =   0.0109739
        k(   17) = (   0.1241830   0.1241830   0.2069717), wk =   0.0329218
        k(   18) = (   0.1241830   0.1241830   0.2897603), wk =   0.0329218
        k(   19) = (   0.1241830   0.1241830  -0.3725490), wk =   0.0164609
        k(   20) = (   0.1241830   0.2069717   0.2069717), wk =   0.0329218
        k(   21) = (   0.1241830   0.2069717   0.2897603), wk =   0.0658436
        k(   22) = (   0.1241830   0.2069717  -0.3725490), wk =   0.0329218
        k(   23) = (   0.1241830   0.2897603   0.2897603), wk =   0.0329218
        k(   24) = (   0.1241830   0.2897603  -0.3725490), wk =   0.0329218
        k(   25) = (   0.1241830  -0.3725490  -0.3725490), wk =   0.0082305
        k(   26) = (   0.2069717   0.2069717   0.2069717), wk =   0.0109739
        k(   27) = (   0.2069717   0.2069717   0.2897603), wk =   0.0329218
        k(   28) = (   0.2069717   0.2069717  -0.3725490), wk =   0.0164609
        k(   29) = (   0.2069717   0.2897603   0.2897603), wk =   0.0329218
        k(   30) = (   0.2069717   0.2897603  -0.3725490), wk =   0.0329218
        k(   31) = (   0.2069717  -0.3725490  -0.3725490), wk =   0.0082305
        k(   32) = (   0.2897603   0.2897603   0.2897603), wk =   0.0109739
        k(   33) = (   0.2897603   0.2897603  -0.3725490), wk =   0.0164609
        k(   34) = (   0.2897603  -0.3725490  -0.3725490), wk =   0.0082305
        k(   35) = (  -0.3725490  -0.3725490  -0.3725490), wk =   0.0013717

     Check: negative core charge=   -0.000004
     Generating pointlists ...
     new r_m :   0.2397 (alat units)  2.4617 (a.u.) for type    1
     new r_m :   0.2397 (alat units)  2.4617 (a.u.) for type    2

     Initial potential from superposition of free atoms

     starting charge  255.99300, renormalised to  256.00000
     Starting wfcs are  160 randomized atomic wfcs
     Checking if some PAW data can be deallocated...

     Self-consistent Calculation

     iteration #  1     ecut=    71.00 Ry     beta= 0.10
     Davidson diagonalization with overlap
     ethr =  1.00E-02,  avg # of iterations =  3.6

     total energy              =   -5265.19959600 Ry
     estimated scf accuracy    <       3.89905495 Ry

     total magnetization       =    48.05 Bohr mag/cell
     absolute magnetization    =    48.11 Bohr mag/cell

[...]

     negative rho (up, down):  0.000E+00 2.599E-03

[...]

     total energy              =   -5266.04654044 Ry
     estimated scf accuracy    <       0.00000014 Ry

[...]

     iteration # 34     ecut=    71.00 Ry     beta= 0.10
     Davidson diagonalization with overlap
     ethr =  4.72E-11,  avg # of iterations =  4.2

[...]

     Magnetic moment per site:
     atom:    1    charge:   14.9129    magn:    3.2407    constr:    0.0000
     atom:    2    charge:   14.9129    magn:    3.2397    constr:    0.0000
     atom:    3    charge:   14.9129    magn:    3.2394    constr:    0.0000
     atom:    4    charge:   14.9129    magn:    3.2397    constr:    0.0000
     atom:    5    charge:   14.9129    magn:    3.2394    constr:    0.0000
     atom:    6    charge:   14.9129    magn:    3.2397    constr:    0.0000
     atom:    7    charge:   14.9129    magn:    3.2394    constr:    0.0000
     atom:    8    charge:   14.9129    magn:    3.2397    constr:    0.0000
     atom:    9    charge:   14.9129    magn:    3.2394    constr:    0.0000
     atom:   10    charge:   14.9129    magn:    3.2397    constr:    0.0000
     atom:   11    charge:   14.9129    magn:    3.2394    constr:    0.0000
     atom:   12    charge:   14.9129    magn:    3.2397    constr:    0.0000
     atom:   13    charge:   14.9129    magn:    3.2394    constr:    0.0000
     atom:   14    charge:   14.9129    magn:    3.2397    constr:    0.0000
     atom:   15    charge:   14.9129    magn:    3.2408    constr:    0.0000
     atom:   16    charge:   14.9129    magn:    3.2397    constr:    0.0000

     End of self-consistent calculation

 ------ SPIN UP ------------

          k = 0.0414 0.0414 0.0414 ( 26481 PWs)   bands (ev):

   -81.9420 -81.9410 -81.9406 -81.9402 -81.9402 -81.9401 -81.9400 -81.9400
   -81.9400 -81.9400 -81.9398 -81.9398 -81.9397 -81.9397 -81.9397 -81.9384
   -47.9885 -47.9885 -47.9884 -47.9881 -47.9880 -47.9880 -47.9841 -47.9841
   -47.9837 -47.9793 -47.9789 -47.9789 -47.9787 -47.9782 -47.9782 -47.9774
   -47.9774 -47.9774 -47.9762 -47.9762 -47.9760 -47.9760 -47.9758 -47.9753
   -47.9753 -47.9752 -47.9752 -47.9751 -47.9751 -47.9750 -47.9749 -47.9749
   -47.9749 -47.9745 -47.9745 -47.9742 -47.9739 -47.9735 -47.9735 -47.9669
   -47.9663 -47.9663 -47.9662 -47.9659 -47.9659 -47.9658 -47.9658 -47.9657
     1.4802   3.5652   3.5652   3.5652   3.5730   3.5731   3.5731   3.5975
     3.5975   3.5975   3.6299   3.6299   3.7884   3.7884   3.7884   4.0498
     4.0498   4.0500   4.0538   4.0540   4.0540   4.0976   4.0976   4.0978
     4.1192   4.1516   4.1516   4.1824   4.1824   4.1826   4.2105   4.2105
     4.2368   4.3366   4.3366   4.3479   4.4681   4.4685   4.4685   4.4891
     4.4891   4.4893   4.5199   4.5199   4.5199   4.5435   4.5435   4.5437
     4.6135   4.6135   4.6324   4.6324   4.6325   4.6452   4.6452   4.6452
     4.6467   4.6467   4.6467   4.6475   4.6475   4.6476   4.6564   4.6564
     4.6571   4.6571   4.6882   4.6882   4.6882   4.7499   4.7502   4.7502
     5.0368   5.0522   5.0522   5.1136   5.1138   5.1138   5.1205   5.1205
     5.1208   5.1305   5.1305   5.1306   5.5579   5.5580   5.5580   7.0772
     7.0775   7.0775

[...]

          k =-0.3725-0.3725-0.3725 ( 26344 PWs)   bands (ev):

[...]

 ------ SPIN DOWN ----------

[...]

          k = 0.2898-0.3725-0.3725 ( 26392 PWs)   bands (ev):

[...]

          k =-0.3725-0.3725-0.3725 ( 26344 PWs)   bands (ev):

   -78.3052 -78.3052 -78.3049 -78.3049 -78.3049 -78.3049 -78.3049 -78.3049
   -78.3037 -78.3037 -78.3035 -78.3035 -78.3035 -78.3035 -78.3035 -78.3035
   -44.4286 -44.4286 -44.4286 -44.4286 -44.4286 -44.4286 -44.4286 -44.4286
   -44.4286 -44.4285 -44.4285 -44.4285 -44.4285 -44.4285 -44.4285 -44.4285
   -44.4261 -44.4261 -44.4261 -44.4261 -44.4261 -44.4261 -44.4259 -44.4259
   -44.4144 -44.4144 -44.4144 -44.4144 -44.4144 -44.4144 -44.4142 -44.4142
   -44.4114 -44.4114 -44.4114 -44.4114 -44.4114 -44.4114 -44.4113 -44.4113
   -44.4113 -44.4113 -44.4113 -44.4113 -44.4113 -44.4113 -44.4113 -44.4113
     3.6930   3.6930   3.6930   3.6930   3.6930   3.6930   3.6938   3.6939
     6.5886   6.5886   6.5886   6.5886   6.5886   6.5886   6.5890   6.5890
     6.5890   6.5890   6.5891   6.5891   6.5891   6.5891   6.5891   6.5891
     6.6460   6.6460   6.6460   6.6460   6.6460   6.6460   6.6460   6.6460
     6.8215   6.8215   6.8215   6.8215   6.8216   6.8216   6.8216   6.8216
     6.8216   6.8216   6.8218   6.8218   6.8218   6.8218   6.8218   6.8218
     7.9486   7.9486   7.9486   7.9486   7.9487   7.9487   7.9487   7.9487
     7.9487   7.9487   7.9488   7.9488   7.9488   7.9488   7.9488   7.9488
     8.0226   8.0226   8.0226   8.0226   8.0226   8.0226   8.0227   8.0227
     8.0340   8.0340   8.0340   8.0340   8.0340   8.0340   8.0340   8.0340
     8.0340   8.0340   8.0341   8.0341   8.0341   8.0341   8.0341   8.0341
    11.0464  11.0465

     the Fermi energy is     7.0986 ev

!    total energy              =   -5266.04654077 Ry

     total all-electron energy =    -40726.791070 Ry
     estimated scf accuracy    <          6.0E-09 Ry
     smearing contrib. (-TS)   =      -0.06647244 Ry
     internal energy E=F+TS    =   -5265.98006833 Ry

     The total energy is F=E-TS. E is the sum of the following terms:
     one-electron contribution =   -2781.03867810 Ry
     hartree contribution      =    1443.27808485 Ry
     xc contribution           =    -440.67863535 Ry
     ewald contribution        =   -2163.13375746 Ry
     one-center paw contrib.   =   -1324.40708226 Ry

     total magnetization       =    49.88 Bohr mag/cell
     absolute magnetization    =    54.03 Bohr mag/cell

     convergence has been achieved in  34 iterations

     negative rho (up, down):  0.000E+00 5.522E-03

     Forces acting on atoms (cartesian axes, Ry/au):

     atom    1 type  1   force =     0.00000000    0.00000000    0.00000000
     atom    2 type  2   force =    -0.00000027   -0.00000027   -0.00000027
     atom    3 type  1   force =     0.00000000    0.00000000    0.00000000
     atom    4 type  2   force =    -0.00000027   -0.00000027    0.00000027
     atom    5 type  1   force =     0.00000000    0.00000000    0.00000000
     atom    6 type  2   force =    -0.00000027    0.00000027   -0.00000027
     atom    7 type  1   force =     0.00000000    0.00000000    0.00000000
     atom    8 type  2   force =    -0.00000027    0.00000027    0.00000027
     atom    9 type  1   force =     0.00000000    0.00000000    0.00000000
     atom   10 type  2   force =     0.00000027   -0.00000027   -0.00000027
     atom   11 type  1   force =     0.00000000    0.00000000    0.00000000
     atom   12 type  2   force =     0.00000027   -0.00000027    0.00000027
     atom   13 type  1   force =     0.00000000    0.00000000    0.00000000
     atom   14 type  2   force =     0.00000027    0.00000027   -0.00000027
     atom   15 type  1   force =     0.00000000    0.00000000    0.00000000
     atom   16 type  2   force =     0.00000027    0.00000027    0.00000027

     Total force =     0.000001     Total SCF correction =     0.000324
     SCF correction compared to forces is large: reduce conv_thr to get better values

     Computing stress (Cartesian axis) and pressure

     negative rho (up, down):  0.000E+00 5.522E-03
          total   stress  (Ry/bohr**3)                   (kbar)     P=     -250.51
  -0.00170295   0.00000000   0.00000000         -250.51        0.00        0.00
   0.00000000  -0.00170295   0.00000000            0.00     -250.51        0.00
   0.00000000   0.00000000  -0.00170295            0.00        0.00     -250.51

     Writing output data file /scratch/vLEKJkzeWaRorsTM.save/

     General routines

     Parallel routines

   This run was terminated on:  14:36:36  17Jan2022

   JOB DONE.