     Program PWSCF v.6.7MaX starts on  7Mar2022 at 13: 0:18

     R & G space division:  proc/nbgrp/npool/nimage =      72
     Reading input from ru.in
Warning: card &CELL ignored
Warning: card CELL_DYNAMICS = 'BFGS', ignored
Warning: card CELL_FACTOR = 2.0, ignored
Warning: card PRESS = 0.0, ignored
Warning: card / ignored

     Current dimensions of program PWSCF are:
     Max number of different atomic species (ntypx) = 10
     Max number of k-points (npk) =  40000
     Max angular momentum in pseudopotentials (lmaxx) =  3
     file Ru.pbe-spn-kjpaw_psl.1.0.0.UPF: wavefunction(s)  4D renormalized

     Subspace diagonalization in iterative solution of the eigenvalue problem:
     one sub-group per band group will be used

     Found symmetry operation: I + (  0.2500  0.2500  0.0000)
     This is a supercell, fractional translations are disabled
     Message from routine setup:
     using ibrav=0 with symmetry is DISCOURAGED, use correct ibrav instead

     bravais-lattice index     =            0
     lattice parameter (alat)  =      14.3940  a.u.
     unit-cell volume          =    2982.2680 (a.u.)^3
     number of atoms/cell      =           32
     number of atomic types    =            1
     number of electrons       =       512.00
     number of Kohn-Sham states=          307
     kinetic-energy cutoff     =      71.0000  Ry
     charge density cutoff     =     430.0000  Ry
     scf convergence threshold =      1.0E-08
     mixing beta               =       0.3000
     number of iterations used =           10  local-TF  mixing
     Exchange-correlation= SLA  PW   PBX  PBC
                           (   1   4   3   4   0   0   0)

     celldm(1)=  14.394024  celldm(2)=   0.000000  celldm(3)=   0.000000
     celldm(4)=   0.000000  celldm(5)=   0.000000  celldm(6)=   0.000000

     crystal axes: (cart. coord. in units of alat)
               a(1) = (   1.000000   0.000000   0.000000 )
               a(2) = (   0.000000   1.000000   0.000000 )
               a(3) = (   0.000000   0.000000   1.000000 )

     reciprocal axes: (cart. coord. in units 2 pi/alat)
               b(1) = (  1.000000  0.000000  0.000000 )
               b(2) = (  0.000000  1.000000  0.000000 )
               b(3) = (  0.000000  0.000000  1.000000 )

     PseudoPot. # 1 for Ru read from file:
     /rds/homes/b/bxp912/pp/Ru.pbe-spn-kjpaw_psl.1.0.0.UPF
     MD5 check sum: 0ae1f594dea09af7be8575c3a481d1ae
     Pseudo is Projector augmented-wave + core cor, Zval = 16.0
     Generated using "atomic" code by A. Dal Corso  v.5.1
     Shape of augmentation charge: PSQ
     Using radial grid of 1233 points,  6 beta functions with:
                l(1) =   0
                l(2) =   0
                l(3) =   1
                l(4) =   1
                l(5) =   2
                l(6) =   2
     Q(r) pseudized with 0 coefficients

     atomic species   valence    mass     pseudopotential
        Ru            16.00   101.07000     Ru( 1.00)

     48 Sym. Ops., with inversion, found

   Cartesian axes

     site n.     atom                  positions (alat units)
         1           Ru  tau(   1) = (   0.0000000   0.0000000   0.0000000  )
         2           Ru  tau(   2) = (   0.2500000   0.2500000   0.0000000  )
         3           Ru  tau(   3) = (   0.2500000   0.0000000   0.2500000  )
         4           Ru  tau(   4) = (   0.0000000   0.2500000   0.2500000  )
         5           Ru  tau(   5) = (   0.0000000   0.0000000   0.5000000  )
         6           Ru  tau(   6) = (   0.2500000   0.2500000   0.5000000  )
         7           Ru  tau(   7) = (   0.2500000   0.0000000   0.7500000  )
         8           Ru  tau(   8) = (   0.0000000   0.2500000   0.7500000  )
         9           Ru  tau(   9) = (   0.0000000   0.5000000   0.0000000  )
        10           Ru  tau(  10) = (   0.2500000   0.7500000   0.0000000  )
        11           Ru  tau(  11) = (   0.2500000   0.5000000   0.2500000  )
        12           Ru  tau(  12) = (   0.0000000   0.7500000   0.2500000  )
        13           Ru  tau(  13) = (   0.0000000   0.5000000   0.5000000  )
        14           Ru  tau(  14) = (   0.2500000   0.7500000   0.5000000  )
        15           Ru  tau(  15) = (   0.2500000   0.5000000   0.7500000  )
        16           Ru  tau(  16) = (   0.0000000   0.7500000   0.7500000  )
        17           Ru  tau(  17) = (   0.5000000   0.0000000   0.0000000  )
        18           Ru  tau(  18) = (   0.7500000   0.2500000   0.0000000  )
        19           Ru  tau(  19) = (   0.7500000   0.0000000   0.2500000  )
        20           Ru  tau(  20) = (   0.5000000   0.2500000   0.2500000  )
        21           Ru  tau(  21) = (   0.5000000   0.0000000   0.5000000  )
        22           Ru  tau(  22) = (   0.7500000   0.2500000   0.5000000  )
        23           Ru  tau(  23) = (   0.7500000   0.0000000   0.7500000  )
        24           Ru  tau(  24) = (   0.5000000   0.2500000   0.7500000  )
        25           Ru  tau(  25) = (   0.5000000   0.5000000   0.0000000  )
        26           Ru  tau(  26) = (   0.7500000   0.7500000   0.0000000  )
        27           Ru  tau(  27) = (   0.7500000   0.5000000   0.2500000  )
        28           Ru  tau(  28) = (   0.5000000   0.7500000   0.2500000  )
        29           Ru  tau(  29) = (   0.5000000   0.5000000   0.5000000  )
        30           Ru  tau(  30) = (   0.7500000   0.7500000   0.5000000  )
        31           Ru  tau(  31) = (   0.7500000   0.5000000   0.7500000  )
        32           Ru  tau(  32) = (   0.5000000   0.7500000   0.7500000  )

     number of k points=    35  Marzari-Vanderbilt smearing, width (Ry)=  0.0400
                       cart. coord. in units 2pi/alat
        k(    1) = (   0.0555556   0.0555556   0.0555556), wk =   0.0219479
        k(    2) = (   0.0555556   0.0555556   0.1666667), wk =   0.0658436
        k(    3) = (   0.0555556   0.0555556   0.2777778), wk =   0.0658436
        k(    4) = (   0.0555556   0.0555556   0.3888889), wk =   0.0658436
        k(    5) = (   0.0555556   0.0555556  -0.5000000), wk =   0.0329218
        k(    6) = (   0.0555556   0.1666667   0.1666667), wk =   0.0658436
        k(    7) = (   0.0555556   0.1666667   0.2777778), wk =   0.1316872
        k(    8) = (   0.0555556   0.1666667   0.3888889), wk =   0.1316872
        k(    9) = (   0.0555556   0.1666667  -0.5000000), wk =   0.0658436
        k(   10) = (   0.0555556   0.2777778   0.2777778), wk =   0.0658436
        k(   11) = (   0.0555556   0.2777778   0.3888889), wk =   0.1316872
        k(   12) = (   0.0555556   0.2777778  -0.5000000), wk =   0.0658436
        k(   13) = (   0.0555556   0.3888889   0.3888889), wk =   0.0658436
        k(   14) = (   0.0555556   0.3888889  -0.5000000), wk =   0.0658436
        k(   15) = (   0.0555556  -0.5000000  -0.5000000), wk =   0.0164609
        k(   16) = (   0.1666667   0.1666667   0.1666667), wk =   0.0219479
        k(   17) = (   0.1666667   0.1666667   0.2777778), wk =   0.0658436
        k(   18) = (   0.1666667   0.1666667   0.3888889), wk =   0.0658436
        k(   19) = (   0.1666667   0.1666667  -0.5000000), wk =   0.0329218
        k(   20) = (   0.1666667   0.2777778   0.2777778), wk =   0.0658436
        k(   21) = (   0.1666667   0.2777778   0.3888889), wk =   0.1316872
        k(   22) = (   0.1666667   0.2777778  -0.5000000), wk =   0.0658436
        k(   23) = (   0.1666667   0.3888889   0.3888889), wk =   0.0658436
        k(   24) = (   0.1666667   0.3888889  -0.5000000), wk =   0.0658436
        k(   25) = (   0.1666667  -0.5000000  -0.5000000), wk =   0.0164609
        k(   26) = (   0.2777778   0.2777778   0.2777778), wk =   0.0219479
        k(   27) = (   0.2777778   0.2777778   0.3888889), wk =   0.0658436
        k(   28) = (   0.2777778   0.2777778  -0.5000000), wk =   0.0329218
        k(   29) = (   0.2777778   0.3888889   0.3888889), wk =   0.0658436
        k(   30) = (   0.2777778   0.3888889  -0.5000000), wk =   0.0658436
        k(   31) = (   0.2777778  -0.5000000  -0.5000000), wk =   0.0164609
        k(   32) = (   0.3888889   0.3888889   0.3888889), wk =   0.0219479
        k(   33) = (   0.3888889   0.3888889  -0.5000000), wk =   0.0329218
        k(   34) = (   0.3888889  -0.5000000  -0.5000000), wk =   0.0164609
        k(   35) = (  -0.5000000  -0.5000000  -0.5000000), wk =   0.0027435

     Check: negative core charge=   -0.000002

     Initial potential from superposition of free atoms

     starting charge  511.97959, renormalised to  512.00000
     Starting wfcs are  320 randomized atomic wfcs
     Checking if some PAW data can be deallocated...

     Self-consistent Calculation

     iteration #  1     ecut=    71.00 Ry     beta= 0.30
     Davidson diagonalization with overlap
     ethr =  1.00E-02,  avg # of iterations =  3.3

     Threshold (ethr) on eigenvalues was too large:
     Diagonalizing with lowered threshold

     Davidson diagonalization with overlap
     ethr =  8.33E-05,  avg # of iterations =  5.4

     total energy              =  -13813.37525999 Ry
     estimated scf accuracy    <       0.63844694 Ry

[...]

     total energy              =  -13813.30074253 Ry
     estimated scf accuracy    <       0.00000002 Ry

     iteration # 12     ecut=    71.00 Ry     beta= 0.30
     Davidson diagonalization with overlap
     ethr =  3.73E-12,  avg # of iterations =  2.5

     End of self-consistent calculation

          k = 0.0556 0.0556 0.0556 ( 30146 PWs)   bands (ev):

   -49.8703 -49.7699 -49.7699 -49.7699 -49.7505 -49.7505 -49.7505 -49.7143
   -49.7143 -49.7143 -49.7049 -49.7037 -49.7037 -49.7037 -49.7037 -49.7037
   -49.7037 -49.7032 -49.7032 -49.7032 -49.6948 -49.6948 -49.6948 -49.6490
   -49.6490 -49.6490 -49.6486 -49.6486 -49.6486 -49.6486 -49.6486 -49.6486
   -20.2774 -20.2774 -20.2774 -20.2732 -20.2144 -20.2144 -20.2144 -20.0131
   -20.0131 -20.0131 -20.0016 -20.0016 -20.0016 -20.0016 -20.0016 -20.0016
   -19.9813 -19.9813 -19.9813 -19.9585 -19.9585 -19.9585 -19.9585 -19.9585
   -19.9585 -19.9076 -19.9076 -19.9076 -19.9076 -19.9076 -19.9076 -19.8079
   -19.8079 -19.8079 -19.7343 -19.7343 -19.7343 -19.7265 -19.7265 -19.7265
   -19.6926 -19.6926 -19.6926 -19.6925 -19.6925 -19.6925 -19.6522 -19.6522
   -19.6522 -19.6452 -19.6452 -19.6452 -19.6452 -19.6452 -19.6452 -19.6394
   -19.6394 -19.6394 -19.6348 -19.6348 -19.6348 -19.4715 -19.4715 -19.4715
   -19.4709 -19.4709 -19.4709 -19.4391 -19.4391 -19.4391 -19.4390 -19.4390
   -19.4390 -19.4240 -19.4240 -19.4240 -19.4116 -19.4116 -19.4116 -19.4106
   -19.4106 -19.4106 -19.4106 -19.4106 -19.4106 -19.4086 -19.4086 -19.4086
   -19.4058 -19.4058 -19.3920 -19.3920 -19.3920 -19.2786 -19.2717 -19.2717
    15.3757  16.9286  16.9286  16.9286  17.2106  17.2283  17.2283  17.2283
    17.3976  17.3976  17.3976  17.6312  17.6312  17.6312  17.8016  17.8016
    17.8016  18.3403  18.3403  18.3403  18.3403  18.3403  18.3403  18.6561
    18.6561  18.6561  18.9264  18.9264  18.9264  18.9298  18.9298  18.9298
    19.0309  19.0309  19.0309  19.0353  19.0353  19.0353  19.0353  19.0353
    19.0353  19.5253  19.5253  19.5253  19.5253  19.5253  19.5253  19.6698
    19.6698  19.6698  19.7016  19.7016  19.7016  19.7016  19.7016  19.7016
    19.7660  19.7660  19.7660  20.0305  20.0305  20.0305  20.0311  20.0311
    20.0311  20.0311  20.0311  20.0311  20.0317  20.0317  20.0317  20.0317
    20.0317  20.0317  20.2010  20.2010  20.2010  20.4855  20.4855  20.4855
    20.5217  20.5217  20.5368  20.5368  20.5368  20.6159  20.6474  20.6474
    21.6260  21.6260  21.6260  21.7973  21.7973  21.7973  21.8439  21.8439
    21.8439  21.9444  21.9444  21.9444  21.9444  21.9444  21.9444  21.9583
    21.9583  21.9583  22.2561  22.2561  22.2561  22.3764  22.3764  22.3764
    22.6257  22.6257  22.6257  22.7030  22.7030  22.7030  22.7030  22.7030
    22.7030  22.7218  22.7218  22.7218  22.7623  22.7623  22.7623  22.9522
    22.9522  22.9522  22.9522  22.9522  22.9522  23.0120  23.0120  23.1258
    23.1258  23.1258  23.7890  23.7890  23.7890  23.8349  23.8349  23.8349
    23.9495  23.9495  23.9495  24.0354  24.7709  24.7709  24.7709  24.8131
    24.8131  24.8482  24.8482  24.8482  25.1325  25.1325  25.1325  25.1564
    25.1564  25.1564  25.3195  25.3195  25.3195  25.3195  25.3195  25.3195
    25.3245  25.3245  25.3245  26.7703  26.7703  26.7703  26.9323  26.9323
    26.9323  27.3048  27.3048

[...]

          k = 0.3889-0.5000-0.5000 ( 30116 PWs)   bands (ev):

[...]

          k =-0.5000-0.5000-0.5000 ( 29992 PWs)   bands (ev):

   -49.7881 -49.7881 -49.7881 -49.7881 -49.7881 -49.7881 -49.7881 -49.7881
   -49.6762 -49.6762 -49.6762 -49.6762 -49.6762 -49.6762 -49.6762 -49.6762
   -49.6762 -49.6762 -49.6762 -49.6762 -49.6762 -49.6762 -49.6762 -49.6762
   -49.6762 -49.6762 -49.6762 -49.6762 -49.6762 -49.6762 -49.6762 -49.6762
   -20.1079 -20.1079 -20.1079 -20.1079 -20.1079 -20.1079 -20.1079 -20.1079
   -20.1079 -20.1079 -20.1079 -20.1079 -20.1079 -20.1079 -20.1079 -20.1079
   -20.1079 -20.1079 -20.1079 -20.1079 -20.1079 -20.1079 -20.1079 -20.1079
   -19.7864 -19.7864 -19.7864 -19.7864 -19.7864 -19.7864 -19.7864 -19.7864
   -19.6736 -19.6736 -19.6736 -19.6735 -19.6735 -19.6735 -19.6735 -19.6735
   -19.6735 -19.6735 -19.6735 -19.6735 -19.6735 -19.6735 -19.6735 -19.6735
   -19.6735 -19.6735 -19.6735 -19.6735 -19.6735 -19.6735 -19.6735 -19.6735
   -19.5227 -19.5227 -19.5227 -19.5227 -19.5227 -19.5227 -19.5227 -19.5227
   -19.5227 -19.5227 -19.5227 -19.5227 -19.5227 -19.5227 -19.5227 -19.5227
   -19.5227 -19.5227 -19.5227 -19.5227 -19.5227 -19.5227 -19.5227 -19.5227
   -19.3390 -19.3390 -19.3390 -19.3390 -19.3390 -19.3390 -19.3390 -19.3390
   -19.3390 -19.3390 -19.3390 -19.3390 -19.3390 -19.3390 -19.3390 -19.3390
    17.1758  17.1758  17.1758  17.1758  17.1758  17.1758  17.1758  17.1758
    18.0278  18.0278  18.0278  18.0278  18.0278  18.0278  18.0278  18.0278
    18.0278  18.0278  18.0278  18.0278  18.0278  18.0278  18.0278  18.0278
    18.0278  18.0278  18.0278  18.0278  18.0278  18.0278  18.0278  18.0278
    19.0592  19.0592  19.0592  19.0592  19.0592  19.0592  19.0592  19.0592
    19.0592  19.0592  19.0592  19.0592  19.0592  19.0592  19.0592  19.0592
    19.0592  19.0592  19.0592  19.0592  19.0592  19.0592  19.0592  19.0592
    20.3856  20.3856  20.3856  20.3856  20.3856  20.3856  20.3856  20.3856
    21.0260  21.0260  21.0260  21.0260  21.0260  21.0260  21.0260  21.0260
    21.0260  21.0260  21.0260  21.0260  21.0260  21.0260  21.0260  21.0260
    21.1367  21.1367  21.1367  21.1367  21.1367  21.1367  21.1367  21.1367
    21.1367  21.1367  21.1367  21.1367  21.1367  21.1367  21.1367  21.1367
    21.1367  21.1367  21.1367  21.1367  21.1367  21.1367  21.1367  21.1367
    22.3531  22.3531  22.3531  22.3531  22.3531  22.3531  22.3531  22.3531
    22.3531  22.3531  22.3531  22.3531  22.3531  22.3531  22.3531  22.3531
    22.3531  22.3531  22.3531  22.3531  22.3531  22.3531  22.3531  22.3531
    23.1869  23.1869  23.1869  23.1869  23.1869  23.1869  23.1869  23.1869
    23.1869  23.1869  23.1869  23.1869  23.1869  23.1869  23.1869  23.1869
    24.9888  24.9888  24.9888  24.9888  24.9888  24.9888  24.9888  24.9888
    24.9888  24.9888  24.9888  24.9888  24.9888  24.9888  24.9888  24.9888
    24.9888  24.9888  24.9888  24.9888  24.9888  24.9888  24.9888  24.9888
    28.3737  28.3737  28.3737  28.3737  28.3737  28.3737  28.3737  28.3737
    28.3737  28.3737  28.3737

     the Fermi energy is    23.1541 ev

!    total energy              =  -13813.30074255 Ry

     total all-electron energy =   -289989.691082 Ry
     estimated scf accuracy    <          1.0E-10 Ry
     smearing contrib. (-TS)   =       0.02054531 Ry
     internal energy E=F+TS    =  -13813.32128785 Ry

     The total energy is F=E-TS. E is the sum of the following terms:
     one-electron contribution =    -991.99063982 Ry
     hartree contribution      =     914.95375583 Ry
     xc contribution           =    -928.12021126 Ry
     ewald contribution        =   -5218.71995088 Ry
     one-center paw contrib.   =   -7589.44424172 Ry

     convergence has been achieved in  12 iterations

     Forces acting on atoms (cartesian axes, Ry/au):

     atom    1 type  1   force =     0.00000000    0.00000000    0.00000000
     atom    2 type  1   force =     0.00000002    0.00000002    0.00000000
     atom    3 type  1   force =     0.00000002    0.00000000    0.00000002
     atom    4 type  1   force =     0.00000000    0.00000002    0.00000002
     atom    5 type  1   force =     0.00000000    0.00000000    0.00000000
     atom    6 type  1   force =    -0.00000013   -0.00000013    0.00000000
     atom    7 type  1   force =     0.00000002    0.00000000   -0.00000002
     atom    8 type  1   force =    -0.00000000    0.00000002   -0.00000002
     atom    9 type  1   force =     0.00000000    0.00000000    0.00000000
     atom   10 type  1   force =     0.00000002   -0.00000002   -0.00000000
     atom   11 type  1   force =    -0.00000013    0.00000000   -0.00000013
     atom   12 type  1   force =     0.00000000   -0.00000002    0.00000002
     atom   13 type  1   force =     0.00000000    0.00000000    0.00000000
     atom   14 type  1   force =    -0.00000013    0.00000013    0.00000000
     atom   15 type  1   force =    -0.00000013    0.00000000    0.00000013
     atom   16 type  1   force =    -0.00000000   -0.00000002   -0.00000002
     atom   17 type  1   force =     0.00000000    0.00000000    0.00000000
     atom   18 type  1   force =    -0.00000002    0.00000002    0.00000000
     atom   19 type  1   force =    -0.00000002   -0.00000000    0.00000002
     atom   20 type  1   force =     0.00000000   -0.00000013   -0.00000013
     atom   21 type  1   force =     0.00000000    0.00000000    0.00000000
     atom   22 type  1   force =     0.00000013   -0.00000013    0.00000000
     atom   23 type  1   force =    -0.00000002   -0.00000000   -0.00000002
     atom   24 type  1   force =     0.00000000   -0.00000013    0.00000013
     atom   25 type  1   force =     0.00000000    0.00000000    0.00000000
     atom   26 type  1   force =    -0.00000002   -0.00000002    0.00000000
     atom   27 type  1   force =     0.00000013    0.00000000   -0.00000013
     atom   28 type  1   force =    -0.00000000    0.00000013   -0.00000013
     atom   29 type  1   force =     0.00000000    0.00000000    0.00000000
     atom   30 type  1   force =     0.00000013    0.00000013    0.00000000
     atom   31 type  1   force =     0.00000013    0.00000000    0.00000013
     atom   32 type  1   force =     0.00000000    0.00000013    0.00000013

     Total force =     0.000001     Total SCF correction =     0.000002
     SCF correction compared to forces is large: reduce conv_thr to get better values

     Computing stress (Cartesian axis) and pressure

          total   stress  (Ry/bohr**3)                   (kbar)     P=       -0.04
  -0.00000029   0.00000000   0.00000000           -0.04        0.00        0.00
   0.00000000  -0.00000029   0.00000000            0.00       -0.04        0.00
   0.00000000   0.00000000  -0.00000029            0.00        0.00       -0.04

     Writing output data file /scratch/bxp912/ru01.save/

     General routines

     Parallel routines

   This run was terminated on:  13: 8: 6   7Mar2022

   JOB DONE.