     Program PWSCF v.6.7MaX starts on  7Mar2022 at 13: 8:11

     R & G space division:  proc/nbgrp/npool/nimage =      72
     Reading input from ru_0001.in
Warning: card &CELL ignored
Warning: card CELL_DYNAMICS = 'BFGS', ignored
Warning: card CELL_FACTOR = 2.0, ignored
Warning: card PRESS = 0.0, ignored
Warning: card / ignored

     Current dimensions of program PWSCF are:
     Max number of different atomic species (ntypx) = 10
     Max number of k-points (npk) =  40000
     Max angular momentum in pseudopotentials (lmaxx) =  3
     file Ru.pbe-spn-kjpaw_psl.1.0.0.UPF: wavefunction(s)  4D renormalized

     Subspace diagonalization in iterative solution of the eigenvalue problem:
     one sub-group per band group will be used

     bravais-lattice index     =            0
     lattice parameter (alat)  =      14.3940  a.u.
     unit-cell volume          =    2982.2680 (a.u.)^3
     number of atoms/cell      =           32
     number of atomic types    =            1
     number of electrons       =       512.00
     number of Kohn-Sham states=          307
     kinetic-energy cutoff     =      71.0000  Ry
     charge density cutoff     =     430.0000  Ry
     scf convergence threshold =      1.0E-08
     mixing beta               =       0.3000
     number of iterations used =           10  local-TF  mixing
     Exchange-correlation= SLA  PW   PBX  PBC
                           (   1   4   3   4   0   0   0)

     celldm(1)=  14.394024  celldm(2)=   0.000000  celldm(3)=   0.000000
     celldm(4)=   0.000000  celldm(5)=   0.000000  celldm(6)=   0.000000

     crystal axes: (cart. coord. in units of alat)
               a(1) = (   1.000000   0.000000   0.000000 )
               a(2) = (   0.000000   1.000000   0.000000 )
               a(3) = (   0.000000   0.000000   1.000000 )

     reciprocal axes: (cart. coord. in units 2 pi/alat)
               b(1) = (  1.000000  0.000000  0.000000 )
               b(2) = (  0.000000  1.000000  0.000000 )
               b(3) = (  0.000000  0.000000  1.000000 )

     PseudoPot. # 1 for Ru read from file:
     /rds/homes/b/bxp912/pp/Ru.pbe-spn-kjpaw_psl.1.0.0.UPF
     MD5 check sum: 0ae1f594dea09af7be8575c3a481d1ae
     Pseudo is Projector augmented-wave + core cor, Zval = 16.0
     Generated using "atomic" code by A. Dal Corso  v.5.1
     Shape of augmentation charge: PSQ
     Using radial grid of 1233 points,  6 beta functions with:
                l(1) =   0
                l(2) =   0
                l(3) =   1
                l(4) =   1
                l(5) =   2
                l(6) =   2
     Q(r) pseudized with 0 coefficients

     atomic species   valence    mass     pseudopotential
        Ru            16.00   101.07000     Ru( 1.00)

     No symmetry found

   Cartesian axes

     site n.     atom                  positions (alat units)
         1           Ru  tau(   1) = (   0.9995690   0.0002120   0.9986110  )
         2           Ru  tau(   2) = (   0.2488990   0.2494500   0.0011170  )
         3           Ru  tau(   3) = (   0.2487630   0.9995860   0.2501310  )
         4           Ru  tau(   4) = (   0.9998380   0.2498340   0.2498070  )
         5           Ru  tau(   5) = (   0.9994460   0.9995270   0.4995660  )
         6           Ru  tau(   6) = (   0.2506040   0.2505490   0.5006570  )
         7           Ru  tau(   7) = (   0.2500750   0.9998710   0.7495720  )
         8           Ru  tau(   8) = (   0.9997850   0.2496530   0.7498790  )
         9           Ru  tau(   9) = (   0.0008510   0.4996380   0.9993080  )
        10           Ru  tau(  10) = (   0.2496800   0.7487880   0.9999520  )
        11           Ru  tau(  11) = (   0.2499360   0.4995460   0.2490350  )
        12           Ru  tau(  12) = (   0.0009340   0.7505620   0.2505620  )
        13           Ru  tau(  13) = (   0.9995710   0.4998060   0.5000040  )
        14           Ru  tau(  14) = (   0.2492080   0.7503530   0.5000000  )
        15           Ru  tau(  15) = (   0.2500340   0.4997200   0.7501820  )
        16           Ru  tau(  16) = (   0.0001310   0.7508370   0.7489490  )
        17           Ru  tau(  17) = (   0.5002970   0.0011210   0.0002720  )
        18           Ru  tau(  18) = (   0.7496580   0.2503920   0.0002970  )
        19           Ru  tau(  19) = (   0.7489450   0.0001800   0.2499370  )
        20           Ru  tau(  20) = (   0.5015520   0.2496540   0.2489610  )
        21           Ru  tau(  21) = (   0.4990770   0.0001640   0.4997450  )
        22           Ru  tau(  22) = (   0.7494640   0.2495600   0.5005490  )
        23           Ru  tau(  23) = (   0.7494840   0.0009740   0.7506420  )
        24           Ru  tau(  24) = (   0.5005440   0.2502740   0.7506410  )
        25           Ru  tau(  25) = (   0.5004990   0.4993420   0.0004000  )
        26           Ru  tau(  26) = (   0.7500430   0.7494960   0.9990300  )
        27           Ru  tau(  27) = (   0.7507300   0.5008770   0.2491800  )
        28           Ru  tau(  28) = (   0.4999550   0.7498960   0.2500660  )
        29           Ru  tau(  29) = (   0.4999670   0.5002990   0.4996850  )
        30           Ru  tau(  30) = (   0.7516850   0.7498930   0.4999060  )
        31           Ru  tau(  31) = (   0.7500810   0.5001570   0.7493120  )
        32           Ru  tau(  32) = (   0.4989820   0.7500390   0.7493100  )

     number of k points=   365  Marzari-Vanderbilt smearing, width (Ry)=  0.0400

     Number of k-points >= 100: set verbosity='high' to print them.

     Check: negative core charge=   -0.000002

     Initial potential from superposition of free atoms

     starting charge  511.97959, renormalised to  512.00000
     Starting wfcs are  320 randomized atomic wfcs
     Checking if some PAW data can be deallocated...

     Self-consistent Calculation

     iteration #  1     ecut=    71.00 Ry     beta= 0.30
     Davidson diagonalization with overlap
     ethr =  1.00E-02,  avg # of iterations =  3.4

     Threshold (ethr) on eigenvalues was too large:
     Diagonalizing with lowered threshold

     Davidson diagonalization with overlap
     ethr =  8.39E-05,  avg # of iterations =  5.8

     total energy              =  -13813.37505296 Ry
     estimated scf accuracy    <       0.64039788 Ry

[...]

     total energy              =  -13813.30000849 Ry
     estimated scf accuracy    <       0.00000003 Ry

     iteration # 11     ecut=    71.00 Ry     beta= 0.30
     Davidson diagonalization with overlap
     ethr =  4.93E-12,  avg # of iterations =  4.2

     End of self-consistent calculation

     Number of k-points >= 100: set verbosity='high' to print the bands.

     the Fermi energy is    23.1544 ev

!    total energy              =  -13813.30000851 Ry

     total all-electron energy =   -289989.690348 Ry
     estimated scf accuracy    <          9.8E-10 Ry
     smearing contrib. (-TS)   =       0.02050036 Ry
     internal energy E=F+TS    =  -13813.32050887 Ry

     The total energy is F=E-TS. E is the sum of the following terms:
     one-electron contribution =    -992.15803799 Ry
     hartree contribution      =     915.03711493 Ry
     xc contribution           =    -928.12200864 Ry
     ewald contribution        =   -5218.63327168 Ry
     one-center paw contrib.   =   -7589.44430549 Ry

     convergence has been achieved in  11 iterations

     Forces acting on atoms (cartesian axes, Ry/au):

     atom    1 type  1   force =     0.00127658   -0.00160587    0.00368585
     atom    2 type  1   force =     0.00248003    0.00084892   -0.00280421
     atom    3 type  1   force =     0.00338282    0.00137835   -0.00040012
     atom    4 type  1   force =     0.00092197    0.00083000    0.00054384
     atom    5 type  1   force =     0.00121836    0.00185926    0.00043039
     atom    6 type  1   force =    -0.00097275   -0.00167624   -0.00172463
     atom    7 type  1   force =    -0.00062375    0.00010419    0.00077761
     atom    8 type  1   force =     0.00110235    0.00147968   -0.00062280
     atom    9 type  1   force =    -0.00215919    0.00180242    0.00134181
     atom   10 type  1   force =     0.00174553    0.00419315    0.00012184
     atom   11 type  1   force =    -0.00005755    0.00105020    0.00208696
     atom   12 type  1   force =    -0.00248045   -0.00213739   -0.00294097
     atom   13 type  1   force =     0.00119524    0.00016821   -0.00084413
     atom   14 type  1   force =     0.00257336   -0.00187086   -0.00037606
     atom   15 type  1   force =     0.00031078    0.00100027   -0.00161525
     atom   16 type  1   force =    -0.00059567   -0.00239871    0.00315392
     atom   17 type  1   force =    -0.00103641   -0.00349286   -0.00130467
     atom   18 type  1   force =     0.00097936   -0.00157746   -0.00060602
     atom   19 type  1   force =     0.00253609   -0.00093515   -0.00036691
     atom   20 type  1   force =    -0.00408137    0.00133143    0.00262110
     atom   21 type  1   force =     0.00194600   -0.00105346    0.00013590
     atom   22 type  1   force =     0.00018051    0.00116200   -0.00180599
     atom   23 type  1   force =     0.00018571   -0.00256563   -0.00248824
     atom   24 type  1   force =    -0.00205082   -0.00038464   -0.00237937
     atom   25 type  1   force =    -0.00147970    0.00263839   -0.00115552
     atom   26 type  1   force =    -0.00161744    0.00062822    0.00241396
     atom   27 type  1   force =    -0.00282835   -0.00159393    0.00231836
     atom   28 type  1   force =     0.00013603    0.00018449   -0.00065532
     atom   29 type  1   force =     0.00005667   -0.00006649    0.00057466
     atom   30 type  1   force =    -0.00511842    0.00102699   -0.00029152
     atom   31 type  1   force =    -0.00027499    0.00017937    0.00091672
     atom   32 type  1   force =     0.00314947   -0.00050684    0.00125877

     Total force =     0.017661     Total SCF correction =     0.000070

     Computing stress (Cartesian axis) and pressure

          total   stress  (Ry/bohr**3)                   (kbar)     P=        0.14
   0.00000095   0.00000008  -0.00000023            0.14        0.01       -0.03
   0.00000008   0.00000091   0.00000012            0.01        0.13        0.02
  -0.00000023   0.00000012   0.00000094           -0.03        0.02        0.14

     Writing output data file /scratch/bxp912/ru01_0001.save/

     General routines

     Parallel routines

   This run was terminated on:  14:27:52   7Mar2022

   JOB DONE.