     Program PWSCF v.6.7MaX starts on  7Mar2022 at 19:46: 6

     R & G space division:  proc/nbgrp/npool/nimage =      72
     Reading input from ru_0006.in
Warning: card &CELL ignored
Warning: card CELL_DYNAMICS = 'BFGS', ignored
Warning: card CELL_FACTOR = 2.0, ignored
Warning: card PRESS = 0.0, ignored
Warning: card / ignored

     Current dimensions of program PWSCF are:
     Max number of different atomic species (ntypx) = 10
     Max number of k-points (npk) =  40000
     Max angular momentum in pseudopotentials (lmaxx) =  3
     file Ru.pbe-spn-kjpaw_psl.1.0.0.UPF: wavefunction(s)  4D renormalized

     Subspace diagonalization in iterative solution of the eigenvalue problem:
     one sub-group per band group will be used

     bravais-lattice index     =            0
     lattice parameter (alat)  =      14.3940  a.u.
     unit-cell volume          =    2982.2680 (a.u.)^3
     number of atoms/cell      =           32
     number of atomic types    =            1
     number of electrons       =       512.00
     number of Kohn-Sham states=          307
     kinetic-energy cutoff     =      71.0000  Ry
     charge density cutoff     =     430.0000  Ry
     scf convergence threshold =      1.0E-08
     mixing beta               =       0.3000
     number of iterations used =           10  local-TF  mixing
     Exchange-correlation= SLA  PW   PBX  PBC
                           (   1   4   3   4   0   0   0)

     celldm(1)=  14.394024  celldm(2)=   0.000000  celldm(3)=   0.000000
     celldm(4)=   0.000000  celldm(5)=   0.000000  celldm(6)=   0.000000

     crystal axes: (cart. coord. in units of alat)
               a(1) = (   1.000000   0.000000   0.000000 )
               a(2) = (   0.000000   1.000000   0.000000 )
               a(3) = (   0.000000   0.000000   1.000000 )

     reciprocal axes: (cart. coord. in units 2 pi/alat)
               b(1) = (  1.000000  0.000000  0.000000 )
               b(2) = (  0.000000  1.000000  0.000000 )
               b(3) = (  0.000000  0.000000  1.000000 )

     PseudoPot. # 1 for Ru read from file:
     /rds/homes/b/bxp912/pp/Ru.pbe-spn-kjpaw_psl.1.0.0.UPF
     MD5 check sum: 0ae1f594dea09af7be8575c3a481d1ae
     Pseudo is Projector augmented-wave + core cor, Zval = 16.0
     Generated using "atomic" code by A. Dal Corso  v.5.1
     Shape of augmentation charge: PSQ
     Using radial grid of 1233 points,  6 beta functions with:
                l(1) =   0
                l(2) =   0
                l(3) =   1
                l(4) =   1
                l(5) =   2
                l(6) =   2
     Q(r) pseudized with 0 coefficients

     atomic species   valence    mass     pseudopotential
        Ru            16.00   101.07000     Ru( 1.00)

     No symmetry found

   Cartesian axes

     site n.     atom                  positions (alat units)
         1           Ru  tau(   1) = (   0.9994010   0.0006840   0.0002300  )
         2           Ru  tau(   2) = (   0.2504200   0.2497590   0.9995930  )
         3           Ru  tau(   3) = (   0.2501320   0.9996320   0.2496440  )
         4           Ru  tau(   4) = (   0.0002220   0.2499000   0.2502210  )
         5           Ru  tau(   5) = (   0.0001690   0.0000740   0.4998780  )
         6           Ru  tau(   6) = (   0.2507270   0.2498280   0.4994380  )
         7           Ru  tau(   7) = (   0.2507800   0.0001520   0.7506010  )
         8           Ru  tau(   8) = (   0.9995140   0.2497930   0.7499600  )
         9           Ru  tau(   9) = (   0.9993050   0.5001910   0.0007140  )
        10           Ru  tau(  10) = (   0.2504880   0.7505390   0.9992060  )
        11           Ru  tau(  11) = (   0.2504380   0.4992770   0.2504100  )
        12           Ru  tau(  12) = (   0.9996700   0.7497300   0.2503710  )
        13           Ru  tau(  13) = (   0.0004220   0.4997670   0.5007460  )
        14           Ru  tau(  14) = (   0.2504890   0.7502160   0.4999860  )
        15           Ru  tau(  15) = (   0.2500430   0.5000980   0.7500710  )
        16           Ru  tau(  16) = (   0.9996050   0.7503400   0.7496410  )
        17           Ru  tau(  17) = (   0.5005080   0.0000120   0.0001490  )
        18           Ru  tau(  18) = (   0.7496130   0.2497280   0.9999400  )
        19           Ru  tau(  19) = (   0.7505500   0.0003210   0.2500030  )
        20           Ru  tau(  20) = (   0.5000800   0.2500200   0.2509890  )
        21           Ru  tau(  21) = (   0.4993470   0.0000270   0.4998880  )
        22           Ru  tau(  22) = (   0.7497260   0.2498200   0.5001130  )
        23           Ru  tau(  23) = (   0.7494630   0.9997560   0.7500680  )
        24           Ru  tau(  24) = (   0.4996950   0.2502130   0.7503480  )
        25           Ru  tau(  25) = (   0.5003610   0.5004420   0.9991380  )
        26           Ru  tau(  26) = (   0.7499180   0.7505590   0.0001210  )
        27           Ru  tau(  27) = (   0.7494800   0.5003920   0.2499270  )
        28           Ru  tau(  28) = (   0.5005010   0.7497600   0.2500700  )
        29           Ru  tau(  29) = (   0.5006860   0.5002230   0.5000190  )
        30           Ru  tau(  30) = (   0.7502980   0.7495050   0.4999200  )
        31           Ru  tau(  31) = (   0.7507720   0.4999070   0.7497800  )
        32           Ru  tau(  32) = (   0.5006220   0.7503010   0.7499710  )

     number of k points=   365  Marzari-Vanderbilt smearing, width (Ry)=  0.0400

     Number of k-points >= 100: set verbosity='high' to print them.

     Check: negative core charge=   -0.000002

     Initial potential from superposition of free atoms

     starting charge  511.97959, renormalised to  512.00000
     Starting wfcs are  320 randomized atomic wfcs
     Checking if some PAW data can be deallocated...

     Self-consistent Calculation

     iteration #  1     ecut=    71.00 Ry     beta= 0.30
     Davidson diagonalization with overlap
     ethr =  1.00E-02,  avg # of iterations =  3.4

     Threshold (ethr) on eigenvalues was too large:
     Diagonalizing with lowered threshold

     Davidson diagonalization with overlap
     ethr =  8.38E-05,  avg # of iterations =  5.7

     total energy              =  -13813.37535412 Ry
     estimated scf accuracy    <       0.64011348 Ry

[...]

     total energy              =  -13813.30040098 Ry
     estimated scf accuracy    <       0.00000005 Ry

     iteration # 11     ecut=    71.00 Ry     beta= 0.30
     Davidson diagonalization with overlap
     ethr =  8.98E-12,  avg # of iterations =  4.0

     End of self-consistent calculation

     Number of k-points >= 100: set verbosity='high' to print the bands.

     the Fermi energy is    23.1542 ev

!    total energy              =  -13813.30040101 Ry

     total all-electron energy =   -289989.690740 Ry
     estimated scf accuracy    <          3.2E-10 Ry
     smearing contrib. (-TS)   =       0.02052167 Ry
     internal energy E=F+TS    =  -13813.32092268 Ry

     The total energy is F=E-TS. E is the sum of the following terms:
     one-electron contribution =    -992.06867090 Ry
     hartree contribution      =     914.99301896 Ry
     xc contribution           =    -928.12107915 Ry
     ewald contribution        =   -5218.67988470 Ry
     one-center paw contrib.   =   -7589.44430688 Ry

     convergence has been achieved in  11 iterations

     Forces acting on atoms (cartesian axes, Ry/au):

     atom    1 type  1   force =     0.00186302   -0.00188107   -0.00047126
     atom    2 type  1   force =    -0.00141515    0.00155287    0.00117979
     atom    3 type  1   force =    -0.00094873    0.00099436    0.00104516
     atom    4 type  1   force =    -0.00030558    0.00065664   -0.00051215
     atom    5 type  1   force =     0.00039309    0.00005879    0.00108251
     atom    6 type  1   force =    -0.00227994    0.00062307    0.00117374
     atom    7 type  1   force =    -0.00161917   -0.00075532   -0.00118643
     atom    8 type  1   force =     0.00207790    0.00056083    0.00096019
     atom    9 type  1   force =     0.00313079   -0.00021413   -0.00165827
     atom   10 type  1   force =    -0.00164070   -0.00190941    0.00203525
     atom   11 type  1   force =    -0.00059803    0.00258553   -0.00097356
     atom   12 type  1   force =     0.00204723    0.00025328   -0.00131005
     atom   13 type  1   force =    -0.00077389    0.00089244   -0.00258339
     atom   14 type  1   force =    -0.00140024   -0.00097626   -0.00033144
     atom   15 type  1   force =    -0.00071875   -0.00055567   -0.00009903
     atom   16 type  1   force =     0.00161719   -0.00072207    0.00136695
     atom   17 type  1   force =    -0.00198287    0.00043419   -0.00026948
     atom   18 type  1   force =     0.00199873    0.00113949    0.00008359
     atom   19 type  1   force =    -0.00048534   -0.00105080    0.00051955
     atom   20 type  1   force =    -0.00049817   -0.00011976   -0.00285152
     atom   21 type  1   force =     0.00178680   -0.00016608   -0.00045625
     atom   22 type  1   force =     0.00187834    0.00077741   -0.00038952
     atom   23 type  1   force =     0.00221885    0.00112033   -0.00058014
     atom   24 type  1   force =     0.00054609   -0.00006778   -0.00046060
     atom   25 type  1   force =    -0.00134973   -0.00086877    0.00255713
     atom   26 type  1   force =     0.00140747   -0.00194426   -0.00011215
     atom   27 type  1   force =     0.00201739   -0.00147444    0.00007659
     atom   28 type  1   force =    -0.00177840    0.00079198   -0.00011513
     atom   29 type  1   force =    -0.00220857   -0.00045374    0.00042506
     atom   30 type  1   force =     0.00027865    0.00117263   -0.00009921
     atom   31 type  1   force =    -0.00100536    0.00070432    0.00117739
     atom   32 type  1   force =    -0.00225290   -0.00115860    0.00077670

     Total force =     0.012847     Total SCF correction =     0.000069

     Computing stress (Cartesian axis) and pressure

          total   stress  (Ry/bohr**3)                   (kbar)     P=        0.07
   0.00000046  -0.00000004  -0.00000015            0.07       -0.01       -0.02
  -0.00000004   0.00000044  -0.00000013           -0.01        0.07       -0.02
  -0.00000015  -0.00000013   0.00000046           -0.02       -0.02        0.07

     Writing output data file /scratch/bxp912/ru01_0006.save/

     General routines

     Parallel routines

   This run was terminated on:  21: 5: 9   7Mar2022

   JOB DONE.