     Program PWSCF v.6.7MaX starts on  7Mar2022 at 18:26:41

     R & G space division:  proc/nbgrp/npool/nimage =      72
     Reading input from ru_0005.in
Warning: card &CELL ignored
Warning: card CELL_DYNAMICS = 'BFGS', ignored
Warning: card CELL_FACTOR = 2.0, ignored
Warning: card PRESS = 0.0, ignored
Warning: card / ignored

     Current dimensions of program PWSCF are:
     Max number of different atomic species (ntypx) = 10
     Max number of k-points (npk) =  40000
     Max angular momentum in pseudopotentials (lmaxx) =  3
     file Ru.pbe-spn-kjpaw_psl.1.0.0.UPF: wavefunction(s)  4D renormalized

     Subspace diagonalization in iterative solution of the eigenvalue problem:
     one sub-group per band group will be used

     bravais-lattice index     =            0
     lattice parameter (alat)  =      14.3940  a.u.
     unit-cell volume          =    2982.2680 (a.u.)^3
     number of atoms/cell      =           32
     number of atomic types    =            1
     number of electrons       =       512.00
     number of Kohn-Sham states=          307
     kinetic-energy cutoff     =      71.0000  Ry
     charge density cutoff     =     430.0000  Ry
     scf convergence threshold =      1.0E-08
     mixing beta               =       0.3000
     number of iterations used =           10  local-TF  mixing
     Exchange-correlation= SLA  PW   PBX  PBC
                           (   1   4   3   4   0   0   0)

     celldm(1)=  14.394024  celldm(2)=   0.000000  celldm(3)=   0.000000
     celldm(4)=   0.000000  celldm(5)=   0.000000  celldm(6)=   0.000000

     crystal axes: (cart. coord. in units of alat)
               a(1) = (   1.000000   0.000000   0.000000 )
               a(2) = (   0.000000   1.000000   0.000000 )
               a(3) = (   0.000000   0.000000   1.000000 )

     reciprocal axes: (cart. coord. in units 2 pi/alat)
               b(1) = (  1.000000  0.000000  0.000000 )
               b(2) = (  0.000000  1.000000  0.000000 )
               b(3) = (  0.000000  0.000000  1.000000 )

     PseudoPot. # 1 for Ru read from file:
     /rds/homes/b/bxp912/pp/Ru.pbe-spn-kjpaw_psl.1.0.0.UPF
     MD5 check sum: 0ae1f594dea09af7be8575c3a481d1ae
     Pseudo is Projector augmented-wave + core cor, Zval = 16.0
     Generated using "atomic" code by A. Dal Corso  v.5.1
     Shape of augmentation charge: PSQ
     Using radial grid of 1233 points,  6 beta functions with:
                l(1) =   0
                l(2) =   0
                l(3) =   1
                l(4) =   1
                l(5) =   2
                l(6) =   2
     Q(r) pseudized with 0 coefficients

     atomic species   valence    mass     pseudopotential
        Ru            16.00   101.07000     Ru( 1.00)

     No symmetry found

   Cartesian axes

     site n.     atom                  positions (alat units)
         1           Ru  tau(   1) = (   0.0003170   0.9999600   0.9996700  )
         2           Ru  tau(   2) = (   0.2501030   0.2500580   0.0000900  )
         3           Ru  tau(   3) = (   0.2500890   0.0000000   0.2501400  )
         4           Ru  tau(   4) = (   0.9998420   0.2500320   0.2499280  )
         5           Ru  tau(   5) = (   0.9999900   0.9999150   0.5001610  )
         6           Ru  tau(   6) = (   0.2498520   0.2500560   0.5000260  )
         7           Ru  tau(   7) = (   0.2496880   0.9999610   0.7500780  )
         8           Ru  tau(   8) = (   0.0000330   0.2499930   0.7497440  )
         9           Ru  tau(   9) = (   0.0001180   0.4998210   0.9999210  )
        10           Ru  tau(  10) = (   0.2501020   0.7500250   0.9999870  )
        11           Ru  tau(  11) = (   0.2498720   0.5000850   0.2501300  )
        12           Ru  tau(  12) = (   0.0001140   0.7499920   0.2500810  )
        13           Ru  tau(  13) = (   0.9998270   0.4999350   0.4998350  )
        14           Ru  tau(  14) = (   0.2498680   0.7500510   0.4997680  )
        15           Ru  tau(  15) = (   0.2496640   0.4997940   0.7499420  )
        16           Ru  tau(  16) = (   0.9999480   0.7499150   0.7499500  )
        17           Ru  tau(  17) = (   0.4999710   0.0000810   0.0001340  )
        18           Ru  tau(  18) = (   0.7500700   0.2501550   0.0001300  )
        19           Ru  tau(  19) = (   0.7500410   0.9999260   0.2499400  )
        20           Ru  tau(  20) = (   0.4997490   0.2499240   0.2500140  )
        21           Ru  tau(  21) = (   0.5000400   0.0000670   0.4999390  )
        22           Ru  tau(  22) = (   0.7499770   0.2500150   0.4998880  )
        23           Ru  tau(  23) = (   0.7501280   0.9998870   0.7500440  )
        24           Ru  tau(  24) = (   0.5000500   0.2501620   0.7500070  )
        25           Ru  tau(  25) = (   0.5001140   0.4999570   0.0001080  )
        26           Ru  tau(  26) = (   0.7502850   0.7499260   0.0001030  )
        27           Ru  tau(  27) = (   0.7498970   0.5002980   0.2498780  )
        28           Ru  tau(  28) = (   0.5001120   0.7500060   0.2502570  )
        29           Ru  tau(  29) = (   0.4999120   0.4998980   0.4998850  )
        30           Ru  tau(  30) = (   0.7503450   0.7500860   0.4999730  )
        31           Ru  tau(  31) = (   0.7498850   0.4997150   0.7500490  )
        32           Ru  tau(  32) = (   0.5000570   0.7499200   0.7498850  )

     number of k points=   365  Marzari-Vanderbilt smearing, width (Ry)=  0.0400

     Number of k-points >= 100: set verbosity='high' to print them.

     Check: negative core charge=   -0.000002

     Initial potential from superposition of free atoms

     starting charge  511.97959, renormalised to  512.00000
     Starting wfcs are  320 randomized atomic wfcs
     Checking if some PAW data can be deallocated...

     Self-consistent Calculation

     iteration #  1     ecut=    71.00 Ry     beta= 0.30
     Davidson diagonalization with overlap
     ethr =  1.00E-02,  avg # of iterations =  3.4

     Threshold (ethr) on eigenvalues was too large:
     Diagonalizing with lowered threshold

     Davidson diagonalization with overlap
     ethr =  8.37E-05,  avg # of iterations =  5.8

     total energy              =  -13813.37559928 Ry
     estimated scf accuracy    <       0.63970032 Ry

[...]

     total energy              =  -13813.30070361 Ry
     estimated scf accuracy    <       0.00000004 Ry

     iteration # 11     ecut=    71.00 Ry     beta= 0.30
     Davidson diagonalization with overlap
     ethr =  7.16E-12,  avg # of iterations =  4.2

     End of self-consistent calculation

     Number of k-points >= 100: set verbosity='high' to print the bands.

     the Fermi energy is    23.1541 ev

!    total energy              =  -13813.30070363 Ry

     total all-electron energy =   -289989.691043 Ry
     estimated scf accuracy    <          5.9E-10 Ry
     smearing contrib. (-TS)   =       0.02054242 Ry
     internal energy E=F+TS    =  -13813.32124606 Ry

     The total energy is F=E-TS. E is the sum of the following terms:
     one-electron contribution =    -991.99924528 Ry
     hartree contribution      =     914.95774910 Ry
     xc contribution           =    -928.12021207 Ry
     ewald contribution        =   -5218.71528799 Ry
     one-center paw contrib.   =   -7589.44424982 Ry

     convergence has been achieved in  11 iterations

     Forces acting on atoms (cartesian axes, Ry/au):

     atom    1 type  1   force =    -0.00083205    0.00000947    0.00086917
     atom    2 type  1   force =    -0.00012951   -0.00016544   -0.00049643
     atom    3 type  1   force =    -0.00018795    0.00006713   -0.00040051
     atom    4 type  1   force =     0.00046244   -0.00025133    0.00008264
     atom    5 type  1   force =    -0.00003667    0.00004858   -0.00054949
     atom    6 type  1   force =     0.00065263   -0.00016945    0.00000237
     atom    7 type  1   force =     0.00113673   -0.00016699   -0.00016791
     atom    8 type  1   force =    -0.00024188    0.00001245    0.00075236
     atom    9 type  1   force =    -0.00031650    0.00044355    0.00012412
     atom   10 type  1   force =     0.00011767   -0.00000417   -0.00008620
     atom   11 type  1   force =     0.00044915   -0.00028898   -0.00041102
     atom   12 type  1   force =    -0.00038592    0.00009669   -0.00053836
     atom   13 type  1   force =     0.00045136    0.00013875    0.00035577
     atom   14 type  1   force =     0.00063669   -0.00006366    0.00079211
     atom   15 type  1   force =     0.00100551    0.00053503    0.00025229
     atom   16 type  1   force =     0.00029395    0.00025516    0.00032678
     atom   17 type  1   force =     0.00029103   -0.00047894   -0.00050458
     atom   18 type  1   force =    -0.00029312   -0.00052067   -0.00037317
     atom   19 type  1   force =    -0.00024085    0.00013529    0.00009248
     atom   20 type  1   force =     0.00079522    0.00020603   -0.00026409
     atom   21 type  1   force =    -0.00006729   -0.00027843    0.00025020
     atom   22 type  1   force =    -0.00014889   -0.00006064    0.00040878
     atom   23 type  1   force =    -0.00071439    0.00025767   -0.00001716
     atom   24 type  1   force =    -0.00023943   -0.00061541    0.00010770
     atom   25 type  1   force =    -0.00028244    0.00021414   -0.00047802
     atom   26 type  1   force =    -0.00090415    0.00034825   -0.00060229
     atom   27 type  1   force =     0.00005765   -0.00090327    0.00031112
     atom   28 type  1   force =    -0.00039172    0.00007363   -0.00074407
     atom   29 type  1   force =     0.00028097    0.00029234    0.00041067
     atom   30 type  1   force =    -0.00115628   -0.00015478    0.00020588
     atom   31 type  1   force =    -0.00002540    0.00069360   -0.00016675
     atom   32 type  1   force =    -0.00003656    0.00029444    0.00045557

     Total force =     0.004275     Total SCF correction =     0.000051

     Computing stress (Cartesian axis) and pressure

          total   stress  (Ry/bohr**3)                   (kbar)     P=       -0.04
  -0.00000025   0.00000001  -0.00000001           -0.04        0.00       -0.00
   0.00000001  -0.00000026  -0.00000000            0.00       -0.04       -0.00
  -0.00000001  -0.00000000  -0.00000027           -0.00       -0.00       -0.04

     Writing output data file /scratch/bxp912/ru01_0005.save/

     General routines

     Parallel routines

   This run was terminated on:  19:46: 0   7Mar2022

   JOB DONE.