     Program PWSCF v.6.7MaX starts on 30Nov2021 at  3:54:11

     R & G space division:  proc/nbgrp/npool/nimage =      72
     Reading input from sc_14.in
Warning: card &CELL ignored
Warning: card CELL_DYNAMICS = 'BFGS', ignored
Warning: card CELL_FACTOR = 2.0, ignored
Warning: card PRESS = 0.0, ignored
Warning: card / ignored

     Current dimensions of program PWSCF are:
     Max number of different atomic species (ntypx) = 10
     Max number of k-points (npk) =  40000
     Max angular momentum in pseudopotentials (lmaxx) =  3
     file Pd.pbe-spn-kjpaw_psl.1.0.0.UPF: wavefunction(s)  4S 5S 4D renormalized

     Subspace diagonalization in iterative solution of the eigenvalue problem:
     one sub-group per band group will be used

     Found symmetry operation: I + (  0.0000  0.0000  0.5000)
     This is a supercell, fractional translations are disabled
     Message from routine setup:
     using ibrav=0 with symmetry is DISCOURAGED, use correct ibrav instead

     bravais-lattice index     =            0
     lattice parameter (alat)  =       9.0720  a.u.
     unit-cell volume          =    3088.5017 (a.u.)^3
     number of atoms/cell      =            8
     number of atomic types    =            1
     number of electrons       =       144.00
     number of Kohn-Sham states=           86
     kinetic-energy cutoff     =      71.0000  Ry
     charge density cutoff     =     430.0000  Ry
     scf convergence threshold =      1.0E-06
     mixing beta               =       0.1000
     number of iterations used =           10  TF        mixing
     Exchange-correlation= SLA  PW   PBX  PBC
                           (   1   4   3   4   0   0   0)

     celldm(1)=   9.072000  celldm(2)=   0.000000  celldm(3)=   0.000000
     celldm(4)=   0.000000  celldm(5)=   0.000000  celldm(6)=   0.000000

     crystal axes: (cart. coord. in units of alat)
               a(1) = (   1.605263   0.000000   0.000000 )
               a(2) = (   0.000000   1.605263   0.000000 )
               a(3) = (   0.000000   0.000000   1.605263 )

     reciprocal axes: (cart. coord. in units 2 pi/alat)
               b(1) = (  0.622951  0.000000  0.000000 )
               b(2) = (  0.000000  0.622951  0.000000 )
               b(3) = (  0.000000  0.000000  0.622951 )

     PseudoPot. # 1 for Pd read from file:
     /rds/homes/b/bxp912/pp/Pd.pbe-spn-kjpaw_psl.1.0.0.UPF
     MD5 check sum: 790f2ebce206edfd9790dcb9844eca51
     Pseudo is Projector augmented-wave + core cor, Zval = 18.0
     Generated using &quot;atomic&quot; code by A. Dal Corso  v.6.3
     Shape of augmentation charge: PSQ
     Using radial grid of 1235 points,  6 beta functions with:
                l(1) =   0
                l(2) =   0
                l(3) =   1
                l(4) =   1
                l(5) =   2
                l(6) =   2
     Q(r) pseudized with 0 coefficients

     atomic species   valence    mass     pseudopotential
        Pd            18.00   106.42000     Pd( 1.00)

     48 Sym. Ops., with inversion, found

   Cartesian axes

     site n.     atom                  positions (alat units)
         1           Pd  tau(   1) = (   0.0000000   0.0000000   0.0000000  )
         2           Pd  tau(   2) = (   0.0000000   0.0000000   0.8026316  )
         3           Pd  tau(   3) = (   0.0000000   0.8026316   0.0000000  )
         4           Pd  tau(   4) = (   0.0000000   0.8026316   0.8026316  )
         5           Pd  tau(   5) = (   0.8026316   0.0000000   0.0000000  )
         6           Pd  tau(   6) = (   0.8026316   0.0000000   0.8026316  )
         7           Pd  tau(   7) = (   0.8026316   0.8026316   0.0000000  )
         8           Pd  tau(   8) = (   0.8026316   0.8026316   0.8026316  )

     number of k points=    35  Marzari-Vanderbilt smearing, width (Ry)=  0.0400
                       cart. coord. in units 2pi/alat
        k(    1) = (   0.0346084   0.0346084   0.0346084), wk =   0.0219479
        k(    2) = (   0.0346084   0.0346084   0.1038251), wk =   0.0658436
        k(    3) = (   0.0346084   0.0346084   0.1730419), wk =   0.0658436
        k(    4) = (   0.0346084   0.0346084   0.2422587), wk =   0.0658436
        k(    5) = (   0.0346084   0.0346084  -0.3114754), wk =   0.0329218
        k(    6) = (   0.0346084   0.1038251   0.1038251), wk =   0.0658436
        k(    7) = (   0.0346084   0.1038251   0.1730419), wk =   0.1316872
        k(    8) = (   0.0346084   0.1038251   0.2422587), wk =   0.1316872
        k(    9) = (   0.0346084   0.1038251  -0.3114754), wk =   0.0658436
        k(   10) = (   0.0346084   0.1730419   0.1730419), wk =   0.0658436
        k(   11) = (   0.0346084   0.1730419   0.2422587), wk =   0.1316872
        k(   12) = (   0.0346084   0.1730419  -0.3114754), wk =   0.0658436
        k(   13) = (   0.0346084   0.2422587   0.2422587), wk =   0.0658436
        k(   14) = (   0.0346084   0.2422587  -0.3114754), wk =   0.0658436
        k(   15) = (   0.0346084  -0.3114754  -0.3114754), wk =   0.0164609
        k(   16) = (   0.1038251   0.1038251   0.1038251), wk =   0.0219479
        k(   17) = (   0.1038251   0.1038251   0.1730419), wk =   0.0658436
        k(   18) = (   0.1038251   0.1038251   0.2422587), wk =   0.0658436
        k(   19) = (   0.1038251   0.1038251  -0.3114754), wk =   0.0329218
        k(   20) = (   0.1038251   0.1730419   0.1730419), wk =   0.0658436
        k(   21) = (   0.1038251   0.1730419   0.2422587), wk =   0.1316872
        k(   22) = (   0.1038251   0.1730419  -0.3114754), wk =   0.0658436
        k(   23) = (   0.1038251   0.2422587   0.2422587), wk =   0.0658436
        k(   24) = (   0.1038251   0.2422587  -0.3114754), wk =   0.0658436
        k(   25) = (   0.1038251  -0.3114754  -0.3114754), wk =   0.0164609
        k(   26) = (   0.1730419   0.1730419   0.1730419), wk =   0.0219479
        k(   27) = (   0.1730419   0.1730419   0.2422587), wk =   0.0658436
        k(   28) = (   0.1730419   0.1730419  -0.3114754), wk =   0.0329218
        k(   29) = (   0.1730419   0.2422587   0.2422587), wk =   0.0658436
        k(   30) = (   0.1730419   0.2422587  -0.3114754), wk =   0.0658436
        k(   31) = (   0.1730419  -0.3114754  -0.3114754), wk =   0.0164609
        k(   32) = (   0.2422587   0.2422587   0.2422587), wk =   0.0219479
        k(   33) = (   0.2422587   0.2422587  -0.3114754), wk =   0.0329218
        k(   34) = (   0.2422587  -0.3114754  -0.3114754), wk =   0.0164609
        k(   35) = (  -0.3114754  -0.3114754  -0.3114754), wk =   0.0027435

     Initial potential from superposition of free atoms

     starting charge  143.99694, renormalised to  144.00000
     Starting wfcs are   80 randomized atomic wfcs +    6 random wfcs
     Checking if some PAW data can be deallocated...

     Self-consistent Calculation

     iteration #  1     ecut=    71.00 Ry     beta= 0.10
     Davidson diagonalization with overlap
     ethr =  1.00E-02,  avg # of iterations =  4.4

     total energy              =   -4095.31541440 Ry
     estimated scf accuracy    <       5.61283085 Ry

[...]

     total energy              =   -4094.33020457 Ry
     estimated scf accuracy    <       0.00009308 Ry

     iteration # 21     ecut=    71.00 Ry     beta= 0.10
     Davidson diagonalization with overlap
     ethr =  6.27E-08,  avg # of iterations =  1.0

     End of self-consistent calculation

          k = 0.0346 0.0346 0.0346 ( 31271 PWs)   bands (ev):

   -80.8867 -80.8865 -80.8864 -80.8864 -80.8864 -80.8864 -80.8863 -80.8862
   -46.6833 -46.6833 -46.6833 -46.6831 -46.6831 -46.6831 -46.6830 -46.6830
   -46.6830 -46.6828 -46.6828 -46.6828 -46.6803 -46.6803 -46.6803 -46.6801
   -46.6801 -46.6801 -46.6800 -46.6800 -46.6800 -46.6799 -46.6799 -46.6799
     0.0517   0.4442   0.4442   0.5019   0.5019   0.5020   0.5192   0.5192
     0.5192   0.5307   0.5308   0.5308   0.5871   0.5872   0.5872   0.6063
     0.6084   0.6084   0.8836   0.8836   0.8836   0.8859   0.8860   0.8860
     0.9156   0.9156   0.9157   0.9159   0.9160   0.9160   1.0727   1.0732
     1.0732   1.0897   1.0897   1.0897   1.2331   1.2331   1.2332   1.2454
     1.2454   2.5295   2.5295   2.5295   3.8135   3.8135   3.8135   4.3350
     4.3351   4.3351   5.5079   5.5080   5.6094   5.6097

[...]

          k = 0.2423-0.3115-0.3115 ( 31156 PWs)   bands (ev):

[...]

          k =-0.3115-0.3115-0.3115 ( 31144 PWs)   bands (ev):

   -80.8866 -80.8864 -80.8864 -80.8864 -80.8864 -80.8864 -80.8864 -80.8863
   -46.6817 -46.6817 -46.6817 -46.6817 -46.6817 -46.6816 -46.6816 -46.6816
   -46.6815 -46.6815 -46.6815 -46.6815 -46.6815 -46.6815 -46.6815 -46.6814
   -46.6814 -46.6814 -46.6814 -46.6814 -46.6814 -46.6814 -46.6814 -46.6814
     0.7752   0.7752   0.7752   0.7753   0.7753   0.7753   0.7753   0.7754
     0.7785   0.7785   0.7785   0.7785   0.7785   0.7785   0.7785   0.7785
     0.7785   0.7785   0.7785   0.7785   0.7785   0.7786   0.7786   0.7786
     0.8820   0.8820   0.8820   0.8820   0.8820   0.8820   0.8820   0.8820
     0.8820   0.8820   0.8820   0.8820   0.8820   0.8820   0.8821   0.8821
     2.0343   2.0343   2.0343   2.0343   2.0344   2.0344   2.0344   2.0346
     7.9014   7.9015   7.9015   7.9016   7.9018   7.9022

     the Fermi energy is     1.3445 ev

!    total energy              =   -4094.33021850 Ry

     total all-electron energy =    -80734.543645 Ry
     estimated scf accuracy    <       0.00000090 Ry
     smearing contrib. (-TS)   =       0.21816038 Ry
     internal energy E=F+TS    =   -4094.54837888 Ry

     The total energy is F=E-TS. E is the sum of the following terms:
     one-electron contribution =   -1632.15820053 Ry
     hartree contribution      =     834.83759838 Ry
     xc contribution           =    -245.55750592 Ry
     ewald contribution        =   -1009.99816600 Ry
     one-center paw contrib.   =   -2041.67210481 Ry

     convergence has been achieved in  21 iterations

     Forces acting on atoms (cartesian axes, Ry/au):

     atom    1 type  1   force =     0.00000000    0.00000000    0.00000000
     atom    2 type  1   force =     0.00000000    0.00000000    0.00000000
     atom    3 type  1   force =     0.00000000    0.00000000    0.00000000
     atom    4 type  1   force =     0.00000000    0.00000000    0.00000000
     atom    5 type  1   force =     0.00000000    0.00000000    0.00000000
     atom    6 type  1   force =     0.00000000    0.00000000    0.00000000
     atom    7 type  1   force =     0.00000000    0.00000000    0.00000000
     atom    8 type  1   force =     0.00000000    0.00000000    0.00000000

     Total force =     0.000000     Total SCF correction =     0.000000

     Computing stress (Cartesian axis) and pressure

          total   stress  (Ry/bohr**3)                   (kbar)     P=      -54.23
  -0.00036866   0.00000000   0.00000000          -54.23        0.00        0.00
   0.00000000  -0.00036866   0.00000000            0.00      -54.23        0.00
   0.00000000   0.00000000  -0.00036866            0.00        0.00      -54.23

     Writing output data file /scratch/UxrwvpNtguqtWlDn.save/

     General routines

     Parallel routines

   This run was terminated on:   3:56:25  30Nov2021

   JOB DONE.