     Program PWSCF v.6.7MaX starts on 30Nov2021 at  3:47:40

     R & G space division:  proc/nbgrp/npool/nimage =      72
     Reading input from sc_11.in
Warning: card &CELL ignored
Warning: card CELL_DYNAMICS = 'BFGS', ignored
Warning: card CELL_FACTOR = 2.0, ignored
Warning: card PRESS = 0.0, ignored
Warning: card / ignored

     Current dimensions of program PWSCF are:
     Max number of different atomic species (ntypx) = 10
     Max number of k-points (npk) =  40000
     Max angular momentum in pseudopotentials (lmaxx) =  3
     file Pd.pbe-spn-kjpaw_psl.1.0.0.UPF: wavefunction(s)  4S 5S 4D renormalized

     Subspace diagonalization in iterative solution of the eigenvalue problem:
     one sub-group per band group will be used

     Found symmetry operation: I + (  0.0000  0.0000 -0.5000)
     This is a supercell, fractional translations are disabled
     Message from routine setup:
     using ibrav=0 with symmetry is DISCOURAGED, use correct ibrav instead

     bravais-lattice index     =            0
     lattice parameter (alat)  =       9.0720  a.u.
     unit-cell volume          =    2083.6256 (a.u.)^3
     number of atoms/cell      =            8
     number of atomic types    =            1
     number of electrons       =       144.00
     number of Kohn-Sham states=           86
     kinetic-energy cutoff     =      71.0000  Ry
     charge density cutoff     =     430.0000  Ry
     scf convergence threshold =      1.0E-06
     mixing beta               =       0.1000
     number of iterations used =           10  TF        mixing
     Exchange-correlation= SLA  PW   PBX  PBC
                           (   1   4   3   4   0   0   0)

     celldm(1)=   9.072000  celldm(2)=   0.000000  celldm(3)=   0.000000
     celldm(4)=   0.000000  celldm(5)=   0.000000  celldm(6)=   0.000000

     crystal axes: (cart. coord. in units of alat)
               a(1) = (   1.407895   0.000000   0.000000 )
               a(2) = (   0.000000   1.407895   0.000000 )
               a(3) = (   0.000000   0.000000   1.407895 )

     reciprocal axes: (cart. coord. in units 2 pi/alat)
               b(1) = (  0.710280  0.000000  0.000000 )
               b(2) = (  0.000000  0.710280  0.000000 )
               b(3) = (  0.000000  0.000000  0.710280 )

     PseudoPot. # 1 for Pd read from file:
     /rds/homes/b/bxp912/pp/Pd.pbe-spn-kjpaw_psl.1.0.0.UPF
     MD5 check sum: 790f2ebce206edfd9790dcb9844eca51
     Pseudo is Projector augmented-wave + core cor, Zval = 18.0
     Generated using &quot;atomic&quot; code by A. Dal Corso  v.6.3
     Shape of augmentation charge: PSQ
     Using radial grid of 1235 points,  6 beta functions with:
                l(1) =   0
                l(2) =   0
                l(3) =   1
                l(4) =   1
                l(5) =   2
                l(6) =   2
     Q(r) pseudized with 0 coefficients

     atomic species   valence    mass     pseudopotential
        Pd            18.00   106.42000     Pd( 1.00)

     48 Sym. Ops., with inversion, found

   Cartesian axes

     site n.     atom                  positions (alat units)
         1           Pd  tau(   1) = (   0.0000000   0.0000000   0.0000000  )
         2           Pd  tau(   2) = (   0.0000000   0.0000000   0.7039474  )
         3           Pd  tau(   3) = (   0.0000000   0.7039474   0.0000000  )
         4           Pd  tau(   4) = (   0.0000000   0.7039474   0.7039474  )
         5           Pd  tau(   5) = (   0.7039474   0.0000000   0.0000000  )
         6           Pd  tau(   6) = (   0.7039474   0.0000000   0.7039474  )
         7           Pd  tau(   7) = (   0.7039474   0.7039474   0.0000000  )
         8           Pd  tau(   8) = (   0.7039474   0.7039474   0.7039474  )

     number of k points=    35  Marzari-Vanderbilt smearing, width (Ry)=  0.0400
                       cart. coord. in units 2pi/alat
        k(    1) = (   0.0394600   0.0394600   0.0394600), wk =   0.0219479
        k(    2) = (   0.0394600   0.0394600   0.1183801), wk =   0.0658436
        k(    3) = (   0.0394600   0.0394600   0.1973001), wk =   0.0658436
        k(    4) = (   0.0394600   0.0394600   0.2762201), wk =   0.0658436
        k(    5) = (   0.0394600   0.0394600  -0.3551402), wk =   0.0329218
        k(    6) = (   0.0394600   0.1183801   0.1183801), wk =   0.0658436
        k(    7) = (   0.0394600   0.1183801   0.1973001), wk =   0.1316872
        k(    8) = (   0.0394600   0.1183801   0.2762201), wk =   0.1316872
        k(    9) = (   0.0394600   0.1183801  -0.3551402), wk =   0.0658436
        k(   10) = (   0.0394600   0.1973001   0.1973001), wk =   0.0658436
        k(   11) = (   0.0394600   0.1973001   0.2762201), wk =   0.1316872
        k(   12) = (   0.0394600   0.1973001  -0.3551402), wk =   0.0658436
        k(   13) = (   0.0394600   0.2762201   0.2762201), wk =   0.0658436
        k(   14) = (   0.0394600   0.2762201  -0.3551402), wk =   0.0658436
        k(   15) = (   0.0394600  -0.3551402  -0.3551402), wk =   0.0164609
        k(   16) = (   0.1183801   0.1183801   0.1183801), wk =   0.0219479
        k(   17) = (   0.1183801   0.1183801   0.1973001), wk =   0.0658436
        k(   18) = (   0.1183801   0.1183801   0.2762201), wk =   0.0658436
        k(   19) = (   0.1183801   0.1183801  -0.3551402), wk =   0.0329218
        k(   20) = (   0.1183801   0.1973001   0.1973001), wk =   0.0658436
        k(   21) = (   0.1183801   0.1973001   0.2762201), wk =   0.1316872
        k(   22) = (   0.1183801   0.1973001  -0.3551402), wk =   0.0658436
        k(   23) = (   0.1183801   0.2762201   0.2762201), wk =   0.0658436
        k(   24) = (   0.1183801   0.2762201  -0.3551402), wk =   0.0658436
        k(   25) = (   0.1183801  -0.3551402  -0.3551402), wk =   0.0164609
        k(   26) = (   0.1973001   0.1973001   0.1973001), wk =   0.0219479
        k(   27) = (   0.1973001   0.1973001   0.2762201), wk =   0.0658436
        k(   28) = (   0.1973001   0.1973001  -0.3551402), wk =   0.0329218
        k(   29) = (   0.1973001   0.2762201   0.2762201), wk =   0.0658436
        k(   30) = (   0.1973001   0.2762201  -0.3551402), wk =   0.0658436
        k(   31) = (   0.1973001  -0.3551402  -0.3551402), wk =   0.0164609
        k(   32) = (   0.2762201   0.2762201   0.2762201), wk =   0.0219479
        k(   33) = (   0.2762201   0.2762201  -0.3551402), wk =   0.0329218
        k(   34) = (   0.2762201  -0.3551402  -0.3551402), wk =   0.0164609
        k(   35) = (  -0.3551402  -0.3551402  -0.3551402), wk =   0.0027435

     Initial potential from superposition of free atoms

     starting charge  143.99694, renormalised to  144.00000
     Starting wfcs are   80 randomized atomic wfcs +    6 random wfcs
     Checking if some PAW data can be deallocated...

     Self-consistent Calculation

     iteration #  1     ecut=    71.00 Ry     beta= 0.10
     Davidson diagonalization with overlap
     ethr =  1.00E-02,  avg # of iterations =  4.0

     total energy              =   -4095.38649240 Ry
     estimated scf accuracy    <       4.14655277 Ry

[...]

     total energy              =   -4094.86747753 Ry
     estimated scf accuracy    <       0.00000736 Ry

     iteration # 19     ecut=    71.00 Ry     beta= 0.10
     Davidson diagonalization with overlap
     ethr =  5.11E-09,  avg # of iterations =  2.2

     End of self-consistent calculation

          k = 0.0395 0.0395 0.0395 ( 21031 PWs)   bands (ev):

   -78.4369 -78.4361 -78.4361 -78.4361 -78.4353 -78.4353 -78.4353 -78.4345
   -44.2066 -44.2066 -44.2066 -44.2053 -44.2053 -44.2053 -44.2052 -44.2051
   -44.2051 -44.2036 -44.2036 -44.2034 -44.1881 -44.1880 -44.1880 -44.1870
   -44.1870 -44.1870 -44.1869 -44.1869 -44.1868 -44.1858 -44.1858 -44.1858
     1.8869   2.6831   2.6831   2.7674   2.7674   2.7674   2.8049   2.8049
     2.8050   2.8054   2.8055   2.8055   2.9667   2.9667   2.9669   2.9675
     2.9729   2.9729   3.5511   3.5512   3.5512   3.5591   3.5591   3.5592
     3.6231   3.6232   3.6232   3.6238   3.6238   3.6239   3.9440   3.9452
     3.9452   3.9796   3.9796   3.9796   4.2403   4.2404   4.2404   4.2670
     4.2670   5.7431   5.7431   5.7431   6.5945   6.5945   6.5945   8.2480
     8.2480   8.2480   8.7529   8.7529   8.7529   9.4749

[...]

          k = 0.2762-0.3551-0.3551 ( 21056 PWs)   bands (ev):

[...]

          k =-0.3551-0.3551-0.3551 ( 21008 PWs)   bands (ev):

   -78.4357 -78.4357 -78.4357 -78.4357 -78.4357 -78.4357 -78.4357 -78.4357
   -44.1962 -44.1962 -44.1962 -44.1962 -44.1962 -44.1962 -44.1960 -44.1960
   -44.1960 -44.1960 -44.1960 -44.1960 -44.1960 -44.1960 -44.1960 -44.1960
   -44.1960 -44.1960 -44.1960 -44.1960 -44.1958 -44.1958 -44.1958 -44.1958
     3.2253   3.2253   3.2254   3.2254   3.2254   3.2254   3.2254   3.2254
     3.3086   3.3086   3.3086   3.3086   3.3086   3.3086   3.3086   3.3086
     3.3086   3.3086   3.3087   3.3087   3.3087   3.3087   3.3087   3.3087
     3.5462   3.5462   3.5462   3.5462   3.5462   3.5462   3.5462   3.5462
     3.5462   3.5462   3.5463   3.5463   3.5463   3.5463   3.5463   3.5463
     4.8005   4.8005   4.8006   4.8006   4.8006   4.8006   4.8006   4.8006
    12.2556  12.2556  12.2556  12.2556  12.2556  12.2556

     the Fermi energy is     4.1337 ev

!    total energy              =   -4094.86748184 Ry

     total all-electron energy =    -80735.080909 Ry
     estimated scf accuracy    <       0.00000012 Ry
     smearing contrib. (-TS)   =       0.18577913 Ry
     internal energy E=F+TS    =   -4095.05326097 Ry

     The total energy is F=E-TS. E is the sum of the following terms:
     one-electron contribution =   -1376.93550367 Ry
     hartree contribution      =     720.36166694 Ry
     xc contribution           =    -245.18488434 Ry
     ewald contribution        =   -1151.58669394 Ry
     one-center paw contrib.   =   -2041.70784595 Ry

     convergence has been achieved in  19 iterations

     Forces acting on atoms (cartesian axes, Ry/au):

     atom    1 type  1   force =     0.00000000    0.00000000    0.00000000
     atom    2 type  1   force =     0.00000000    0.00000000    0.00000000
     atom    3 type  1   force =     0.00000000    0.00000000    0.00000000
     atom    4 type  1   force =     0.00000000    0.00000000    0.00000000
     atom    5 type  1   force =     0.00000000    0.00000000    0.00000000
     atom    6 type  1   force =     0.00000000    0.00000000    0.00000000
     atom    7 type  1   force =     0.00000000    0.00000000    0.00000000
     atom    8 type  1   force =     0.00000000    0.00000000    0.00000000

     Total force =     0.000000     Total SCF correction =     0.000000

     Computing stress (Cartesian axis) and pressure

          total   stress  (Ry/bohr**3)                   (kbar)     P=     -120.03
  -0.00081593   0.00000000   0.00000000         -120.03        0.00        0.00
   0.00000000  -0.00081593   0.00000000            0.00     -120.03        0.00
   0.00000000   0.00000000  -0.00081593            0.00        0.00     -120.03

     Writing output data file /scratch/HQBHBAWsVAjHIaJr.save/

     General routines

     Parallel routines

   This run was terminated on:   3:49:27  30Nov2021

   JOB DONE.