     Program PWSCF v.6.7MaX starts on 30Nov2021 at  3:59:47

     R & G space division:  proc/nbgrp/npool/nimage =      72
     Reading input from sc_16.in
Warning: card &CELL ignored
Warning: card CELL_DYNAMICS = 'BFGS', ignored
Warning: card CELL_FACTOR = 2.0, ignored
Warning: card PRESS = 0.0, ignored
Warning: card / ignored

     Current dimensions of program PWSCF are:
     Max number of different atomic species (ntypx) = 10
     Max number of k-points (npk) =  40000
     Max angular momentum in pseudopotentials (lmaxx) =  3
     file Pd.pbe-spn-kjpaw_psl.1.0.0.UPF: wavefunction(s)  4S 5S 4D renormalized

     Subspace diagonalization in iterative solution of the eigenvalue problem:
     one sub-group per band group will be used

     Found symmetry operation: I + (  0.0000  0.0000  0.5000)
     This is a supercell, fractional translations are disabled
     Message from routine setup:
     using ibrav=0 with symmetry is DISCOURAGED, use correct ibrav instead

     bravais-lattice index     =            0
     lattice parameter (alat)  =       9.0720  a.u.
     unit-cell volume          =    3911.9216 (a.u.)^3
     number of atoms/cell      =            8
     number of atomic types    =            1
     number of electrons       =       144.00
     number of Kohn-Sham states=           86
     kinetic-energy cutoff     =      71.0000  Ry
     charge density cutoff     =     430.0000  Ry
     scf convergence threshold =      1.0E-06
     mixing beta               =       0.1000
     number of iterations used =           10  TF        mixing
     Exchange-correlation= SLA  PW   PBX  PBC
                           (   1   4   3   4   0   0   0)

     celldm(1)=   9.072000  celldm(2)=   0.000000  celldm(3)=   0.000000
     celldm(4)=   0.000000  celldm(5)=   0.000000  celldm(6)=   0.000000

     crystal axes: (cart. coord. in units of alat)
               a(1) = (   1.736842   0.000000   0.000000 )
               a(2) = (   0.000000   1.736842   0.000000 )
               a(3) = (   0.000000   0.000000   1.736842 )

     reciprocal axes: (cart. coord. in units 2 pi/alat)
               b(1) = (  0.575758  0.000000  0.000000 )
               b(2) = (  0.000000  0.575758  0.000000 )
               b(3) = (  0.000000  0.000000  0.575758 )

     PseudoPot. # 1 for Pd read from file:
     /rds/homes/b/bxp912/pp/Pd.pbe-spn-kjpaw_psl.1.0.0.UPF
     MD5 check sum: 790f2ebce206edfd9790dcb9844eca51
     Pseudo is Projector augmented-wave + core cor, Zval = 18.0
     Generated using &quot;atomic&quot; code by A. Dal Corso  v.6.3
     Shape of augmentation charge: PSQ
     Using radial grid of 1235 points,  6 beta functions with:
                l(1) =   0
                l(2) =   0
                l(3) =   1
                l(4) =   1
                l(5) =   2
                l(6) =   2
     Q(r) pseudized with 0 coefficients

     atomic species   valence    mass     pseudopotential
        Pd            18.00   106.42000     Pd( 1.00)

     48 Sym. Ops., with inversion, found

   Cartesian axes

     site n.     atom                  positions (alat units)
         1           Pd  tau(   1) = (   0.0000000   0.0000000   0.0000000  )
         2           Pd  tau(   2) = (   0.0000000   0.0000000   0.8684211  )
         3           Pd  tau(   3) = (   0.0000000   0.8684211   0.0000000  )
         4           Pd  tau(   4) = (   0.0000000   0.8684211   0.8684211  )
         5           Pd  tau(   5) = (   0.8684211   0.0000000   0.0000000  )
         6           Pd  tau(   6) = (   0.8684211   0.0000000   0.8684211  )
         7           Pd  tau(   7) = (   0.8684211   0.8684211   0.0000000  )
         8           Pd  tau(   8) = (   0.8684211   0.8684211   0.8684211  )

     number of k points=    35  Marzari-Vanderbilt smearing, width (Ry)=  0.0400
                       cart. coord. in units 2pi/alat
        k(    1) = (   0.0319865   0.0319865   0.0319865), wk =   0.0219479
        k(    2) = (   0.0319865   0.0319865   0.0959596), wk =   0.0658436
        k(    3) = (   0.0319865   0.0319865   0.1599327), wk =   0.0658436
        k(    4) = (   0.0319865   0.0319865   0.2239057), wk =   0.0658436
        k(    5) = (   0.0319865   0.0319865  -0.2878788), wk =   0.0329218
        k(    6) = (   0.0319865   0.0959596   0.0959596), wk =   0.0658436
        k(    7) = (   0.0319865   0.0959596   0.1599327), wk =   0.1316872
        k(    8) = (   0.0319865   0.0959596   0.2239057), wk =   0.1316872
        k(    9) = (   0.0319865   0.0959596  -0.2878788), wk =   0.0658436
        k(   10) = (   0.0319865   0.1599327   0.1599327), wk =   0.0658436
        k(   11) = (   0.0319865   0.1599327   0.2239057), wk =   0.1316872
        k(   12) = (   0.0319865   0.1599327  -0.2878788), wk =   0.0658436
        k(   13) = (   0.0319865   0.2239057   0.2239057), wk =   0.0658436
        k(   14) = (   0.0319865   0.2239057  -0.2878788), wk =   0.0658436
        k(   15) = (   0.0319865  -0.2878788  -0.2878788), wk =   0.0164609
        k(   16) = (   0.0959596   0.0959596   0.0959596), wk =   0.0219479
        k(   17) = (   0.0959596   0.0959596   0.1599327), wk =   0.0658436
        k(   18) = (   0.0959596   0.0959596   0.2239057), wk =   0.0658436
        k(   19) = (   0.0959596   0.0959596  -0.2878788), wk =   0.0329218
        k(   20) = (   0.0959596   0.1599327   0.1599327), wk =   0.0658436
        k(   21) = (   0.0959596   0.1599327   0.2239057), wk =   0.1316872
        k(   22) = (   0.0959596   0.1599327  -0.2878788), wk =   0.0658436
        k(   23) = (   0.0959596   0.2239057   0.2239057), wk =   0.0658436
        k(   24) = (   0.0959596   0.2239057  -0.2878788), wk =   0.0658436
        k(   25) = (   0.0959596  -0.2878788  -0.2878788), wk =   0.0164609
        k(   26) = (   0.1599327   0.1599327   0.1599327), wk =   0.0219479
        k(   27) = (   0.1599327   0.1599327   0.2239057), wk =   0.0658436
        k(   28) = (   0.1599327   0.1599327  -0.2878788), wk =   0.0329218
        k(   29) = (   0.1599327   0.2239057   0.2239057), wk =   0.0658436
        k(   30) = (   0.1599327   0.2239057  -0.2878788), wk =   0.0658436
        k(   31) = (   0.1599327  -0.2878788  -0.2878788), wk =   0.0164609
        k(   32) = (   0.2239057   0.2239057   0.2239057), wk =   0.0219479
        k(   33) = (   0.2239057   0.2239057  -0.2878788), wk =   0.0329218
        k(   34) = (   0.2239057  -0.2878788  -0.2878788), wk =   0.0164609
        k(   35) = (  -0.2878788  -0.2878788  -0.2878788), wk =   0.0027435

     Initial potential from superposition of free atoms

     starting charge  143.99694, renormalised to  144.00000
     Starting wfcs are   80 randomized atomic wfcs +    6 random wfcs
     Checking if some PAW data can be deallocated...

     Self-consistent Calculation

     iteration #  1     ecut=    71.00 Ry     beta= 0.10
     Davidson diagonalization with overlap
     ethr =  1.00E-02,  avg # of iterations =  4.5

     total energy              =   -4095.33158589 Ry
     estimated scf accuracy    <       5.98630382 Ry

[...]

     iteration # 20     ecut=    71.00 Ry     beta= 0.10
     Davidson diagonalization with overlap
     c_bands:  1 eigenvalues not converged
     ethr =  1.36E-05,  avg # of iterations =  2.7

[...]

     total energy              =   -4094.12388262 Ry
     estimated scf accuracy    <       0.00000219 Ry

     iteration # 30     ecut=    71.00 Ry     beta= 0.10
     Davidson diagonalization with overlap
     ethr =  1.52E-09,  avg # of iterations =  2.2

     End of self-consistent calculation

          k = 0.0320 0.0320 0.0320 ( 39454 PWs)   bands (ev):

   -81.8384 -81.8383 -81.8383 -81.8383 -81.8383 -81.8383 -81.8383 -81.8383
   -47.6528 -47.6527 -47.6527 -47.6526 -47.6526 -47.6526 -47.6526 -47.6526
   -47.6526 -47.6525 -47.6525 -47.6524 -47.6519 -47.6519 -47.6519 -47.6519
   -47.6519 -47.6519 -47.6518 -47.6518 -47.6518 -47.6517 -47.6517 -47.6517
    -0.6626  -0.4748  -0.4748  -0.4390  -0.4390  -0.4390  -0.4134  -0.4134
    -0.4134  -0.3994  -0.3994  -0.3994  -0.3798  -0.3798  -0.3798  -0.3625
    -0.3613  -0.3613  -0.1885  -0.1885  -0.1885  -0.1873  -0.1873  -0.1873
    -0.1689  -0.1689  -0.1689  -0.1687  -0.1687  -0.1687  -0.0677  -0.0674
    -0.0674  -0.0569  -0.0569  -0.0569   0.0414   0.0414   0.0414   0.0491
     0.0491   1.1577   1.1577   1.1578   2.5450   2.5451   2.5451   2.7697
     2.7697   2.7697   3.9926   4.1820   4.1833   4.1835

[...]

          k = 0.2239-0.2879-0.2879 ( 39500 PWs)   bands (ev):

[...]

          k =-0.2879-0.2879-0.2879 ( 39456 PWs)   bands (ev):

   -81.8384 -81.8383 -81.8383 -81.8383 -81.8383 -81.8383 -81.8383 -81.8383
   -47.6523 -47.6523 -47.6523 -47.6523 -47.6523 -47.6523 -47.6522 -47.6522
   -47.6522 -47.6522 -47.6522 -47.6522 -47.6522 -47.6522 -47.6522 -47.6522
   -47.6522 -47.6522 -47.6522 -47.6522 -47.6522 -47.6522 -47.6522 -47.6522
    -0.2496  -0.2496  -0.2496  -0.2496  -0.2496  -0.2496  -0.2496  -0.2496
    -0.2496  -0.2496  -0.2496  -0.2495  -0.2495  -0.2495  -0.2495  -0.2495
    -0.2423  -0.2423  -0.2423  -0.2423  -0.2423  -0.2423  -0.2423  -0.2423
    -0.1891  -0.1891  -0.1891  -0.1891  -0.1891  -0.1891  -0.1891  -0.1891
    -0.1891  -0.1891  -0.1891  -0.1891  -0.1891  -0.1891  -0.1891  -0.1891
     0.9124   0.9124   0.9124   0.9124   0.9125   0.9125   0.9125   0.9126
     6.0625   6.0626   6.0628   6.0629   6.0632   6.0638

     the Fermi energy is     0.2641 ev

!    total energy              =   -4094.12388394 Ry

     total all-electron energy =    -80734.337311 Ry
     estimated scf accuracy    <       0.00000074 Ry
     smearing contrib. (-TS)   =       0.19809093 Ry
     internal energy E=F+TS    =   -4094.32197488 Ry

     The total energy is F=E-TS. E is the sum of the following terms:
     one-electron contribution =   -1773.86851652 Ry
     hartree contribution      =     900.56259971 Ry
     xc contribution           =    -245.87816621 Ry
     ewald contribution        =    -933.48315342 Ry
     one-center paw contrib.   =   -2041.65473844 Ry

     convergence has been achieved in  30 iterations

     Forces acting on atoms (cartesian axes, Ry/au):

     atom    1 type  1   force =     0.00000000    0.00000000    0.00000000
     atom    2 type  1   force =     0.00000000    0.00000000    0.00000000
     atom    3 type  1   force =     0.00000000    0.00000000    0.00000000
     atom    4 type  1   force =     0.00000000    0.00000000    0.00000000
     atom    5 type  1   force =     0.00000000    0.00000000    0.00000000
     atom    6 type  1   force =     0.00000000    0.00000000    0.00000000
     atom    7 type  1   force =     0.00000000    0.00000000    0.00000000
     atom    8 type  1   force =     0.00000000    0.00000000    0.00000000

     Total force =     0.000000     Total SCF correction =     0.000000

     Computing stress (Cartesian axis) and pressure

          total   stress  (Ry/bohr**3)                   (kbar)     P=      -29.75
  -0.00020220   0.00000000   0.00000000          -29.75        0.00        0.00
   0.00000000  -0.00020220   0.00000000            0.00      -29.75        0.00
   0.00000000   0.00000000  -0.00020220            0.00        0.00      -29.75

     Writing output data file /scratch/uQKjYncuxNDWlpSL.save/

     General routines

     Parallel routines

   This run was terminated on:   4: 3:38  30Nov2021

   JOB DONE.