     Program PWSCF v.6.7MaX starts on 30Nov2021 at  3:51:45

     R & G space division:  proc/nbgrp/npool/nimage =      72
     Reading input from sc_13.in
Warning: card &CELL ignored
Warning: card CELL_DYNAMICS = 'BFGS', ignored
Warning: card CELL_FACTOR = 2.0, ignored
Warning: card PRESS = 0.0, ignored
Warning: card / ignored

     Current dimensions of program PWSCF are:
     Max number of different atomic species (ntypx) = 10
     Max number of k-points (npk) =  40000
     Max angular momentum in pseudopotentials (lmaxx) =  3
     file Pd.pbe-spn-kjpaw_psl.1.0.0.UPF: wavefunction(s)  4S 5S 4D renormalized

     Subspace diagonalization in iterative solution of the eigenvalue problem:
     one sub-group per band group will be used

     Found symmetry operation: I + (  0.0000  0.0000 -0.5000)
     This is a supercell, fractional translations are disabled
     Message from routine setup:
     using ibrav=0 with symmetry is DISCOURAGED, use correct ibrav instead

     bravais-lattice index     =            0
     lattice parameter (alat)  =       9.0720  a.u.
     unit-cell volume          =    2724.1181 (a.u.)^3
     number of atoms/cell      =            8
     number of atomic types    =            1
     number of electrons       =       144.00
     number of Kohn-Sham states=           86
     kinetic-energy cutoff     =      71.0000  Ry
     charge density cutoff     =     430.0000  Ry
     scf convergence threshold =      1.0E-06
     mixing beta               =       0.1000
     number of iterations used =           10  TF        mixing
     Exchange-correlation= SLA  PW   PBX  PBC
                           (   1   4   3   4   0   0   0)

     celldm(1)=   9.072000  celldm(2)=   0.000000  celldm(3)=   0.000000
     celldm(4)=   0.000000  celldm(5)=   0.000000  celldm(6)=   0.000000

     crystal axes: (cart. coord. in units of alat)
               a(1) = (   1.539474   0.000000   0.000000 )
               a(2) = (   0.000000   1.539474   0.000000 )
               a(3) = (   0.000000   0.000000   1.539474 )

     reciprocal axes: (cart. coord. in units 2 pi/alat)
               b(1) = (  0.649573  0.000000  0.000000 )
               b(2) = (  0.000000  0.649573  0.000000 )
               b(3) = (  0.000000  0.000000  0.649573 )

     PseudoPot. # 1 for Pd read from file:
     /rds/homes/b/bxp912/pp/Pd.pbe-spn-kjpaw_psl.1.0.0.UPF
     MD5 check sum: 790f2ebce206edfd9790dcb9844eca51
     Pseudo is Projector augmented-wave + core cor, Zval = 18.0
     Generated using &quot;atomic&quot; code by A. Dal Corso  v.6.3
     Shape of augmentation charge: PSQ
     Using radial grid of 1235 points,  6 beta functions with:
                l(1) =   0
                l(2) =   0
                l(3) =   1
                l(4) =   1
                l(5) =   2
                l(6) =   2
     Q(r) pseudized with 0 coefficients

     atomic species   valence    mass     pseudopotential
        Pd            18.00   106.42000     Pd( 1.00)

     48 Sym. Ops., with inversion, found

   Cartesian axes

     site n.     atom                  positions (alat units)
         1           Pd  tau(   1) = (   0.0000000   0.0000000   0.0000000  )
         2           Pd  tau(   2) = (   0.0000000   0.0000000   0.7697368  )
         3           Pd  tau(   3) = (   0.0000000   0.7697368   0.0000000  )
         4           Pd  tau(   4) = (   0.0000000   0.7697368   0.7697368  )
         5           Pd  tau(   5) = (   0.7697368   0.0000000   0.0000000  )
         6           Pd  tau(   6) = (   0.7697368   0.0000000   0.7697368  )
         7           Pd  tau(   7) = (   0.7697368   0.7697368   0.0000000  )
         8           Pd  tau(   8) = (   0.7697368   0.7697368   0.7697368  )

     number of k points=    35  Marzari-Vanderbilt smearing, width (Ry)=  0.0400
                       cart. coord. in units 2pi/alat
        k(    1) = (   0.0360874   0.0360874   0.0360874), wk =   0.0219479
        k(    2) = (   0.0360874   0.0360874   0.1082621), wk =   0.0658436
        k(    3) = (   0.0360874   0.0360874   0.1804368), wk =   0.0658436
        k(    4) = (   0.0360874   0.0360874   0.2526116), wk =   0.0658436
        k(    5) = (   0.0360874   0.0360874  -0.3247863), wk =   0.0329218
        k(    6) = (   0.0360874   0.1082621   0.1082621), wk =   0.0658436
        k(    7) = (   0.0360874   0.1082621   0.1804368), wk =   0.1316872
        k(    8) = (   0.0360874   0.1082621   0.2526116), wk =   0.1316872
        k(    9) = (   0.0360874   0.1082621  -0.3247863), wk =   0.0658436
        k(   10) = (   0.0360874   0.1804368   0.1804368), wk =   0.0658436
        k(   11) = (   0.0360874   0.1804368   0.2526116), wk =   0.1316872
        k(   12) = (   0.0360874   0.1804368  -0.3247863), wk =   0.0658436
        k(   13) = (   0.0360874   0.2526116   0.2526116), wk =   0.0658436
        k(   14) = (   0.0360874   0.2526116  -0.3247863), wk =   0.0658436
        k(   15) = (   0.0360874  -0.3247863  -0.3247863), wk =   0.0164609
        k(   16) = (   0.1082621   0.1082621   0.1082621), wk =   0.0219479
        k(   17) = (   0.1082621   0.1082621   0.1804368), wk =   0.0658436
        k(   18) = (   0.1082621   0.1082621   0.2526116), wk =   0.0658436
        k(   19) = (   0.1082621   0.1082621  -0.3247863), wk =   0.0329218
        k(   20) = (   0.1082621   0.1804368   0.1804368), wk =   0.0658436
        k(   21) = (   0.1082621   0.1804368   0.2526116), wk =   0.1316872
        k(   22) = (   0.1082621   0.1804368  -0.3247863), wk =   0.0658436
        k(   23) = (   0.1082621   0.2526116   0.2526116), wk =   0.0658436
        k(   24) = (   0.1082621   0.2526116  -0.3247863), wk =   0.0658436
        k(   25) = (   0.1082621  -0.3247863  -0.3247863), wk =   0.0164609
        k(   26) = (   0.1804368   0.1804368   0.1804368), wk =   0.0219479
        k(   27) = (   0.1804368   0.1804368   0.2526116), wk =   0.0658436
        k(   28) = (   0.1804368   0.1804368  -0.3247863), wk =   0.0329218
        k(   29) = (   0.1804368   0.2526116   0.2526116), wk =   0.0658436
        k(   30) = (   0.1804368   0.2526116  -0.3247863), wk =   0.0658436
        k(   31) = (   0.1804368  -0.3247863  -0.3247863), wk =   0.0164609
        k(   32) = (   0.2526116   0.2526116   0.2526116), wk =   0.0219479
        k(   33) = (   0.2526116   0.2526116  -0.3247863), wk =   0.0329218
        k(   34) = (   0.2526116  -0.3247863  -0.3247863), wk =   0.0164609
        k(   35) = (  -0.3247863  -0.3247863  -0.3247863), wk =   0.0027435

     Initial potential from superposition of free atoms

     starting charge  143.99694, renormalised to  144.00000
     Starting wfcs are   80 randomized atomic wfcs +    6 random wfcs
     Checking if some PAW data can be deallocated...

     Self-consistent Calculation

     iteration #  1     ecut=    71.00 Ry     beta= 0.10
     Davidson diagonalization with overlap
     ethr =  1.00E-02,  avg # of iterations =  4.1

     total energy              =   -4095.31600053 Ry
     estimated scf accuracy    <       5.30548613 Ry

[...]

     total energy              =   -4094.47602461 Ry
     estimated scf accuracy    <       0.00000793 Ry

     iteration # 20     ecut=    71.00 Ry     beta= 0.10
     Davidson diagonalization with overlap
     ethr =  5.34E-09,  avg # of iterations =  2.0

     End of self-consistent calculation

          k = 0.0361 0.0361 0.0361 ( 27528 PWs)   bands (ev):

   -80.2440 -80.2438 -80.2438 -80.2438 -80.2437 -80.2436 -80.2436 -80.2434
   -46.0310 -46.0310 -46.0310 -46.0307 -46.0307 -46.0307 -46.0306 -46.0306
   -46.0306 -46.0303 -46.0303 -46.0303 -46.0255 -46.0254 -46.0254 -46.0253
   -46.0253 -46.0253 -46.0253 -46.0253 -46.0253 -46.0249 -46.0249 -46.0249
     0.5347   1.0470   1.0470   1.1208   1.1208   1.1208   1.1282   1.1282
     1.1282   1.1413   1.1413   1.1414   1.2249   1.2249   1.2249   1.2424
     1.2454   1.2454   1.5956   1.5956   1.5956   1.5991   1.5991   1.5991
     1.6371   1.6371   1.6371   1.6375   1.6375   1.6375   1.8348   1.8355
     1.8355   1.8563   1.8563   1.8563   2.0299   2.0299   2.0300   2.0456
     2.0456   3.4264   3.4264   3.4264   4.5198   4.5198   4.5198   5.4691
     5.4691   5.4691   6.3882   6.5775   6.5786   6.5791

[...]

          k = 0.2526-0.3248-0.3248 ( 27544 PWs)   bands (ev):

[...]

          k =-0.3248-0.3248-0.3248 ( 27736 PWs)   bands (ev):

   -80.2438 -80.2438 -80.2438 -80.2438 -80.2437 -80.2436 -80.2436 -80.2436
   -46.0281 -46.0281 -46.0281 -46.0281 -46.0281 -46.0281 -46.0281 -46.0281
   -46.0281 -46.0281 -46.0281 -46.0281 -46.0281 -46.0281 -46.0281 -46.0280
   -46.0280 -46.0280 -46.0280 -46.0280 -46.0280 -46.0280 -46.0280 -46.0280
     1.4401   1.4401   1.4401   1.4402   1.4402   1.4402   1.4402   1.4402
     1.4566   1.4566   1.4567   1.4567   1.4567   1.4567   1.4567   1.4567
     1.4567   1.4567   1.4567   1.4567   1.4567   1.4567   1.4567   1.4567
     1.5931   1.5931   1.5931   1.5931   1.5931   1.5931   1.5931   1.5931
     1.5931   1.5931   1.5931   1.5931   1.5931   1.5931   1.5931   1.5931
     2.7728   2.7728   2.7728   2.7728   2.7728   2.7728   2.7728   2.7728
     9.0890   9.0890   9.0890   9.0890   9.0890   9.0891

     the Fermi energy is     2.0743 ev

!    total energy              =   -4094.47602863 Ry

     total all-electron energy =    -80734.689455 Ry
     estimated scf accuracy    <       0.00000067 Ry
     smearing contrib. (-TS)   =       0.22432065 Ry
     internal energy E=F+TS    =   -4094.70034928 Ry

     The total energy is F=E-TS. E is the sum of the following terms:
     one-electron contribution =   -1553.28186465 Ry
     hartree contribution      =     798.81994875 Ry
     xc contribution           =    -245.39594236 Ry
     ewald contribution        =   -1053.16048078 Ry
     one-center paw contrib.   =   -2041.68201023 Ry

     convergence has been achieved in  20 iterations

     Forces acting on atoms (cartesian axes, Ry/au):

     atom    1 type  1   force =     0.00000000    0.00000000    0.00000000
     atom    2 type  1   force =     0.00000000    0.00000000    0.00000000
     atom    3 type  1   force =     0.00000000    0.00000000    0.00000000
     atom    4 type  1   force =     0.00000000    0.00000000    0.00000000
     atom    5 type  1   force =     0.00000000    0.00000000    0.00000000
     atom    6 type  1   force =     0.00000000    0.00000000    0.00000000
     atom    7 type  1   force =     0.00000000    0.00000000    0.00000000
     atom    8 type  1   force =     0.00000000    0.00000000    0.00000000

     Total force =     0.000000     Total SCF correction =     0.000000

     Computing stress (Cartesian axis) and pressure

          total   stress  (Ry/bohr**3)                   (kbar)     P=      -73.56
  -0.00050003   0.00000000   0.00000000          -73.56        0.00        0.00
   0.00000000  -0.00050003   0.00000000            0.00      -73.56        0.00
   0.00000000   0.00000000  -0.00050003            0.00        0.00      -73.56

     Writing output data file /scratch/ipZGglXFDLaRydBy.save/

     General routines

     Parallel routines

   This run was terminated on:   3:54: 6  30Nov2021

   JOB DONE.