     Program PWSCF v.6.7MaX starts on 30Nov2021 at  3:49:32

     R & G space division:  proc/nbgrp/npool/nimage =      72
     Reading input from sc_12.in
Warning: card &CELL ignored
Warning: card CELL_DYNAMICS = 'BFGS', ignored
Warning: card CELL_FACTOR = 2.0, ignored
Warning: card PRESS = 0.0, ignored
Warning: card / ignored

     Current dimensions of program PWSCF are:
     Max number of different atomic species (ntypx) = 10
     Max number of k-points (npk) =  40000
     Max angular momentum in pseudopotentials (lmaxx) =  3
     file Pd.pbe-spn-kjpaw_psl.1.0.0.UPF: wavefunction(s)  4S 5S 4D renormalized

     Subspace diagonalization in iterative solution of the eigenvalue problem:
     one sub-group per band group will be used

     Found symmetry operation: I + (  0.0000  0.0000 -0.5000)
     This is a supercell, fractional translations are disabled
     Message from routine setup:
     using ibrav=0 with symmetry is DISCOURAGED, use correct ibrav instead

     bravais-lattice index     =            0
     lattice parameter (alat)  =       9.0720  a.u.
     unit-cell volume          =    2389.5846 (a.u.)^3
     number of atoms/cell      =            8
     number of atomic types    =            1
     number of electrons       =       144.00
     number of Kohn-Sham states=           86
     kinetic-energy cutoff     =      71.0000  Ry
     charge density cutoff     =     430.0000  Ry
     scf convergence threshold =      1.0E-06
     mixing beta               =       0.1000
     number of iterations used =           10  TF        mixing
     Exchange-correlation= SLA  PW   PBX  PBC
                           (   1   4   3   4   0   0   0)

     celldm(1)=   9.072000  celldm(2)=   0.000000  celldm(3)=   0.000000
     celldm(4)=   0.000000  celldm(5)=   0.000000  celldm(6)=   0.000000

     crystal axes: (cart. coord. in units of alat)
               a(1) = (   1.473684   0.000000   0.000000 )
               a(2) = (   0.000000   1.473684   0.000000 )
               a(3) = (   0.000000   0.000000   1.473684 )

     reciprocal axes: (cart. coord. in units 2 pi/alat)
               b(1) = (  0.678571  0.000000  0.000000 )
               b(2) = (  0.000000  0.678571  0.000000 )
               b(3) = (  0.000000  0.000000  0.678571 )

     PseudoPot. # 1 for Pd read from file:
     /rds/homes/b/bxp912/pp/Pd.pbe-spn-kjpaw_psl.1.0.0.UPF
     MD5 check sum: 790f2ebce206edfd9790dcb9844eca51
     Pseudo is Projector augmented-wave + core cor, Zval = 18.0
     Generated using &quot;atomic&quot; code by A. Dal Corso  v.6.3
     Shape of augmentation charge: PSQ
     Using radial grid of 1235 points,  6 beta functions with:
                l(1) =   0
                l(2) =   0
                l(3) =   1
                l(4) =   1
                l(5) =   2
                l(6) =   2
     Q(r) pseudized with 0 coefficients

     atomic species   valence    mass     pseudopotential
        Pd            18.00   106.42000     Pd( 1.00)

     48 Sym. Ops., with inversion, found

   Cartesian axes

     site n.     atom                  positions (alat units)
         1           Pd  tau(   1) = (   0.0000000   0.0000000   0.0000000  )
         2           Pd  tau(   2) = (   0.0000000   0.0000000   0.7368421  )
         3           Pd  tau(   3) = (   0.0000000   0.7368421   0.0000000  )
         4           Pd  tau(   4) = (   0.0000000   0.7368421   0.7368421  )
         5           Pd  tau(   5) = (   0.7368421   0.0000000   0.0000000  )
         6           Pd  tau(   6) = (   0.7368421   0.0000000   0.7368421  )
         7           Pd  tau(   7) = (   0.7368421   0.7368421   0.0000000  )
         8           Pd  tau(   8) = (   0.7368421   0.7368421   0.7368421  )

     number of k points=    35  Marzari-Vanderbilt smearing, width (Ry)=  0.0400
                       cart. coord. in units 2pi/alat
        k(    1) = (   0.0376984   0.0376984   0.0376984), wk =   0.0219479
        k(    2) = (   0.0376984   0.0376984   0.1130952), wk =   0.0658436
        k(    3) = (   0.0376984   0.0376984   0.1884921), wk =   0.0658436
        k(    4) = (   0.0376984   0.0376984   0.2638889), wk =   0.0658436
        k(    5) = (   0.0376984   0.0376984  -0.3392857), wk =   0.0329218
        k(    6) = (   0.0376984   0.1130952   0.1130952), wk =   0.0658436
        k(    7) = (   0.0376984   0.1130952   0.1884921), wk =   0.1316872
        k(    8) = (   0.0376984   0.1130952   0.2638889), wk =   0.1316872
        k(    9) = (   0.0376984   0.1130952  -0.3392857), wk =   0.0658436
        k(   10) = (   0.0376984   0.1884921   0.1884921), wk =   0.0658436
        k(   11) = (   0.0376984   0.1884921   0.2638889), wk =   0.1316872
        k(   12) = (   0.0376984   0.1884921  -0.3392857), wk =   0.0658436
        k(   13) = (   0.0376984   0.2638889   0.2638889), wk =   0.0658436
        k(   14) = (   0.0376984   0.2638889  -0.3392857), wk =   0.0658436
        k(   15) = (   0.0376984  -0.3392857  -0.3392857), wk =   0.0164609
        k(   16) = (   0.1130952   0.1130952   0.1130952), wk =   0.0219479
        k(   17) = (   0.1130952   0.1130952   0.1884921), wk =   0.0658436
        k(   18) = (   0.1130952   0.1130952   0.2638889), wk =   0.0658436
        k(   19) = (   0.1130952   0.1130952  -0.3392857), wk =   0.0329218
        k(   20) = (   0.1130952   0.1884921   0.1884921), wk =   0.0658436
        k(   21) = (   0.1130952   0.1884921   0.2638889), wk =   0.1316872
        k(   22) = (   0.1130952   0.1884921  -0.3392857), wk =   0.0658436
        k(   23) = (   0.1130952   0.2638889   0.2638889), wk =   0.0658436
        k(   24) = (   0.1130952   0.2638889  -0.3392857), wk =   0.0658436
        k(   25) = (   0.1130952  -0.3392857  -0.3392857), wk =   0.0164609
        k(   26) = (   0.1884921   0.1884921   0.1884921), wk =   0.0219479
        k(   27) = (   0.1884921   0.1884921   0.2638889), wk =   0.0658436
        k(   28) = (   0.1884921   0.1884921  -0.3392857), wk =   0.0329218
        k(   29) = (   0.1884921   0.2638889   0.2638889), wk =   0.0658436
        k(   30) = (   0.1884921   0.2638889  -0.3392857), wk =   0.0658436
        k(   31) = (   0.1884921  -0.3392857  -0.3392857), wk =   0.0164609
        k(   32) = (   0.2638889   0.2638889   0.2638889), wk =   0.0219479
        k(   33) = (   0.2638889   0.2638889  -0.3392857), wk =   0.0329218
        k(   34) = (   0.2638889  -0.3392857  -0.3392857), wk =   0.0164609
        k(   35) = (  -0.3392857  -0.3392857  -0.3392857), wk =   0.0027435

     Initial potential from superposition of free atoms

     starting charge  143.99694, renormalised to  144.00000
     Starting wfcs are   80 randomized atomic wfcs +    6 random wfcs
     Checking if some PAW data can be deallocated...

     Self-consistent Calculation

     iteration #  1     ecut=    71.00 Ry     beta= 0.10
     Davidson diagonalization with overlap
     ethr =  1.00E-02,  avg # of iterations =  3.8

     total energy              =   -4095.33183391 Ry
     estimated scf accuracy    <       4.87130885 Ry

[...]

     total energy              =   -4094.65527835 Ry
     estimated scf accuracy    <       0.00000333 Ry

     iteration # 20     ecut=    71.00 Ry     beta= 0.10
     Davidson diagonalization with overlap
     ethr =  2.32E-09,  avg # of iterations =  2.0

     End of self-consistent calculation

          k = 0.0377 0.0377 0.0377 ( 24069 PWs)   bands (ev):

   -79.4448 -79.4444 -79.4444 -79.4444 -79.4440 -79.4440 -79.4440 -79.4436
   -45.2222 -45.2222 -45.2222 -45.2218 -45.2218 -45.2218 -45.2216 -45.2216
   -45.2215 -45.2210 -45.2209 -45.2209 -45.2121 -45.2120 -45.2120 -45.2115
   -45.2115 -45.2115 -45.2113 -45.2113 -45.2113 -45.2107 -45.2107 -45.2107
     1.1351   1.7805   1.7805   1.8658   1.8658   1.8658   1.8752   1.8752
     1.8754   1.8862   1.8864   1.8864   2.0039   2.0041   2.0041   2.0165
     2.0206   2.0206   2.4690   2.4690   2.4691   2.4741   2.4743   2.4743
     2.5232   2.5232   2.5233   2.5237   2.5238   2.5238   2.7738   2.7747
     2.7747   2.8014   2.8014   2.8014   3.0128   3.0128   3.0130   3.0330
     3.0330   4.4962   4.4963   4.4963   5.4137   5.4138   5.4138   6.7736
     6.7737   6.7737   7.4542   7.4542   7.4543   7.8272

[...]

          k = 0.2639-0.3393-0.3393 ( 24200 PWs)   bands (ev):

[...]

          k =-0.3393-0.3393-0.3393 ( 24248 PWs)   bands (ev):

   -79.4442 -79.4442 -79.4442 -79.4442 -79.4442 -79.4442 -79.4442 -79.4442
   -45.2169 -45.2169 -45.2169 -45.2169 -45.2168 -45.2168 -45.2166 -45.2166
   -45.2166 -45.2166 -45.2166 -45.2166 -45.2165 -45.2165 -45.2165 -45.2165
   -45.2165 -45.2165 -45.2165 -45.2165 -45.2165 -45.2165 -45.2165 -45.2165
     2.2444   2.2444   2.2444   2.2444   2.2444   2.2444   2.2446   2.2446
     2.2851   2.2851   2.2851   2.2851   2.2851   2.2851   2.2852   2.2852
     2.2852   2.2852   2.2853   2.2853   2.2853   2.2853   2.2853   2.2853
     2.4652   2.4652   2.4652   2.4652   2.4652   2.4652   2.4652   2.4652
     2.4652   2.4652   2.4652   2.4652   2.4654   2.4654   2.4654   2.4654
     3.6779   3.6779   3.6779   3.6779   3.6779   3.6779   3.6779   3.6779
    10.5196  10.5196  10.5196  10.5196  10.5196  10.5197

     the Fermi energy is     2.9848 ev

!    total energy              =   -4094.65528295 Ry

     total all-electron energy =    -80734.868710 Ry
     estimated scf accuracy    <       0.00000035 Ry
     smearing contrib. (-TS)   =       0.21657123 Ry
     internal energy E=F+TS    =   -4094.87185418 Ry

     The total energy is F=E-TS. E is the sum of the following terms:
     one-electron contribution =   -1468.45604280 Ry
     hartree contribution      =     760.72500021 Ry
     xc contribution           =    -245.27000734 Ry
     ewald contribution        =   -1100.17657367 Ry
     one-center paw contrib.   =   -2041.69423058 Ry

     convergence has been achieved in  20 iterations

     Forces acting on atoms (cartesian axes, Ry/au):

     atom    1 type  1   force =     0.00000000    0.00000000    0.00000000
     atom    2 type  1   force =     0.00000000    0.00000000    0.00000000
     atom    3 type  1   force =     0.00000000    0.00000000    0.00000000
     atom    4 type  1   force =     0.00000000    0.00000000    0.00000000
     atom    5 type  1   force =     0.00000000    0.00000000    0.00000000
     atom    6 type  1   force =     0.00000000    0.00000000    0.00000000
     atom    7 type  1   force =     0.00000000    0.00000000    0.00000000
     atom    8 type  1   force =     0.00000000    0.00000000    0.00000000

     Total force =     0.000000     Total SCF correction =     0.000000

     Computing stress (Cartesian axis) and pressure

          total   stress  (Ry/bohr**3)                   (kbar)     P=      -94.96
  -0.00064556   0.00000000   0.00000000          -94.96        0.00        0.00
   0.00000000  -0.00064556   0.00000000            0.00      -94.96        0.00
   0.00000000   0.00000000  -0.00064556            0.00        0.00      -94.96

     Writing output data file /scratch/uFXRitgYZVULFfrn.save/

     General routines

     Parallel routines

   This run was terminated on:   3:51:40  30Nov2021

   JOB DONE.