     Program PWSCF v.6.7MaX starts on 30Nov2021 at  3:46: 3

     R & G space division:  proc/nbgrp/npool/nimage =      72
     Reading input from sc_10.in
Warning: card &CELL ignored
Warning: card CELL_DYNAMICS = 'BFGS', ignored
Warning: card CELL_FACTOR = 2.0, ignored
Warning: card PRESS = 0.0, ignored
Warning: card / ignored

     Current dimensions of program PWSCF are:
     Max number of different atomic species (ntypx) = 10
     Max number of k-points (npk) =  40000
     Max angular momentum in pseudopotentials (lmaxx) =  3
     file Pd.pbe-spn-kjpaw_psl.1.0.0.UPF: wavefunction(s)  4S 5S 4D renormalized

     Subspace diagonalization in iterative solution of the eigenvalue problem:
     one sub-group per band group will be used

     Found symmetry operation: I + (  0.0000  0.0000 -0.5000)
     This is a supercell, fractional translations are disabled
     Message from routine setup:
     using ibrav=0 with symmetry is DISCOURAGED, use correct ibrav instead

     bravais-lattice index     =            0
     lattice parameter (alat)  =       9.0720  a.u.
     unit-cell volume          =    1804.9653 (a.u.)^3
     number of atoms/cell      =            8
     number of atomic types    =            1
     number of electrons       =       144.00
     number of Kohn-Sham states=           86
     kinetic-energy cutoff     =      71.0000  Ry
     charge density cutoff     =     430.0000  Ry
     scf convergence threshold =      1.0E-06
     mixing beta               =       0.1000
     number of iterations used =           10  TF        mixing
     Exchange-correlation= SLA  PW   PBX  PBC
                           (   1   4   3   4   0   0   0)

     celldm(1)=   9.072000  celldm(2)=   0.000000  celldm(3)=   0.000000
     celldm(4)=   0.000000  celldm(5)=   0.000000  celldm(6)=   0.000000

     crystal axes: (cart. coord. in units of alat)
               a(1) = (   1.342105   0.000000   0.000000 )
               a(2) = (   0.000000   1.342105   0.000000 )
               a(3) = (   0.000000   0.000000   1.342105 )

     reciprocal axes: (cart. coord. in units 2 pi/alat)
               b(1) = (  0.745098  0.000000  0.000000 )
               b(2) = (  0.000000  0.745098  0.000000 )
               b(3) = (  0.000000  0.000000  0.745098 )

     PseudoPot. # 1 for Pd read from file:
     /rds/homes/b/bxp912/pp/Pd.pbe-spn-kjpaw_psl.1.0.0.UPF
     MD5 check sum: 790f2ebce206edfd9790dcb9844eca51
     Pseudo is Projector augmented-wave + core cor, Zval = 18.0
     Generated using &quot;atomic&quot; code by A. Dal Corso  v.6.3
     Shape of augmentation charge: PSQ
     Using radial grid of 1235 points,  6 beta functions with:
                l(1) =   0
                l(2) =   0
                l(3) =   1
                l(4) =   1
                l(5) =   2
                l(6) =   2
     Q(r) pseudized with 0 coefficients

     atomic species   valence    mass     pseudopotential
        Pd            18.00   106.42000     Pd( 1.00)

     48 Sym. Ops., with inversion, found

   Cartesian axes

     site n.     atom                  positions (alat units)
         1           Pd  tau(   1) = (   0.0000000   0.0000000   0.0000000  )
         2           Pd  tau(   2) = (   0.0000000   0.0000000   0.6710526  )
         3           Pd  tau(   3) = (   0.0000000   0.6710526   0.0000000  )
         4           Pd  tau(   4) = (   0.0000000   0.6710526   0.6710526  )
         5           Pd  tau(   5) = (   0.6710526   0.0000000   0.0000000  )
         6           Pd  tau(   6) = (   0.6710526   0.0000000   0.6710526  )
         7           Pd  tau(   7) = (   0.6710526   0.6710526   0.0000000  )
         8           Pd  tau(   8) = (   0.6710526   0.6710526   0.6710526  )

     number of k points=    35  Marzari-Vanderbilt smearing, width (Ry)=  0.0400
                       cart. coord. in units 2pi/alat
        k(    1) = (   0.0413943   0.0413943   0.0413943), wk =   0.0219479
        k(    2) = (   0.0413943   0.0413943   0.1241830), wk =   0.0658436
        k(    3) = (   0.0413943   0.0413943   0.2069717), wk =   0.0658436
        k(    4) = (   0.0413943   0.0413943   0.2897603), wk =   0.0658436
        k(    5) = (   0.0413943   0.0413943  -0.3725490), wk =   0.0329218
        k(    6) = (   0.0413943   0.1241830   0.1241830), wk =   0.0658436
        k(    7) = (   0.0413943   0.1241830   0.2069717), wk =   0.1316872
        k(    8) = (   0.0413943   0.1241830   0.2897603), wk =   0.1316872
        k(    9) = (   0.0413943   0.1241830  -0.3725490), wk =   0.0658436
        k(   10) = (   0.0413943   0.2069717   0.2069717), wk =   0.0658436
        k(   11) = (   0.0413943   0.2069717   0.2897603), wk =   0.1316872
        k(   12) = (   0.0413943   0.2069717  -0.3725490), wk =   0.0658436
        k(   13) = (   0.0413943   0.2897603   0.2897603), wk =   0.0658436
        k(   14) = (   0.0413943   0.2897603  -0.3725490), wk =   0.0658436
        k(   15) = (   0.0413943  -0.3725490  -0.3725490), wk =   0.0164609
        k(   16) = (   0.1241830   0.1241830   0.1241830), wk =   0.0219479
        k(   17) = (   0.1241830   0.1241830   0.2069717), wk =   0.0658436
        k(   18) = (   0.1241830   0.1241830   0.2897603), wk =   0.0658436
        k(   19) = (   0.1241830   0.1241830  -0.3725490), wk =   0.0329218
        k(   20) = (   0.1241830   0.2069717   0.2069717), wk =   0.0658436
        k(   21) = (   0.1241830   0.2069717   0.2897603), wk =   0.1316872
        k(   22) = (   0.1241830   0.2069717  -0.3725490), wk =   0.0658436
        k(   23) = (   0.1241830   0.2897603   0.2897603), wk =   0.0658436
        k(   24) = (   0.1241830   0.2897603  -0.3725490), wk =   0.0658436
        k(   25) = (   0.1241830  -0.3725490  -0.3725490), wk =   0.0164609
        k(   26) = (   0.2069717   0.2069717   0.2069717), wk =   0.0219479
        k(   27) = (   0.2069717   0.2069717   0.2897603), wk =   0.0658436
        k(   28) = (   0.2069717   0.2069717  -0.3725490), wk =   0.0329218
        k(   29) = (   0.2069717   0.2897603   0.2897603), wk =   0.0658436
        k(   30) = (   0.2069717   0.2897603  -0.3725490), wk =   0.0658436
        k(   31) = (   0.2069717  -0.3725490  -0.3725490), wk =   0.0164609
        k(   32) = (   0.2897603   0.2897603   0.2897603), wk =   0.0219479
        k(   33) = (   0.2897603   0.2897603  -0.3725490), wk =   0.0329218
        k(   34) = (   0.2897603  -0.3725490  -0.3725490), wk =   0.0164609
        k(   35) = (  -0.3725490  -0.3725490  -0.3725490), wk =   0.0027435

     Check: negative core charge=   -0.000001

     Initial potential from superposition of free atoms

     starting charge  143.99694, renormalised to  144.00000
     Starting wfcs are   80 randomized atomic wfcs +    6 random wfcs
     Checking if some PAW data can be deallocated...

     Self-consistent Calculation

     iteration #  1     ecut=    71.00 Ry     beta= 0.10
     Davidson diagonalization with overlap
     ethr =  1.00E-02,  avg # of iterations =  3.6

     total energy              =   -4095.50400872 Ry
     estimated scf accuracy    <       3.09706199 Ry

[...]

     total energy              =   -4095.10704558 Ry
     estimated scf accuracy    <       0.00000277 Ry

     iteration # 15     ecut=    71.00 Ry     beta= 0.10
     Davidson diagonalization with overlap
     ethr =  1.92E-09,  avg # of iterations =  2.0

     End of self-consistent calculation

          k = 0.0414 0.0414 0.0414 ( 18202 PWs)   bands (ev):

   -77.1713 -77.1696 -77.1696 -77.1696 -77.1678 -77.1678 -77.1678 -77.1661
   -42.9372 -42.9372 -42.9372 -42.9343 -42.9343 -42.9343 -42.9343 -42.9343
   -42.9343 -42.9316 -42.9316 -42.9316 -42.9032 -42.9032 -42.9031 -42.9005
   -42.9005 -42.9005 -42.9005 -42.9004 -42.9004 -42.8978 -42.8978 -42.8978
     2.8332   3.7922   3.7922   3.8656   3.8656   3.8656   3.9401   3.9401
     3.9401   3.9514   3.9514   3.9514   4.1320   4.1395   4.1395   4.1566
     4.1566   4.1566   4.8902   4.8902   4.8902   4.9027   4.9027   4.9027
     4.9871   4.9871   4.9871   4.9880   4.9880   4.9880   5.4014   5.4030
     5.4030   5.4479   5.4479   5.4479   5.7755   5.7755   5.7755   5.8109
     5.8109   7.1547   7.1547   7.1547   8.2011   8.2011   8.2011   9.9399
     9.9399   9.9399  10.3478  10.3478  10.3478  11.6285

[...]

          k = 0.2898-0.3725-0.3725 ( 18176 PWs)   bands (ev):

[...]

          k =-0.3725-0.3725-0.3725 ( 18048 PWs)   bands (ev):

   -77.1688 -77.1687 -77.1687 -77.1687 -77.1686 -77.1686 -77.1686 -77.1686
   -42.9175 -42.9175 -42.9175 -42.9175 -42.9174 -42.9174 -42.9174 -42.9174
   -42.9174 -42.9173 -42.9173 -42.9173 -42.9173 -42.9173 -42.9173 -42.9173
   -42.9172 -42.9172 -42.9172 -42.9172 -42.9172 -42.9172 -42.9171 -42.9171
     4.4192   4.4193   4.4193   4.4193   4.4193   4.4193   4.4193   4.4193
     4.5720   4.5720   4.5720   4.5720   4.5720   4.5721   4.5721   4.5721
     4.5721   4.5721   4.5721   4.5721   4.5721   4.5721   4.5721   4.5721
     4.8844   4.8844   4.8844   4.8844   4.8844   4.8844   4.8844   4.8844
     4.8844   4.8844   4.8844   4.8844   4.8844   4.8844   4.8844   4.8844
     6.2044   6.2044   6.2044   6.2044   6.2044   6.2044   6.2044   6.2044
    14.3781  14.3781  14.3781  14.3781  14.3781  14.3781

     the Fermi energy is     5.5748 ev

!    total energy              =   -4095.10705122 Ry

     total all-electron energy =    -80735.320478 Ry
     estimated scf accuracy    <       0.00000009 Ry
     smearing contrib. (-TS)   =       0.14176241 Ry
     internal energy E=F+TS    =   -4095.24881363 Ry

     The total energy is F=E-TS. E is the sum of the following terms:
     one-electron contribution =   -1277.98690785 Ry
     hartree contribution      =     677.66535249 Ry
     xc contribution           =    -245.16653614 Ry
     ewald contribution        =   -1208.03702207 Ry
     one-center paw contrib.   =   -2041.72370006 Ry

     convergence has been achieved in  15 iterations

     Forces acting on atoms (cartesian axes, Ry/au):

     atom    1 type  1   force =     0.00000000    0.00000000    0.00000000
     atom    2 type  1   force =     0.00000000    0.00000000    0.00000000
     atom    3 type  1   force =     0.00000000    0.00000000    0.00000000
     atom    4 type  1   force =     0.00000000    0.00000000    0.00000000
     atom    5 type  1   force =     0.00000000    0.00000000    0.00000000
     atom    6 type  1   force =     0.00000000    0.00000000    0.00000000
     atom    7 type  1   force =     0.00000000    0.00000000    0.00000000
     atom    8 type  1   force =     0.00000000    0.00000000    0.00000000

     Total force =     0.000000     Total SCF correction =     0.000000

     Computing stress (Cartesian axis) and pressure

          total   stress  (Ry/bohr**3)                   (kbar)     P=     -145.98
  -0.00099237   0.00000000   0.00000000         -145.98        0.00        0.00
   0.00000000  -0.00099237   0.00000000            0.00     -145.98        0.00
   0.00000000   0.00000000  -0.00099237            0.00        0.00     -145.98

     Writing output data file /scratch/xscxmtQVFSTzaaGE.save/

     General routines

     Parallel routines

   This run was terminated on:   3:47:35  30Nov2021

   JOB DONE.