     Program PWSCF v.6.7MaX starts on 30Nov2021 at  3:37:55

     R & G space division:  proc/nbgrp/npool/nimage =      72
     Reading input from sc_1.in
Warning: card &CELL ignored
Warning: card CELL_DYNAMICS = 'BFGS', ignored
Warning: card CELL_FACTOR = 2.0, ignored
Warning: card PRESS = 0.0, ignored
Warning: card / ignored

     Current dimensions of program PWSCF are:
     Max number of different atomic species (ntypx) = 10
     Max number of k-points (npk) =  40000
     Max angular momentum in pseudopotentials (lmaxx) =  3
     file Pd.pbe-spn-kjpaw_psl.1.0.0.UPF: wavefunction(s)  4S 5S 4D renormalized

     Subspace diagonalization in iterative solution of the eigenvalue problem:
     one sub-group per band group will be used

     Found symmetry operation: I + (  0.0000  0.0000 -0.5000)
     This is a supercell, fractional translations are disabled
     Message from routine setup:
     using ibrav=0 with symmetry is DISCOURAGED, use correct ibrav instead

     bravais-lattice index     =            0
     lattice parameter (alat)  =       9.0720  a.u.
     unit-cell volume          =     314.9872 (a.u.)^3
     number of atoms/cell      =            8
     number of atomic types    =            1
     number of electrons       =       144.00
     number of Kohn-Sham states=           86
     kinetic-energy cutoff     =      71.0000  Ry
     charge density cutoff     =     430.0000  Ry
     scf convergence threshold =      1.0E-06
     mixing beta               =       0.1000
     number of iterations used =           10  TF        mixing
     Exchange-correlation= SLA  PW   PBX  PBC
                           (   1   4   3   4   0   0   0)

     celldm(1)=   9.072000  celldm(2)=   0.000000  celldm(3)=   0.000000
     celldm(4)=   0.000000  celldm(5)=   0.000000  celldm(6)=   0.000000

     crystal axes: (cart. coord. in units of alat)
               a(1) = (   0.750000   0.000000   0.000000 )
               a(2) = (   0.000000   0.750000   0.000000 )
               a(3) = (   0.000000   0.000000   0.750000 )

     reciprocal axes: (cart. coord. in units 2 pi/alat)
               b(1) = (  1.333333  0.000000  0.000000 )
               b(2) = (  0.000000  1.333333  0.000000 )
               b(3) = (  0.000000  0.000000  1.333333 )

     PseudoPot. # 1 for Pd read from file:
     /rds/homes/b/bxp912/pp/Pd.pbe-spn-kjpaw_psl.1.0.0.UPF
     MD5 check sum: 790f2ebce206edfd9790dcb9844eca51
     Pseudo is Projector augmented-wave + core cor, Zval = 18.0
     Generated using &quot;atomic&quot; code by A. Dal Corso  v.6.3
     Shape of augmentation charge: PSQ
     Using radial grid of 1235 points,  6 beta functions with:
                l(1) =   0
                l(2) =   0
                l(3) =   1
                l(4) =   1
                l(5) =   2
                l(6) =   2
     Q(r) pseudized with 0 coefficients

     atomic species   valence    mass     pseudopotential
        Pd            18.00   106.42000     Pd( 1.00)

     48 Sym. Ops., with inversion, found

   Cartesian axes

     site n.     atom                  positions (alat units)
         1           Pd  tau(   1) = (   0.0000000   0.0000000   0.0000000  )
         2           Pd  tau(   2) = (   0.0000000   0.0000000   0.3750000  )
         3           Pd  tau(   3) = (   0.0000000   0.3750000   0.0000000  )
         4           Pd  tau(   4) = (   0.0000000   0.3750000   0.3750000  )
         5           Pd  tau(   5) = (   0.3750000   0.0000000   0.0000000  )
         6           Pd  tau(   6) = (   0.3750000   0.0000000   0.3750000  )
         7           Pd  tau(   7) = (   0.3750000   0.3750000   0.0000000  )
         8           Pd  tau(   8) = (   0.3750000   0.3750000   0.3750000  )

     number of k points=    35  Marzari-Vanderbilt smearing, width (Ry)=  0.0400
                       cart. coord. in units 2pi/alat
        k(    1) = (   0.0740741   0.0740741   0.0740741), wk =   0.0219479
        k(    2) = (   0.0740741   0.0740741   0.2222222), wk =   0.0658436
        k(    3) = (   0.0740741   0.0740741   0.3703704), wk =   0.0658436
        k(    4) = (   0.0740741   0.0740741   0.5185185), wk =   0.0658436
        k(    5) = (   0.0740741   0.0740741  -0.6666667), wk =   0.0329218
        k(    6) = (   0.0740741   0.2222222   0.2222222), wk =   0.0658436
        k(    7) = (   0.0740741   0.2222222   0.3703704), wk =   0.1316872
        k(    8) = (   0.0740741   0.2222222   0.5185185), wk =   0.1316872
        k(    9) = (   0.0740741   0.2222222  -0.6666667), wk =   0.0658436
        k(   10) = (   0.0740741   0.3703704   0.3703704), wk =   0.0658436
        k(   11) = (   0.0740741   0.3703704   0.5185185), wk =   0.1316872
        k(   12) = (   0.0740741   0.3703704  -0.6666667), wk =   0.0658436
        k(   13) = (   0.0740741   0.5185185   0.5185185), wk =   0.0658436
        k(   14) = (   0.0740741   0.5185185  -0.6666667), wk =   0.0658436
        k(   15) = (   0.0740741  -0.6666667  -0.6666667), wk =   0.0164609
        k(   16) = (   0.2222222   0.2222222   0.2222222), wk =   0.0219479
        k(   17) = (   0.2222222   0.2222222   0.3703704), wk =   0.0658436
        k(   18) = (   0.2222222   0.2222222   0.5185185), wk =   0.0658436
        k(   19) = (   0.2222222   0.2222222  -0.6666667), wk =   0.0329218
        k(   20) = (   0.2222222   0.3703704   0.3703704), wk =   0.0658436
        k(   21) = (   0.2222222   0.3703704   0.5185185), wk =   0.1316872
        k(   22) = (   0.2222222   0.3703704  -0.6666667), wk =   0.0658436
        k(   23) = (   0.2222222   0.5185185   0.5185185), wk =   0.0658436
        k(   24) = (   0.2222222   0.5185185  -0.6666667), wk =   0.0658436
        k(   25) = (   0.2222222  -0.6666667  -0.6666667), wk =   0.0164609
        k(   26) = (   0.3703704   0.3703704   0.3703704), wk =   0.0219479
        k(   27) = (   0.3703704   0.3703704   0.5185185), wk =   0.0658436
        k(   28) = (   0.3703704   0.3703704  -0.6666667), wk =   0.0329218
        k(   29) = (   0.3703704   0.5185185   0.5185185), wk =   0.0658436
        k(   30) = (   0.3703704   0.5185185  -0.6666667), wk =   0.0658436
        k(   31) = (   0.3703704  -0.6666667  -0.6666667), wk =   0.0164609
        k(   32) = (   0.5185185   0.5185185   0.5185185), wk =   0.0219479
        k(   33) = (   0.5185185   0.5185185  -0.6666667), wk =   0.0329218
        k(   34) = (   0.5185185  -0.6666667  -0.6666667), wk =   0.0164609
        k(   35) = (  -0.6666667  -0.6666667  -0.6666667), wk =   0.0027435

     Check: negative core charge=   -0.000001

     Initial potential from superposition of free atoms

     starting charge  143.99694, renormalised to  144.00000
     Starting wfcs are   80 randomized atomic wfcs +    6 random wfcs
     Checking if some PAW data can be deallocated...

     Self-consistent Calculation

     iteration #  1     ecut=    71.00 Ry     beta= 0.10
     Davidson diagonalization with overlap
     ethr =  1.00E-02,  avg # of iterations =  5.6

     Threshold (ethr) on eigenvalues was too large:
     Diagonalizing with lowered threshold

     Davidson diagonalization with overlap
     ethr =  3.85E-04,  avg # of iterations =  2.0

     total energy              =   -4078.86562979 Ry
     estimated scf accuracy    <       0.49835189 Ry

[...]

     total energy              =   -4078.68289144 Ry
     estimated scf accuracy    <       0.00001823 Ry

     iteration # 10     ecut=    71.00 Ry     beta= 0.10
     Davidson diagonalization with overlap
     ethr =  1.27E-08,  avg # of iterations =  2.0

     End of self-consistent calculation

          k = 0.0741 0.0741 0.0741 (  3170 PWs)   bands (ev):

   -32.5645 -30.5157 -30.5157 -30.5157 -28.5211 -28.5211 -28.5211 -26.5593
    -1.6396  -1.6396  -1.6396  -0.0164  -0.0164  -0.0164  -0.0159  -0.0159
    -0.0158   1.4136   1.4136   1.4166   7.5363   7.5365   7.5365   8.5788
     8.5788   8.5788   8.5823   8.5824   8.5824   9.5477   9.5477   9.5477
    37.5213  37.5213  37.5213  40.8451  40.8451  41.3505  41.4439  41.4439
    43.1302  43.1302  43.1302  46.2940  48.4006  48.4006  48.4006  49.1144
    49.1144  49.1144  52.2629  52.2630  52.2630  52.7164  52.7164  52.7164
    54.6117  54.6117  54.6117  54.6318  54.6318  54.6318  58.2656  58.2656
    58.2656  62.1101  62.1686  62.1686  63.0628  63.2326  63.2326  63.2326
    67.9644  67.9644  67.9645  69.1810  69.1810  70.0763  70.0763  70.0763
    70.9294  70.9294  70.9294  76.1596  76.1596  78.2925

[...]

          k = 0.5185-0.6667-0.6667 (  3160 PWs)   bands (ev):

[...]

          k =-0.6667-0.6667-0.6667 (  3184 PWs)   bands (ev):

   -29.7328 -29.7327 -29.7327 -29.7327 -29.7326 -29.7326 -29.7326 -29.7326
     3.8019   3.8019   3.8019   3.8019   3.8019   3.8021   3.8021   3.8021
     3.8021   3.8021   3.8021   3.8022   3.8022   3.8022   3.8023   3.8023
     3.8464   3.8465   3.8465   3.8465   3.8466   3.8466   3.8466   3.8468
    46.3924  46.3924  46.3924  46.3924  46.3924  46.3924  46.3924  46.3924
    49.9825  49.9825  49.9825  49.9825  49.9825  49.9825  49.9825  49.9825
    49.9825  49.9825  49.9826  49.9826  49.9826  49.9826  49.9826  49.9826
    53.4827  53.4827  53.4828  53.4828  53.4828  53.4829  53.4829  53.4829
    53.4829  53.4829  53.4829  53.4830  53.4830  53.4830  53.4830  53.4830
    65.2545  65.2545  65.2545  65.2545  65.2545  65.2545  65.2545  65.2545
    81.9144  81.9144  81.9144  81.9145  81.9145  81.9145

     the Fermi energy is    62.2948 ev

!    total energy              =   -4078.68289750 Ry

     total all-electron energy =    -80718.896324 Ry
     estimated scf accuracy    <       0.00000050 Ry
     smearing contrib. (-TS)   =       0.00000728 Ry
     internal energy E=F+TS    =   -4078.68290478 Ry

     The total energy is F=E-TS. E is the sum of the following terms:
     one-electron contribution =     182.18238894 Ry
     hartree contribution      =     206.53242418 Ry
     xc contribution           =    -263.14267264 Ry
     ewald contribution        =   -2161.75046056 Ry
     one-center paw contrib.   =   -2042.50458470 Ry

     convergence has been achieved in  10 iterations

     Forces acting on atoms (cartesian axes, Ry/au):

     atom    1 type  1   force =     0.00000000    0.00000000    0.00000000
     atom    2 type  1   force =     0.00000000    0.00000000    0.00000000
     atom    3 type  1   force =     0.00000000    0.00000000    0.00000000
     atom    4 type  1   force =     0.00000000    0.00000000    0.00000000
     atom    5 type  1   force =     0.00000000    0.00000000    0.00000000
     atom    6 type  1   force =     0.00000000    0.00000000    0.00000000
     atom    7 type  1   force =     0.00000000    0.00000000    0.00000000
     atom    8 type  1   force =     0.00000000    0.00000000    0.00000000

     Total force =     0.000000     Total SCF correction =     0.000000

     Computing stress (Cartesian axis) and pressure

          total   stress  (Ry/bohr**3)                   (kbar)     P=    22779.97
   0.15485508   0.00000000   0.00000000        22779.97        0.00        0.00
   0.00000000   0.15485508   0.00000000            0.00    22779.97        0.00
   0.00000000   0.00000000   0.15485508            0.00        0.00    22779.97

     Writing output data file /scratch/AQLDDtmRkkZtTRRQ.save/

     General routines

     Parallel routines

   This run was terminated on:   3:38:31  30Nov2021

   JOB DONE.