     Program PWSCF v.6.7MaX starts on 30Nov2021 at  4: 3:43

     R & G space division:  proc/nbgrp/npool/nimage =      72
     Reading input from sc_17.in
Warning: card &CELL ignored
Warning: card CELL_DYNAMICS = 'BFGS', ignored
Warning: card CELL_FACTOR = 2.0, ignored
Warning: card PRESS = 0.0, ignored
Warning: card / ignored

     Current dimensions of program PWSCF are:
     Max number of different atomic species (ntypx) = 10
     Max number of k-points (npk) =  40000
     Max angular momentum in pseudopotentials (lmaxx) =  3
     file Pd.pbe-spn-kjpaw_psl.1.0.0.UPF: wavefunction(s)  4S 5S 4D renormalized

     Subspace diagonalization in iterative solution of the eigenvalue problem:
     one sub-group per band group will be used

     Found symmetry operation: I + (  0.0000  0.0000  0.5000)
     This is a supercell, fractional translations are disabled
     Message from routine setup:
     using ibrav=0 with symmetry is DISCOURAGED, use correct ibrav instead

     bravais-lattice index     =            0
     lattice parameter (alat)  =       9.0720  a.u.
     unit-cell volume          =    4373.5092 (a.u.)^3
     number of atoms/cell      =            8
     number of atomic types    =            1
     number of electrons       =       144.00
     number of Kohn-Sham states=           86
     kinetic-energy cutoff     =      71.0000  Ry
     charge density cutoff     =     430.0000  Ry
     scf convergence threshold =      1.0E-06
     mixing beta               =       0.1000
     number of iterations used =           10  TF        mixing
     Exchange-correlation= SLA  PW   PBX  PBC
                           (   1   4   3   4   0   0   0)

     celldm(1)=   9.072000  celldm(2)=   0.000000  celldm(3)=   0.000000
     celldm(4)=   0.000000  celldm(5)=   0.000000  celldm(6)=   0.000000

     crystal axes: (cart. coord. in units of alat)
               a(1) = (   1.802632   0.000000   0.000000 )
               a(2) = (   0.000000   1.802632   0.000000 )
               a(3) = (   0.000000   0.000000   1.802632 )

     reciprocal axes: (cart. coord. in units 2 pi/alat)
               b(1) = (  0.554745  0.000000  0.000000 )
               b(2) = (  0.000000  0.554745  0.000000 )
               b(3) = (  0.000000  0.000000  0.554745 )

     PseudoPot. # 1 for Pd read from file:
     /rds/homes/b/bxp912/pp/Pd.pbe-spn-kjpaw_psl.1.0.0.UPF
     MD5 check sum: 790f2ebce206edfd9790dcb9844eca51
     Pseudo is Projector augmented-wave + core cor, Zval = 18.0
     Generated using &quot;atomic&quot; code by A. Dal Corso  v.6.3
     Shape of augmentation charge: PSQ
     Using radial grid of 1235 points,  6 beta functions with:
                l(1) =   0
                l(2) =   0
                l(3) =   1
                l(4) =   1
                l(5) =   2
                l(6) =   2
     Q(r) pseudized with 0 coefficients

     atomic species   valence    mass     pseudopotential
        Pd            18.00   106.42000     Pd( 1.00)

     48 Sym. Ops., with inversion, found

   Cartesian axes

     site n.     atom                  positions (alat units)
         1           Pd  tau(   1) = (   0.0000000   0.0000000   0.0000000  )
         2           Pd  tau(   2) = (   0.0000000   0.0000000   0.9013158  )
         3           Pd  tau(   3) = (   0.0000000   0.9013158   0.0000000  )
         4           Pd  tau(   4) = (   0.0000000   0.9013158   0.9013158  )
         5           Pd  tau(   5) = (   0.9013158   0.0000000   0.0000000  )
         6           Pd  tau(   6) = (   0.9013158   0.0000000   0.9013158  )
         7           Pd  tau(   7) = (   0.9013158   0.9013158   0.0000000  )
         8           Pd  tau(   8) = (   0.9013158   0.9013158   0.9013158  )

     number of k points=    35  Marzari-Vanderbilt smearing, width (Ry)=  0.0400
                       cart. coord. in units 2pi/alat
        k(    1) = (   0.0308191   0.0308191   0.0308191), wk =   0.0219479
        k(    2) = (   0.0308191   0.0308191   0.0924574), wk =   0.0658436
        k(    3) = (   0.0308191   0.0308191   0.1540957), wk =   0.0658436
        k(    4) = (   0.0308191   0.0308191   0.2157340), wk =   0.0658436
        k(    5) = (   0.0308191   0.0308191  -0.2773723), wk =   0.0329218
        k(    6) = (   0.0308191   0.0924574   0.0924574), wk =   0.0658436
        k(    7) = (   0.0308191   0.0924574   0.1540957), wk =   0.1316872
        k(    8) = (   0.0308191   0.0924574   0.2157340), wk =   0.1316872
        k(    9) = (   0.0308191   0.0924574  -0.2773723), wk =   0.0658436
        k(   10) = (   0.0308191   0.1540957   0.1540957), wk =   0.0658436
        k(   11) = (   0.0308191   0.1540957   0.2157340), wk =   0.1316872
        k(   12) = (   0.0308191   0.1540957  -0.2773723), wk =   0.0658436
        k(   13) = (   0.0308191   0.2157340   0.2157340), wk =   0.0658436
        k(   14) = (   0.0308191   0.2157340  -0.2773723), wk =   0.0658436
        k(   15) = (   0.0308191  -0.2773723  -0.2773723), wk =   0.0164609
        k(   16) = (   0.0924574   0.0924574   0.0924574), wk =   0.0219479
        k(   17) = (   0.0924574   0.0924574   0.1540957), wk =   0.0658436
        k(   18) = (   0.0924574   0.0924574   0.2157340), wk =   0.0658436
        k(   19) = (   0.0924574   0.0924574  -0.2773723), wk =   0.0329218
        k(   20) = (   0.0924574   0.1540957   0.1540957), wk =   0.0658436
        k(   21) = (   0.0924574   0.1540957   0.2157340), wk =   0.1316872
        k(   22) = (   0.0924574   0.1540957  -0.2773723), wk =   0.0658436
        k(   23) = (   0.0924574   0.2157340   0.2157340), wk =   0.0658436
        k(   24) = (   0.0924574   0.2157340  -0.2773723), wk =   0.0658436
        k(   25) = (   0.0924574  -0.2773723  -0.2773723), wk =   0.0164609
        k(   26) = (   0.1540957   0.1540957   0.1540957), wk =   0.0219479
        k(   27) = (   0.1540957   0.1540957   0.2157340), wk =   0.0658436
        k(   28) = (   0.1540957   0.1540957  -0.2773723), wk =   0.0329218
        k(   29) = (   0.1540957   0.2157340   0.2157340), wk =   0.0658436
        k(   30) = (   0.1540957   0.2157340  -0.2773723), wk =   0.0658436
        k(   31) = (   0.1540957  -0.2773723  -0.2773723), wk =   0.0164609
        k(   32) = (   0.2157340   0.2157340   0.2157340), wk =   0.0219479
        k(   33) = (   0.2157340   0.2157340  -0.2773723), wk =   0.0329218
        k(   34) = (   0.2157340  -0.2773723  -0.2773723), wk =   0.0164609
        k(   35) = (  -0.2773723  -0.2773723  -0.2773723), wk =   0.0027435

     Initial potential from superposition of free atoms

     starting charge  143.99694, renormalised to  144.00000
     Starting wfcs are   80 randomized atomic wfcs +    6 random wfcs
     Checking if some PAW data can be deallocated...

     Self-consistent Calculation

     iteration #  1     ecut=    71.00 Ry     beta= 0.10
     Davidson diagonalization with overlap
     ethr =  1.00E-02,  avg # of iterations =  5.1

     total energy              =   -4095.34100142 Ry
     estimated scf accuracy    <       6.09108811 Ry

[...]

     iteration # 22     ecut=    71.00 Ry     beta= 0.10
     Davidson diagonalization with overlap
     c_bands:  1 eigenvalues not converged
     c_bands:  1 eigenvalues not converged
     ethr =  2.06E-06,  avg # of iterations =  2.7

[...]

     iteration # 28     ecut=    71.00 Ry     beta= 0.10
     Davidson diagonalization with overlap
     ethr =  9.47E-10,  avg # of iterations =  2.6

     total energy              =   -4094.05333355 Ry
     estimated scf accuracy    <       0.00000187 Ry

     iteration # 29     ecut=    71.00 Ry     beta= 0.10
     Davidson diagonalization with overlap
     c_bands:  1 eigenvalues not converged
     ethr =  9.47E-10,  avg # of iterations =  2.5

     End of self-consistent calculation

          k = 0.0308 0.0308 0.0308 ( 44062 PWs)   bands (ev):

   -82.1993 -82.1992 -82.1992 -82.1992 -82.1992 -82.1992 -82.1992 -82.1991
   -48.0211 -48.0210 -48.0210 -48.0210 -48.0210 -48.0210 -48.0210 -48.0209
   -48.0209 -48.0209 -48.0208 -48.0208 -48.0204 -48.0204 -48.0204 -48.0204
   -48.0204 -48.0204 -48.0203 -48.0203 -48.0203 -48.0202 -48.0202 -48.0202
    -0.9294  -0.8311  -0.8311  -0.8028  -0.8028  -0.8028  -0.7766  -0.7766
    -0.7766  -0.7600  -0.7600  -0.7599  -0.7529  -0.7529  -0.7528  -0.7374
    -0.7365  -0.7365  -0.5988  -0.5988  -0.5988  -0.5980  -0.5980  -0.5979
    -0.5833  -0.5833  -0.5833  -0.5832  -0.5832  -0.5831  -0.5016  -0.5013
    -0.5013  -0.4929  -0.4929  -0.4929  -0.4115  -0.4114  -0.4114  -0.4053
    -0.4053   0.6335   0.6336   0.6336   1.8469   1.8469   1.8469   2.3753
     2.3753   2.3753   3.0873   3.6275   3.6438   3.6443

[...]

          k = 0.2157-0.2774-0.2774 ( 44212 PWs)   bands (ev):

[...]

          k =-0.2774-0.2774-0.2774 ( 44216 PWs)   bands (ev):

   -82.1993 -82.1992 -82.1992 -82.1992 -82.1992 -82.1992 -82.1992 -82.1991
   -48.0208 -48.0208 -48.0208 -48.0208 -48.0208 -48.0208 -48.0208 -48.0208
   -48.0208 -48.0207 -48.0207 -48.0207 -48.0207 -48.0207 -48.0207 -48.0207
   -48.0207 -48.0206 -48.0206 -48.0206 -48.0206 -48.0206 -48.0206 -48.0205
    -0.6456  -0.6456  -0.6456  -0.6456  -0.6456  -0.6456  -0.6456  -0.6456
    -0.6455  -0.6455  -0.6455  -0.6455  -0.6455  -0.6455  -0.6455  -0.6455
    -0.6372  -0.6372  -0.6371  -0.6371  -0.6371  -0.6371  -0.6371  -0.6371
    -0.5992  -0.5992  -0.5991  -0.5991  -0.5991  -0.5991  -0.5991  -0.5991
    -0.5991  -0.5991  -0.5991  -0.5991  -0.5991  -0.5991  -0.5991  -0.5991
     0.4790   0.4791   0.4791   0.4791   0.4792   0.4792   0.4792   0.4793
     5.3442   5.3456   5.3462   5.3462   5.3464   5.3464

     the Fermi energy is    -0.1445 ev

!    total energy              =   -4094.05333540 Ry

     total all-electron energy =    -80734.266762 Ry
     estimated scf accuracy    <       0.00000032 Ry
     smearing contrib. (-TS)   =       0.19066429 Ry
     internal energy E=F+TS    =   -4094.24399969 Ry

     The total energy is F=E-TS. E is the sum of the following terms:
     one-electron contribution =   -1837.72375869 Ry
     hartree contribution      =     930.57429811 Ry
     xc contribution           =    -246.03230121 Ry
     ewald contribution        =    -899.41442519 Ry
     one-center paw contrib.   =   -2041.64781271 Ry

     convergence has been achieved in  29 iterations

     Forces acting on atoms (cartesian axes, Ry/au):

     atom    1 type  1   force =     0.00000000    0.00000000    0.00000000
     atom    2 type  1   force =     0.00000000    0.00000000    0.00000000
     atom    3 type  1   force =     0.00000000    0.00000000    0.00000000
     atom    4 type  1   force =     0.00000000    0.00000000    0.00000000
     atom    5 type  1   force =     0.00000000    0.00000000    0.00000000
     atom    6 type  1   force =     0.00000000    0.00000000    0.00000000
     atom    7 type  1   force =     0.00000000    0.00000000    0.00000000
     atom    8 type  1   force =     0.00000000    0.00000000    0.00000000

     Total force =     0.000000     Total SCF correction =     0.000000

     Computing stress (Cartesian axis) and pressure

          total   stress  (Ry/bohr**3)                   (kbar)     P=      -21.72
  -0.00014766   0.00000000   0.00000000          -21.72        0.00        0.00
   0.00000000  -0.00014766   0.00000000            0.00      -21.72        0.00
   0.00000000   0.00000000  -0.00014766            0.00        0.00      -21.72

     Writing output data file /scratch/YUajZfZDtjwSfTIn.save/

     General routines

     Parallel routines

   This run was terminated on:   4: 7:33  30Nov2021

   JOB DONE.