     Program PWSCF v.6.7MaX starts on 30Nov2021 at  3:56:30

     R & G space division:  proc/nbgrp/npool/nimage =      72
     Reading input from sc_15.in
Warning: card &CELL ignored
Warning: card CELL_DYNAMICS = 'BFGS', ignored
Warning: card CELL_FACTOR = 2.0, ignored
Warning: card PRESS = 0.0, ignored
Warning: card / ignored

     Current dimensions of program PWSCF are:
     Max number of different atomic species (ntypx) = 10
     Max number of k-points (npk) =  40000
     Max angular momentum in pseudopotentials (lmaxx) =  3
     file Pd.pbe-spn-kjpaw_psl.1.0.0.UPF: wavefunction(s)  4S 5S 4D renormalized

     Subspace diagonalization in iterative solution of the eigenvalue problem:
     one sub-group per band group will be used

     Found symmetry operation: I + (  0.0000  0.0000 -0.5000)
     This is a supercell, fractional translations are disabled
     Message from routine setup:
     using ibrav=0 with symmetry is DISCOURAGED, use correct ibrav instead

     bravais-lattice index     =            0
     lattice parameter (alat)  =       9.0720  a.u.
     unit-cell volume          =    3484.0109 (a.u.)^3
     number of atoms/cell      =            8
     number of atomic types    =            1
     number of electrons       =       144.00
     number of Kohn-Sham states=           86
     kinetic-energy cutoff     =      71.0000  Ry
     charge density cutoff     =     430.0000  Ry
     scf convergence threshold =      1.0E-06
     mixing beta               =       0.1000
     number of iterations used =           10  TF        mixing
     Exchange-correlation= SLA  PW   PBX  PBC
                           (   1   4   3   4   0   0   0)

     celldm(1)=   9.072000  celldm(2)=   0.000000  celldm(3)=   0.000000
     celldm(4)=   0.000000  celldm(5)=   0.000000  celldm(6)=   0.000000

     crystal axes: (cart. coord. in units of alat)
               a(1) = (   1.671053   0.000000   0.000000 )
               a(2) = (   0.000000   1.671053   0.000000 )
               a(3) = (   0.000000   0.000000   1.671053 )

     reciprocal axes: (cart. coord. in units 2 pi/alat)
               b(1) = (  0.598425  0.000000  0.000000 )
               b(2) = (  0.000000  0.598425  0.000000 )
               b(3) = (  0.000000  0.000000  0.598425 )

     PseudoPot. # 1 for Pd read from file:
     /rds/homes/b/bxp912/pp/Pd.pbe-spn-kjpaw_psl.1.0.0.UPF
     MD5 check sum: 790f2ebce206edfd9790dcb9844eca51
     Pseudo is Projector augmented-wave + core cor, Zval = 18.0
     Generated using &quot;atomic&quot; code by A. Dal Corso  v.6.3
     Shape of augmentation charge: PSQ
     Using radial grid of 1235 points,  6 beta functions with:
                l(1) =   0
                l(2) =   0
                l(3) =   1
                l(4) =   1
                l(5) =   2
                l(6) =   2
     Q(r) pseudized with 0 coefficients

     atomic species   valence    mass     pseudopotential
        Pd            18.00   106.42000     Pd( 1.00)

     48 Sym. Ops., with inversion, found

   Cartesian axes

     site n.     atom                  positions (alat units)
         1           Pd  tau(   1) = (   0.0000000   0.0000000   0.0000000  )
         2           Pd  tau(   2) = (   0.0000000   0.0000000   0.8355263  )
         3           Pd  tau(   3) = (   0.0000000   0.8355263   0.0000000  )
         4           Pd  tau(   4) = (   0.0000000   0.8355263   0.8355263  )
         5           Pd  tau(   5) = (   0.8355263   0.0000000   0.0000000  )
         6           Pd  tau(   6) = (   0.8355263   0.0000000   0.8355263  )
         7           Pd  tau(   7) = (   0.8355263   0.8355263   0.0000000  )
         8           Pd  tau(   8) = (   0.8355263   0.8355263   0.8355263  )

     number of k points=    35  Marzari-Vanderbilt smearing, width (Ry)=  0.0400
                       cart. coord. in units 2pi/alat
        k(    1) = (   0.0332458   0.0332458   0.0332458), wk =   0.0219479
        k(    2) = (   0.0332458   0.0332458   0.0997375), wk =   0.0658436
        k(    3) = (   0.0332458   0.0332458   0.1662292), wk =   0.0658436
        k(    4) = (   0.0332458   0.0332458   0.2327209), wk =   0.0658436
        k(    5) = (   0.0332458   0.0332458  -0.2992126), wk =   0.0329218
        k(    6) = (   0.0332458   0.0997375   0.0997375), wk =   0.0658436
        k(    7) = (   0.0332458   0.0997375   0.1662292), wk =   0.1316872
        k(    8) = (   0.0332458   0.0997375   0.2327209), wk =   0.1316872
        k(    9) = (   0.0332458   0.0997375  -0.2992126), wk =   0.0658436
        k(   10) = (   0.0332458   0.1662292   0.1662292), wk =   0.0658436
        k(   11) = (   0.0332458   0.1662292   0.2327209), wk =   0.1316872
        k(   12) = (   0.0332458   0.1662292  -0.2992126), wk =   0.0658436
        k(   13) = (   0.0332458   0.2327209   0.2327209), wk =   0.0658436
        k(   14) = (   0.0332458   0.2327209  -0.2992126), wk =   0.0658436
        k(   15) = (   0.0332458  -0.2992126  -0.2992126), wk =   0.0164609
        k(   16) = (   0.0997375   0.0997375   0.0997375), wk =   0.0219479
        k(   17) = (   0.0997375   0.0997375   0.1662292), wk =   0.0658436
        k(   18) = (   0.0997375   0.0997375   0.2327209), wk =   0.0658436
        k(   19) = (   0.0997375   0.0997375  -0.2992126), wk =   0.0329218
        k(   20) = (   0.0997375   0.1662292   0.1662292), wk =   0.0658436
        k(   21) = (   0.0997375   0.1662292   0.2327209), wk =   0.1316872
        k(   22) = (   0.0997375   0.1662292  -0.2992126), wk =   0.0658436
        k(   23) = (   0.0997375   0.2327209   0.2327209), wk =   0.0658436
        k(   24) = (   0.0997375   0.2327209  -0.2992126), wk =   0.0658436
        k(   25) = (   0.0997375  -0.2992126  -0.2992126), wk =   0.0164609
        k(   26) = (   0.1662292   0.1662292   0.1662292), wk =   0.0219479
        k(   27) = (   0.1662292   0.1662292   0.2327209), wk =   0.0658436
        k(   28) = (   0.1662292   0.1662292  -0.2992126), wk =   0.0329218
        k(   29) = (   0.1662292   0.2327209   0.2327209), wk =   0.0658436
        k(   30) = (   0.1662292   0.2327209  -0.2992126), wk =   0.0658436
        k(   31) = (   0.1662292  -0.2992126  -0.2992126), wk =   0.0164609
        k(   32) = (   0.2327209   0.2327209   0.2327209), wk =   0.0219479
        k(   33) = (   0.2327209   0.2327209  -0.2992126), wk =   0.0329218
        k(   34) = (   0.2327209  -0.2992126  -0.2992126), wk =   0.0164609
        k(   35) = (  -0.2992126  -0.2992126  -0.2992126), wk =   0.0027435

     Initial potential from superposition of free atoms

     starting charge  143.99694, renormalised to  144.00000
     Starting wfcs are   80 randomized atomic wfcs +    6 random wfcs
     Checking if some PAW data can be deallocated...

     Self-consistent Calculation

     iteration #  1     ecut=    71.00 Ry     beta= 0.10
     Davidson diagonalization with overlap
     ethr =  1.00E-02,  avg # of iterations =  4.4

     total energy              =   -4095.32219909 Ry
     estimated scf accuracy    <       5.83265657 Ry

[...]

     iteration # 19     ecut=    71.00 Ry     beta= 0.10
     Davidson diagonalization with overlap
     c_bands:  1 eigenvalues not converged
     ethr =  5.35E-07,  avg # of iterations =  4.2

[...]

     total energy              =   -4094.21454679 Ry
     estimated scf accuracy    <       0.00000522 Ry

     iteration # 26     ecut=    71.00 Ry     beta= 0.10
     Davidson diagonalization with overlap
     ethr =  2.72E-09,  avg # of iterations =  2.0

     End of self-consistent calculation

          k = 0.0332 0.0332 0.0332 ( 35225 PWs)   bands (ev):

   -81.4082 -81.4082 -81.4082 -81.4081 -81.4080 -81.4080 -81.4080 -81.4077
   -47.2141 -47.2141 -47.2141 -47.2141 -47.2141 -47.2141 -47.2140 -47.2140
   -47.2140 -47.2138 -47.2138 -47.2137 -47.2124 -47.2124 -47.2124 -47.2123
   -47.2123 -47.2123 -47.2123 -47.2123 -47.2123 -47.2121 -47.2121 -47.2121
    -0.3407  -0.0555  -0.0555  -0.0101  -0.0101  -0.0101   0.0126   0.0126
     0.0126   0.0247   0.0247   0.0247   0.0604   0.0604   0.0604   0.0792
     0.0808   0.0808   0.2984   0.2984   0.2984   0.3000   0.3000   0.3000
     0.3233   0.3233   0.3233   0.3235   0.3235   0.3236   0.4490   0.4494
     0.4494   0.4625   0.4625   0.4625   0.5811   0.5811   0.5811   0.5908
     0.5908   1.7819   1.7819   1.7819   3.2417   3.2417   3.2417   3.3666
     3.3667   3.3667   4.8275   4.8277   4.8278   5.0494

[...]

          k = 0.2327-0.2992-0.2992 ( 35204 PWs)   bands (ev):

[...]

          k =-0.2992-0.2992-0.2992 ( 35208 PWs)   bands (ev):

   -81.4082 -81.4082 -81.4082 -81.4081 -81.4080 -81.4080 -81.4080 -81.4077
   -47.2133 -47.2133 -47.2133 -47.2132 -47.2132 -47.2132 -47.2132 -47.2132
   -47.2132 -47.2132 -47.2132 -47.2132 -47.2132 -47.2132 -47.2131 -47.2131
   -47.2131 -47.2131 -47.2131 -47.2131 -47.2130 -47.2129 -47.2129 -47.2129
     0.2182   0.2182   0.2184   0.2184   0.2184   0.2184   0.2184   0.2184
     0.2184   0.2184   0.2184   0.2184   0.2184   0.2184   0.2184   0.2184
     0.2222   0.2222   0.2222   0.2222   0.2222   0.2223   0.2223   0.2223
     0.2973   0.2973   0.2973   0.2973   0.2973   0.2974   0.2974   0.2974
     0.2974   0.2974   0.2974   0.2974   0.2974   0.2974   0.2974   0.2974
     1.4235   1.4236   1.4236   1.4236   1.4237   1.4237   1.4237   1.4238
     6.9045   6.9046   6.9047   6.9049   6.9050   6.9054

     the Fermi energy is     0.7522 ev

!    total energy              =   -4094.21454887 Ry

     total all-electron energy =    -80734.427976 Ry
     estimated scf accuracy    <       0.00000060 Ry
     smearing contrib. (-TS)   =       0.20777943 Ry
     internal energy E=F+TS    =   -4094.42232830 Ry

     The total energy is F=E-TS. E is the sum of the following terms:
     one-electron contribution =   -1705.50253134 Ry
     hartree contribution      =     868.69608508 Ry
     xc contribution           =    -245.71879786 Ry
     ewald contribution        =    -970.23445867 Ry
     one-center paw contrib.   =   -2041.66262551 Ry

     convergence has been achieved in  26 iterations

     Forces acting on atoms (cartesian axes, Ry/au):

     atom    1 type  1   force =     0.00000000    0.00000000    0.00000000
     atom    2 type  1   force =     0.00000000    0.00000000    0.00000000
     atom    3 type  1   force =     0.00000000    0.00000000    0.00000000
     atom    4 type  1   force =     0.00000000    0.00000000    0.00000000
     atom    5 type  1   force =     0.00000000    0.00000000    0.00000000
     atom    6 type  1   force =     0.00000000    0.00000000    0.00000000
     atom    7 type  1   force =     0.00000000    0.00000000    0.00000000
     atom    8 type  1   force =     0.00000000    0.00000000    0.00000000

     Total force =     0.000000     Total SCF correction =     0.000000

     Computing stress (Cartesian axis) and pressure

          total   stress  (Ry/bohr**3)                   (kbar)     P=      -40.42
  -0.00027475   0.00000000   0.00000000          -40.42        0.00        0.00
   0.00000000  -0.00027475   0.00000000            0.00      -40.42        0.00
   0.00000000   0.00000000  -0.00027475            0.00        0.00      -40.42

     Writing output data file /scratch/HCYeTWrTLGKVDqUT.save/

     General routines

     Parallel routines

   This run was terminated on:   3:59:42  30Nov2021

   JOB DONE.