     Program PWSCF v.6.7MaX starts on 30Nov2021 at  4: 7:38

     R & G space division:  proc/nbgrp/npool/nimage =      72
     Reading input from sc_18.in
Warning: card &CELL ignored
Warning: card CELL_DYNAMICS = 'BFGS', ignored
Warning: card CELL_FACTOR = 2.0, ignored
Warning: card PRESS = 0.0, ignored
Warning: card / ignored

     Current dimensions of program PWSCF are:
     Max number of different atomic species (ntypx) = 10
     Max number of k-points (npk) =  40000
     Max angular momentum in pseudopotentials (lmaxx) =  3
     file Pd.pbe-spn-kjpaw_psl.1.0.0.UPF: wavefunction(s)  4S 5S 4D renormalized

     Subspace diagonalization in iterative solution of the eigenvalue problem:
     one sub-group per band group will be used

     Found symmetry operation: I + (  0.0000  0.0000 -0.5000)
     This is a supercell, fractional translations are disabled
     Message from routine setup:
     using ibrav=0 with symmetry is DISCOURAGED, use correct ibrav instead

     bravais-lattice index     =            0
     lattice parameter (alat)  =       9.0720  a.u.
     unit-cell volume          =    4870.0496 (a.u.)^3
     number of atoms/cell      =            8
     number of atomic types    =            1
     number of electrons       =       144.00
     number of Kohn-Sham states=           86
     kinetic-energy cutoff     =      71.0000  Ry
     charge density cutoff     =     430.0000  Ry
     scf convergence threshold =      1.0E-06
     mixing beta               =       0.1000
     number of iterations used =           10  TF        mixing
     Exchange-correlation= SLA  PW   PBX  PBC
                           (   1   4   3   4   0   0   0)

     celldm(1)=   9.072000  celldm(2)=   0.000000  celldm(3)=   0.000000
     celldm(4)=   0.000000  celldm(5)=   0.000000  celldm(6)=   0.000000

     crystal axes: (cart. coord. in units of alat)
               a(1) = (   1.868421   0.000000   0.000000 )
               a(2) = (   0.000000   1.868421   0.000000 )
               a(3) = (   0.000000   0.000000   1.868421 )

     reciprocal axes: (cart. coord. in units 2 pi/alat)
               b(1) = (  0.535211  0.000000  0.000000 )
               b(2) = (  0.000000  0.535211  0.000000 )
               b(3) = (  0.000000  0.000000  0.535211 )

     PseudoPot. # 1 for Pd read from file:
     /rds/homes/b/bxp912/pp/Pd.pbe-spn-kjpaw_psl.1.0.0.UPF
     MD5 check sum: 790f2ebce206edfd9790dcb9844eca51
     Pseudo is Projector augmented-wave + core cor, Zval = 18.0
     Generated using &quot;atomic&quot; code by A. Dal Corso  v.6.3
     Shape of augmentation charge: PSQ
     Using radial grid of 1235 points,  6 beta functions with:
                l(1) =   0
                l(2) =   0
                l(3) =   1
                l(4) =   1
                l(5) =   2
                l(6) =   2
     Q(r) pseudized with 0 coefficients

     atomic species   valence    mass     pseudopotential
        Pd            18.00   106.42000     Pd( 1.00)

     48 Sym. Ops., with inversion, found

   Cartesian axes

     site n.     atom                  positions (alat units)
         1           Pd  tau(   1) = (   0.0000000   0.0000000   0.0000000  )
         2           Pd  tau(   2) = (   0.0000000   0.0000000   0.9342105  )
         3           Pd  tau(   3) = (   0.0000000   0.9342105   0.0000000  )
         4           Pd  tau(   4) = (   0.0000000   0.9342105   0.9342105  )
         5           Pd  tau(   5) = (   0.9342105   0.0000000   0.0000000  )
         6           Pd  tau(   6) = (   0.9342105   0.0000000   0.9342105  )
         7           Pd  tau(   7) = (   0.9342105   0.9342105   0.0000000  )
         8           Pd  tau(   8) = (   0.9342105   0.9342105   0.9342105  )

     number of k points=    35  Marzari-Vanderbilt smearing, width (Ry)=  0.0400
                       cart. coord. in units 2pi/alat
        k(    1) = (   0.0297340   0.0297340   0.0297340), wk =   0.0219479
        k(    2) = (   0.0297340   0.0297340   0.0892019), wk =   0.0658436
        k(    3) = (   0.0297340   0.0297340   0.1486698), wk =   0.0658436
        k(    4) = (   0.0297340   0.0297340   0.2081377), wk =   0.0658436
        k(    5) = (   0.0297340   0.0297340  -0.2676056), wk =   0.0329218
        k(    6) = (   0.0297340   0.0892019   0.0892019), wk =   0.0658436
        k(    7) = (   0.0297340   0.0892019   0.1486698), wk =   0.1316872
        k(    8) = (   0.0297340   0.0892019   0.2081377), wk =   0.1316872
        k(    9) = (   0.0297340   0.0892019  -0.2676056), wk =   0.0658436
        k(   10) = (   0.0297340   0.1486698   0.1486698), wk =   0.0658436
        k(   11) = (   0.0297340   0.1486698   0.2081377), wk =   0.1316872
        k(   12) = (   0.0297340   0.1486698  -0.2676056), wk =   0.0658436
        k(   13) = (   0.0297340   0.2081377   0.2081377), wk =   0.0658436
        k(   14) = (   0.0297340   0.2081377  -0.2676056), wk =   0.0658436
        k(   15) = (   0.0297340  -0.2676056  -0.2676056), wk =   0.0164609
        k(   16) = (   0.0892019   0.0892019   0.0892019), wk =   0.0219479
        k(   17) = (   0.0892019   0.0892019   0.1486698), wk =   0.0658436
        k(   18) = (   0.0892019   0.0892019   0.2081377), wk =   0.0658436
        k(   19) = (   0.0892019   0.0892019  -0.2676056), wk =   0.0329218
        k(   20) = (   0.0892019   0.1486698   0.1486698), wk =   0.0658436
        k(   21) = (   0.0892019   0.1486698   0.2081377), wk =   0.1316872
        k(   22) = (   0.0892019   0.1486698  -0.2676056), wk =   0.0658436
        k(   23) = (   0.0892019   0.2081377   0.2081377), wk =   0.0658436
        k(   24) = (   0.0892019   0.2081377  -0.2676056), wk =   0.0658436
        k(   25) = (   0.0892019  -0.2676056  -0.2676056), wk =   0.0164609
        k(   26) = (   0.1486698   0.1486698   0.1486698), wk =   0.0219479
        k(   27) = (   0.1486698   0.1486698   0.2081377), wk =   0.0658436
        k(   28) = (   0.1486698   0.1486698  -0.2676056), wk =   0.0329218
        k(   29) = (   0.1486698   0.2081377   0.2081377), wk =   0.0658436
        k(   30) = (   0.1486698   0.2081377  -0.2676056), wk =   0.0658436
        k(   31) = (   0.1486698  -0.2676056  -0.2676056), wk =   0.0164609
        k(   32) = (   0.2081377   0.2081377   0.2081377), wk =   0.0219479
        k(   33) = (   0.2081377   0.2081377  -0.2676056), wk =   0.0329218
        k(   34) = (   0.2081377  -0.2676056  -0.2676056), wk =   0.0164609
        k(   35) = (  -0.2676056  -0.2676056  -0.2676056), wk =   0.0027435

     Initial potential from superposition of free atoms

     starting charge  143.99694, renormalised to  144.00000
     Starting wfcs are   80 randomized atomic wfcs +    6 random wfcs
     Checking if some PAW data can be deallocated...

     Self-consistent Calculation

     iteration #  1     ecut=    71.00 Ry     beta= 0.10
     Davidson diagonalization with overlap
     ethr =  1.00E-02,  avg # of iterations =  5.5

     total energy              =   -4095.34880562 Ry
     estimated scf accuracy    <       6.16329866 Ry

[...]

     iteration # 54     ecut=    71.00 Ry     beta= 0.10
     Davidson diagonalization with overlap
     c_bands:  1 eigenvalues not converged
     ethr =  1.10E-08,  avg # of iterations =  2.5

[...]

     total energy              =   -4093.99876946 Ry
     estimated scf accuracy    <       0.00000134 Ry

     iteration # 59     ecut=    71.00 Ry     beta= 0.10
     Davidson diagonalization with overlap
     ethr =  9.33E-10,  avg # of iterations =  2.0

     End of self-consistent calculation

          k = 0.0297 0.0297 0.0297 ( 49176 PWs)   bands (ev):

   -82.5061 -82.5060 -82.5060 -82.5060 -82.5059 -82.5059 -82.5059 -82.5058
   -48.3342 -48.3342 -48.3342 -48.3341 -48.3341 -48.3340 -48.3340 -48.3340
   -48.3340 -48.3340 -48.3340 -48.3340 -48.3340 -48.3340 -48.3339 -48.3338
   -48.3338 -48.3338 -48.3338 -48.3338 -48.3338 -48.3337 -48.3337 -48.3337
    -1.1543  -1.1372  -1.1372  -1.1149  -1.1149  -1.1149  -1.0892  -1.0892
    -1.0892  -1.0722  -1.0721  -1.0721  -1.0701  -1.0700  -1.0700  -1.0588
    -1.0582  -1.0582  -0.9481  -0.9481  -0.9480  -0.9475  -0.9474  -0.9474
    -0.9358  -0.9358  -0.9358  -0.9357  -0.9357  -0.9357  -0.8694  -0.8693
    -0.8693  -0.8624  -0.8624  -0.8624  -0.7948  -0.7948  -0.7948  -0.7898
    -0.7898   0.1905   0.1906   0.1906   1.2519   1.2520   1.2520   2.0389
     2.0389   2.0389   2.3148   3.1851   3.1855   3.1857

[...]

          k = 0.2081-0.2676-0.2676 ( 49196 PWs)   bands (ev):

[...]

          k =-0.2676-0.2676-0.2676 ( 49040 PWs)   bands (ev):

   -82.5061 -82.5060 -82.5060 -82.5060 -82.5059 -82.5059 -82.5059 -82.5058
   -48.3341 -48.3340 -48.3340 -48.3340 -48.3340 -48.3340 -48.3339 -48.3339
   -48.3339 -48.3339 -48.3339 -48.3339 -48.3339 -48.3339 -48.3339 -48.3339
   -48.3339 -48.3339 -48.3338 -48.3338 -48.3338 -48.3338 -48.3338 -48.3338
    -0.9840  -0.9840  -0.9840  -0.9839  -0.9839  -0.9839  -0.9839  -0.9839
    -0.9839  -0.9839  -0.9839  -0.9839  -0.9839  -0.9839  -0.9838  -0.9838
    -0.9756  -0.9756  -0.9756  -0.9755  -0.9755  -0.9755  -0.9755  -0.9755
    -0.9482  -0.9482  -0.9482  -0.9482  -0.9482  -0.9482  -0.9482  -0.9482
    -0.9482  -0.9482  -0.9482  -0.9482  -0.9481  -0.9481  -0.9481  -0.9481
     0.1068   0.1069   0.1069   0.1069   0.1069   0.1070   0.1070   0.1070
     4.6339   4.6340   4.6341   4.6342   4.6343   4.6347

     the Fermi energy is    -0.4907 ev

!    total energy              =   -4093.99877138 Ry

     total all-electron energy =    -80734.212198 Ry
     estimated scf accuracy    <       0.00000050 Ry
     smearing contrib. (-TS)   =       0.18544747 Ry
     internal energy E=F+TS    =   -4094.18421885 Ry

     The total energy is F=E-TS. E is the sum of the following terms:
     one-electron contribution =   -1897.38947006 Ry
     hartree contribution      =     958.76029519 Ry
     xc contribution           =    -246.16824628 Ry
     ewald contribution        =    -867.74490318 Ry
     one-center paw contrib.   =   -2041.64189452 Ry

     convergence has been achieved in  59 iterations

     Forces acting on atoms (cartesian axes, Ry/au):

     atom    1 type  1   force =     0.00000000    0.00000000    0.00000000
     atom    2 type  1   force =     0.00000000    0.00000000    0.00000000
     atom    3 type  1   force =     0.00000000    0.00000000    0.00000000
     atom    4 type  1   force =     0.00000000    0.00000000    0.00000000
     atom    5 type  1   force =     0.00000000    0.00000000    0.00000000
     atom    6 type  1   force =     0.00000000    0.00000000    0.00000000
     atom    7 type  1   force =     0.00000000    0.00000000    0.00000000
     atom    8 type  1   force =     0.00000000    0.00000000    0.00000000

     Total force =     0.000000     Total SCF correction =     0.000000

     Computing stress (Cartesian axis) and pressure

          total   stress  (Ry/bohr**3)                   (kbar)     P=      -16.12
  -0.00010959   0.00000000   0.00000000          -16.12        0.00        0.00
   0.00000000  -0.00010959   0.00000000            0.00      -16.12        0.00
   0.00000000   0.00000000  -0.00010959            0.00        0.00      -16.12

     Writing output data file /scratch/EjmdmjkbsmCsRgIF.save/

     General routines

     Parallel routines

   This run was terminated on:   4:15: 7  30Nov2021

   JOB DONE.