     Program PWSCF v.6.7MaX starts on 30Nov2021 at  4:27:49

     R & G space division:  proc/nbgrp/npool/nimage =      72
     Reading input from sc_20.in
Warning: card &CELL ignored
Warning: card CELL_DYNAMICS = 'BFGS', ignored
Warning: card CELL_FACTOR = 2.0, ignored
Warning: card PRESS = 0.0, ignored
Warning: card / ignored

     Current dimensions of program PWSCF are:
     Max number of different atomic species (ntypx) = 10
     Max number of k-points (npk) =  40000
     Max angular momentum in pseudopotentials (lmaxx) =  3
     file Pd.pbe-spn-kjpaw_psl.1.0.0.UPF: wavefunction(s)  4S 5S 4D renormalized

     Subspace diagonalization in iterative solution of the eigenvalue problem:
     one sub-group per band group will be used

     Found symmetry operation: I + (  0.0000  0.0000 -0.5000)
     This is a supercell, fractional translations are disabled
     Message from routine setup:
     using ibrav=0 with symmetry is DISCOURAGED, use correct ibrav instead

     bravais-lattice index     =            0
     lattice parameter (alat)  =       9.0720  a.u.
     unit-cell volume          =    5973.0907 (a.u.)^3
     number of atoms/cell      =            8
     number of atomic types    =            1
     number of electrons       =       144.00
     number of Kohn-Sham states=           86
     kinetic-energy cutoff     =      71.0000  Ry
     charge density cutoff     =     430.0000  Ry
     scf convergence threshold =      1.0E-06
     mixing beta               =       0.1000
     number of iterations used =           10  TF        mixing
     Exchange-correlation= SLA  PW   PBX  PBC
                           (   1   4   3   4   0   0   0)

     celldm(1)=   9.072000  celldm(2)=   0.000000  celldm(3)=   0.000000
     celldm(4)=   0.000000  celldm(5)=   0.000000  celldm(6)=   0.000000

     crystal axes: (cart. coord. in units of alat)
               a(1) = (   2.000000   0.000000   0.000000 )
               a(2) = (   0.000000   2.000000   0.000000 )
               a(3) = (   0.000000   0.000000   2.000000 )

     reciprocal axes: (cart. coord. in units 2 pi/alat)
               b(1) = (  0.500000  0.000000  0.000000 )
               b(2) = (  0.000000  0.500000  0.000000 )
               b(3) = (  0.000000  0.000000  0.500000 )

     PseudoPot. # 1 for Pd read from file:
     /rds/homes/b/bxp912/pp/Pd.pbe-spn-kjpaw_psl.1.0.0.UPF
     MD5 check sum: 790f2ebce206edfd9790dcb9844eca51
     Pseudo is Projector augmented-wave + core cor, Zval = 18.0
     Generated using &quot;atomic&quot; code by A. Dal Corso  v.6.3
     Shape of augmentation charge: PSQ
     Using radial grid of 1235 points,  6 beta functions with:
                l(1) =   0
                l(2) =   0
                l(3) =   1
                l(4) =   1
                l(5) =   2
                l(6) =   2
     Q(r) pseudized with 0 coefficients

     atomic species   valence    mass     pseudopotential
        Pd            18.00   106.42000     Pd( 1.00)

     48 Sym. Ops., with inversion, found

   Cartesian axes

     site n.     atom                  positions (alat units)
         1           Pd  tau(   1) = (   0.0000000   0.0000000   0.0000000  )
         2           Pd  tau(   2) = (   0.0000000   0.0000000   1.0000000  )
         3           Pd  tau(   3) = (   0.0000000   1.0000000   0.0000000  )
         4           Pd  tau(   4) = (   0.0000000   1.0000000   1.0000000  )
         5           Pd  tau(   5) = (   1.0000000   0.0000000   0.0000000  )
         6           Pd  tau(   6) = (   1.0000000   0.0000000   1.0000000  )
         7           Pd  tau(   7) = (   1.0000000   1.0000000   0.0000000  )
         8           Pd  tau(   8) = (   1.0000000   1.0000000   1.0000000  )

     number of k points=    35  Marzari-Vanderbilt smearing, width (Ry)=  0.0400
                       cart. coord. in units 2pi/alat
        k(    1) = (   0.0277778   0.0277778   0.0277778), wk =   0.0219479
        k(    2) = (   0.0277778   0.0277778   0.0833333), wk =   0.0658436
        k(    3) = (   0.0277778   0.0277778   0.1388889), wk =   0.0658436
        k(    4) = (   0.0277778   0.0277778   0.1944444), wk =   0.0658436
        k(    5) = (   0.0277778   0.0277778  -0.2500000), wk =   0.0329218
        k(    6) = (   0.0277778   0.0833333   0.0833333), wk =   0.0658436
        k(    7) = (   0.0277778   0.0833333   0.1388889), wk =   0.1316872
        k(    8) = (   0.0277778   0.0833333   0.1944444), wk =   0.1316872
        k(    9) = (   0.0277778   0.0833333  -0.2500000), wk =   0.0658436
        k(   10) = (   0.0277778   0.1388889   0.1388889), wk =   0.0658436
        k(   11) = (   0.0277778   0.1388889   0.1944444), wk =   0.1316872
        k(   12) = (   0.0277778   0.1388889  -0.2500000), wk =   0.0658436
        k(   13) = (   0.0277778   0.1944444   0.1944444), wk =   0.0658436
        k(   14) = (   0.0277778   0.1944444  -0.2500000), wk =   0.0658436
        k(   15) = (   0.0277778  -0.2500000  -0.2500000), wk =   0.0164609
        k(   16) = (   0.0833333   0.0833333   0.0833333), wk =   0.0219479
        k(   17) = (   0.0833333   0.0833333   0.1388889), wk =   0.0658436
        k(   18) = (   0.0833333   0.0833333   0.1944444), wk =   0.0658436
        k(   19) = (   0.0833333   0.0833333  -0.2500000), wk =   0.0329218
        k(   20) = (   0.0833333   0.1388889   0.1388889), wk =   0.0658436
        k(   21) = (   0.0833333   0.1388889   0.1944444), wk =   0.1316872
        k(   22) = (   0.0833333   0.1388889  -0.2500000), wk =   0.0658436
        k(   23) = (   0.0833333   0.1944444   0.1944444), wk =   0.0658436
        k(   24) = (   0.0833333   0.1944444  -0.2500000), wk =   0.0658436
        k(   25) = (   0.0833333  -0.2500000  -0.2500000), wk =   0.0164609
        k(   26) = (   0.1388889   0.1388889   0.1388889), wk =   0.0219479
        k(   27) = (   0.1388889   0.1388889   0.1944444), wk =   0.0658436
        k(   28) = (   0.1388889   0.1388889  -0.2500000), wk =   0.0329218
        k(   29) = (   0.1388889   0.1944444   0.1944444), wk =   0.0658436
        k(   30) = (   0.1388889   0.1944444  -0.2500000), wk =   0.0658436
        k(   31) = (   0.1388889  -0.2500000  -0.2500000), wk =   0.0164609
        k(   32) = (   0.1944444   0.1944444   0.1944444), wk =   0.0219479
        k(   33) = (   0.1944444   0.1944444  -0.2500000), wk =   0.0329218
        k(   34) = (   0.1944444  -0.2500000  -0.2500000), wk =   0.0164609
        k(   35) = (  -0.2500000  -0.2500000  -0.2500000), wk =   0.0027435

     Initial potential from superposition of free atoms

     starting charge  143.99694, renormalised to  144.00000
     Starting wfcs are   80 randomized atomic wfcs +    6 random wfcs
     Checking if some PAW data can be deallocated...

     Self-consistent Calculation

     iteration #  1     ecut=    71.00 Ry     beta= 0.10
     Davidson diagonalization with overlap
     ethr =  1.00E-02,  avg # of iterations =  5.3

     total energy              =   -4095.35735752 Ry
     estimated scf accuracy    <       6.24724123 Ry

[...]

     negative rho (up, down):  4.142E-05 0.000E+00

[...]

     iteration # 40     ecut=    71.00 Ry     beta= 0.10
     Davidson diagonalization with overlap
     c_bands:  1 eigenvalues not converged
     ethr =  3.06E-06,  avg # of iterations =  7.6

[...]

     total energy              =   -4093.92370429 Ry
     estimated scf accuracy    <       0.00000520 Ry

     iteration # 61     ecut=    71.00 Ry     beta= 0.10
     Davidson diagonalization with overlap
     ethr =  3.61E-09,  avg # of iterations =  1.0

     End of self-consistent calculation

          k = 0.0278 0.0278 0.0278 ( 60421 PWs)   bands (ev):

   -83.0022 -83.0021 -83.0021 -83.0021 -83.0021 -83.0021 -83.0021 -83.0020
   -48.8399 -48.8398 -48.8398 -48.8398 -48.8398 -48.8398 -48.8397 -48.8397
   -48.8397 -48.8397 -48.8397 -48.8397 -48.8396 -48.8396 -48.8396 -48.8396
   -48.8396 -48.8396 -48.8396 -48.8396 -48.8396 -48.8396 -48.8395 -48.8395
    -1.6371  -1.6371  -1.6230  -1.6230  -1.6230  -1.6006  -1.6006  -1.6006
    -1.5911  -1.5911  -1.5911  -1.5823  -1.5819  -1.5819  -1.5781  -1.5781
    -1.5781  -1.5109  -1.5109  -1.5109  -1.5106  -1.5106  -1.5106  -1.5094
    -1.5031  -1.5031  -1.5031  -1.5030  -1.5030  -1.5030  -1.4590  -1.4589
    -1.4589  -1.4544  -1.4544  -1.4544  -1.4076  -1.4076  -1.4076  -1.4044
    -1.4044  -0.5089  -0.5089  -0.5088   0.3039   0.3039   0.3039   1.0876
     1.5027   1.5027   1.5027   2.4512   2.4524   2.4524

[...]

          k = 0.1944-0.2500-0.2500 ( 60356 PWs)   bands (ev):

[...]

          k =-0.2500-0.2500-0.2500 ( 60256 PWs)   bands (ev):

   -83.0022 -83.0021 -83.0021 -83.0021 -83.0021 -83.0021 -83.0021 -83.0020
   -48.8398 -48.8398 -48.8398 -48.8396 -48.8396 -48.8396 -48.8396 -48.8396
   -48.8396 -48.8396 -48.8396 -48.8396 -48.8396 -48.8396 -48.8396 -48.8396
   -48.8396 -48.8396 -48.8396 -48.8396 -48.8396 -48.8396 -48.8396 -48.8396
    -1.5321  -1.5321  -1.5321  -1.5321  -1.5321  -1.5321  -1.5321  -1.5321
    -1.5321  -1.5321  -1.5321  -1.5320  -1.5320  -1.5320  -1.5320  -1.5320
    -1.5253  -1.5253  -1.5253  -1.5253  -1.5253  -1.5253  -1.5253  -1.5253
    -1.5108  -1.5108  -1.5108  -1.5108  -1.5108  -1.5108  -1.5108  -1.5108
    -1.5108  -1.5108  -1.5108  -1.5108  -1.5108  -1.5108  -1.5108  -1.5108
    -0.4983  -0.4983  -0.4983  -0.4983  -0.4982  -0.4982  -0.4982  -0.4979
     3.5213   3.5214   3.5214   3.5214   3.5216   3.5217

     the Fermi energy is    -1.0465 ev

!    total energy              =   -4093.92370466 Ry

     total all-electron energy =    -80734.137131 Ry
     estimated scf accuracy    <       0.00000012 Ry
     smearing contrib. (-TS)   =       0.18013859 Ry
     internal energy E=F+TS    =   -4094.10384325 Ry

     The total energy is F=E-TS. E is the sum of the following terms:
     one-electron contribution =   -2005.65604551 Ry
     hartree contribution      =    1010.23394052 Ry
     xc contribution           =    -246.39328669 Ry
     ewald contribution        =    -810.65642271 Ry
     one-center paw contrib.   =   -2041.63202885 Ry

     convergence has been achieved in  61 iterations

     Forces acting on atoms (cartesian axes, Ry/au):

     atom    1 type  1   force =     0.00000000    0.00000000    0.00000000
     atom    2 type  1   force =     0.00000000    0.00000000    0.00000000
     atom    3 type  1   force =     0.00000000    0.00000000    0.00000000
     atom    4 type  1   force =     0.00000000    0.00000000    0.00000000
     atom    5 type  1   force =     0.00000000    0.00000000    0.00000000
     atom    6 type  1   force =     0.00000000    0.00000000    0.00000000
     atom    7 type  1   force =     0.00000000    0.00000000    0.00000000
     atom    8 type  1   force =     0.00000000    0.00000000    0.00000000

     Total force =     0.000000     Total SCF correction =     0.000000

     Computing stress (Cartesian axis) and pressure

          total   stress  (Ry/bohr**3)                   (kbar)     P=       -9.21
  -0.00006263   0.00000000   0.00000000           -9.21        0.00        0.00
   0.00000000  -0.00006263   0.00000000            0.00       -9.21        0.00
   0.00000000   0.00000000  -0.00006263            0.00        0.00       -9.21

     Writing output data file /scratch/lgYwKCCStzhEGGNn.save/

     General routines

     Parallel routines

   This run was terminated on:   4:37: 2  30Nov2021

   JOB DONE.