     Program PWSCF v.6.7MaX starts on 30Nov2021 at  3:38:36

     R & G space division:  proc/nbgrp/npool/nimage =      72
     Reading input from sc_2.in
Warning: card &CELL ignored
Warning: card CELL_DYNAMICS = 'BFGS', ignored
Warning: card CELL_FACTOR = 2.0, ignored
Warning: card PRESS = 0.0, ignored
Warning: card / ignored

     Current dimensions of program PWSCF are:
     Max number of different atomic species (ntypx) = 10
     Max number of k-points (npk) =  40000
     Max angular momentum in pseudopotentials (lmaxx) =  3
     file Pd.pbe-spn-kjpaw_psl.1.0.0.UPF: wavefunction(s)  4S 5S 4D renormalized

     Subspace diagonalization in iterative solution of the eigenvalue problem:
     one sub-group per band group will be used

     Found symmetry operation: I + (  0.0000  0.0000  0.5000)
     This is a supercell, fractional translations are disabled
     Message from routine setup:
     using ibrav=0 with symmetry is DISCOURAGED, use correct ibrav instead

     bravais-lattice index     =            0
     lattice parameter (alat)  =       9.0720  a.u.
     unit-cell volume          =     405.3624 (a.u.)^3
     number of atoms/cell      =            8
     number of atomic types    =            1
     number of electrons       =       144.00
     number of Kohn-Sham states=           86
     kinetic-energy cutoff     =      71.0000  Ry
     charge density cutoff     =     430.0000  Ry
     scf convergence threshold =      1.0E-06
     mixing beta               =       0.1000
     number of iterations used =           10  TF        mixing
     Exchange-correlation= SLA  PW   PBX  PBC
                           (   1   4   3   4   0   0   0)

     celldm(1)=   9.072000  celldm(2)=   0.000000  celldm(3)=   0.000000
     celldm(4)=   0.000000  celldm(5)=   0.000000  celldm(6)=   0.000000

     crystal axes: (cart. coord. in units of alat)
               a(1) = (   0.815789   0.000000   0.000000 )
               a(2) = (   0.000000   0.815789   0.000000 )
               a(3) = (   0.000000   0.000000   0.815789 )

     reciprocal axes: (cart. coord. in units 2 pi/alat)
               b(1) = (  1.225806  0.000000  0.000000 )
               b(2) = (  0.000000  1.225806  0.000000 )
               b(3) = (  0.000000  0.000000  1.225806 )

     PseudoPot. # 1 for Pd read from file:
     /rds/homes/b/bxp912/pp/Pd.pbe-spn-kjpaw_psl.1.0.0.UPF
     MD5 check sum: 790f2ebce206edfd9790dcb9844eca51
     Pseudo is Projector augmented-wave + core cor, Zval = 18.0
     Generated using &quot;atomic&quot; code by A. Dal Corso  v.6.3
     Shape of augmentation charge: PSQ
     Using radial grid of 1235 points,  6 beta functions with:
                l(1) =   0
                l(2) =   0
                l(3) =   1
                l(4) =   1
                l(5) =   2
                l(6) =   2
     Q(r) pseudized with 0 coefficients

     atomic species   valence    mass     pseudopotential
        Pd            18.00   106.42000     Pd( 1.00)

     48 Sym. Ops., with inversion, found

   Cartesian axes

     site n.     atom                  positions (alat units)
         1           Pd  tau(   1) = (   0.0000000   0.0000000   0.0000000  )
         2           Pd  tau(   2) = (   0.0000000   0.0000000   0.4078947  )
         3           Pd  tau(   3) = (   0.0000000   0.4078947   0.0000000  )
         4           Pd  tau(   4) = (   0.0000000   0.4078947   0.4078947  )
         5           Pd  tau(   5) = (   0.4078947   0.0000000   0.0000000  )
         6           Pd  tau(   6) = (   0.4078947   0.0000000   0.4078947  )
         7           Pd  tau(   7) = (   0.4078947   0.4078947   0.0000000  )
         8           Pd  tau(   8) = (   0.4078947   0.4078947   0.4078947  )

     number of k points=    35  Marzari-Vanderbilt smearing, width (Ry)=  0.0400
                       cart. coord. in units 2pi/alat
        k(    1) = (   0.0681004   0.0681004   0.0681004), wk =   0.0219479
        k(    2) = (   0.0681004   0.0681004   0.2043011), wk =   0.0658436
        k(    3) = (   0.0681004   0.0681004   0.3405018), wk =   0.0658436
        k(    4) = (   0.0681004   0.0681004   0.4767025), wk =   0.0658436
        k(    5) = (   0.0681004   0.0681004  -0.6129032), wk =   0.0329218
        k(    6) = (   0.0681004   0.2043011   0.2043011), wk =   0.0658436
        k(    7) = (   0.0681004   0.2043011   0.3405018), wk =   0.1316872
        k(    8) = (   0.0681004   0.2043011   0.4767025), wk =   0.1316872
        k(    9) = (   0.0681004   0.2043011  -0.6129032), wk =   0.0658436
        k(   10) = (   0.0681004   0.3405018   0.3405018), wk =   0.0658436
        k(   11) = (   0.0681004   0.3405018   0.4767025), wk =   0.1316872
        k(   12) = (   0.0681004   0.3405018  -0.6129032), wk =   0.0658436
        k(   13) = (   0.0681004   0.4767025   0.4767025), wk =   0.0658436
        k(   14) = (   0.0681004   0.4767025  -0.6129032), wk =   0.0658436
        k(   15) = (   0.0681004  -0.6129032  -0.6129032), wk =   0.0164609
        k(   16) = (   0.2043011   0.2043011   0.2043011), wk =   0.0219479
        k(   17) = (   0.2043011   0.2043011   0.3405018), wk =   0.0658436
        k(   18) = (   0.2043011   0.2043011   0.4767025), wk =   0.0658436
        k(   19) = (   0.2043011   0.2043011  -0.6129032), wk =   0.0329218
        k(   20) = (   0.2043011   0.3405018   0.3405018), wk =   0.0658436
        k(   21) = (   0.2043011   0.3405018   0.4767025), wk =   0.1316872
        k(   22) = (   0.2043011   0.3405018  -0.6129032), wk =   0.0658436
        k(   23) = (   0.2043011   0.4767025   0.4767025), wk =   0.0658436
        k(   24) = (   0.2043011   0.4767025  -0.6129032), wk =   0.0658436
        k(   25) = (   0.2043011  -0.6129032  -0.6129032), wk =   0.0164609
        k(   26) = (   0.3405018   0.3405018   0.3405018), wk =   0.0219479
        k(   27) = (   0.3405018   0.3405018   0.4767025), wk =   0.0658436
        k(   28) = (   0.3405018   0.3405018  -0.6129032), wk =   0.0329218
        k(   29) = (   0.3405018   0.4767025   0.4767025), wk =   0.0658436
        k(   30) = (   0.3405018   0.4767025  -0.6129032), wk =   0.0658436
        k(   31) = (   0.3405018  -0.6129032  -0.6129032), wk =   0.0164609
        k(   32) = (   0.4767025   0.4767025   0.4767025), wk =   0.0219479
        k(   33) = (   0.4767025   0.4767025  -0.6129032), wk =   0.0329218
        k(   34) = (   0.4767025  -0.6129032  -0.6129032), wk =   0.0164609
        k(   35) = (  -0.6129032  -0.6129032  -0.6129032), wk =   0.0027435

     Check: negative core charge=   -0.000002

     Initial potential from superposition of free atoms

     starting charge  143.99694, renormalised to  144.00000
     Starting wfcs are   80 randomized atomic wfcs +    6 random wfcs
     Checking if some PAW data can be deallocated...

     Self-consistent Calculation

     iteration #  1     ecut=    71.00 Ry     beta= 0.10
     Davidson diagonalization with overlap
     ethr =  1.00E-02,  avg # of iterations =  5.3

     Threshold (ethr) on eigenvalues was too large:
     Diagonalizing with lowered threshold

     Davidson diagonalization with overlap
     ethr =  1.89E-04,  avg # of iterations =  3.4

     total energy              =   -4088.09593755 Ry
     estimated scf accuracy    <       0.24812631 Ry

[...]

     total energy              =   -4088.01771409 Ry
     estimated scf accuracy    <       0.00000149 Ry

     iteration # 16     ecut=    71.00 Ry     beta= 0.10
     Davidson diagonalization with overlap
     ethr =  9.07E-10,  avg # of iterations =  2.0

     End of self-consistent calculation

          k = 0.0681 0.0681 0.0681 (  4055 PWs)   bands (ev):

   -43.0700 -42.1102 -42.1102 -42.1100 -41.1859 -41.1859 -41.1858 -40.2904
   -10.9341 -10.9341 -10.9341 -10.1128 -10.1128 -10.1128 -10.1102 -10.1102
   -10.1102  -9.3814  -9.3783  -9.3783  -5.8992  -5.8940  -5.8940  -5.3795
    -5.3795  -5.3794  -5.3777  -5.3776  -5.3776  -4.8976  -4.8976  -4.8976
    29.4467  29.4467  29.4467  31.5309  31.5309  32.2730  32.3478  32.3478
    33.1683  33.1683  33.1683  33.3718  36.3277  36.3277  36.3277  36.4264
    36.4264  36.4264  40.0969  40.0969  40.0969  40.5025  40.5025  40.5025
    41.7499  41.7499  41.7499  41.7642  41.7643  41.7643  44.2459  44.2459
    44.2459  46.8477  46.8857  46.8857  47.5629  47.5629  47.5629  50.8805
    50.8806  50.8806  51.6168  51.6168  52.3282  54.2760  54.2760  54.2760
    54.9841  54.9842  54.9842  59.4764  59.4764  59.4764

[...]

          k = 0.4767-0.6129-0.6129 (  4108 PWs)   bands (ev):

[...]

          k =-0.6129-0.6129-0.6129 (  4032 PWs)   bands (ev):

   -41.7024 -41.7024 -41.7024 -41.7023 -41.7023 -41.7023 -41.7022 -41.7022
    -7.9999  -7.9998  -7.9998  -7.9998  -7.9998  -7.9998  -7.9998  -7.9998
    -7.8836  -7.8836  -7.8836  -7.8836  -7.8836  -7.8835  -7.8835  -7.8835
    -7.8835  -7.8835  -7.8834  -7.8834  -7.8834  -7.8834  -7.8834  -7.8834
    35.3567  35.3567  35.3567  35.3567  35.3567  35.3567  35.3567  35.3567
    38.2079  38.2079  38.2079  38.2080  38.2080  38.2080  38.2080  38.2080
    38.2080  38.2080  38.2080  38.2080  38.2080  38.2080  38.2080  38.2080
    40.5547  40.5547  40.5547  40.5548  40.5548  40.5548  40.5548  40.5548
    40.5548  40.5548  40.5548  40.5548  40.5548  40.5548  40.5549  40.5549
    48.5528  48.5528  48.5528  48.5528  48.5528  48.5528  48.5528  48.5528
    65.7350  65.7350  65.7350  65.7350  65.7350  65.7350

     the Fermi energy is    46.8043 ev

!    total energy              =   -4088.01771394 Ry

     total all-electron energy =    -80728.231141 Ry
     estimated scf accuracy    <       0.00000040 Ry
     smearing contrib. (-TS)   =       0.00026074 Ry
     internal energy E=F+TS    =   -4088.01797468 Ry

     The total energy is F=E-TS. E is the sum of the following terms:
     one-electron contribution =     -62.39964562 Ry
     hartree contribution      =     260.89723633 Ry
     xc contribution           =    -256.86988109 Ry
     ewald contribution        =   -1987.41574600 Ry
     one-center paw contrib.   =   -2042.22993831 Ry

     convergence has been achieved in  16 iterations

     Forces acting on atoms (cartesian axes, Ry/au):

     atom    1 type  1   force =     0.00000000    0.00000000    0.00000000
     atom    2 type  1   force =     0.00000000    0.00000000    0.00000000
     atom    3 type  1   force =     0.00000000    0.00000000    0.00000000
     atom    4 type  1   force =     0.00000000    0.00000000    0.00000000
     atom    5 type  1   force =     0.00000000    0.00000000    0.00000000
     atom    6 type  1   force =     0.00000000    0.00000000    0.00000000
     atom    7 type  1   force =     0.00000000    0.00000000    0.00000000
     atom    8 type  1   force =     0.00000000    0.00000000    0.00000000

     Total force =     0.000000     Total SCF correction =     0.000000

     Computing stress (Cartesian axis) and pressure

          total   stress  (Ry/bohr**3)                   (kbar)     P=     9695.12
   0.06590608   0.00000000   0.00000000         9695.12        0.00        0.00
   0.00000000   0.06590608   0.00000000            0.00     9695.12        0.00
   0.00000000   0.00000000   0.06590608            0.00        0.00     9695.12

     Writing output data file /scratch/XznyuRJaxuebgJqc.save/

     General routines

     Parallel routines

   This run was terminated on:   3:39:24  30Nov2021

   JOB DONE.