     Program PWSCF v.6.7MaX starts on 30Nov2021 at  3:39:29

     R & G space division:  proc/nbgrp/npool/nimage =      72
     Reading input from sc_3.in
Warning: card &CELL ignored
Warning: card CELL_DYNAMICS = 'BFGS', ignored
Warning: card CELL_FACTOR = 2.0, ignored
Warning: card PRESS = 0.0, ignored
Warning: card / ignored

     Current dimensions of program PWSCF are:
     Max number of different atomic species (ntypx) = 10
     Max number of k-points (npk) =  40000
     Max angular momentum in pseudopotentials (lmaxx) =  3
     file Pd.pbe-spn-kjpaw_psl.1.0.0.UPF: wavefunction(s)  4S 5S 4D renormalized

     Subspace diagonalization in iterative solution of the eigenvalue problem:
     one sub-group per band group will be used

     Found symmetry operation: I + (  0.0000  0.0000 -0.5000)
     This is a supercell, fractional translations are disabled
     Message from routine setup:
     using ibrav=0 with symmetry is DISCOURAGED, use correct ibrav instead

     bravais-lattice index     =            0
     lattice parameter (alat)  =       9.0720  a.u.
     unit-cell volume          =     511.5555 (a.u.)^3
     number of atoms/cell      =            8
     number of atomic types    =            1
     number of electrons       =       144.00
     number of Kohn-Sham states=           86
     kinetic-energy cutoff     =      71.0000  Ry
     charge density cutoff     =     430.0000  Ry
     scf convergence threshold =      1.0E-06
     mixing beta               =       0.1000
     number of iterations used =           10  TF        mixing
     Exchange-correlation= SLA  PW   PBX  PBC
                           (   1   4   3   4   0   0   0)

     celldm(1)=   9.072000  celldm(2)=   0.000000  celldm(3)=   0.000000
     celldm(4)=   0.000000  celldm(5)=   0.000000  celldm(6)=   0.000000

     crystal axes: (cart. coord. in units of alat)
               a(1) = (   0.881579   0.000000   0.000000 )
               a(2) = (   0.000000   0.881579   0.000000 )
               a(3) = (   0.000000   0.000000   0.881579 )

     reciprocal axes: (cart. coord. in units 2 pi/alat)
               b(1) = (  1.134328  0.000000  0.000000 )
               b(2) = (  0.000000  1.134328  0.000000 )
               b(3) = (  0.000000  0.000000  1.134328 )

     PseudoPot. # 1 for Pd read from file:
     /rds/homes/b/bxp912/pp/Pd.pbe-spn-kjpaw_psl.1.0.0.UPF
     MD5 check sum: 790f2ebce206edfd9790dcb9844eca51
     Pseudo is Projector augmented-wave + core cor, Zval = 18.0
     Generated using &quot;atomic&quot; code by A. Dal Corso  v.6.3
     Shape of augmentation charge: PSQ
     Using radial grid of 1235 points,  6 beta functions with:
                l(1) =   0
                l(2) =   0
                l(3) =   1
                l(4) =   1
                l(5) =   2
                l(6) =   2
     Q(r) pseudized with 0 coefficients

     atomic species   valence    mass     pseudopotential
        Pd            18.00   106.42000     Pd( 1.00)

     48 Sym. Ops., with inversion, found

   Cartesian axes

     site n.     atom                  positions (alat units)
         1           Pd  tau(   1) = (   0.0000000   0.0000000   0.0000000  )
         2           Pd  tau(   2) = (   0.0000000   0.0000000   0.4407895  )
         3           Pd  tau(   3) = (   0.0000000   0.4407895   0.0000000  )
         4           Pd  tau(   4) = (   0.0000000   0.4407895   0.4407895  )
         5           Pd  tau(   5) = (   0.4407895   0.0000000   0.0000000  )
         6           Pd  tau(   6) = (   0.4407895   0.0000000   0.4407895  )
         7           Pd  tau(   7) = (   0.4407895   0.4407895   0.0000000  )
         8           Pd  tau(   8) = (   0.4407895   0.4407895   0.4407895  )

     number of k points=    35  Marzari-Vanderbilt smearing, width (Ry)=  0.0400
                       cart. coord. in units 2pi/alat
        k(    1) = (   0.0630182   0.0630182   0.0630182), wk =   0.0219479
        k(    2) = (   0.0630182   0.0630182   0.1890547), wk =   0.0658436
        k(    3) = (   0.0630182   0.0630182   0.3150912), wk =   0.0658436
        k(    4) = (   0.0630182   0.0630182   0.4411277), wk =   0.0658436
        k(    5) = (   0.0630182   0.0630182  -0.5671642), wk =   0.0329218
        k(    6) = (   0.0630182   0.1890547   0.1890547), wk =   0.0658436
        k(    7) = (   0.0630182   0.1890547   0.3150912), wk =   0.1316872
        k(    8) = (   0.0630182   0.1890547   0.4411277), wk =   0.1316872
        k(    9) = (   0.0630182   0.1890547  -0.5671642), wk =   0.0658436
        k(   10) = (   0.0630182   0.3150912   0.3150912), wk =   0.0658436
        k(   11) = (   0.0630182   0.3150912   0.4411277), wk =   0.1316872
        k(   12) = (   0.0630182   0.3150912  -0.5671642), wk =   0.0658436
        k(   13) = (   0.0630182   0.4411277   0.4411277), wk =   0.0658436
        k(   14) = (   0.0630182   0.4411277  -0.5671642), wk =   0.0658436
        k(   15) = (   0.0630182  -0.5671642  -0.5671642), wk =   0.0164609
        k(   16) = (   0.1890547   0.1890547   0.1890547), wk =   0.0219479
        k(   17) = (   0.1890547   0.1890547   0.3150912), wk =   0.0658436
        k(   18) = (   0.1890547   0.1890547   0.4411277), wk =   0.0658436
        k(   19) = (   0.1890547   0.1890547  -0.5671642), wk =   0.0329218
        k(   20) = (   0.1890547   0.3150912   0.3150912), wk =   0.0658436
        k(   21) = (   0.1890547   0.3150912   0.4411277), wk =   0.1316872
        k(   22) = (   0.1890547   0.3150912  -0.5671642), wk =   0.0658436
        k(   23) = (   0.1890547   0.4411277   0.4411277), wk =   0.0658436
        k(   24) = (   0.1890547   0.4411277  -0.5671642), wk =   0.0658436
        k(   25) = (   0.1890547  -0.5671642  -0.5671642), wk =   0.0164609
        k(   26) = (   0.3150912   0.3150912   0.3150912), wk =   0.0219479
        k(   27) = (   0.3150912   0.3150912   0.4411277), wk =   0.0658436
        k(   28) = (   0.3150912   0.3150912  -0.5671642), wk =   0.0329218
        k(   29) = (   0.3150912   0.4411277   0.4411277), wk =   0.0658436
        k(   30) = (   0.3150912   0.4411277  -0.5671642), wk =   0.0658436
        k(   31) = (   0.3150912  -0.5671642  -0.5671642), wk =   0.0164609
        k(   32) = (   0.4411277   0.4411277   0.4411277), wk =   0.0219479
        k(   33) = (   0.4411277   0.4411277  -0.5671642), wk =   0.0329218
        k(   34) = (   0.4411277  -0.5671642  -0.5671642), wk =   0.0164609
        k(   35) = (  -0.5671642  -0.5671642  -0.5671642), wk =   0.0027435

     Check: negative core charge=   -0.000001

     Initial potential from superposition of free atoms

     starting charge  143.99694, renormalised to  144.00000
     Starting wfcs are   80 randomized atomic wfcs +    6 random wfcs
     Checking if some PAW data can be deallocated...

     Self-consistent Calculation

     iteration #  1     ecut=    71.00 Ry     beta= 0.10
     Davidson diagonalization with overlap
     ethr =  1.00E-02,  avg # of iterations =  4.7

     Threshold (ethr) on eigenvalues was too large:
     Diagonalizing with lowered threshold

     Davidson diagonalization with overlap
     ethr =  1.20E-04,  avg # of iterations =  4.0

     total energy              =   -4092.69297745 Ry
     estimated scf accuracy    <       0.16129068 Ry

[...]

     total energy              =   -4092.65099552 Ry
     estimated scf accuracy    <       0.00000295 Ry

     iteration # 13     ecut=    71.00 Ry     beta= 0.10
     Davidson diagonalization with overlap
     ethr =  2.02E-09,  avg # of iterations =  2.0

     End of self-consistent calculation

          k = 0.0630 0.0630 0.0630 (  5158 PWs)   bands (ev):

   -51.6243 -51.1870 -51.1862 -51.1862 -50.7650 -50.7643 -50.7643 -50.3561
   -18.6039 -18.6039 -18.6039 -18.2023 -18.2020 -18.2020 -18.2005 -18.2005
   -18.2002 -17.8388 -17.8367 -17.8367 -15.9004 -15.8966 -15.8966 -15.6408
   -15.6405 -15.6405 -15.6390 -15.6390 -15.6387 -15.3965 -15.3965 -15.3965
    23.1867  23.1867  23.1867  24.4326  24.4665  24.4665  25.2763  25.3345
    25.3345  25.6526  25.6526  25.6528  27.2927  27.2927  27.2927  27.7413
    27.7413  27.7414  30.9257  30.9259  30.9259  31.2527  31.2527  31.2529
    32.0888  32.0890  32.0890  32.0987  32.0987  32.0989  33.9655  33.9655
    33.9655  35.6115  35.6359  35.6359  36.0796  36.0796  36.0796  38.4335
    38.4335  38.4338  38.9041  38.9041  42.3211  42.3212  42.3212  42.9220
    42.9220  42.9221  43.8906  45.4900  45.4900  45.4901

[...]

          k = 0.4411-0.5672-0.5672 (  5160 PWs)   bands (ev):

[...]

          k =-0.5672-0.5672-0.5672 (  5232 PWs)   bands (ev):

   -50.9903 -50.9899 -50.9891 -50.9891 -50.9891 -50.9891 -50.9891 -50.9891
   -17.0407 -17.0407 -17.0407 -17.0407 -17.0407 -17.0407 -17.0405 -17.0404
   -16.9554 -16.9554 -16.9554 -16.9552 -16.9552 -16.9552 -16.9548 -16.9548
   -16.9548 -16.9548 -16.9548 -16.9547 -16.9547 -16.9547 -16.9547 -16.9547
    27.1672  27.1672  27.1672  27.1672  27.1672  27.1672  27.1673  27.1673
    29.3263  29.3263  29.3264  29.3264  29.3264  29.3264  29.3264  29.3265
    29.3265  29.3265  29.3266  29.3266  29.3266  29.3266  29.3266  29.3266
    31.1421  31.1421  31.1422  31.1422  31.1422  31.1422  31.1422  31.1422
    31.1422  31.1422  31.1424  31.1424  31.1424  31.1425  31.1425  31.1425
    36.6371  36.6371  36.6371  36.6371  36.6371  36.6371  36.6371  36.6371
    53.3130  53.3131  53.3131  53.3131  53.3131  53.3131

     the Fermi energy is    35.5265 ev

!    total energy              =   -4092.65099714 Ry

     total all-electron energy =    -80732.864424 Ry
     estimated scf accuracy    <       0.00000073 Ry
     smearing contrib. (-TS)   =       0.00348392 Ry
     internal energy E=F+TS    =   -4092.65448105 Ry

     The total energy is F=E-TS. E is the sum of the following terms:
     one-electron contribution =    -275.41258299 Ry
     hartree contribution      =     316.47305898 Ry
     xc contribution           =    -252.54843509 Ry
     ewald contribution        =   -1839.10113809 Ry
     one-center paw contrib.   =   -2042.06538386 Ry

     convergence has been achieved in  13 iterations

     Forces acting on atoms (cartesian axes, Ry/au):

     atom    1 type  1   force =     0.00000000    0.00000000    0.00000000
     atom    2 type  1   force =     0.00000000    0.00000000    0.00000000
     atom    3 type  1   force =     0.00000000    0.00000000    0.00000000
     atom    4 type  1   force =     0.00000000    0.00000000    0.00000000
     atom    5 type  1   force =     0.00000000    0.00000000    0.00000000
     atom    6 type  1   force =     0.00000000    0.00000000    0.00000000
     atom    7 type  1   force =     0.00000000    0.00000000    0.00000000
     atom    8 type  1   force =     0.00000000    0.00000000    0.00000000

     Total force =     0.000000     Total SCF correction =     0.000000

     Computing stress (Cartesian axis) and pressure

          total   stress  (Ry/bohr**3)                   (kbar)     P=     4001.59
   0.02720224   0.00000000   0.00000000         4001.59        0.00        0.00
   0.00000000   0.02720224   0.00000000            0.00     4001.59        0.00
   0.00000000   0.00000000   0.02720224            0.00        0.00     4001.59

     Writing output data file /scratch/qiNcStINyOuHCNjQ.save/

     General routines

     Parallel routines

   This run was terminated on:   3:40:17  30Nov2021

   JOB DONE.