     Program PWSCF v.6.7MaX starts on 30Nov2021 at  3:40:22

     R & G space division:  proc/nbgrp/npool/nimage =      72
     Reading input from sc_4.in
Warning: card &CELL ignored
Warning: card CELL_DYNAMICS = 'BFGS', ignored
Warning: card CELL_FACTOR = 2.0, ignored
Warning: card PRESS = 0.0, ignored
Warning: card / ignored

     Current dimensions of program PWSCF are:
     Max number of different atomic species (ntypx) = 10
     Max number of k-points (npk) =  40000
     Max angular momentum in pseudopotentials (lmaxx) =  3
     file Pd.pbe-spn-kjpaw_psl.1.0.0.UPF: wavefunction(s)  4S 5S 4D renormalized

     Subspace diagonalization in iterative solution of the eigenvalue problem:
     one sub-group per band group will be used

     Found symmetry operation: I + (  0.0000  0.0000  0.5000)
     This is a supercell, fractional translations are disabled
     Message from routine setup:
     using ibrav=0 with symmetry is DISCOURAGED, use correct ibrav instead

     bravais-lattice index     =            0
     lattice parameter (alat)  =       9.0720  a.u.
     unit-cell volume          =     634.8423 (a.u.)^3
     number of atoms/cell      =            8
     number of atomic types    =            1
     number of electrons       =       144.00
     number of Kohn-Sham states=           86
     kinetic-energy cutoff     =      71.0000  Ry
     charge density cutoff     =     430.0000  Ry
     scf convergence threshold =      1.0E-06
     mixing beta               =       0.1000
     number of iterations used =           10  TF        mixing
     Exchange-correlation= SLA  PW   PBX  PBC
                           (   1   4   3   4   0   0   0)

     celldm(1)=   9.072000  celldm(2)=   0.000000  celldm(3)=   0.000000
     celldm(4)=   0.000000  celldm(5)=   0.000000  celldm(6)=   0.000000

     crystal axes: (cart. coord. in units of alat)
               a(1) = (   0.947368   0.000000   0.000000 )
               a(2) = (   0.000000   0.947368   0.000000 )
               a(3) = (   0.000000   0.000000   0.947368 )

     reciprocal axes: (cart. coord. in units 2 pi/alat)
               b(1) = (  1.055556  0.000000  0.000000 )
               b(2) = (  0.000000  1.055556  0.000000 )
               b(3) = (  0.000000  0.000000  1.055556 )

     PseudoPot. # 1 for Pd read from file:
     /rds/homes/b/bxp912/pp/Pd.pbe-spn-kjpaw_psl.1.0.0.UPF
     MD5 check sum: 790f2ebce206edfd9790dcb9844eca51
     Pseudo is Projector augmented-wave + core cor, Zval = 18.0
     Generated using &quot;atomic&quot; code by A. Dal Corso  v.6.3
     Shape of augmentation charge: PSQ
     Using radial grid of 1235 points,  6 beta functions with:
                l(1) =   0
                l(2) =   0
                l(3) =   1
                l(4) =   1
                l(5) =   2
                l(6) =   2
     Q(r) pseudized with 0 coefficients

     atomic species   valence    mass     pseudopotential
        Pd            18.00   106.42000     Pd( 1.00)

     48 Sym. Ops., with inversion, found

   Cartesian axes

     site n.     atom                  positions (alat units)
         1           Pd  tau(   1) = (   0.0000000   0.0000000   0.0000000  )
         2           Pd  tau(   2) = (   0.0000000   0.0000000   0.4736842  )
         3           Pd  tau(   3) = (   0.0000000   0.4736842   0.0000000  )
         4           Pd  tau(   4) = (   0.0000000   0.4736842   0.4736842  )
         5           Pd  tau(   5) = (   0.4736842   0.0000000   0.0000000  )
         6           Pd  tau(   6) = (   0.4736842   0.0000000   0.4736842  )
         7           Pd  tau(   7) = (   0.4736842   0.4736842   0.0000000  )
         8           Pd  tau(   8) = (   0.4736842   0.4736842   0.4736842  )

     number of k points=    35  Marzari-Vanderbilt smearing, width (Ry)=  0.0400
                       cart. coord. in units 2pi/alat
        k(    1) = (   0.0586420   0.0586420   0.0586420), wk =   0.0219479
        k(    2) = (   0.0586420   0.0586420   0.1759259), wk =   0.0658436
        k(    3) = (   0.0586420   0.0586420   0.2932099), wk =   0.0658436
        k(    4) = (   0.0586420   0.0586420   0.4104938), wk =   0.0658436
        k(    5) = (   0.0586420   0.0586420  -0.5277778), wk =   0.0329218
        k(    6) = (   0.0586420   0.1759259   0.1759259), wk =   0.0658436
        k(    7) = (   0.0586420   0.1759259   0.2932099), wk =   0.1316872
        k(    8) = (   0.0586420   0.1759259   0.4104938), wk =   0.1316872
        k(    9) = (   0.0586420   0.1759259  -0.5277778), wk =   0.0658436
        k(   10) = (   0.0586420   0.2932099   0.2932099), wk =   0.0658436
        k(   11) = (   0.0586420   0.2932099   0.4104938), wk =   0.1316872
        k(   12) = (   0.0586420   0.2932099  -0.5277778), wk =   0.0658436
        k(   13) = (   0.0586420   0.4104938   0.4104938), wk =   0.0658436
        k(   14) = (   0.0586420   0.4104938  -0.5277778), wk =   0.0658436
        k(   15) = (   0.0586420  -0.5277778  -0.5277778), wk =   0.0164609
        k(   16) = (   0.1759259   0.1759259   0.1759259), wk =   0.0219479
        k(   17) = (   0.1759259   0.1759259   0.2932099), wk =   0.0658436
        k(   18) = (   0.1759259   0.1759259   0.4104938), wk =   0.0658436
        k(   19) = (   0.1759259   0.1759259  -0.5277778), wk =   0.0329218
        k(   20) = (   0.1759259   0.2932099   0.2932099), wk =   0.0658436
        k(   21) = (   0.1759259   0.2932099   0.4104938), wk =   0.1316872
        k(   22) = (   0.1759259   0.2932099  -0.5277778), wk =   0.0658436
        k(   23) = (   0.1759259   0.4104938   0.4104938), wk =   0.0658436
        k(   24) = (   0.1759259   0.4104938  -0.5277778), wk =   0.0658436
        k(   25) = (   0.1759259  -0.5277778  -0.5277778), wk =   0.0164609
        k(   26) = (   0.2932099   0.2932099   0.2932099), wk =   0.0219479
        k(   27) = (   0.2932099   0.2932099   0.4104938), wk =   0.0658436
        k(   28) = (   0.2932099   0.2932099  -0.5277778), wk =   0.0329218
        k(   29) = (   0.2932099   0.4104938   0.4104938), wk =   0.0658436
        k(   30) = (   0.2932099   0.4104938  -0.5277778), wk =   0.0658436
        k(   31) = (   0.2932099  -0.5277778  -0.5277778), wk =   0.0164609
        k(   32) = (   0.4104938   0.4104938   0.4104938), wk =   0.0219479
        k(   33) = (   0.4104938   0.4104938  -0.5277778), wk =   0.0329218
        k(   34) = (   0.4104938  -0.5277778  -0.5277778), wk =   0.0164609
        k(   35) = (  -0.5277778  -0.5277778  -0.5277778), wk =   0.0027435

     Check: negative core charge=   -0.000002

     Initial potential from superposition of free atoms

     starting charge  143.99694, renormalised to  144.00000
     Starting wfcs are   80 randomized atomic wfcs +    6 random wfcs
     Checking if some PAW data can be deallocated...

     Self-consistent Calculation

     iteration #  1     ecut=    71.00 Ry     beta= 0.10
     Davidson diagonalization with overlap
     ethr =  1.00E-02,  avg # of iterations =  4.3

     Threshold (ethr) on eigenvalues was too large:
     Diagonalizing with lowered threshold

     Davidson diagonalization with overlap
     ethr =  1.19E-04,  avg # of iterations =  3.5

     total energy              =   -4094.85152001 Ry
     estimated scf accuracy    <       0.16320482 Ry

[...]

     total energy              =   -4094.81488738 Ry
     estimated scf accuracy    <       0.00000230 Ry

     iteration # 12     ecut=    71.00 Ry     beta= 0.10
     Davidson diagonalization with overlap
     ethr =  1.60E-09,  avg # of iterations =  2.0

     End of self-consistent calculation

          k = 0.0586 0.0586 0.0586 (  6436 PWs)   bands (ev):

   -58.4157 -58.2182 -58.2182 -58.2173 -58.0265 -58.0265 -58.0256 -57.8399
   -24.8368 -24.8368 -24.8368 -24.6426 -24.6426 -24.6422 -24.6414 -24.6410
   -24.6410 -24.4639 -24.4631 -24.4631 -23.3972 -23.3958 -23.3958 -23.2670
   -23.2670 -23.2665 -23.2662 -23.2657 -23.2657 -23.1420 -23.1420 -23.1420
    18.1001  18.2781  18.2781  18.2781  19.0388  19.0388  19.8255  19.8700
    19.8700  19.9068  19.9071  19.9071  20.7328  20.7329  20.7329  21.2915
    21.2917  21.2917  23.9531  23.9531  23.9534  24.1864  24.1867  24.1867
    24.7583  24.7583  24.7586  24.7651  24.7654  24.7654  26.3999  26.3999
    26.3999  27.2348  27.2502  27.2502  27.5501  27.5501  27.5501  29.2546
    29.2550  29.2550  29.5599  29.5599  33.3678  33.3678  33.3679  33.8742
    33.8743  33.8743  35.0465  35.0465  35.0465  37.1549

[...]

          k = 0.4105-0.5278-0.5278 (  6388 PWs)   bands (ev):

[...]

          k =-0.5278-0.5278-0.5278 (  6488 PWs)   bands (ev):

   -58.1260 -58.1260 -58.1260 -58.1260 -58.1260 -58.1260 -58.1250 -58.1245
   -24.0063 -24.0063 -24.0060 -24.0060 -24.0060 -24.0059 -24.0059 -24.0059
   -23.9607 -23.9607 -23.9607 -23.9607 -23.9607 -23.9607 -23.9607 -23.9607
   -23.9606 -23.9606 -23.9601 -23.9601 -23.9601 -23.9598 -23.9598 -23.9598
    21.0103  21.0103  21.0104  21.0104  21.0104  21.0105  21.0105  21.0105
    22.6191  22.6191  22.6191  22.6191  22.6191  22.6191  22.6193  22.6193
    22.6193  22.6193  22.6193  22.6193  22.6195  22.6195  22.6197  22.6197
    24.0690  24.0690  24.0690  24.0690  24.0690  24.0690  24.0692  24.0692
    24.0693  24.0693  24.0693  24.0694  24.0694  24.0694  24.0694  24.0694
    27.9855  27.9855  27.9855  27.9855  27.9855  27.9855  27.9855  27.9855
    43.6599  43.6599  43.6599  43.6599  43.6600  43.6600

     the Fermi energy is    27.1858 ev

!    total energy              =   -4094.81488892 Ry

     total all-electron energy =    -80735.028316 Ry
     estimated scf accuracy    <       0.00000042 Ry
     smearing contrib. (-TS)   =       0.01063914 Ry
     internal energy E=F+TS    =   -4094.82552807 Ry

     The total energy is F=E-TS. E is the sum of the following terms:
     one-electron contribution =    -464.27739763 Ry
     hartree contribution      =     372.44672799 Ry
     xc contribution           =    -249.64938013 Ry
     ewald contribution        =   -1711.38578127 Ry
     one-center paw contrib.   =   -2041.95969703 Ry

     convergence has been achieved in  12 iterations

     Forces acting on atoms (cartesian axes, Ry/au):

     atom    1 type  1   force =     0.00000000    0.00000000    0.00000000
     atom    2 type  1   force =     0.00000000    0.00000000    0.00000000
     atom    3 type  1   force =     0.00000000    0.00000000    0.00000000
     atom    4 type  1   force =     0.00000000    0.00000000    0.00000000
     atom    5 type  1   force =     0.00000000    0.00000000    0.00000000
     atom    6 type  1   force =     0.00000000    0.00000000    0.00000000
     atom    7 type  1   force =     0.00000000    0.00000000    0.00000000
     atom    8 type  1   force =     0.00000000    0.00000000    0.00000000

     Total force =     0.000000     Total SCF correction =     0.000000

     Computing stress (Cartesian axis) and pressure

          total   stress  (Ry/bohr**3)                   (kbar)     P=     1518.16
   0.01032024   0.00000000   0.00000000         1518.16        0.00        0.00
   0.00000000   0.01032024   0.00000000            0.00     1518.16        0.00
   0.00000000   0.00000000   0.01032024            0.00        0.00     1518.16

     Writing output data file /scratch/qXpiEgRfDQVDQGmn.save/

     General routines

     Parallel routines

   This run was terminated on:   3:41: 3  30Nov2021

   JOB DONE.