     Program PWSCF v.6.7MaX starts on 30Nov2021 at  3:41: 9

     R & G space division:  proc/nbgrp/npool/nimage =      72
     Reading input from sc_5.in
Warning: card &CELL ignored
Warning: card CELL_DYNAMICS = 'BFGS', ignored
Warning: card CELL_FACTOR = 2.0, ignored
Warning: card PRESS = 0.0, ignored
Warning: card / ignored

     Current dimensions of program PWSCF are:
     Max number of different atomic species (ntypx) = 10
     Max number of k-points (npk) =  40000
     Max angular momentum in pseudopotentials (lmaxx) =  3
     file Pd.pbe-spn-kjpaw_psl.1.0.0.UPF: wavefunction(s)  4S 5S 4D renormalized

     Subspace diagonalization in iterative solution of the eigenvalue problem:
     one sub-group per band group will be used

     Found symmetry operation: I + (  0.0000  0.0000  0.5000)
     This is a supercell, fractional translations are disabled
     Message from routine setup:
     using ibrav=0 with symmetry is DISCOURAGED, use correct ibrav instead

     bravais-lattice index     =            0
     lattice parameter (alat)  =       9.0720  a.u.
     unit-cell volume          =     776.4983 (a.u.)^3
     number of atoms/cell      =            8
     number of atomic types    =            1
     number of electrons       =       144.00
     number of Kohn-Sham states=           86
     kinetic-energy cutoff     =      71.0000  Ry
     charge density cutoff     =     430.0000  Ry
     scf convergence threshold =      1.0E-06
     mixing beta               =       0.1000
     number of iterations used =           10  TF        mixing
     Exchange-correlation= SLA  PW   PBX  PBC
                           (   1   4   3   4   0   0   0)

     celldm(1)=   9.072000  celldm(2)=   0.000000  celldm(3)=   0.000000
     celldm(4)=   0.000000  celldm(5)=   0.000000  celldm(6)=   0.000000

     crystal axes: (cart. coord. in units of alat)
               a(1) = (   1.013158   0.000000   0.000000 )
               a(2) = (   0.000000   1.013158   0.000000 )
               a(3) = (   0.000000   0.000000   1.013158 )

     reciprocal axes: (cart. coord. in units 2 pi/alat)
               b(1) = (  0.987013  0.000000  0.000000 )
               b(2) = (  0.000000  0.987013  0.000000 )
               b(3) = (  0.000000  0.000000  0.987013 )

     PseudoPot. # 1 for Pd read from file:
     /rds/homes/b/bxp912/pp/Pd.pbe-spn-kjpaw_psl.1.0.0.UPF
     MD5 check sum: 790f2ebce206edfd9790dcb9844eca51
     Pseudo is Projector augmented-wave + core cor, Zval = 18.0
     Generated using &quot;atomic&quot; code by A. Dal Corso  v.6.3
     Shape of augmentation charge: PSQ
     Using radial grid of 1235 points,  6 beta functions with:
                l(1) =   0
                l(2) =   0
                l(3) =   1
                l(4) =   1
                l(5) =   2
                l(6) =   2
     Q(r) pseudized with 0 coefficients

     atomic species   valence    mass     pseudopotential
        Pd            18.00   106.42000     Pd( 1.00)

     48 Sym. Ops., with inversion, found

   Cartesian axes

     site n.     atom                  positions (alat units)
         1           Pd  tau(   1) = (   0.0000000   0.0000000   0.0000000  )
         2           Pd  tau(   2) = (   0.0000000   0.0000000   0.5065789  )
         3           Pd  tau(   3) = (   0.0000000   0.5065789   0.0000000  )
         4           Pd  tau(   4) = (   0.0000000   0.5065789   0.5065789  )
         5           Pd  tau(   5) = (   0.5065789   0.0000000   0.0000000  )
         6           Pd  tau(   6) = (   0.5065789   0.0000000   0.5065789  )
         7           Pd  tau(   7) = (   0.5065789   0.5065789   0.0000000  )
         8           Pd  tau(   8) = (   0.5065789   0.5065789   0.5065789  )

     number of k points=    35  Marzari-Vanderbilt smearing, width (Ry)=  0.0400
                       cart. coord. in units 2pi/alat
        k(    1) = (   0.0548341   0.0548341   0.0548341), wk =   0.0219479
        k(    2) = (   0.0548341   0.0548341   0.1645022), wk =   0.0658436
        k(    3) = (   0.0548341   0.0548341   0.2741703), wk =   0.0658436
        k(    4) = (   0.0548341   0.0548341   0.3838384), wk =   0.0658436
        k(    5) = (   0.0548341   0.0548341  -0.4935065), wk =   0.0329218
        k(    6) = (   0.0548341   0.1645022   0.1645022), wk =   0.0658436
        k(    7) = (   0.0548341   0.1645022   0.2741703), wk =   0.1316872
        k(    8) = (   0.0548341   0.1645022   0.3838384), wk =   0.1316872
        k(    9) = (   0.0548341   0.1645022  -0.4935065), wk =   0.0658436
        k(   10) = (   0.0548341   0.2741703   0.2741703), wk =   0.0658436
        k(   11) = (   0.0548341   0.2741703   0.3838384), wk =   0.1316872
        k(   12) = (   0.0548341   0.2741703  -0.4935065), wk =   0.0658436
        k(   13) = (   0.0548341   0.3838384   0.3838384), wk =   0.0658436
        k(   14) = (   0.0548341   0.3838384  -0.4935065), wk =   0.0658436
        k(   15) = (   0.0548341  -0.4935065  -0.4935065), wk =   0.0164609
        k(   16) = (   0.1645022   0.1645022   0.1645022), wk =   0.0219479
        k(   17) = (   0.1645022   0.1645022   0.2741703), wk =   0.0658436
        k(   18) = (   0.1645022   0.1645022   0.3838384), wk =   0.0658436
        k(   19) = (   0.1645022   0.1645022  -0.4935065), wk =   0.0329218
        k(   20) = (   0.1645022   0.2741703   0.2741703), wk =   0.0658436
        k(   21) = (   0.1645022   0.2741703   0.3838384), wk =   0.1316872
        k(   22) = (   0.1645022   0.2741703  -0.4935065), wk =   0.0658436
        k(   23) = (   0.1645022   0.3838384   0.3838384), wk =   0.0658436
        k(   24) = (   0.1645022   0.3838384  -0.4935065), wk =   0.0658436
        k(   25) = (   0.1645022  -0.4935065  -0.4935065), wk =   0.0164609
        k(   26) = (   0.2741703   0.2741703   0.2741703), wk =   0.0219479
        k(   27) = (   0.2741703   0.2741703   0.3838384), wk =   0.0658436
        k(   28) = (   0.2741703   0.2741703  -0.4935065), wk =   0.0329218
        k(   29) = (   0.2741703   0.3838384   0.3838384), wk =   0.0658436
        k(   30) = (   0.2741703   0.3838384  -0.4935065), wk =   0.0658436
        k(   31) = (   0.2741703  -0.4935065  -0.4935065), wk =   0.0164609
        k(   32) = (   0.3838384   0.3838384   0.3838384), wk =   0.0219479
        k(   33) = (   0.3838384   0.3838384  -0.4935065), wk =   0.0329218
        k(   34) = (   0.3838384  -0.4935065  -0.4935065), wk =   0.0164609
        k(   35) = (  -0.4935065  -0.4935065  -0.4935065), wk =   0.0027435

     Check: negative core charge=   -0.000002

     Initial potential from superposition of free atoms

     starting charge  143.99694, renormalised to  144.00000
     Starting wfcs are   80 randomized atomic wfcs +    6 random wfcs
     Checking if some PAW data can be deallocated...

     Self-consistent Calculation

     iteration #  1     ecut=    71.00 Ry     beta= 0.10
     Davidson diagonalization with overlap
     ethr =  1.00E-02,  avg # of iterations =  3.6

     Threshold (ethr) on eigenvalues was too large:
     Diagonalizing with lowered threshold

     Davidson diagonalization with overlap
     ethr =  1.78E-04,  avg # of iterations =  2.7

     total energy              =   -4095.74375692 Ry
     estimated scf accuracy    <       0.24822402 Ry

[...]

     total energy              =   -4095.69367315 Ry
     estimated scf accuracy    <       0.00002389 Ry

     iteration # 11     ecut=    71.00 Ry     beta= 0.10
     Davidson diagonalization with overlap
     ethr =  1.66E-08,  avg # of iterations =  2.0

     End of self-consistent calculation

          k = 0.0548 0.0548 0.0548 (  7866 PWs)   bands (ev):

   -63.7262 -63.6370 -63.6370 -63.6368 -63.5499 -63.5499 -63.5497 -63.4647
   -29.8232 -29.8232 -29.8232 -29.7296 -29.7296 -29.7295 -29.7292 -29.7291
   -29.7291 -29.6412 -29.6406 -29.6406 -29.0586 -29.0577 -29.0577 -28.9919
   -28.9919 -28.9918 -28.9914 -28.9913 -28.9913 -28.9275 -28.9275 -28.9275
    13.5047  14.3971  14.3971  14.3971  14.8262  14.8262  15.4681  15.4681
    15.4681  15.5459  15.5794  15.5794  15.8594  15.8594  15.8594  16.4139
    16.4140  16.4140  18.5995  18.5995  18.5995  18.7498  18.7499  18.7499
    19.1487  19.1487  19.1488  19.1535  19.1535  19.1535  20.7774  20.7774
    20.7774  20.9198  20.9300  20.9300  21.1381  21.1381  21.1381  22.3942
    22.3942  22.3942  22.5956  22.5956  26.6329  26.6329  26.6329  27.0681
    27.0681  27.0681  27.1896  27.1896  27.1896  31.7090

[...]

          k = 0.3838-0.4935-0.4935 (  7840 PWs)   bands (ev):

[...]

          k =-0.4935-0.4935-0.4935 (  7784 PWs)   bands (ev):

   -63.5946 -63.5946 -63.5946 -63.5942 -63.5942 -63.5942 -63.5942 -63.5942
   -29.3819 -29.3818 -29.3818 -29.3818 -29.3815 -29.3815 -29.3815 -29.3815
   -29.3604 -29.3604 -29.3604 -29.3604 -29.3604 -29.3601 -29.3601 -29.3601
   -29.3600 -29.3600 -29.3600 -29.3600 -29.3600 -29.3600 -29.3600 -29.3600
    16.3255  16.3255  16.3255  16.3255  16.3256  16.3257  16.3257  16.3257
    17.5094  17.5094  17.5094  17.5095  17.5095  17.5095  17.5096  17.5096
    17.5096  17.5096  17.5097  17.5097  17.5097  17.5097  17.5097  17.5097
    18.6567  18.6567  18.6567  18.6568  18.6568  18.6568  18.6568  18.6568
    18.6570  18.6570  18.6570  18.6570  18.6570  18.6570  18.6570  18.6570
    21.5809  21.5809  21.5809  21.5809  21.5809  21.5810  21.5810  21.5810
    35.9429  35.9430  35.9432  35.9437  35.9439  35.9443

     the Fermi energy is    20.9238 ev

!    total energy              =   -4095.69368179 Ry

     total all-electron energy =    -80735.907109 Ry
     estimated scf accuracy    <       0.00000083 Ry
     smearing contrib. (-TS)   =       0.02379386 Ry
     internal energy E=F+TS    =   -4095.71747565 Ry

     The total energy is F=E-TS. E is the sum of the following terms:
     one-electron contribution =    -633.71768475 Ry
     hartree contribution      =     427.89569028 Ry
     xc contribution           =    -247.75210833 Ry
     ewald contribution        =   -1600.25683443 Ry
     one-center paw contrib.   =   -2041.88653842 Ry

     convergence has been achieved in  11 iterations

     Forces acting on atoms (cartesian axes, Ry/au):

     atom    1 type  1   force =     0.00000000    0.00000000    0.00000000
     atom    2 type  1   force =     0.00000000    0.00000000    0.00000000
     atom    3 type  1   force =     0.00000000    0.00000000    0.00000000
     atom    4 type  1   force =     0.00000000    0.00000000    0.00000000
     atom    5 type  1   force =     0.00000000    0.00000000    0.00000000
     atom    6 type  1   force =     0.00000000    0.00000000    0.00000000
     atom    7 type  1   force =     0.00000000    0.00000000    0.00000000
     atom    8 type  1   force =     0.00000000    0.00000000    0.00000000

     Total force =     0.000000     Total SCF correction =     0.000000

     Computing stress (Cartesian axis) and pressure

          total   stress  (Ry/bohr**3)                   (kbar)     P=      447.22
   0.00304013   0.00000000   0.00000000          447.22        0.00        0.00
   0.00000000   0.00304013   0.00000000            0.00      447.22        0.00
   0.00000000   0.00000000   0.00304013            0.00        0.00      447.22

     Writing output data file /scratch/xcLESvGMCtSqUgVG.save/

     General routines

     Parallel routines

   This run was terminated on:   3:41:52  30Nov2021

   JOB DONE.