     Program PWSCF v.6.7MaX starts on 30Nov2021 at  3:41:57

     R & G space division:  proc/nbgrp/npool/nimage =      72
     Reading input from sc_6.in
Warning: card &CELL ignored
Warning: card CELL_DYNAMICS = 'BFGS', ignored
Warning: card CELL_FACTOR = 2.0, ignored
Warning: card PRESS = 0.0, ignored
Warning: card / ignored

     Current dimensions of program PWSCF are:
     Max number of different atomic species (ntypx) = 10
     Max number of k-points (npk) =  40000
     Max angular momentum in pseudopotentials (lmaxx) =  3
     file Pd.pbe-spn-kjpaw_psl.1.0.0.UPF: wavefunction(s)  4S 5S 4D renormalized

     Subspace diagonalization in iterative solution of the eigenvalue problem:
     one sub-group per band group will be used

     Found symmetry operation: I + (  0.0000  0.0000 -0.5000)
     This is a supercell, fractional translations are disabled
     Message from routine setup:
     using ibrav=0 with symmetry is DISCOURAGED, use correct ibrav instead

     bravais-lattice index     =            0
     lattice parameter (alat)  =       9.0720  a.u.
     unit-cell volume          =     937.7993 (a.u.)^3
     number of atoms/cell      =            8
     number of atomic types    =            1
     number of electrons       =       144.00
     number of Kohn-Sham states=           86
     kinetic-energy cutoff     =      71.0000  Ry
     charge density cutoff     =     430.0000  Ry
     scf convergence threshold =      1.0E-06
     mixing beta               =       0.1000
     number of iterations used =           10  TF        mixing
     Exchange-correlation= SLA  PW   PBX  PBC
                           (   1   4   3   4   0   0   0)

     celldm(1)=   9.072000  celldm(2)=   0.000000  celldm(3)=   0.000000
     celldm(4)=   0.000000  celldm(5)=   0.000000  celldm(6)=   0.000000

     crystal axes: (cart. coord. in units of alat)
               a(1) = (   1.078947   0.000000   0.000000 )
               a(2) = (   0.000000   1.078947   0.000000 )
               a(3) = (   0.000000   0.000000   1.078947 )

     reciprocal axes: (cart. coord. in units 2 pi/alat)
               b(1) = (  0.926829  0.000000  0.000000 )
               b(2) = (  0.000000  0.926829  0.000000 )
               b(3) = (  0.000000  0.000000  0.926829 )

     PseudoPot. # 1 for Pd read from file:
     /rds/homes/b/bxp912/pp/Pd.pbe-spn-kjpaw_psl.1.0.0.UPF
     MD5 check sum: 790f2ebce206edfd9790dcb9844eca51
     Pseudo is Projector augmented-wave + core cor, Zval = 18.0
     Generated using &quot;atomic&quot; code by A. Dal Corso  v.6.3
     Shape of augmentation charge: PSQ
     Using radial grid of 1235 points,  6 beta functions with:
                l(1) =   0
                l(2) =   0
                l(3) =   1
                l(4) =   1
                l(5) =   2
                l(6) =   2
     Q(r) pseudized with 0 coefficients

     atomic species   valence    mass     pseudopotential
        Pd            18.00   106.42000     Pd( 1.00)

     48 Sym. Ops., with inversion, found

   Cartesian axes

     site n.     atom                  positions (alat units)
         1           Pd  tau(   1) = (   0.0000000   0.0000000   0.0000000  )
         2           Pd  tau(   2) = (   0.0000000   0.0000000   0.5394737  )
         3           Pd  tau(   3) = (   0.0000000   0.5394737   0.0000000  )
         4           Pd  tau(   4) = (   0.0000000   0.5394737   0.5394737  )
         5           Pd  tau(   5) = (   0.5394737   0.0000000   0.0000000  )
         6           Pd  tau(   6) = (   0.5394737   0.0000000   0.5394737  )
         7           Pd  tau(   7) = (   0.5394737   0.5394737   0.0000000  )
         8           Pd  tau(   8) = (   0.5394737   0.5394737   0.5394737  )

     number of k points=    35  Marzari-Vanderbilt smearing, width (Ry)=  0.0400
                       cart. coord. in units 2pi/alat
        k(    1) = (   0.0514905   0.0514905   0.0514905), wk =   0.0219479
        k(    2) = (   0.0514905   0.0514905   0.1544715), wk =   0.0658436
        k(    3) = (   0.0514905   0.0514905   0.2574526), wk =   0.0658436
        k(    4) = (   0.0514905   0.0514905   0.3604336), wk =   0.0658436
        k(    5) = (   0.0514905   0.0514905  -0.4634146), wk =   0.0329218
        k(    6) = (   0.0514905   0.1544715   0.1544715), wk =   0.0658436
        k(    7) = (   0.0514905   0.1544715   0.2574526), wk =   0.1316872
        k(    8) = (   0.0514905   0.1544715   0.3604336), wk =   0.1316872
        k(    9) = (   0.0514905   0.1544715  -0.4634146), wk =   0.0658436
        k(   10) = (   0.0514905   0.2574526   0.2574526), wk =   0.0658436
        k(   11) = (   0.0514905   0.2574526   0.3604336), wk =   0.1316872
        k(   12) = (   0.0514905   0.2574526  -0.4634146), wk =   0.0658436
        k(   13) = (   0.0514905   0.3604336   0.3604336), wk =   0.0658436
        k(   14) = (   0.0514905   0.3604336  -0.4634146), wk =   0.0658436
        k(   15) = (   0.0514905  -0.4634146  -0.4634146), wk =   0.0164609
        k(   16) = (   0.1544715   0.1544715   0.1544715), wk =   0.0219479
        k(   17) = (   0.1544715   0.1544715   0.2574526), wk =   0.0658436
        k(   18) = (   0.1544715   0.1544715   0.3604336), wk =   0.0658436
        k(   19) = (   0.1544715   0.1544715  -0.4634146), wk =   0.0329218
        k(   20) = (   0.1544715   0.2574526   0.2574526), wk =   0.0658436
        k(   21) = (   0.1544715   0.2574526   0.3604336), wk =   0.1316872
        k(   22) = (   0.1544715   0.2574526  -0.4634146), wk =   0.0658436
        k(   23) = (   0.1544715   0.3604336   0.3604336), wk =   0.0658436
        k(   24) = (   0.1544715   0.3604336  -0.4634146), wk =   0.0658436
        k(   25) = (   0.1544715  -0.4634146  -0.4634146), wk =   0.0164609
        k(   26) = (   0.2574526   0.2574526   0.2574526), wk =   0.0219479
        k(   27) = (   0.2574526   0.2574526   0.3604336), wk =   0.0658436
        k(   28) = (   0.2574526   0.2574526  -0.4634146), wk =   0.0329218
        k(   29) = (   0.2574526   0.3604336   0.3604336), wk =   0.0658436
        k(   30) = (   0.2574526   0.3604336  -0.4634146), wk =   0.0658436
        k(   31) = (   0.2574526  -0.4634146  -0.4634146), wk =   0.0164609
        k(   32) = (   0.3604336   0.3604336   0.3604336), wk =   0.0219479
        k(   33) = (   0.3604336   0.3604336  -0.4634146), wk =   0.0329218
        k(   34) = (   0.3604336  -0.4634146  -0.4634146), wk =   0.0164609
        k(   35) = (  -0.4634146  -0.4634146  -0.4634146), wk =   0.0027435

     Check: negative core charge=   -0.000001

     Initial potential from superposition of free atoms

     starting charge  143.99694, renormalised to  144.00000
     Starting wfcs are   80 randomized atomic wfcs +    6 random wfcs
     Checking if some PAW data can be deallocated...

     Self-consistent Calculation

     iteration #  1     ecut=    71.00 Ry     beta= 0.10
     Davidson diagonalization with overlap
     ethr =  1.00E-02,  avg # of iterations =  3.2

     Threshold (ethr) on eigenvalues was too large:
     Diagonalizing with lowered threshold

     Davidson diagonalization with overlap
     ethr =  3.16E-04,  avg # of iterations =  1.8

     total energy              =   -4096.00432662 Ry
     estimated scf accuracy    <       0.44477285 Ry

[...]

     total energy              =   -4095.92269512 Ry
     estimated scf accuracy    <       0.00004189 Ry

     iteration # 11     ecut=    71.00 Ry     beta= 0.10
     Davidson diagonalization with overlap
     ethr =  2.91E-08,  avg # of iterations =  2.0

     End of self-consistent calculation

          k = 0.0515 0.0515 0.0515 (  9498 PWs)   bands (ev):

   -67.8614 -67.8211 -67.8210 -67.8210 -67.7813 -67.7812 -67.7812 -67.7423
   -33.7805 -33.7805 -33.7805 -33.7351 -33.7350 -33.7350 -33.7347 -33.7347
   -33.7347 -33.6914 -33.6914 -33.6912 -33.3739 -33.3736 -33.3736 -33.3396
   -33.3396 -33.3396 -33.3393 -33.3393 -33.3392 -33.3064 -33.3064 -33.3064
    10.0980  11.3061  11.3061  11.3061  11.5230  11.5230  12.0016  12.0016
    12.0016  12.1602  12.1668  12.1668  12.1669  12.1852  12.1852  12.6660
    12.6660  12.6660  14.4409  14.4409  14.4409  14.5320  14.5320  14.5320
    14.8156  14.8157  14.8157  14.8190  14.8190  14.8191  16.1038  16.1106
    16.1106  16.2585  16.2585  16.2585  16.5444  16.5444  16.5444  17.1968
    17.1968  17.1969  17.3326  17.3326  21.2199  21.2199  21.2199  21.5050
    21.5050  21.5050  21.8926  21.8926  21.8926  27.0005

[...]

          k = 0.3604-0.4634-0.4634 (  9504 PWs)   bands (ev):

[...]

          k =-0.4634-0.4634-0.4634 (  9448 PWs)   bands (ev):

   -67.8023 -67.8021 -67.8021 -67.8021 -67.8008 -67.8007 -67.8007 -67.8007
   -33.5463 -33.5463 -33.5463 -33.5463 -33.5450 -33.5450 -33.5450 -33.5449
   -33.5371 -33.5371 -33.5371 -33.5370 -33.5370 -33.5369 -33.5369 -33.5369
   -33.5357 -33.5357 -33.5357 -33.5357 -33.5357 -33.5357 -33.5356 -33.5356
    12.7142  12.7142  12.7142  12.7142  12.7147  12.7147  12.7147  12.7147
    13.5677  13.5677  13.5678  13.5678  13.5678  13.5678  13.5678  13.5678
    13.5685  13.5685  13.5686  13.5686  13.5686  13.5686  13.5686  13.5686
    14.4632  14.4632  14.4632  14.4633  14.4633  14.4633  14.4633  14.4633
    14.4641  14.4641  14.4641  14.4642  14.4642  14.4642  14.4642  14.4642
    16.7542  16.7542  16.7542  16.7542  16.7546  16.7547  16.7547  16.7547
    29.4164  29.4164  29.4164  29.4165  29.4165  29.4165

     the Fermi energy is    16.1598 ev

!    total energy              =   -4095.92270643 Ry

     total all-electron energy =    -80736.136133 Ry
     estimated scf accuracy    <       0.00000084 Ry
     smearing contrib. (-TS)   =       0.03964065 Ry
     internal energy E=F+TS    =   -4095.96234708 Ry

     The total energy is F=E-TS. E is the sum of the following terms:
     one-electron contribution =    -787.03293515 Ry
     hartree contribution      =     482.14599363 Ry
     xc contribution           =    -246.56091614 Ry
     ewald contribution        =   -1502.68019819 Ry
     one-center paw contrib.   =   -2041.83429122 Ry

     convergence has been achieved in  11 iterations

     Forces acting on atoms (cartesian axes, Ry/au):

     atom    1 type  1   force =     0.00000000    0.00000000    0.00000000
     atom    2 type  1   force =     0.00000000    0.00000000    0.00000000
     atom    3 type  1   force =     0.00000000    0.00000000    0.00000000
     atom    4 type  1   force =     0.00000000    0.00000000    0.00000000
     atom    5 type  1   force =     0.00000000    0.00000000    0.00000000
     atom    6 type  1   force =     0.00000000    0.00000000    0.00000000
     atom    7 type  1   force =     0.00000000    0.00000000    0.00000000
     atom    8 type  1   force =     0.00000000    0.00000000    0.00000000

     Total force =     0.000000     Total SCF correction =     0.000000

     Computing stress (Cartesian axis) and pressure

          total   stress  (Ry/bohr**3)                   (kbar)     P=       14.68
   0.00009982   0.00000000   0.00000000           14.68        0.00        0.00
   0.00000000   0.00009982   0.00000000            0.00       14.68        0.00
   0.00000000   0.00000000   0.00009982            0.00        0.00       14.68

     Writing output data file /scratch/aCzrdfCjSZujelEF.save/

     General routines

     Parallel routines

   This run was terminated on:   3:42:44  30Nov2021

   JOB DONE.