     Program PWSCF v.6.7MaX starts on 30Nov2021 at  3:42:49

     R & G space division:  proc/nbgrp/npool/nimage =      72
     Reading input from sc_7.in
Warning: card &CELL ignored
Warning: card CELL_DYNAMICS = 'BFGS', ignored
Warning: card CELL_FACTOR = 2.0, ignored
Warning: card PRESS = 0.0, ignored
Warning: card / ignored

     Current dimensions of program PWSCF are:
     Max number of different atomic species (ntypx) = 10
     Max number of k-points (npk) =  40000
     Max angular momentum in pseudopotentials (lmaxx) =  3
     file Pd.pbe-spn-kjpaw_psl.1.0.0.UPF: wavefunction(s)  4S 5S 4D renormalized

     Subspace diagonalization in iterative solution of the eigenvalue problem:
     one sub-group per band group will be used

     Found symmetry operation: I + (  0.0000  0.0000 -0.5000)
     This is a supercell, fractional translations are disabled
     Message from routine setup:
     using ibrav=0 with symmetry is DISCOURAGED, use correct ibrav instead

     bravais-lattice index     =            0
     lattice parameter (alat)  =       9.0720  a.u.
     unit-cell volume          =    1120.0208 (a.u.)^3
     number of atoms/cell      =            8
     number of atomic types    =            1
     number of electrons       =       144.00
     number of Kohn-Sham states=           86
     kinetic-energy cutoff     =      71.0000  Ry
     charge density cutoff     =     430.0000  Ry
     scf convergence threshold =      1.0E-06
     mixing beta               =       0.1000
     number of iterations used =           10  TF        mixing
     Exchange-correlation= SLA  PW   PBX  PBC
                           (   1   4   3   4   0   0   0)

     celldm(1)=   9.072000  celldm(2)=   0.000000  celldm(3)=   0.000000
     celldm(4)=   0.000000  celldm(5)=   0.000000  celldm(6)=   0.000000

     crystal axes: (cart. coord. in units of alat)
               a(1) = (   1.144737   0.000000   0.000000 )
               a(2) = (   0.000000   1.144737   0.000000 )
               a(3) = (   0.000000   0.000000   1.144737 )

     reciprocal axes: (cart. coord. in units 2 pi/alat)
               b(1) = (  0.873563  0.000000  0.000000 )
               b(2) = (  0.000000  0.873563  0.000000 )
               b(3) = (  0.000000  0.000000  0.873563 )

     PseudoPot. # 1 for Pd read from file:
     /rds/homes/b/bxp912/pp/Pd.pbe-spn-kjpaw_psl.1.0.0.UPF
     MD5 check sum: 790f2ebce206edfd9790dcb9844eca51
     Pseudo is Projector augmented-wave + core cor, Zval = 18.0
     Generated using &quot;atomic&quot; code by A. Dal Corso  v.6.3
     Shape of augmentation charge: PSQ
     Using radial grid of 1235 points,  6 beta functions with:
                l(1) =   0
                l(2) =   0
                l(3) =   1
                l(4) =   1
                l(5) =   2
                l(6) =   2
     Q(r) pseudized with 0 coefficients

     atomic species   valence    mass     pseudopotential
        Pd            18.00   106.42000     Pd( 1.00)

     48 Sym. Ops., with inversion, found

   Cartesian axes

     site n.     atom                  positions (alat units)
         1           Pd  tau(   1) = (   0.0000000   0.0000000   0.0000000  )
         2           Pd  tau(   2) = (   0.0000000   0.0000000   0.5723684  )
         3           Pd  tau(   3) = (   0.0000000   0.5723684   0.0000000  )
         4           Pd  tau(   4) = (   0.0000000   0.5723684   0.5723684  )
         5           Pd  tau(   5) = (   0.5723684   0.0000000   0.0000000  )
         6           Pd  tau(   6) = (   0.5723684   0.0000000   0.5723684  )
         7           Pd  tau(   7) = (   0.5723684   0.5723684   0.0000000  )
         8           Pd  tau(   8) = (   0.5723684   0.5723684   0.5723684  )

     number of k points=    35  Marzari-Vanderbilt smearing, width (Ry)=  0.0400
                       cart. coord. in units 2pi/alat
        k(    1) = (   0.0485313   0.0485313   0.0485313), wk =   0.0219479
        k(    2) = (   0.0485313   0.0485313   0.1455939), wk =   0.0658436
        k(    3) = (   0.0485313   0.0485313   0.2426564), wk =   0.0658436
        k(    4) = (   0.0485313   0.0485313   0.3397190), wk =   0.0658436
        k(    5) = (   0.0485313   0.0485313  -0.4367816), wk =   0.0329218
        k(    6) = (   0.0485313   0.1455939   0.1455939), wk =   0.0658436
        k(    7) = (   0.0485313   0.1455939   0.2426564), wk =   0.1316872
        k(    8) = (   0.0485313   0.1455939   0.3397190), wk =   0.1316872
        k(    9) = (   0.0485313   0.1455939  -0.4367816), wk =   0.0658436
        k(   10) = (   0.0485313   0.2426564   0.2426564), wk =   0.0658436
        k(   11) = (   0.0485313   0.2426564   0.3397190), wk =   0.1316872
        k(   12) = (   0.0485313   0.2426564  -0.4367816), wk =   0.0658436
        k(   13) = (   0.0485313   0.3397190   0.3397190), wk =   0.0658436
        k(   14) = (   0.0485313   0.3397190  -0.4367816), wk =   0.0658436
        k(   15) = (   0.0485313  -0.4367816  -0.4367816), wk =   0.0164609
        k(   16) = (   0.1455939   0.1455939   0.1455939), wk =   0.0219479
        k(   17) = (   0.1455939   0.1455939   0.2426564), wk =   0.0658436
        k(   18) = (   0.1455939   0.1455939   0.3397190), wk =   0.0658436
        k(   19) = (   0.1455939   0.1455939  -0.4367816), wk =   0.0329218
        k(   20) = (   0.1455939   0.2426564   0.2426564), wk =   0.0658436
        k(   21) = (   0.1455939   0.2426564   0.3397190), wk =   0.1316872
        k(   22) = (   0.1455939   0.2426564  -0.4367816), wk =   0.0658436
        k(   23) = (   0.1455939   0.3397190   0.3397190), wk =   0.0658436
        k(   24) = (   0.1455939   0.3397190  -0.4367816), wk =   0.0658436
        k(   25) = (   0.1455939  -0.4367816  -0.4367816), wk =   0.0164609
        k(   26) = (   0.2426564   0.2426564   0.2426564), wk =   0.0219479
        k(   27) = (   0.2426564   0.2426564   0.3397190), wk =   0.0658436
        k(   28) = (   0.2426564   0.2426564  -0.4367816), wk =   0.0329218
        k(   29) = (   0.2426564   0.3397190   0.3397190), wk =   0.0658436
        k(   30) = (   0.2426564   0.3397190  -0.4367816), wk =   0.0658436
        k(   31) = (   0.2426564  -0.4367816  -0.4367816), wk =   0.0164609
        k(   32) = (   0.3397190   0.3397190   0.3397190), wk =   0.0219479
        k(   33) = (   0.3397190   0.3397190  -0.4367816), wk =   0.0329218
        k(   34) = (   0.3397190  -0.4367816  -0.4367816), wk =   0.0164609
        k(   35) = (  -0.4367816  -0.4367816  -0.4367816), wk =   0.0027435

     Check: negative core charge=   -0.000001

     Initial potential from superposition of free atoms

     starting charge  143.99694, renormalised to  144.00000
     Starting wfcs are   80 randomized atomic wfcs +    6 random wfcs
     Checking if some PAW data can be deallocated...

     Self-consistent Calculation

     iteration #  1     ecut=    71.00 Ry     beta= 0.10
     Davidson diagonalization with overlap
     ethr =  1.00E-02,  avg # of iterations =  3.2

     Threshold (ethr) on eigenvalues was too large:
     Diagonalizing with lowered threshold

     Davidson diagonalization with overlap
     ethr =  5.70E-04,  avg # of iterations =  1.1

     total energy              =   -4095.97487417 Ry
     estimated scf accuracy    <       0.80049570 Ry

[...]

     total energy              =   -4095.84021024 Ry
     estimated scf accuracy    <       0.00000729 Ry

     iteration # 14     ecut=    71.00 Ry     beta= 0.10
     Davidson diagonalization with overlap
     ethr =  4.92E-09,  avg # of iterations =  2.0

     End of self-consistent calculation

          k = 0.0485 0.0485 0.0485 ( 11251 PWs)   bands (ev):

   -71.0842 -71.0659 -71.0659 -71.0657 -71.0478 -71.0478 -71.0476 -71.0298
   -36.9126 -36.9126 -36.9126 -36.8898 -36.8898 -36.8898 -36.8898 -36.8897
   -36.8897 -36.8682 -36.8678 -36.8678 -36.6942 -36.6939 -36.6939 -36.6768
   -36.6768 -36.6768 -36.6767 -36.6767 -36.6767 -36.6595 -36.6595 -36.6595
     7.5269   8.8267   8.8267   8.8267   8.9096   8.9096   9.2694   9.2694
     9.2694   9.3222   9.3223   9.3223   9.4630   9.4816   9.4816   9.7480
     9.7481   9.7481  11.1788  11.1788  11.1788  11.2329  11.2330  11.2330
    11.4382  11.4382  11.4382  11.4406  11.4406  11.4406  12.3897  12.3944
    12.3944  12.5013  12.5013  12.5013  13.2099  13.2099  13.2099  13.3038
    13.3038  13.3085  13.3085  13.3085  16.6382  16.6382  16.6382  17.5430
    17.5430  17.5430  17.9033  17.9033  17.9033  22.3261

[...]

          k = 0.3397-0.4368-0.4368 ( 11324 PWs)   bands (ev):

[...]

          k =-0.4368-0.4368-0.4368 ( 11296 PWs)   bands (ev):

   -71.0570 -71.0570 -71.0570 -71.0569 -71.0569 -71.0569 -71.0567 -71.0567
   -36.7869 -36.7869 -36.7869 -36.7869 -36.7869 -36.7868 -36.7868 -36.7868
   -36.7827 -36.7827 -36.7827 -36.7827 -36.7827 -36.7827 -36.7827 -36.7827
   -36.7827 -36.7827 -36.7826 -36.7826 -36.7826 -36.7826 -36.7826 -36.7826
     9.8938   9.8938   9.8938   9.8938   9.8938   9.8938   9.8938   9.8938
    10.4911  10.4911  10.4911  10.4911  10.4911  10.4911  10.4911  10.4911
    10.4911  10.4911  10.4911  10.4911  10.4911  10.4911  10.4912  10.4912
    11.1837  11.1837  11.1837  11.1837  11.1837  11.1837  11.1837  11.1837
    11.1837  11.1837  11.1837  11.1838  11.1838  11.1838  11.1838  11.1838
    13.0624  13.0625  13.0625  13.0625  13.0625  13.0625  13.0625  13.0625
    24.2899  24.2899  24.2899  24.2899  24.2899  24.2899

     the Fermi energy is    12.4878 ev

!    total energy              =   -4095.84021461 Ry

     total all-electron energy =    -80736.053641 Ry
     estimated scf accuracy    <       0.00000035 Ry
     smearing contrib. (-TS)   =       0.05762888 Ry
     internal energy E=F+TS    =   -4095.89784349 Ry

     The total energy is F=E-TS. E is the sum of the following terms:
     one-electron contribution =    -926.47450690 Ry
     hartree contribution      =     534.53058462 Ry
     xc contribution           =    -245.83858051 Ry
     ewald contribution        =   -1416.31926726 Ry
     one-center paw contrib.   =   -2041.79607344 Ry

     convergence has been achieved in  14 iterations

     Forces acting on atoms (cartesian axes, Ry/au):

     atom    1 type  1   force =     0.00000000    0.00000000    0.00000000
     atom    2 type  1   force =     0.00000000    0.00000000    0.00000000
     atom    3 type  1   force =     0.00000000    0.00000000    0.00000000
     atom    4 type  1   force =     0.00000000    0.00000000    0.00000000
     atom    5 type  1   force =     0.00000000    0.00000000    0.00000000
     atom    6 type  1   force =     0.00000000    0.00000000    0.00000000
     atom    7 type  1   force =     0.00000000    0.00000000    0.00000000
     atom    8 type  1   force =     0.00000000    0.00000000    0.00000000

     Total force =     0.000000     Total SCF correction =     0.000000

     Computing stress (Cartesian axis) and pressure

          total   stress  (Ry/bohr**3)                   (kbar)     P=     -140.26
  -0.00095348   0.00000000   0.00000000         -140.26        0.00        0.00
   0.00000000  -0.00095348   0.00000000            0.00     -140.26        0.00
   0.00000000   0.00000000  -0.00095348            0.00        0.00     -140.26

     Writing output data file /scratch/mKrNRjXhGrhsVIDD.save/

     General routines

     Parallel routines

   This run was terminated on:   3:43:46  30Nov2021

   JOB DONE.