     Program PWSCF v.6.7MaX starts on 30Nov2021 at  3:43:51

     R & G space division:  proc/nbgrp/npool/nimage =      72
     Reading input from sc_8.in
Warning: card &CELL ignored
Warning: card CELL_DYNAMICS = 'BFGS', ignored
Warning: card CELL_FACTOR = 2.0, ignored
Warning: card PRESS = 0.0, ignored
Warning: card / ignored

     Current dimensions of program PWSCF are:
     Max number of different atomic species (ntypx) = 10
     Max number of k-points (npk) =  40000
     Max angular momentum in pseudopotentials (lmaxx) =  3
     file Pd.pbe-spn-kjpaw_psl.1.0.0.UPF: wavefunction(s)  4S 5S 4D renormalized

     Subspace diagonalization in iterative solution of the eigenvalue problem:
     one sub-group per band group will be used

     Found symmetry operation: I + (  0.0000  0.0000 -0.5000)
     This is a supercell, fractional translations are disabled
     Message from routine setup:
     using ibrav=0 with symmetry is DISCOURAGED, use correct ibrav instead

     bravais-lattice index     =            0
     lattice parameter (alat)  =       9.0720  a.u.
     unit-cell volume          =    1324.4386 (a.u.)^3
     number of atoms/cell      =            8
     number of atomic types    =            1
     number of electrons       =       144.00
     number of Kohn-Sham states=           86
     kinetic-energy cutoff     =      71.0000  Ry
     charge density cutoff     =     430.0000  Ry
     scf convergence threshold =      1.0E-06
     mixing beta               =       0.1000
     number of iterations used =           10  TF        mixing
     Exchange-correlation= SLA  PW   PBX  PBC
                           (   1   4   3   4   0   0   0)

     celldm(1)=   9.072000  celldm(2)=   0.000000  celldm(3)=   0.000000
     celldm(4)=   0.000000  celldm(5)=   0.000000  celldm(6)=   0.000000

     crystal axes: (cart. coord. in units of alat)
               a(1) = (   1.210526   0.000000   0.000000 )
               a(2) = (   0.000000   1.210526   0.000000 )
               a(3) = (   0.000000   0.000000   1.210526 )

     reciprocal axes: (cart. coord. in units 2 pi/alat)
               b(1) = (  0.826087  0.000000  0.000000 )
               b(2) = (  0.000000  0.826087  0.000000 )
               b(3) = (  0.000000  0.000000  0.826087 )

     PseudoPot. # 1 for Pd read from file:
     /rds/homes/b/bxp912/pp/Pd.pbe-spn-kjpaw_psl.1.0.0.UPF
     MD5 check sum: 790f2ebce206edfd9790dcb9844eca51
     Pseudo is Projector augmented-wave + core cor, Zval = 18.0
     Generated using &quot;atomic&quot; code by A. Dal Corso  v.6.3
     Shape of augmentation charge: PSQ
     Using radial grid of 1235 points,  6 beta functions with:
                l(1) =   0
                l(2) =   0
                l(3) =   1
                l(4) =   1
                l(5) =   2
                l(6) =   2
     Q(r) pseudized with 0 coefficients

     atomic species   valence    mass     pseudopotential
        Pd            18.00   106.42000     Pd( 1.00)

     48 Sym. Ops., with inversion, found

   Cartesian axes

     site n.     atom                  positions (alat units)
         1           Pd  tau(   1) = (   0.0000000   0.0000000   0.0000000  )
         2           Pd  tau(   2) = (   0.0000000   0.0000000   0.6052632  )
         3           Pd  tau(   3) = (   0.0000000   0.6052632   0.0000000  )
         4           Pd  tau(   4) = (   0.0000000   0.6052632   0.6052632  )
         5           Pd  tau(   5) = (   0.6052632   0.0000000   0.0000000  )
         6           Pd  tau(   6) = (   0.6052632   0.0000000   0.6052632  )
         7           Pd  tau(   7) = (   0.6052632   0.6052632   0.0000000  )
         8           Pd  tau(   8) = (   0.6052632   0.6052632   0.6052632  )

     number of k points=    35  Marzari-Vanderbilt smearing, width (Ry)=  0.0400
                       cart. coord. in units 2pi/alat
        k(    1) = (   0.0458937   0.0458937   0.0458937), wk =   0.0219479
        k(    2) = (   0.0458937   0.0458937   0.1376812), wk =   0.0658436
        k(    3) = (   0.0458937   0.0458937   0.2294686), wk =   0.0658436
        k(    4) = (   0.0458937   0.0458937   0.3212560), wk =   0.0658436
        k(    5) = (   0.0458937   0.0458937  -0.4130435), wk =   0.0329218
        k(    6) = (   0.0458937   0.1376812   0.1376812), wk =   0.0658436
        k(    7) = (   0.0458937   0.1376812   0.2294686), wk =   0.1316872
        k(    8) = (   0.0458937   0.1376812   0.3212560), wk =   0.1316872
        k(    9) = (   0.0458937   0.1376812  -0.4130435), wk =   0.0658436
        k(   10) = (   0.0458937   0.2294686   0.2294686), wk =   0.0658436
        k(   11) = (   0.0458937   0.2294686   0.3212560), wk =   0.1316872
        k(   12) = (   0.0458937   0.2294686  -0.4130435), wk =   0.0658436
        k(   13) = (   0.0458937   0.3212560   0.3212560), wk =   0.0658436
        k(   14) = (   0.0458937   0.3212560  -0.4130435), wk =   0.0658436
        k(   15) = (   0.0458937  -0.4130435  -0.4130435), wk =   0.0164609
        k(   16) = (   0.1376812   0.1376812   0.1376812), wk =   0.0219479
        k(   17) = (   0.1376812   0.1376812   0.2294686), wk =   0.0658436
        k(   18) = (   0.1376812   0.1376812   0.3212560), wk =   0.0658436
        k(   19) = (   0.1376812   0.1376812  -0.4130435), wk =   0.0329218
        k(   20) = (   0.1376812   0.2294686   0.2294686), wk =   0.0658436
        k(   21) = (   0.1376812   0.2294686   0.3212560), wk =   0.1316872
        k(   22) = (   0.1376812   0.2294686  -0.4130435), wk =   0.0658436
        k(   23) = (   0.1376812   0.3212560   0.3212560), wk =   0.0658436
        k(   24) = (   0.1376812   0.3212560  -0.4130435), wk =   0.0658436
        k(   25) = (   0.1376812  -0.4130435  -0.4130435), wk =   0.0164609
        k(   26) = (   0.2294686   0.2294686   0.2294686), wk =   0.0219479
        k(   27) = (   0.2294686   0.2294686   0.3212560), wk =   0.0658436
        k(   28) = (   0.2294686   0.2294686  -0.4130435), wk =   0.0329218
        k(   29) = (   0.2294686   0.3212560   0.3212560), wk =   0.0658436
        k(   30) = (   0.2294686   0.3212560  -0.4130435), wk =   0.0658436
        k(   31) = (   0.2294686  -0.4130435  -0.4130435), wk =   0.0164609
        k(   32) = (   0.3212560   0.3212560   0.3212560), wk =   0.0219479
        k(   33) = (   0.3212560   0.3212560  -0.4130435), wk =   0.0329218
        k(   34) = (   0.3212560  -0.4130435  -0.4130435), wk =   0.0164609
        k(   35) = (  -0.4130435  -0.4130435  -0.4130435), wk =   0.0027435

     Check: negative core charge=   -0.000001

     Initial potential from superposition of free atoms

     starting charge  143.99694, renormalised to  144.00000
     Starting wfcs are   80 randomized atomic wfcs +    6 random wfcs
     Checking if some PAW data can be deallocated...

     Self-consistent Calculation

     iteration #  1     ecut=    71.00 Ry     beta= 0.10
     Davidson diagonalization with overlap
     ethr =  1.00E-02,  avg # of iterations =  3.3

     Threshold (ethr) on eigenvalues was too large:
     Diagonalizing with lowered threshold

     Davidson diagonalization with overlap
     ethr =  9.65E-04,  avg # of iterations =  1.0

     total energy              =   -4095.83360467 Ry
     estimated scf accuracy    <       1.35496023 Ry

[...]

     total energy              =   -4095.62420240 Ry
     estimated scf accuracy    <       0.00000331 Ry

     iteration # 15     ecut=    71.00 Ry     beta= 0.10
     Davidson diagonalization with overlap
     ethr =  1.07E-09,  avg # of iterations =  2.0

     End of self-consistent calculation

          k = 0.0459 0.0459 0.0459 ( 13346 PWs)   bands (ev):

   -73.6066 -73.5983 -73.5983 -73.5981 -73.5899 -73.5899 -73.5897 -73.5817
   -39.3914 -39.3914 -39.3914 -39.3805 -39.3805 -39.3804 -39.3804 -39.3802
   -39.3802 -39.3695 -39.3693 -39.3693 -39.2750 -39.2750 -39.2750 -39.2657
   -39.2657 -39.2657 -39.2656 -39.2655 -39.2655 -39.2565 -39.2565 -39.2565
     5.5570   6.8246   6.8246   6.8246   6.8249   6.8249   7.0974   7.0975
     7.0975   7.1005   7.1005   7.1005   7.2997   7.3135   7.3135   7.4506
     7.4506   7.4506   8.5989   8.5989   8.5990   8.6314   8.6314   8.6314
     8.7820   8.7820   8.7821   8.7838   8.7838   8.7838   9.4947   9.4979
     9.4979   9.5770   9.5770   9.5770  10.1177  10.1178  10.1178  10.1843
    10.1843  10.7911  10.7911  10.7911  13.0920  13.0920  13.0920  14.4346
    14.4346  14.4346  14.7863  14.7863  14.7863  17.8742

[...]

          k = 0.3213-0.4130-0.4130 ( 13376 PWs)   bands (ev):

[...]

          k =-0.4130-0.4130-0.4130 ( 13416 PWs)   bands (ev):

   -73.5944 -73.5944 -73.5944 -73.5944 -73.5938 -73.5938 -73.5938 -73.5933
   -39.3246 -39.3246 -39.3246 -39.3246 -39.3240 -39.3240 -39.3240 -39.3240
   -39.3232 -39.3232 -39.3232 -39.3232 -39.3232 -39.3231 -39.3231 -39.3231
   -39.3227 -39.3227 -39.3227 -39.3226 -39.3226 -39.3223 -39.3223 -39.3223
     7.6613   7.6613   7.6613   7.6613   7.6616   7.6616   7.6616   7.6616
     8.0627   8.0627   8.0627   8.0627   8.0627   8.0627   8.0627   8.0627
     8.0630   8.0630   8.0630   8.0631   8.0631   8.0631   8.0633   8.0633
     8.5956   8.5956   8.5956   8.5956   8.5956   8.5957   8.5957   8.5957
     8.5960   8.5960   8.5960   8.5961   8.5961   8.5962   8.5962   8.5962
    10.2038  10.2038  10.2038  10.2039  10.2040  10.2040  10.2040  10.2041
    20.2307  20.2307  20.2307  20.2307  20.2307  20.2308

     the Fermi energy is     9.6246 ev

!    total energy              =   -4095.62420524 Ry

     total all-electron energy =    -80735.837632 Ry
     estimated scf accuracy    <       0.00000040 Ry
     smearing contrib. (-TS)   =       0.07904115 Ry
     internal energy E=F+TS    =   -4095.70324639 Ry

     The total energy is F=E-TS. E is the sum of the following terms:
     one-electron contribution =   -1053.87567024 Ry
     hartree contribution      =     584.71896745 Ry
     xc contribution           =    -245.43431097 Ry
     ewald contribution        =   -1339.34539404 Ry
     one-center paw contrib.   =   -2041.76683860 Ry

     convergence has been achieved in  15 iterations

     Forces acting on atoms (cartesian axes, Ry/au):

     atom    1 type  1   force =     0.00000000    0.00000000    0.00000000
     atom    2 type  1   force =     0.00000000    0.00000000    0.00000000
     atom    3 type  1   force =     0.00000000    0.00000000    0.00000000
     atom    4 type  1   force =     0.00000000    0.00000000    0.00000000
     atom    5 type  1   force =     0.00000000    0.00000000    0.00000000
     atom    6 type  1   force =     0.00000000    0.00000000    0.00000000
     atom    7 type  1   force =     0.00000000    0.00000000    0.00000000
     atom    8 type  1   force =     0.00000000    0.00000000    0.00000000

     Total force =     0.000000     Total SCF correction =     0.000000

     Computing stress (Cartesian axis) and pressure

          total   stress  (Ry/bohr**3)                   (kbar)     P=     -176.90
  -0.00120252   0.00000000   0.00000000         -176.90        0.00        0.00
   0.00000000  -0.00120252   0.00000000            0.00     -176.90        0.00
   0.00000000   0.00000000  -0.00120252            0.00        0.00     -176.90

     Writing output data file /scratch/LOrSTxYlDrFJivgB.save/

     General routines

     Parallel routines

   This run was terminated on:   3:44:51  30Nov2021

   JOB DONE.