     Program PWSCF v.6.7MaX starts on 30Nov2021 at  3:44:56

     R & G space division:  proc/nbgrp/npool/nimage =      72
     Reading input from sc_9.in
Warning: card &CELL ignored
Warning: card CELL_DYNAMICS = 'BFGS', ignored
Warning: card CELL_FACTOR = 2.0, ignored
Warning: card PRESS = 0.0, ignored
Warning: card / ignored

     Current dimensions of program PWSCF are:
     Max number of different atomic species (ntypx) = 10
     Max number of k-points (npk) =  40000
     Max angular momentum in pseudopotentials (lmaxx) =  3
     file Pd.pbe-spn-kjpaw_psl.1.0.0.UPF: wavefunction(s)  4S 5S 4D renormalized

     Subspace diagonalization in iterative solution of the eigenvalue problem:
     one sub-group per band group will be used

     Found symmetry operation: I + (  0.0000  0.0000 -0.5000)
     This is a supercell, fractional translations are disabled
     Message from routine setup:
     using ibrav=0 with symmetry is DISCOURAGED, use correct ibrav instead

     bravais-lattice index     =            0
     lattice parameter (alat)  =       9.0720  a.u.
     unit-cell volume          =    1552.3282 (a.u.)^3
     number of atoms/cell      =            8
     number of atomic types    =            1
     number of electrons       =       144.00
     number of Kohn-Sham states=           86
     kinetic-energy cutoff     =      71.0000  Ry
     charge density cutoff     =     430.0000  Ry
     scf convergence threshold =      1.0E-06
     mixing beta               =       0.1000
     number of iterations used =           10  TF        mixing
     Exchange-correlation= SLA  PW   PBX  PBC
                           (   1   4   3   4   0   0   0)

     celldm(1)=   9.072000  celldm(2)=   0.000000  celldm(3)=   0.000000
     celldm(4)=   0.000000  celldm(5)=   0.000000  celldm(6)=   0.000000

     crystal axes: (cart. coord. in units of alat)
               a(1) = (   1.276316   0.000000   0.000000 )
               a(2) = (   0.000000   1.276316   0.000000 )
               a(3) = (   0.000000   0.000000   1.276316 )

     reciprocal axes: (cart. coord. in units 2 pi/alat)
               b(1) = (  0.783505  0.000000  0.000000 )
               b(2) = (  0.000000  0.783505  0.000000 )
               b(3) = (  0.000000  0.000000  0.783505 )

     PseudoPot. # 1 for Pd read from file:
     /rds/homes/b/bxp912/pp/Pd.pbe-spn-kjpaw_psl.1.0.0.UPF
     MD5 check sum: 790f2ebce206edfd9790dcb9844eca51
     Pseudo is Projector augmented-wave + core cor, Zval = 18.0
     Generated using &quot;atomic&quot; code by A. Dal Corso  v.6.3
     Shape of augmentation charge: PSQ
     Using radial grid of 1235 points,  6 beta functions with:
                l(1) =   0
                l(2) =   0
                l(3) =   1
                l(4) =   1
                l(5) =   2
                l(6) =   2
     Q(r) pseudized with 0 coefficients

     atomic species   valence    mass     pseudopotential
        Pd            18.00   106.42000     Pd( 1.00)

     48 Sym. Ops., with inversion, found

   Cartesian axes

     site n.     atom                  positions (alat units)
         1           Pd  tau(   1) = (   0.0000000   0.0000000   0.0000000  )
         2           Pd  tau(   2) = (   0.0000000   0.0000000   0.6381579  )
         3           Pd  tau(   3) = (   0.0000000   0.6381579   0.0000000  )
         4           Pd  tau(   4) = (   0.0000000   0.6381579   0.6381579  )
         5           Pd  tau(   5) = (   0.6381579   0.0000000   0.0000000  )
         6           Pd  tau(   6) = (   0.6381579   0.0000000   0.6381579  )
         7           Pd  tau(   7) = (   0.6381579   0.6381579   0.0000000  )
         8           Pd  tau(   8) = (   0.6381579   0.6381579   0.6381579  )

     number of k points=    35  Marzari-Vanderbilt smearing, width (Ry)=  0.0400
                       cart. coord. in units 2pi/alat
        k(    1) = (   0.0435281   0.0435281   0.0435281), wk =   0.0219479
        k(    2) = (   0.0435281   0.0435281   0.1305842), wk =   0.0658436
        k(    3) = (   0.0435281   0.0435281   0.2176403), wk =   0.0658436
        k(    4) = (   0.0435281   0.0435281   0.3046964), wk =   0.0658436
        k(    5) = (   0.0435281   0.0435281  -0.3917526), wk =   0.0329218
        k(    6) = (   0.0435281   0.1305842   0.1305842), wk =   0.0658436
        k(    7) = (   0.0435281   0.1305842   0.2176403), wk =   0.1316872
        k(    8) = (   0.0435281   0.1305842   0.3046964), wk =   0.1316872
        k(    9) = (   0.0435281   0.1305842  -0.3917526), wk =   0.0658436
        k(   10) = (   0.0435281   0.2176403   0.2176403), wk =   0.0658436
        k(   11) = (   0.0435281   0.2176403   0.3046964), wk =   0.1316872
        k(   12) = (   0.0435281   0.2176403  -0.3917526), wk =   0.0658436
        k(   13) = (   0.0435281   0.3046964   0.3046964), wk =   0.0658436
        k(   14) = (   0.0435281   0.3046964  -0.3917526), wk =   0.0658436
        k(   15) = (   0.0435281  -0.3917526  -0.3917526), wk =   0.0164609
        k(   16) = (   0.1305842   0.1305842   0.1305842), wk =   0.0219479
        k(   17) = (   0.1305842   0.1305842   0.2176403), wk =   0.0658436
        k(   18) = (   0.1305842   0.1305842   0.3046964), wk =   0.0658436
        k(   19) = (   0.1305842   0.1305842  -0.3917526), wk =   0.0329218
        k(   20) = (   0.1305842   0.2176403   0.2176403), wk =   0.0658436
        k(   21) = (   0.1305842   0.2176403   0.3046964), wk =   0.1316872
        k(   22) = (   0.1305842   0.2176403  -0.3917526), wk =   0.0658436
        k(   23) = (   0.1305842   0.3046964   0.3046964), wk =   0.0658436
        k(   24) = (   0.1305842   0.3046964  -0.3917526), wk =   0.0658436
        k(   25) = (   0.1305842  -0.3917526  -0.3917526), wk =   0.0164609
        k(   26) = (   0.2176403   0.2176403   0.2176403), wk =   0.0219479
        k(   27) = (   0.2176403   0.2176403   0.3046964), wk =   0.0658436
        k(   28) = (   0.2176403   0.2176403  -0.3917526), wk =   0.0329218
        k(   29) = (   0.2176403   0.3046964   0.3046964), wk =   0.0658436
        k(   30) = (   0.2176403   0.3046964  -0.3917526), wk =   0.0658436
        k(   31) = (   0.2176403  -0.3917526  -0.3917526), wk =   0.0164609
        k(   32) = (   0.3046964   0.3046964   0.3046964), wk =   0.0219479
        k(   33) = (   0.3046964   0.3046964  -0.3917526), wk =   0.0329218
        k(   34) = (   0.3046964  -0.3917526  -0.3917526), wk =   0.0164609
        k(   35) = (  -0.3917526  -0.3917526  -0.3917526), wk =   0.0027435

     Check: negative core charge=   -0.000001

     Initial potential from superposition of free atoms

     starting charge  143.99694, renormalised to  144.00000
     Starting wfcs are   80 randomized atomic wfcs +    6 random wfcs
     Checking if some PAW data can be deallocated...

     Self-consistent Calculation

     iteration #  1     ecut=    71.00 Ry     beta= 0.10
     Davidson diagonalization with overlap
     ethr =  1.00E-02,  avg # of iterations =  3.7

     total energy              =   -4095.65737423 Ry
     estimated scf accuracy    <       2.14835893 Ry

[...]

     total energy              =   -4095.36535286 Ry
     estimated scf accuracy    <       0.00000709 Ry

     iteration # 15     ecut=    71.00 Ry     beta= 0.10
     Davidson diagonalization with overlap
     ethr =  4.92E-09,  avg # of iterations =  2.0

     End of self-consistent calculation

          k = 0.0435 0.0435 0.0435 ( 15651 PWs)   bands (ev):

   -75.5929 -75.5891 -75.5890 -75.5890 -75.5853 -75.5852 -75.5852 -75.5815
   -41.3614 -41.3614 -41.3614 -41.3559 -41.3558 -41.3558 -41.3558 -41.3558
   -41.3558 -41.3500 -41.3497 -41.3497 -41.2981 -41.2981 -41.2981 -41.2935
   -41.2935 -41.2935 -41.2934 -41.2934 -41.2934 -41.2888 -41.2888 -41.2888
     4.0304   5.1504   5.1504   5.1982   5.1982   5.1982   5.3450   5.3450
     5.3450   5.3580   5.3580   5.3580   5.5538   5.5639   5.5639   5.6245
     5.6245   5.6245   6.5433   6.5433   6.5433   6.5632   6.5632   6.5632
     6.6753   6.6753   6.6753   6.6766   6.6766   6.6766   7.2160   7.2183
     7.2183   7.2775   7.2775   7.2775   7.6954   7.6954   7.6954   7.7436
     7.7436   8.7931   8.7931   8.7931  10.3348  10.3348  10.3348  11.9570
    11.9570  11.9570  12.3212  12.3212  12.3212  14.3810

[...]

          k = 0.3047-0.3918-0.3918 ( 15624 PWs)   bands (ev):

[...]

          k =-0.3918-0.3918-0.3918 ( 15624 PWs)   bands (ev):

   -75.5873 -75.5872 -75.5872 -75.5872 -75.5872 -75.5871 -75.5871 -75.5871
   -41.3254 -41.3254 -41.3254 -41.3253 -41.3253 -41.3253 -41.3253 -41.3253
   -41.3243 -41.3243 -41.3243 -41.3243 -41.3243 -41.3243 -41.3242 -41.3242
   -41.3242 -41.3242 -41.3242 -41.3242 -41.3242 -41.3242 -41.3242 -41.3242
     5.8728   5.8728   5.8728   5.8728   5.8728   5.8728   5.8728   5.8728
     6.1291   6.1291   6.1291   6.1291   6.1291   6.1291   6.1291   6.1292
     6.1292   6.1292   6.1292   6.1292   6.1292   6.1292   6.1292   6.1292
     6.5376   6.5376   6.5376   6.5377   6.5377   6.5377   6.5377   6.5377
     6.5377   6.5377   6.5377   6.5377   6.5377   6.5377   6.5377   6.5377
     7.9690   7.9690   7.9690   7.9690   7.9690   7.9690   7.9690   7.9690
    16.9900  16.9900  16.9900  16.9900  16.9900  16.9900

     the Fermi energy is     7.3704 ev

!    total energy              =   -4095.36535697 Ry

     total all-electron energy =    -80735.578784 Ry
     estimated scf accuracy    <       0.00000081 Ry
     smearing contrib. (-TS)   =       0.10544497 Ry
     internal energy E=F+TS    =   -4095.47080194 Ry

     The total energy is F=E-TS. E is the sum of the following terms:
     one-electron contribution =   -1170.67236647 Ry
     hartree contribution      =     632.49095564 Ry
     xc contribution           =    -245.23873035 Ry
     ewald contribution        =   -1270.30697167 Ry
     one-center paw contrib.   =   -2041.74368909 Ry

     convergence has been achieved in  15 iterations

     Forces acting on atoms (cartesian axes, Ry/au):

     atom    1 type  1   force =     0.00000000    0.00000000    0.00000000
     atom    2 type  1   force =     0.00000000    0.00000000    0.00000000
     atom    3 type  1   force =     0.00000000    0.00000000    0.00000000
     atom    4 type  1   force =     0.00000000    0.00000000    0.00000000
     atom    5 type  1   force =     0.00000000    0.00000000    0.00000000
     atom    6 type  1   force =     0.00000000    0.00000000    0.00000000
     atom    7 type  1   force =     0.00000000    0.00000000    0.00000000
     atom    8 type  1   force =     0.00000000    0.00000000    0.00000000

     Total force =     0.000000     Total SCF correction =     0.000000

     Computing stress (Cartesian axis) and pressure

          total   stress  (Ry/bohr**3)                   (kbar)     P=     -166.99
  -0.00113520   0.00000000   0.00000000         -166.99        0.00        0.00
   0.00000000  -0.00113520   0.00000000            0.00     -166.99        0.00
   0.00000000   0.00000000  -0.00113520            0.00        0.00     -166.99

     Writing output data file /scratch/ifwTQEcMZAQFjwcV.save/

     General routines

     Parallel routines

   This run was terminated on:   3:45:57  30Nov2021

   JOB DONE.