     Program PWSCF v.6.7MaX starts on 25Nov2021 at 21:17:41

     R & G space division:  proc/nbgrp/npool/nimage =      72
     Reading input from fcc_11.in
Warning: card &CELL ignored
Warning: card CELL_DYNAMICS = 'BFGS', ignored
Warning: card CELL_FACTOR = 2.0, ignored
Warning: card PRESS = 0.0, ignored
Warning: card / ignored

     Current dimensions of program PWSCF are:
     Max number of different atomic species (ntypx) = 10
     Max number of k-points (npk) =  40000
     Max angular momentum in pseudopotentials (lmaxx) =  3
     file Ru.pbe-spn-kjpaw_psl.1.0.0.UPF: wavefunction(s)  4D renormalized

     Subspace diagonalization in iterative solution of the eigenvalue problem:
     one sub-group per band group will be used

     Found symmetry operation: I + (  0.2500  0.2500  0.0000)
     This is a supercell, fractional translations are disabled
     Message from routine setup:
     using ibrav=0 with symmetry is DISCOURAGED, use correct ibrav instead

     bravais-lattice index     =            0
     lattice parameter (alat)  =      14.4000  a.u.
     unit-cell volume          =   23887.8720 (a.u.)^3
     number of atoms/cell      =           32
     number of atomic types    =            1
     number of electrons       =       512.00
     number of Kohn-Sham states=          307
     kinetic-energy cutoff     =      71.0000  Ry
     charge density cutoff     =     430.0000  Ry
     scf convergence threshold =      1.0E-06
     mixing beta               =       0.1000
     number of iterations used =           10  TF        mixing
     Exchange-correlation= SLA  PW   PBX  PBC
                           (   1   4   3   4   0   0   0)

     celldm(1)=  14.400000  celldm(2)=   0.000000  celldm(3)=   0.000000
     celldm(4)=   0.000000  celldm(5)=   0.000000  celldm(6)=   0.000000

     crystal axes: (cart. coord. in units of alat)
               a(1) = (   2.000000   0.000000   0.000000 )
               a(2) = (   0.000000   2.000000   0.000000 )
               a(3) = (   0.000000   0.000000   2.000000 )

     reciprocal axes: (cart. coord. in units 2 pi/alat)
               b(1) = (  0.500000  0.000000  0.000000 )
               b(2) = (  0.000000  0.500000  0.000000 )
               b(3) = (  0.000000  0.000000  0.500000 )

     PseudoPot. # 1 for Ru read from file:
     /rds/homes/b/bxp912/pp/Ru.pbe-spn-kjpaw_psl.1.0.0.UPF
     MD5 check sum: 0ae1f594dea09af7be8575c3a481d1ae
     Pseudo is Projector augmented-wave + core cor, Zval = 16.0
     Generated using "atomic" code by A. Dal Corso  v.5.1
     Shape of augmentation charge: PSQ
     Using radial grid of 1233 points,  6 beta functions with:
                l(1) =   0
                l(2) =   0
                l(3) =   1
                l(4) =   1
                l(5) =   2
                l(6) =   2
     Q(r) pseudized with 0 coefficients

     atomic species   valence    mass     pseudopotential
        Ru            16.00   101.07000     Ru( 1.00)

     48 Sym. Ops., with inversion, found

   Cartesian axes

     site n.     atom                  positions (alat units)
         1           Ru  tau(   1) = (   0.0000000   0.0000000   0.0000000  )
         2           Ru  tau(   2) = (   0.5000000   0.5000000   0.0000000  )
         3           Ru  tau(   3) = (   0.5000000   0.0000000   0.5000000  )
         4           Ru  tau(   4) = (   0.0000000   0.5000000   0.5000000  )
         5           Ru  tau(   5) = (   0.0000000   0.0000000   1.0000000  )
         6           Ru  tau(   6) = (   0.5000000   0.5000000   1.0000000  )
         7           Ru  tau(   7) = (   0.5000000   0.0000000   1.5000000  )
         8           Ru  tau(   8) = (   0.0000000   0.5000000   1.5000000  )
         9           Ru  tau(   9) = (   0.0000000   1.0000000   0.0000000  )
        10           Ru  tau(  10) = (   0.5000000   1.5000000   0.0000000  )
        11           Ru  tau(  11) = (   0.5000000   1.0000000   0.5000000  )
        12           Ru  tau(  12) = (   0.0000000   1.5000000   0.5000000  )
        13           Ru  tau(  13) = (   0.0000000   1.0000000   1.0000000  )
        14           Ru  tau(  14) = (   0.5000000   1.5000000   1.0000000  )
        15           Ru  tau(  15) = (   0.5000000   1.0000000   1.5000000  )
        16           Ru  tau(  16) = (   0.0000000   1.5000000   1.5000000  )
        17           Ru  tau(  17) = (   1.0000000   0.0000000   0.0000000  )
        18           Ru  tau(  18) = (   1.5000000   0.5000000   0.0000000  )
        19           Ru  tau(  19) = (   1.5000000   0.0000000   0.5000000  )
        20           Ru  tau(  20) = (   1.0000000   0.5000000   0.5000000  )
        21           Ru  tau(  21) = (   1.0000000   0.0000000   1.0000000  )
        22           Ru  tau(  22) = (   1.5000000   0.5000000   1.0000000  )
        23           Ru  tau(  23) = (   1.5000000   0.0000000   1.5000000  )
        24           Ru  tau(  24) = (   1.0000000   0.5000000   1.5000000  )
        25           Ru  tau(  25) = (   1.0000000   1.0000000   0.0000000  )
        26           Ru  tau(  26) = (   1.5000000   1.5000000   0.0000000  )
        27           Ru  tau(  27) = (   1.5000000   1.0000000   0.5000000  )
        28           Ru  tau(  28) = (   1.0000000   1.5000000   0.5000000  )
        29           Ru  tau(  29) = (   1.0000000   1.0000000   1.0000000  )
        30           Ru  tau(  30) = (   1.5000000   1.5000000   1.0000000  )
        31           Ru  tau(  31) = (   1.5000000   1.0000000   1.5000000  )
        32           Ru  tau(  32) = (   1.0000000   1.5000000   1.5000000  )

     number of k points=    35  Marzari-Vanderbilt smearing, width (Ry)=  0.0400
                       cart. coord. in units 2pi/alat
        k(    1) = (   0.0277778   0.0277778   0.0277778), wk =   0.0219479
        k(    2) = (   0.0277778   0.0277778   0.0833333), wk =   0.0658436
        k(    3) = (   0.0277778   0.0277778   0.1388889), wk =   0.0658436
        k(    4) = (   0.0277778   0.0277778   0.1944444), wk =   0.0658436
        k(    5) = (   0.0277778   0.0277778  -0.2500000), wk =   0.0329218
        k(    6) = (   0.0277778   0.0833333   0.0833333), wk =   0.0658436
        k(    7) = (   0.0277778   0.0833333   0.1388889), wk =   0.1316872
        k(    8) = (   0.0277778   0.0833333   0.1944444), wk =   0.1316872
        k(    9) = (   0.0277778   0.0833333  -0.2500000), wk =   0.0658436
        k(   10) = (   0.0277778   0.1388889   0.1388889), wk =   0.0658436
        k(   11) = (   0.0277778   0.1388889   0.1944444), wk =   0.1316872
        k(   12) = (   0.0277778   0.1388889  -0.2500000), wk =   0.0658436
        k(   13) = (   0.0277778   0.1944444   0.1944444), wk =   0.0658436
        k(   14) = (   0.0277778   0.1944444  -0.2500000), wk =   0.0658436
        k(   15) = (   0.0277778  -0.2500000  -0.2500000), wk =   0.0164609
        k(   16) = (   0.0833333   0.0833333   0.0833333), wk =   0.0219479
        k(   17) = (   0.0833333   0.0833333   0.1388889), wk =   0.0658436
        k(   18) = (   0.0833333   0.0833333   0.1944444), wk =   0.0658436
        k(   19) = (   0.0833333   0.0833333  -0.2500000), wk =   0.0329218
        k(   20) = (   0.0833333   0.1388889   0.1388889), wk =   0.0658436
        k(   21) = (   0.0833333   0.1388889   0.1944444), wk =   0.1316872
        k(   22) = (   0.0833333   0.1388889  -0.2500000), wk =   0.0658436
        k(   23) = (   0.0833333   0.1944444   0.1944444), wk =   0.0658436
        k(   24) = (   0.0833333   0.1944444  -0.2500000), wk =   0.0658436
        k(   25) = (   0.0833333  -0.2500000  -0.2500000), wk =   0.0164609
        k(   26) = (   0.1388889   0.1388889   0.1388889), wk =   0.0219479
        k(   27) = (   0.1388889   0.1388889   0.1944444), wk =   0.0658436
        k(   28) = (   0.1388889   0.1388889  -0.2500000), wk =   0.0329218
        k(   29) = (   0.1388889   0.1944444   0.1944444), wk =   0.0658436
        k(   30) = (   0.1388889   0.1944444  -0.2500000), wk =   0.0658436
        k(   31) = (   0.1388889  -0.2500000  -0.2500000), wk =   0.0164609
        k(   32) = (   0.1944444   0.1944444   0.1944444), wk =   0.0219479
        k(   33) = (   0.1944444   0.1944444  -0.2500000), wk =   0.0329218
        k(   34) = (   0.1944444  -0.2500000  -0.2500000), wk =   0.0164609
        k(   35) = (  -0.2500000  -0.2500000  -0.2500000), wk =   0.0027435

     Initial potential from superposition of free atoms

     starting charge  511.97959, renormalised to  512.00000
     Starting wfcs are  320 randomized atomic wfcs
     Checking if some PAW data can be deallocated...

     Self-consistent Calculation

     iteration #  1     ecut=    71.00 Ry     beta= 0.10
     Davidson diagonalization with overlap
     ethr =  1.00E-02,  avg # of iterations =  2.0

     total energy              =  -13798.44709752 Ry
     estimated scf accuracy    <      19.75274370 Ry

[...]

     iteration # 16     ecut=    71.00 Ry     beta= 0.10
     Davidson diagonalization with overlap
     c_bands:  1 eigenvalues not converged
     c_bands:  1 eigenvalues not converged
     c_bands:  1 eigenvalues not converged
     c_bands:  1 eigenvalues not converged
     c_bands:  4 eigenvalues not converged
     ethr =  4.36E-07,  avg # of iterations = 14.8

[...]

     iteration # 32     ecut=    71.00 Ry     beta= 0.10
     Davidson diagonalization with overlap
     c_bands:  1 eigenvalues not converged
     ethr =  4.53E-10,  avg # of iterations = 10.1

[...]

     total energy              =  -13794.89676417 Ry
     estimated scf accuracy    <       0.00000172 Ry

     iteration # 37     ecut=    71.00 Ry     beta= 0.10
     Davidson diagonalization with overlap
     ethr =  3.36E-10,  avg # of iterations =  2.6

     End of self-consistent calculation

          k = 0.0278 0.0278 0.0278 (241425 PWs)   bands (ev):

   -71.8049 -71.8049 -71.8049 -71.8049 -71.8049 -71.8049 -71.8049 -71.8049
   -71.8049 -71.8049 -71.8049 -71.8049 -71.8049 -71.8049 -71.8049 -71.8049
   -71.8048 -71.8048 -71.8048 -71.8048 -71.8048 -71.8048 -71.8048 -71.8048
   -71.8048 -71.8048 -71.8048 -71.8048 -71.8048 -71.8048 -71.8048 -71.8047
   -41.8946 -41.8946 -41.8945 -41.8945 -41.8945 -41.8945 -41.8945 -41.8945
   -41.8945 -41.8945 -41.8945 -41.8945 -41.8945 -41.8945 -41.8945 -41.8945
   -41.8945 -41.8945 -41.8945 -41.8945 -41.8945 -41.8945 -41.8945 -41.8945
   -41.8945 -41.8945 -41.8945 -41.8945 -41.8945 -41.8945 -41.8945 -41.8945
   -41.8945 -41.8945 -41.8945 -41.8945 -41.8945 -41.8945 -41.8945 -41.8945
   -41.8945 -41.8945 -41.8945 -41.8945 -41.8945 -41.8945 -41.8945 -41.8945
   -41.8945 -41.8945 -41.8945 -41.8945 -41.8945 -41.8945 -41.8945 -41.8945
   -41.8945 -41.8945 -41.8945 -41.8945 -41.8945 -41.8945 -41.8945 -41.8945
   -41.8945 -41.8945 -41.8945 -41.8945 -41.8945 -41.8945 -41.8945 -41.8945
   -41.8945 -41.8945 -41.8945 -41.8945 -41.8945 -41.8944 -41.8944 -41.8944
   -41.8944 -41.8944 -41.8944 -41.8944 -41.8944 -41.8944 -41.8944 -41.8944
   -41.8944 -41.8944 -41.8944 -41.8944 -41.8944 -41.8944 -41.8944 -41.8944
    -1.5654  -1.0916  -1.0916  -1.0916  -1.0708  -1.0689  -1.0689  -1.0689
    -1.0347  -1.0347  -1.0347  -1.0267  -1.0267  -1.0267  -1.0220  -1.0220
    -1.0220  -0.9827  -0.9827  -0.9827  -0.9796  -0.9796  -0.9796  -0.9764
    -0.9764  -0.9764  -0.9752  -0.9752  -0.9752  -0.9752  -0.9752  -0.9752
    -0.9752  -0.9752  -0.9752  -0.9604  -0.9604  -0.9604  -0.9604  -0.9604
    -0.9604  -0.9389  -0.9389  -0.9389  -0.9384  -0.9384  -0.9384  -0.9384
    -0.9384  -0.9383  -0.9366  -0.9366  -0.9366  -0.9366  -0.9366  -0.9366
    -0.9361  -0.9354  -0.9354  -0.9349  -0.9349  -0.9349  -0.9343  -0.9343
    -0.9337  -0.9337  -0.9337  -0.9310  -0.9310  -0.9310  -0.9204  -0.9204
    -0.9204  -0.9204  -0.9204  -0.9204  -0.9004  -0.9004  -0.9004  -0.9004
    -0.9004  -0.9004  -0.8942  -0.8942  -0.8942  -0.8927  -0.8927  -0.8927
    -0.8918  -0.8918  -0.8918  -0.8876  -0.8876  -0.8876  -0.8865  -0.8865
    -0.8865  -0.8830  -0.8830  -0.8830  -0.8830  -0.8830  -0.8830  -0.8820
    -0.8820  -0.8820  -0.8741  -0.8741  -0.8735  -0.8735  -0.8735  -0.8719
    -0.8719  -0.8719  -0.8711  -0.8711  -0.8711  -0.8664  -0.8664  -0.8664
    -0.8664  -0.8664  -0.8664  -0.8653  -0.8653  -0.8653  -0.8653  -0.8653
    -0.8653  -0.8611  -0.8611  -0.8611  -0.8559  -0.8559  -0.8559  -0.8511
    -0.8511  -0.8511  -0.8465  -0.8465  -0.8465  -0.8253  -0.8253  -0.8253
    -0.8224  -0.8224  -0.8224  -0.8216  -0.8216  -0.8209  -0.8209  -0.8209
    -0.8084  -0.8084  -0.8084  -0.8078  -0.8078  -0.8078  -0.8078  -0.8078
    -0.8078  -0.8077  -0.8077  -0.8077  -0.7949  -0.7949  -0.7949  -0.4643
    -0.4643  -0.4642  -0.3687  -0.3687  -0.3687  -0.3687  -0.3687  -0.3687
    -0.2778  -0.2778  -0.2778

[...]

          k = 0.1944-0.2500-0.2500 (241400 PWs)   bands (ev):

[...]

          k =-0.2500-0.2500-0.2500 (241472 PWs)   bands (ev):

   -71.8049 -71.8049 -71.8049 -71.8049 -71.8049 -71.8049 -71.8049 -71.8049
   -71.8049 -71.8049 -71.8049 -71.8049 -71.8049 -71.8049 -71.8049 -71.8049
   -71.8049 -71.8049 -71.8049 -71.8049 -71.8048 -71.8048 -71.8048 -71.8048
   -71.8048 -71.8048 -71.8048 -71.8048 -71.8048 -71.8048 -71.8048 -71.8047
   -41.8945 -41.8945 -41.8945 -41.8945 -41.8945 -41.8945 -41.8945 -41.8945
   -41.8945 -41.8945 -41.8945 -41.8945 -41.8945 -41.8945 -41.8945 -41.8945
   -41.8945 -41.8945 -41.8945 -41.8945 -41.8945 -41.8945 -41.8945 -41.8945
   -41.8945 -41.8945 -41.8945 -41.8945 -41.8945 -41.8945 -41.8945 -41.8945
   -41.8945 -41.8945 -41.8945 -41.8945 -41.8945 -41.8945 -41.8945 -41.8945
   -41.8945 -41.8945 -41.8945 -41.8945 -41.8945 -41.8945 -41.8945 -41.8945
   -41.8945 -41.8945 -41.8945 -41.8945 -41.8945 -41.8945 -41.8945 -41.8945
   -41.8945 -41.8945 -41.8945 -41.8945 -41.8945 -41.8945 -41.8945 -41.8945
   -41.8945 -41.8945 -41.8945 -41.8945 -41.8945 -41.8945 -41.8945 -41.8945
   -41.8945 -41.8945 -41.8945 -41.8945 -41.8945 -41.8945 -41.8945 -41.8945
   -41.8945 -41.8945 -41.8945 -41.8945 -41.8944 -41.8944 -41.8944 -41.8944
   -41.8944 -41.8944 -41.8944 -41.8944 -41.8944 -41.8944 -41.8944 -41.8944
    -1.1860  -1.1860  -1.1860  -1.1860  -1.1860  -1.1860  -1.1860  -1.1860
    -1.0030  -1.0030  -1.0030  -1.0030  -1.0030  -1.0030  -1.0030  -1.0030
    -1.0030  -1.0030  -1.0030  -1.0030  -1.0030  -1.0030  -1.0030  -1.0030
    -1.0030  -1.0030  -1.0030  -1.0030  -1.0030  -1.0030  -1.0030  -1.0030
    -0.9432  -0.9432  -0.9432  -0.9432  -0.9432  -0.9432  -0.9432  -0.9432
    -0.9432  -0.9432  -0.9432  -0.9432  -0.9432  -0.9432  -0.9432  -0.9432
    -0.9432  -0.9432  -0.9432  -0.9432  -0.9432  -0.9432  -0.9432  -0.9432
    -0.9217  -0.9217  -0.9217  -0.9217  -0.9217  -0.9217  -0.9217  -0.9217
    -0.9217  -0.9217  -0.9217  -0.9217  -0.9217  -0.9217  -0.9217  -0.9217
    -0.8858  -0.8858  -0.8858  -0.8858  -0.8858  -0.8858  -0.8858  -0.8858
    -0.8842  -0.8842  -0.8842  -0.8842  -0.8842  -0.8842  -0.8842  -0.8842
    -0.8842  -0.8842  -0.8842  -0.8842  -0.8842  -0.8842  -0.8842  -0.8842
    -0.8842  -0.8842  -0.8842  -0.8842  -0.8842  -0.8842  -0.8842  -0.8842
    -0.8784  -0.8784  -0.8784  -0.8784  -0.8784  -0.8784  -0.8783  -0.8783
    -0.8783  -0.8783  -0.8783  -0.8783  -0.8783  -0.8783  -0.8783  -0.8783
    -0.8783  -0.8783  -0.8783  -0.8783  -0.8783  -0.8783  -0.8783  -0.8783
    -0.8619  -0.8619  -0.8619  -0.8619  -0.8619  -0.8619  -0.8619  -0.8619
    -0.8619  -0.8619  -0.8619  -0.8619  -0.8619  -0.8619  -0.8619  -0.8619
    -0.8174  -0.8174  -0.8174  -0.8174  -0.8174  -0.8174  -0.8174  -0.8174
    -0.8174  -0.8174  -0.8174  -0.8174  -0.8174  -0.8174  -0.8174  -0.8174
    -0.8174  -0.8174  -0.8174  -0.8174  -0.8174  -0.8174  -0.8174  -0.8174
    -0.0721  -0.0721  -0.0721  -0.0721  -0.0721  -0.0721  -0.0721  -0.0721
    -0.0721  -0.0721  -0.0721

     the Fermi energy is    -0.6432 ev

!    total energy              =  -13794.89676476 Ry

     total all-electron energy =   -289971.287104 Ry
     estimated scf accuracy    <       0.00000046 Ry
     smearing contrib. (-TS)   =      -1.12798806 Ry
     internal energy E=F+TS    =  -13793.76877670 Ry

     The total energy is F=E-TS. E is the sum of the following terms:
     one-electron contribution =   -5366.39054695 Ry
     hartree contribution      =    2687.32916026 Ry
     xc contribution           =    -917.59001121 Ry
     ewald contribution        =   -2608.27709105 Ry
     one-center paw contrib.   =   -7588.84028774 Ry

     convergence has been achieved in  37 iterations

     Forces acting on atoms (cartesian axes, Ry/au):

     atom    1 type  1   force =     0.00000000    0.00000000    0.00000000
     atom    2 type  1   force =    -0.00000169   -0.00000169    0.00000000
     atom    3 type  1   force =    -0.00000169   -0.00000000   -0.00000169
     atom    4 type  1   force =    -0.00000000   -0.00000169   -0.00000169
     atom    5 type  1   force =     0.00000000    0.00000000    0.00000000
     atom    6 type  1   force =    -0.00000631   -0.00000631    0.00000000
     atom    7 type  1   force =    -0.00000169    0.00000000    0.00000169
     atom    8 type  1   force =     0.00000000   -0.00000169    0.00000169
     atom    9 type  1   force =     0.00000000    0.00000000    0.00000000
     atom   10 type  1   force =    -0.00000169    0.00000169    0.00000000
     atom   11 type  1   force =    -0.00000631    0.00000000   -0.00000631
     atom   12 type  1   force =     0.00000000    0.00000169   -0.00000169
     atom   13 type  1   force =     0.00000000    0.00000000    0.00000000
     atom   14 type  1   force =    -0.00000631    0.00000631    0.00000000
     atom   15 type  1   force =    -0.00000631    0.00000000    0.00000631
     atom   16 type  1   force =    -0.00000000    0.00000169    0.00000169
     atom   17 type  1   force =     0.00000000    0.00000000    0.00000000
     atom   18 type  1   force =     0.00000169   -0.00000169    0.00000000
     atom   19 type  1   force =     0.00000169    0.00000000   -0.00000169
     atom   20 type  1   force =     0.00000000   -0.00000631   -0.00000631
     atom   21 type  1   force =     0.00000000    0.00000000    0.00000000
     atom   22 type  1   force =     0.00000631   -0.00000631    0.00000000
     atom   23 type  1   force =     0.00000169   -0.00000000    0.00000169
     atom   24 type  1   force =     0.00000000   -0.00000631    0.00000631
     atom   25 type  1   force =     0.00000000    0.00000000    0.00000000
     atom   26 type  1   force =     0.00000169    0.00000169    0.00000000
     atom   27 type  1   force =     0.00000631    0.00000000   -0.00000631
     atom   28 type  1   force =     0.00000000    0.00000631   -0.00000631
     atom   29 type  1   force =     0.00000000    0.00000000    0.00000000
     atom   30 type  1   force =     0.00000631    0.00000631    0.00000000
     atom   31 type  1   force =     0.00000631    0.00000000    0.00000631
     atom   32 type  1   force =     0.00000000    0.00000631    0.00000631

     Total force =     0.000032     Total SCF correction =     0.000150
     SCF correction compared to forces is large: reduce conv_thr to get better values

     Computing stress (Cartesian axis) and pressure

          total   stress  (Ry/bohr**3)                   (kbar)     P=      -14.43
  -0.00009811   0.00000000   0.00000000          -14.43        0.00        0.00
   0.00000000  -0.00009811   0.00000000            0.00      -14.43        0.00
   0.00000000   0.00000000  -0.00009811            0.00        0.00      -14.43

     Writing output data file /scratch/hLVWAkkVOugoZVfZ.save/

     General routines

     Parallel routines

   This run was terminated on:  23:40:28  25Nov2021

   JOB DONE.