     Program PWSCF v.6.7MaX starts on 25Nov2021 at 18:31:21

     R & G space division:  proc/nbgrp/npool/nimage =      72
     Reading input from fcc_9.in
Warning: card &CELL ignored
Warning: card CELL_DYNAMICS = 'BFGS', ignored
Warning: card CELL_FACTOR = 2.0, ignored
Warning: card PRESS = 0.0, ignored
Warning: card / ignored

     Current dimensions of program PWSCF are:
     Max number of different atomic species (ntypx) = 10
     Max number of k-points (npk) =  40000
     Max angular momentum in pseudopotentials (lmaxx) =  3
     file Ru.pbe-spn-kjpaw_psl.1.0.0.UPF: wavefunction(s)  4D renormalized

     Subspace diagonalization in iterative solution of the eigenvalue problem:
     one sub-group per band group will be used

     Found symmetry operation: I + (  0.2500  0.2500  0.0000)
     This is a supercell, fractional translations are disabled
     Message from routine setup:
     using ibrav=0 with symmetry is DISCOURAGED, use correct ibrav instead

     bravais-lattice index     =            0
     lattice parameter (alat)  =      14.4000  a.u.
     unit-cell volume          =   17414.2587 (a.u.)^3
     number of atoms/cell      =           32
     number of atomic types    =            1
     number of electrons       =       512.00
     number of Kohn-Sham states=          307
     kinetic-energy cutoff     =      71.0000  Ry
     charge density cutoff     =     430.0000  Ry
     scf convergence threshold =      1.0E-06
     mixing beta               =       0.1000
     number of iterations used =           10  TF        mixing
     Exchange-correlation= SLA  PW   PBX  PBC
                           (   1   4   3   4   0   0   0)

     celldm(1)=  14.400000  celldm(2)=   0.000000  celldm(3)=   0.000000
     celldm(4)=   0.000000  celldm(5)=   0.000000  celldm(6)=   0.000000

     crystal axes: (cart. coord. in units of alat)
               a(1) = (   1.800000   0.000000   0.000000 )
               a(2) = (   0.000000   1.800000   0.000000 )
               a(3) = (   0.000000   0.000000   1.800000 )

     reciprocal axes: (cart. coord. in units 2 pi/alat)
               b(1) = (  0.555556  0.000000  0.000000 )
               b(2) = (  0.000000  0.555556  0.000000 )
               b(3) = (  0.000000  0.000000  0.555556 )

     PseudoPot. # 1 for Ru read from file:
     /rds/homes/b/bxp912/pp/Ru.pbe-spn-kjpaw_psl.1.0.0.UPF
     MD5 check sum: 0ae1f594dea09af7be8575c3a481d1ae
     Pseudo is Projector augmented-wave + core cor, Zval = 16.0
     Generated using "atomic" code by A. Dal Corso  v.5.1
     Shape of augmentation charge: PSQ
     Using radial grid of 1233 points,  6 beta functions with:
                l(1) =   0
                l(2) =   0
                l(3) =   1
                l(4) =   1
                l(5) =   2
                l(6) =   2
     Q(r) pseudized with 0 coefficients

     atomic species   valence    mass     pseudopotential
        Ru            16.00   101.07000     Ru( 1.00)

     48 Sym. Ops., with inversion, found

   Cartesian axes

     site n.     atom                  positions (alat units)
         1           Ru  tau(   1) = (   0.0000000   0.0000000   0.0000000  )
         2           Ru  tau(   2) = (   0.4500000   0.4500000   0.0000000  )
         3           Ru  tau(   3) = (   0.4500000   0.0000000   0.4500000  )
         4           Ru  tau(   4) = (   0.0000000   0.4500000   0.4500000  )
         5           Ru  tau(   5) = (   0.0000000   0.0000000   0.9000000  )
         6           Ru  tau(   6) = (   0.4500000   0.4500000   0.9000000  )
         7           Ru  tau(   7) = (   0.4500000   0.0000000   1.3500000  )
         8           Ru  tau(   8) = (   0.0000000   0.4500000   1.3500000  )
         9           Ru  tau(   9) = (   0.0000000   0.9000000   0.0000000  )
        10           Ru  tau(  10) = (   0.4500000   1.3500000   0.0000000  )
        11           Ru  tau(  11) = (   0.4500000   0.9000000   0.4500000  )
        12           Ru  tau(  12) = (   0.0000000   1.3500000   0.4500000  )
        13           Ru  tau(  13) = (   0.0000000   0.9000000   0.9000000  )
        14           Ru  tau(  14) = (   0.4500000   1.3500000   0.9000000  )
        15           Ru  tau(  15) = (   0.4500000   0.9000000   1.3500000  )
        16           Ru  tau(  16) = (   0.0000000   1.3500000   1.3500000  )
        17           Ru  tau(  17) = (   0.9000000   0.0000000   0.0000000  )
        18           Ru  tau(  18) = (   1.3500000   0.4500000   0.0000000  )
        19           Ru  tau(  19) = (   1.3500000   0.0000000   0.4500000  )
        20           Ru  tau(  20) = (   0.9000000   0.4500000   0.4500000  )
        21           Ru  tau(  21) = (   0.9000000   0.0000000   0.9000000  )
        22           Ru  tau(  22) = (   1.3500000   0.4500000   0.9000000  )
        23           Ru  tau(  23) = (   1.3500000   0.0000000   1.3500000  )
        24           Ru  tau(  24) = (   0.9000000   0.4500000   1.3500000  )
        25           Ru  tau(  25) = (   0.9000000   0.9000000   0.0000000  )
        26           Ru  tau(  26) = (   1.3500000   1.3500000   0.0000000  )
        27           Ru  tau(  27) = (   1.3500000   0.9000000   0.4500000  )
        28           Ru  tau(  28) = (   0.9000000   1.3500000   0.4500000  )
        29           Ru  tau(  29) = (   0.9000000   0.9000000   0.9000000  )
        30           Ru  tau(  30) = (   1.3500000   1.3500000   0.9000000  )
        31           Ru  tau(  31) = (   1.3500000   0.9000000   1.3500000  )
        32           Ru  tau(  32) = (   0.9000000   1.3500000   1.3500000  )

     number of k points=    35  Marzari-Vanderbilt smearing, width (Ry)=  0.0400
                       cart. coord. in units 2pi/alat
        k(    1) = (   0.0308642   0.0308642   0.0308642), wk =   0.0219479
        k(    2) = (   0.0308642   0.0308642   0.0925926), wk =   0.0658436
        k(    3) = (   0.0308642   0.0308642   0.1543210), wk =   0.0658436
        k(    4) = (   0.0308642   0.0308642   0.2160494), wk =   0.0658436
        k(    5) = (   0.0308642   0.0308642  -0.2777778), wk =   0.0329218
        k(    6) = (   0.0308642   0.0925926   0.0925926), wk =   0.0658436
        k(    7) = (   0.0308642   0.0925926   0.1543210), wk =   0.1316872
        k(    8) = (   0.0308642   0.0925926   0.2160494), wk =   0.1316872
        k(    9) = (   0.0308642   0.0925926  -0.2777778), wk =   0.0658436
        k(   10) = (   0.0308642   0.1543210   0.1543210), wk =   0.0658436
        k(   11) = (   0.0308642   0.1543210   0.2160494), wk =   0.1316872
        k(   12) = (   0.0308642   0.1543210  -0.2777778), wk =   0.0658436
        k(   13) = (   0.0308642   0.2160494   0.2160494), wk =   0.0658436
        k(   14) = (   0.0308642   0.2160494  -0.2777778), wk =   0.0658436
        k(   15) = (   0.0308642  -0.2777778  -0.2777778), wk =   0.0164609
        k(   16) = (   0.0925926   0.0925926   0.0925926), wk =   0.0219479
        k(   17) = (   0.0925926   0.0925926   0.1543210), wk =   0.0658436
        k(   18) = (   0.0925926   0.0925926   0.2160494), wk =   0.0658436
        k(   19) = (   0.0925926   0.0925926  -0.2777778), wk =   0.0329218
        k(   20) = (   0.0925926   0.1543210   0.1543210), wk =   0.0658436
        k(   21) = (   0.0925926   0.1543210   0.2160494), wk =   0.1316872
        k(   22) = (   0.0925926   0.1543210  -0.2777778), wk =   0.0658436
        k(   23) = (   0.0925926   0.2160494   0.2160494), wk =   0.0658436
        k(   24) = (   0.0925926   0.2160494  -0.2777778), wk =   0.0658436
        k(   25) = (   0.0925926  -0.2777778  -0.2777778), wk =   0.0164609
        k(   26) = (   0.1543210   0.1543210   0.1543210), wk =   0.0219479
        k(   27) = (   0.1543210   0.1543210   0.2160494), wk =   0.0658436
        k(   28) = (   0.1543210   0.1543210  -0.2777778), wk =   0.0329218
        k(   29) = (   0.1543210   0.2160494   0.2160494), wk =   0.0658436
        k(   30) = (   0.1543210   0.2160494  -0.2777778), wk =   0.0658436
        k(   31) = (   0.1543210  -0.2777778  -0.2777778), wk =   0.0164609
        k(   32) = (   0.2160494   0.2160494   0.2160494), wk =   0.0219479
        k(   33) = (   0.2160494   0.2160494  -0.2777778), wk =   0.0329218
        k(   34) = (   0.2160494  -0.2777778  -0.2777778), wk =   0.0164609
        k(   35) = (  -0.2777778  -0.2777778  -0.2777778), wk =   0.0027435

     Check: negative core charge=   -0.000001

     Initial potential from superposition of free atoms

     starting charge  511.97959, renormalised to  512.00000
     Starting wfcs are  320 randomized atomic wfcs
     Checking if some PAW data can be deallocated...

     Self-consistent Calculation

     iteration #  1     ecut=    71.00 Ry     beta= 0.10
     Davidson diagonalization with overlap
     ethr =  1.00E-02,  avg # of iterations =  2.0

     total energy              =  -13798.41096709 Ry
     estimated scf accuracy    <      18.87226758 Ry

[...]

     total energy              =  -13795.84223444 Ry
     estimated scf accuracy    <       0.00000150 Ry

     iteration # 31     ecut=    71.00 Ry     beta= 0.10
     Davidson diagonalization with overlap
     ethr =  2.27E-10,  avg # of iterations =  3.4

     End of self-consistent calculation

          k = 0.0309 0.0309 0.0309 (175883 PWs)   bands (ev):

   -70.8736 -70.8736 -70.8736 -70.8736 -70.8736 -70.8736 -70.8736 -70.8736
   -70.8736 -70.8736 -70.8736 -70.8736 -70.8736 -70.8736 -70.8736 -70.8736
   -70.8736 -70.8736 -70.8736 -70.8736 -70.8736 -70.8736 -70.8736 -70.8736
   -70.8736 -70.8736 -70.8736 -70.8736 -70.8736 -70.8736 -70.8736 -70.8735
   -40.9437 -40.9437 -40.9437 -40.9437 -40.9436 -40.9436 -40.9436 -40.9436
   -40.9436 -40.9436 -40.9436 -40.9436 -40.9436 -40.9436 -40.9436 -40.9436
   -40.9436 -40.9436 -40.9436 -40.9436 -40.9436 -40.9436 -40.9435 -40.9435
   -40.9435 -40.9435 -40.9435 -40.9435 -40.9435 -40.9435 -40.9435 -40.9434
   -40.9434 -40.9434 -40.9434 -40.9434 -40.9434 -40.9434 -40.9434 -40.9434
   -40.9434 -40.9434 -40.9434 -40.9434 -40.9434 -40.9434 -40.9434 -40.9434
   -40.9434 -40.9434 -40.9434 -40.9434 -40.9434 -40.9434 -40.9434 -40.9434
   -40.9434 -40.9434 -40.9434 -40.9434 -40.9434 -40.9433 -40.9433 -40.9433
   -40.9433 -40.9433 -40.9433 -40.9433 -40.9433 -40.9433 -40.9433 -40.9433
   -40.9433 -40.9433 -40.9433 -40.9433 -40.9433 -40.9433 -40.9433 -40.9433
   -40.9433 -40.9433 -40.9433 -40.9433 -40.9433 -40.9433 -40.9433 -40.9433
   -40.9433 -40.9433 -40.9433 -40.9433 -40.9433 -40.9433 -40.9433 -40.9433
    -0.9390  -0.2844  -0.2844  -0.2844  -0.1763  -0.1763  -0.1763  -0.1742
    -0.1707  -0.1707  -0.1707  -0.0980  -0.0980  -0.0980  -0.0791  -0.0791
    -0.0791  -0.0227  -0.0227  -0.0227  -0.0059  -0.0059  -0.0059  -0.0059
    -0.0059  -0.0059  -0.0031  -0.0031  -0.0031  -0.0025  -0.0025  -0.0025
     0.0116   0.0116   0.0116   0.0228   0.0228   0.0228   0.0228   0.0228
     0.0228   0.0682   0.0682   0.0682   0.0682   0.0682   0.0682   0.0699
     0.0699   0.0699   0.0733   0.0733   0.0733   0.0733   0.0733   0.0733
     0.0822   0.0822   0.0822   0.0885   0.0891   0.0891   0.0891   0.0898
     0.0898   0.0903   0.0903   0.0913   0.0913   0.0913   0.1014   0.1014
     0.1014   0.1014   0.1014   0.1014   0.1303   0.1303   0.1303   0.1303
     0.1303   0.1303   0.1356   0.1356   0.1356   0.1392   0.1392   0.1392
     0.1678   0.1678   0.1678   0.1699   0.1699   0.1699   0.1753   0.1753
     0.1753   0.1780   0.1780   0.1780   0.1780   0.1780   0.1780   0.1862
     0.1862   0.1862   0.1954   0.1954   0.1954   0.2049   0.2049   0.2050
     0.2050   0.2050   0.2062   0.2062   0.2062   0.2067   0.2067   0.2067
     0.2146   0.2146   0.2146   0.2146   0.2146   0.2146   0.2187   0.2187
     0.2187   0.2187   0.2187   0.2187   0.2267   0.2267   0.2268   0.2467
     0.2467   0.2467   0.2536   0.2536   0.2536   0.2549   0.2549   0.2549
     0.2938   0.2938   0.2938   0.2981   0.2981   0.2981   0.3001   0.3001
     0.3015   0.3015   0.3015   0.3238   0.3238   0.3238   0.3251   0.3251
     0.3251   0.3251   0.3251   0.3251   0.3253   0.3253   0.3253   0.7119
     0.7119   0.7119   0.8460   0.8460   0.8460   0.8460   0.8460   0.8460
     0.9819   0.9819   0.9819

[...]

          k = 0.2160-0.2778-0.2778 (175932 PWs)   bands (ev):

[...]

          k =-0.2778-0.2778-0.2778 (175600 PWs)   bands (ev):

   -70.8736 -70.8736 -70.8736 -70.8736 -70.8736 -70.8736 -70.8736 -70.8736
   -70.8736 -70.8736 -70.8736 -70.8736 -70.8736 -70.8736 -70.8736 -70.8736
   -70.8736 -70.8736 -70.8736 -70.8736 -70.8736 -70.8736 -70.8736 -70.8736
   -70.8736 -70.8736 -70.8736 -70.8736 -70.8736 -70.8736 -70.8735 -70.8735
   -40.9436 -40.9436 -40.9436 -40.9436 -40.9436 -40.9436 -40.9436 -40.9436
   -40.9436 -40.9436 -40.9436 -40.9436 -40.9436 -40.9436 -40.9436 -40.9436
   -40.9436 -40.9436 -40.9436 -40.9436 -40.9436 -40.9436 -40.9436 -40.9436
   -40.9434 -40.9434 -40.9434 -40.9434 -40.9434 -40.9434 -40.9434 -40.9434
   -40.9434 -40.9434 -40.9434 -40.9434 -40.9434 -40.9434 -40.9434 -40.9434
   -40.9434 -40.9434 -40.9434 -40.9434 -40.9434 -40.9434 -40.9434 -40.9434
   -40.9434 -40.9434 -40.9434 -40.9434 -40.9434 -40.9434 -40.9434 -40.9434
   -40.9434 -40.9434 -40.9434 -40.9434 -40.9434 -40.9434 -40.9434 -40.9434
   -40.9434 -40.9434 -40.9434 -40.9433 -40.9433 -40.9433 -40.9433 -40.9433
   -40.9433 -40.9433 -40.9433 -40.9433 -40.9433 -40.9433 -40.9433 -40.9433
   -40.9433 -40.9433 -40.9433 -40.9433 -40.9433 -40.9433 -40.9433 -40.9433
   -40.9433 -40.9433 -40.9433 -40.9433 -40.9433 -40.9433 -40.9433 -40.9433
    -0.4117  -0.4117  -0.4117  -0.4117  -0.4117  -0.4117  -0.4117  -0.4117
    -0.0497  -0.0497  -0.0497  -0.0497  -0.0497  -0.0497  -0.0497  -0.0497
    -0.0497  -0.0497  -0.0497  -0.0497  -0.0497  -0.0497  -0.0497  -0.0497
    -0.0497  -0.0497  -0.0497  -0.0497  -0.0497  -0.0497  -0.0497  -0.0497
     0.0577   0.0577   0.0577   0.0577   0.0577   0.0577   0.0577   0.0577
     0.0577   0.0577   0.0577   0.0577   0.0577   0.0577   0.0577   0.0577
     0.0577   0.0577   0.0577   0.0577   0.0577   0.0577   0.0577   0.0577
     0.1145   0.1145   0.1145   0.1145   0.1145   0.1145   0.1145   0.1145
     0.1145   0.1145   0.1145   0.1145   0.1145   0.1145   0.1145   0.1145
     0.1344   0.1344   0.1344   0.1344   0.1344   0.1344   0.1344   0.1344
     0.1676   0.1676   0.1676   0.1676   0.1676   0.1676   0.1676   0.1676
     0.1676   0.1676   0.1676   0.1676   0.1676   0.1676   0.1676   0.1676
     0.1676   0.1676   0.1676   0.1676   0.1676   0.1676   0.1676   0.1676
     0.1930   0.1930   0.1930   0.1930   0.1930   0.1930   0.1930   0.1930
     0.1930   0.1930   0.1930   0.1930   0.1930   0.1930   0.1930   0.1930
     0.1930   0.1930   0.1930   0.1930   0.1930   0.1930   0.1930   0.1930
     0.2255   0.2255   0.2255   0.2255   0.2255   0.2255   0.2255   0.2255
     0.2255   0.2255   0.2255   0.2255   0.2255   0.2255   0.2255   0.2255
     0.3078   0.3078   0.3078   0.3078   0.3078   0.3078   0.3078   0.3078
     0.3078   0.3078   0.3078   0.3078   0.3078   0.3078   0.3078   0.3078
     0.3078   0.3078   0.3078   0.3078   0.3078   0.3078   0.3078   0.3078
     1.3112   1.3112   1.3112   1.3112   1.3112   1.3112   1.3112   1.3112
     1.3112   1.3112   1.3112

     the Fermi energy is     0.4068 ev

!    total energy              =  -13795.84223510 Ry

     total all-electron energy =   -289972.232574 Ry
     estimated scf accuracy    <       0.00000038 Ry
     smearing contrib. (-TS)   =      -0.91430372 Ry
     internal energy E=F+TS    =  -13794.92793138 Ry

     The total energy is F=E-TS. E is the sum of the following terms:
     one-electron contribution =   -4826.88828559 Ry
     hartree contribution      =    2435.13662812 Ry
     xc contribution           =    -916.23363858 Ry
     ewald contribution        =   -2898.08565672 Ry
     one-center paw contrib.   =   -7588.85697861 Ry

     convergence has been achieved in  31 iterations

     Forces acting on atoms (cartesian axes, Ry/au):

     atom    1 type  1   force =     0.00000000    0.00000000    0.00000000
     atom    2 type  1   force =    -0.00000662   -0.00000662    0.00000000
     atom    3 type  1   force =    -0.00000662    0.00000000   -0.00000662
     atom    4 type  1   force =     0.00000000   -0.00000662   -0.00000662
     atom    5 type  1   force =     0.00000000    0.00000000    0.00000000
     atom    6 type  1   force =    -0.00000834   -0.00000834   -0.00000000
     atom    7 type  1   force =    -0.00000662   -0.00000000    0.00000662
     atom    8 type  1   force =     0.00000000   -0.00000662    0.00000662
     atom    9 type  1   force =     0.00000000    0.00000000    0.00000000
     atom   10 type  1   force =    -0.00000662    0.00000662   -0.00000000
     atom   11 type  1   force =    -0.00000834    0.00000000   -0.00000834
     atom   12 type  1   force =     0.00000000    0.00000662   -0.00000662
     atom   13 type  1   force =     0.00000000    0.00000000    0.00000000
     atom   14 type  1   force =    -0.00000834    0.00000834    0.00000000
     atom   15 type  1   force =    -0.00000834    0.00000000    0.00000834
     atom   16 type  1   force =     0.00000000    0.00000662    0.00000662
     atom   17 type  1   force =     0.00000000    0.00000000    0.00000000
     atom   18 type  1   force =     0.00000662   -0.00000662   -0.00000000
     atom   19 type  1   force =     0.00000662   -0.00000000   -0.00000662
     atom   20 type  1   force =    -0.00000000   -0.00000834   -0.00000834
     atom   21 type  1   force =     0.00000000    0.00000000    0.00000000
     atom   22 type  1   force =     0.00000834   -0.00000834    0.00000000
     atom   23 type  1   force =     0.00000662    0.00000000    0.00000662
     atom   24 type  1   force =     0.00000000   -0.00000834    0.00000834
     atom   25 type  1   force =     0.00000000    0.00000000    0.00000000
     atom   26 type  1   force =     0.00000662    0.00000662    0.00000000
     atom   27 type  1   force =     0.00000834   -0.00000000   -0.00000834
     atom   28 type  1   force =    -0.00000000    0.00000834   -0.00000834
     atom   29 type  1   force =     0.00000000    0.00000000    0.00000000
     atom   30 type  1   force =     0.00000834    0.00000834   -0.00000000
     atom   31 type  1   force =     0.00000834   -0.00000000    0.00000834
     atom   32 type  1   force =     0.00000000    0.00000834    0.00000834

     Total force =     0.000052     Total SCF correction =     0.000374
     SCF correction compared to forces is large: reduce conv_thr to get better values

     Computing stress (Cartesian axis) and pressure

          total   stress  (Ry/bohr**3)                   (kbar)     P=      -34.99
  -0.00023783   0.00000000   0.00000000          -34.99        0.00        0.00
   0.00000000  -0.00023783   0.00000000            0.00      -34.99        0.00
   0.00000000   0.00000000  -0.00023783            0.00        0.00      -34.99

     Writing output data file /scratch/gXJMeVhNEctLIwVX.save/

     General routines

     Parallel routines

   This run was terminated on:  19:36: 6  25Nov2021

   JOB DONE.