     Program PWSCF v.6.7MaX starts on 25Nov2021 at 15:21:11

     R & G space division:  proc/nbgrp/npool/nimage =      72
     Reading input from fcc_2.in
Warning: card &CELL ignored
Warning: card CELL_DYNAMICS = 'BFGS', ignored
Warning: card CELL_FACTOR = 2.0, ignored
Warning: card PRESS = 0.0, ignored
Warning: card / ignored

     Current dimensions of program PWSCF are:
     Max number of different atomic species (ntypx) = 10
     Max number of k-points (npk) =  40000
     Max angular momentum in pseudopotentials (lmaxx) =  3
     file Ru.pbe-spn-kjpaw_psl.1.0.0.UPF: wavefunction(s)  4D renormalized

     Subspace diagonalization in iterative solution of the eigenvalue problem:
     one sub-group per band group will be used

     Found symmetry operation: I + (  0.2500  0.2500  0.0000)
     This is a supercell, fractional translations are disabled
     Message from routine setup:
     using ibrav=0 with symmetry is DISCOURAGED, use correct ibrav instead

     bravais-lattice index     =            0
     lattice parameter (alat)  =      14.4000  a.u.
     unit-cell volume          =    3974.3447 (a.u.)^3
     number of atoms/cell      =           32
     number of atomic types    =            1
     number of electrons       =       512.00
     number of Kohn-Sham states=          307
     kinetic-energy cutoff     =      71.0000  Ry
     charge density cutoff     =     430.0000  Ry
     scf convergence threshold =      1.0E-06
     mixing beta               =       0.1000
     number of iterations used =           10  TF        mixing
     Exchange-correlation= SLA  PW   PBX  PBC
                           (   1   4   3   4   0   0   0)

     celldm(1)=  14.400000  celldm(2)=   0.000000  celldm(3)=   0.000000
     celldm(4)=   0.000000  celldm(5)=   0.000000  celldm(6)=   0.000000

     crystal axes: (cart. coord. in units of alat)
               a(1) = (   1.100000   0.000000   0.000000 )
               a(2) = (   0.000000   1.100000   0.000000 )
               a(3) = (   0.000000   0.000000   1.100000 )

     reciprocal axes: (cart. coord. in units 2 pi/alat)
               b(1) = (  0.909091  0.000000  0.000000 )
               b(2) = (  0.000000  0.909091  0.000000 )
               b(3) = (  0.000000  0.000000  0.909091 )

     PseudoPot. # 1 for Ru read from file:
     /rds/homes/b/bxp912/pp/Ru.pbe-spn-kjpaw_psl.1.0.0.UPF
     MD5 check sum: 0ae1f594dea09af7be8575c3a481d1ae
     Pseudo is Projector augmented-wave + core cor, Zval = 16.0
     Generated using "atomic" code by A. Dal Corso  v.5.1
     Shape of augmentation charge: PSQ
     Using radial grid of 1233 points,  6 beta functions with:
                l(1) =   0
                l(2) =   0
                l(3) =   1
                l(4) =   1
                l(5) =   2
                l(6) =   2
     Q(r) pseudized with 0 coefficients

     atomic species   valence    mass     pseudopotential
        Ru            16.00   101.07000     Ru( 1.00)

     48 Sym. Ops., with inversion, found

   Cartesian axes

     site n.     atom                  positions (alat units)
         1           Ru  tau(   1) = (   0.0000000   0.0000000   0.0000000  )
         2           Ru  tau(   2) = (   0.2750000   0.2750000   0.0000000  )
         3           Ru  tau(   3) = (   0.2750000   0.0000000   0.2750000  )
         4           Ru  tau(   4) = (   0.0000000   0.2750000   0.2750000  )
         5           Ru  tau(   5) = (   0.0000000   0.0000000   0.5500000  )
         6           Ru  tau(   6) = (   0.2750000   0.2750000   0.5500000  )
         7           Ru  tau(   7) = (   0.2750000   0.0000000   0.8250000  )
         8           Ru  tau(   8) = (   0.0000000   0.2750000   0.8250000  )
         9           Ru  tau(   9) = (   0.0000000   0.5500000   0.0000000  )
        10           Ru  tau(  10) = (   0.2750000   0.8250000   0.0000000  )
        11           Ru  tau(  11) = (   0.2750000   0.5500000   0.2750000  )
        12           Ru  tau(  12) = (   0.0000000   0.8250000   0.2750000  )
        13           Ru  tau(  13) = (   0.0000000   0.5500000   0.5500000  )
        14           Ru  tau(  14) = (   0.2750000   0.8250000   0.5500000  )
        15           Ru  tau(  15) = (   0.2750000   0.5500000   0.8250000  )
        16           Ru  tau(  16) = (   0.0000000   0.8250000   0.8250000  )
        17           Ru  tau(  17) = (   0.5500000   0.0000000   0.0000000  )
        18           Ru  tau(  18) = (   0.8250000   0.2750000   0.0000000  )
        19           Ru  tau(  19) = (   0.8250000   0.0000000   0.2750000  )
        20           Ru  tau(  20) = (   0.5500000   0.2750000   0.2750000  )
        21           Ru  tau(  21) = (   0.5500000   0.0000000   0.5500000  )
        22           Ru  tau(  22) = (   0.8250000   0.2750000   0.5500000  )
        23           Ru  tau(  23) = (   0.8250000   0.0000000   0.8250000  )
        24           Ru  tau(  24) = (   0.5500000   0.2750000   0.8250000  )
        25           Ru  tau(  25) = (   0.5500000   0.5500000   0.0000000  )
        26           Ru  tau(  26) = (   0.8250000   0.8250000   0.0000000  )
        27           Ru  tau(  27) = (   0.8250000   0.5500000   0.2750000  )
        28           Ru  tau(  28) = (   0.5500000   0.8250000   0.2750000  )
        29           Ru  tau(  29) = (   0.5500000   0.5500000   0.5500000  )
        30           Ru  tau(  30) = (   0.8250000   0.8250000   0.5500000  )
        31           Ru  tau(  31) = (   0.8250000   0.5500000   0.8250000  )
        32           Ru  tau(  32) = (   0.5500000   0.8250000   0.8250000  )

     number of k points=    35  Marzari-Vanderbilt smearing, width (Ry)=  0.0400
                       cart. coord. in units 2pi/alat
        k(    1) = (   0.0505051   0.0505051   0.0505051), wk =   0.0219479
        k(    2) = (   0.0505051   0.0505051   0.1515152), wk =   0.0658436
        k(    3) = (   0.0505051   0.0505051   0.2525253), wk =   0.0658436
        k(    4) = (   0.0505051   0.0505051   0.3535354), wk =   0.0658436
        k(    5) = (   0.0505051   0.0505051  -0.4545455), wk =   0.0329218
        k(    6) = (   0.0505051   0.1515152   0.1515152), wk =   0.0658436
        k(    7) = (   0.0505051   0.1515152   0.2525253), wk =   0.1316872
        k(    8) = (   0.0505051   0.1515152   0.3535354), wk =   0.1316872
        k(    9) = (   0.0505051   0.1515152  -0.4545455), wk =   0.0658436
        k(   10) = (   0.0505051   0.2525253   0.2525253), wk =   0.0658436
        k(   11) = (   0.0505051   0.2525253   0.3535354), wk =   0.1316872
        k(   12) = (   0.0505051   0.2525253  -0.4545455), wk =   0.0658436
        k(   13) = (   0.0505051   0.3535354   0.3535354), wk =   0.0658436
        k(   14) = (   0.0505051   0.3535354  -0.4545455), wk =   0.0658436
        k(   15) = (   0.0505051  -0.4545455  -0.4545455), wk =   0.0164609
        k(   16) = (   0.1515152   0.1515152   0.1515152), wk =   0.0219479
        k(   17) = (   0.1515152   0.1515152   0.2525253), wk =   0.0658436
        k(   18) = (   0.1515152   0.1515152   0.3535354), wk =   0.0658436
        k(   19) = (   0.1515152   0.1515152  -0.4545455), wk =   0.0329218
        k(   20) = (   0.1515152   0.2525253   0.2525253), wk =   0.0658436
        k(   21) = (   0.1515152   0.2525253   0.3535354), wk =   0.1316872
        k(   22) = (   0.1515152   0.2525253  -0.4545455), wk =   0.0658436
        k(   23) = (   0.1515152   0.3535354   0.3535354), wk =   0.0658436
        k(   24) = (   0.1515152   0.3535354  -0.4545455), wk =   0.0658436
        k(   25) = (   0.1515152  -0.4545455  -0.4545455), wk =   0.0164609
        k(   26) = (   0.2525253   0.2525253   0.2525253), wk =   0.0219479
        k(   27) = (   0.2525253   0.2525253   0.3535354), wk =   0.0658436
        k(   28) = (   0.2525253   0.2525253  -0.4545455), wk =   0.0329218
        k(   29) = (   0.2525253   0.3535354   0.3535354), wk =   0.0658436
        k(   30) = (   0.2525253   0.3535354  -0.4545455), wk =   0.0658436
        k(   31) = (   0.2525253  -0.4545455  -0.4545455), wk =   0.0164609
        k(   32) = (   0.3535354   0.3535354   0.3535354), wk =   0.0219479
        k(   33) = (   0.3535354   0.3535354  -0.4545455), wk =   0.0329218
        k(   34) = (   0.3535354  -0.4545455  -0.4545455), wk =   0.0164609
        k(   35) = (  -0.4545455  -0.4545455  -0.4545455), wk =   0.0027435

     Check: negative core charge=   -0.000002

     Initial potential from superposition of free atoms

     starting charge  511.97959, renormalised to  512.00000
     Starting wfcs are  320 randomized atomic wfcs
     Checking if some PAW data can be deallocated...

     Self-consistent Calculation

     iteration #  1     ecut=    71.00 Ry     beta= 0.10
     Davidson diagonalization with overlap
     ethr =  1.00E-02,  avg # of iterations =  3.4

     Threshold (ethr) on eigenvalues was too large:
     Diagonalizing with lowered threshold

     Davidson diagonalization with overlap
     ethr =  1.97E-05,  avg # of iterations =  6.3

     total energy              =  -13811.44061026 Ry
     estimated scf accuracy    <       0.30838161 Ry

[...]

     total energy              =  -13811.38540626 Ry
     estimated scf accuracy    <       0.00000261 Ry

     iteration # 13     ecut=    71.00 Ry     beta= 0.10
     Davidson diagonalization with overlap
     ethr =  5.10E-10,  avg # of iterations =  2.3

     End of self-consistent calculation

          k = 0.0505 0.0505 0.0505 ( 40126 PWs)   bands (ev):

   -56.5675 -56.5393 -56.5393 -56.5393 -56.5339 -56.5339 -56.5338 -56.5238
   -56.5238 -56.5238 -56.5212 -56.5208 -56.5208 -56.5208 -56.5208 -56.5208
   -56.5208 -56.5207 -56.5207 -56.5207 -56.5183 -56.5183 -56.5183 -56.5055
   -56.5055 -56.5054 -56.5054 -56.5054 -56.5054 -56.5054 -56.5054 -56.5053
   -26.6610 -26.6610 -26.6610 -26.6594 -26.6408 -26.6408 -26.6408 -26.5642
   -26.5642 -26.5642 -26.5598 -26.5598 -26.5598 -26.5598 -26.5598 -26.5598
   -26.5522 -26.5522 -26.5521 -26.5466 -26.5466 -26.5466 -26.5466 -26.5466
   -26.5466 -26.5281 -26.5281 -26.5281 -26.5281 -26.5281 -26.5281 -26.4881
   -26.4881 -26.4881 -26.4637 -26.4637 -26.4637 -26.4580 -26.4580 -26.4580
   -26.4484 -26.4484 -26.4484 -26.4484 -26.4484 -26.4484 -26.4336 -26.4336
   -26.4336 -26.4321 -26.4321 -26.4321 -26.4320 -26.4320 -26.4320 -26.4318
   -26.4318 -26.4318 -26.4302 -26.4302 -26.4302 -26.3680 -26.3680 -26.3680
   -26.3679 -26.3679 -26.3679 -26.3559 -26.3559 -26.3559 -26.3558 -26.3558
   -26.3558 -26.3519 -26.3519 -26.3519 -26.3473 -26.3473 -26.3473 -26.3468
   -26.3468 -26.3468 -26.3468 -26.3468 -26.3468 -26.3462 -26.3462 -26.3462
   -26.3451 -26.3451 -26.3399 -26.3398 -26.3398 -26.2952 -26.2928 -26.2928
     9.8917  11.8044  11.8044  11.8044  11.9176  11.9213  11.9213  11.9213
    11.9331  11.9331  11.9331  12.0578  12.0578  12.0578  12.2581  12.2581
    12.2581  12.8970  12.8970  12.8970  12.8970  12.8970  12.8970  12.9492
    12.9492  12.9492  13.0881  13.0881  13.0881  13.0881  13.0881  13.0881
    13.1193  13.1193  13.1193  13.1540  13.1540  13.1540  13.3016  13.3016
    13.3016  13.6147  13.6147  13.6147  13.6147  13.6147  13.6147  13.7191
    13.7191  13.7191  13.7442  13.7442  13.7442  13.7442  13.7442  13.7442
    13.8042  13.8042  13.8042  13.9456  13.9456  13.9456  13.9456  13.9456
    13.9456  13.9479  13.9479  13.9479  13.9967  13.9967  13.9967  13.9967
    13.9967  13.9967  14.1251  14.1251  14.1251  14.3084  14.3084  14.3084
    14.3302  14.3302  14.3402  14.3402  14.3402  14.3735  14.3934  14.3934
    15.0159  15.0159  15.0159  15.0929  15.0929  15.0929  15.2014  15.2014
    15.2014  15.2644  15.2644  15.2644  15.2644  15.2644  15.2644  15.2754
    15.2754  15.2754  15.4409  15.4409  15.4409  15.5141  15.5141  15.5141
    15.6793  15.6793  15.6793  15.7529  15.7529  15.7529  15.7608  15.7608
    15.7608  15.7608  15.7608  15.7608  15.7624  15.7624  15.7624  15.8915
    15.8915  15.8986  15.8986  15.8986  15.8987  15.8987  15.8987  16.0084
    16.0084  16.0084  16.3880  16.3880  16.3880  16.4888  16.4889  16.4889
    16.6321  16.6321  16.6321  16.9300  16.9942  16.9942  16.9942  17.0306
    17.0306  17.0513  17.0513  17.0513  17.2570  17.2570  17.2570  17.3426
    17.3426  17.3426  17.3426  17.3426  17.3426  17.3458  17.3458  17.3458
    17.4548  17.4548  17.4548  18.3923  18.3923  18.3923  18.7933  18.7933
    18.7933  18.7933  18.7933

[...]

          k = 0.3535-0.4545-0.4545 ( 40088 PWs)   bands (ev):

[...]

          k =-0.4545-0.4545-0.4545 ( 40008 PWs)   bands (ev):

   -56.5445 -56.5445 -56.5445 -56.5444 -56.5444 -56.5444 -56.5444 -56.5444
   -56.5131 -56.5131 -56.5131 -56.5131 -56.5131 -56.5131 -56.5131 -56.5131
   -56.5131 -56.5131 -56.5131 -56.5131 -56.5131 -56.5131 -56.5131 -56.5131
   -56.5131 -56.5131 -56.5131 -56.5131 -56.5131 -56.5131 -56.5130 -56.5129
   -26.6000 -26.6000 -26.6000 -26.6000 -26.6000 -26.6000 -26.6000 -26.6000
   -26.6000 -26.6000 -26.6000 -26.6000 -26.6000 -26.6000 -26.6000 -26.6000
   -26.6000 -26.6000 -26.6000 -26.6000 -26.6000 -26.5999 -26.5999 -26.5999
   -26.4794 -26.4794 -26.4794 -26.4794 -26.4794 -26.4794 -26.4794 -26.4794
   -26.4420 -26.4420 -26.4420 -26.4420 -26.4420 -26.4420 -26.4420 -26.4420
   -26.4420 -26.4420 -26.4420 -26.4420 -26.4420 -26.4420 -26.4420 -26.4420
   -26.4420 -26.4420 -26.4420 -26.4420 -26.4420 -26.4419 -26.4419 -26.4419
   -26.3884 -26.3884 -26.3884 -26.3884 -26.3884 -26.3884 -26.3884 -26.3884
   -26.3884 -26.3884 -26.3884 -26.3884 -26.3884 -26.3884 -26.3884 -26.3884
   -26.3884 -26.3884 -26.3884 -26.3884 -26.3884 -26.3884 -26.3884 -26.3884
   -26.3191 -26.3191 -26.3191 -26.3191 -26.3191 -26.3190 -26.3190 -26.3190
   -26.3190 -26.3190 -26.3190 -26.3190 -26.3190 -26.3190 -26.3190 -26.3190
    11.4491  11.4491  11.4491  11.4491  11.4491  11.4491  11.4491  11.4491
    12.6085  12.6085  12.6085  12.6085  12.6085  12.6085  12.6085  12.6085
    12.6085  12.6085  12.6085  12.6085  12.6085  12.6086  12.6086  12.6086
    12.6086  12.6086  12.6086  12.6086  12.6086  12.6086  12.6086  12.6086
    13.3417  13.3417  13.3417  13.3417  13.3417  13.3417  13.3417  13.3417
    13.3417  13.3417  13.3417  13.3417  13.3417  13.3417  13.3417  13.3417
    13.3417  13.3417  13.3417  13.3417  13.3417  13.3417  13.3417  13.3417
    14.1608  14.1608  14.1608  14.1608  14.1608  14.1609  14.1609  14.1609
    14.6499  14.6499  14.6499  14.6499  14.6499  14.6499  14.6499  14.6499
    14.6499  14.6499  14.6499  14.6499  14.6499  14.6499  14.6499  14.6499
    14.6500  14.6500  14.6500  14.6500  14.6500  14.6500  14.6500  14.6500
    14.6500  14.6500  14.6500  14.6500  14.6500  14.6500  14.6500  14.6500
    14.6500  14.6500  14.6500  14.6500  14.6500  14.6500  14.6500  14.6500
    15.5178  15.5178  15.5178  15.5178  15.5178  15.5178  15.5178  15.5178
    15.5178  15.5178  15.5178  15.5178  15.5178  15.5178  15.5178  15.5178
    15.5178  15.5178  15.5178  15.5178  15.5178  15.5178  15.5178  15.5178
    16.0340  16.0340  16.0340  16.0340  16.0340  16.0340  16.0340  16.0340
    16.0340  16.0340  16.0340  16.0340  16.0341  16.0341  16.0341  16.0341
    17.1366  17.1366  17.1366  17.1366  17.1366  17.1366  17.1366  17.1367
    17.1367  17.1367  17.1367  17.1367  17.1367  17.1367  17.1367  17.1367
    17.1367  17.1367  17.1367  17.1367  17.1367  17.1367  17.1367  17.1367
    19.7932  19.7932  19.7932  19.7932  19.7932  19.7932  19.7932  19.7932
    19.7932  19.7932  19.7932

     the Fermi energy is    16.0330 ev

!    total energy              =  -13811.38540822 Ry

     total all-electron energy =   -289987.775747 Ry
     estimated scf accuracy    <       0.00000025 Ry
     smearing contrib. (-TS)   =       0.00782281 Ry
     internal energy E=F+TS    =  -13811.39323103 Ry

     The total energy is F=E-TS. E is the sum of the following terms:
     one-electron contribution =   -1703.93735047 Ry
     hartree contribution      =    1143.51849799 Ry
     xc contribution           =    -919.51064529 Ry
     ewald contribution        =   -4742.32198373 Ry
     one-center paw contrib.   =   -7589.14174952 Ry

     convergence has been achieved in  13 iterations

     Forces acting on atoms (cartesian axes, Ry/au):

     atom    1 type  1   force =     0.00000000    0.00000000    0.00000000
     atom    2 type  1   force =     0.00000507    0.00000507   -0.00000000
     atom    3 type  1   force =     0.00000507   -0.00000000    0.00000507
     atom    4 type  1   force =    -0.00000000    0.00000507    0.00000507
     atom    5 type  1   force =     0.00000000    0.00000000    0.00000000
     atom    6 type  1   force =     0.00000933    0.00000933    0.00000000
     atom    7 type  1   force =     0.00000507    0.00000000   -0.00000507
     atom    8 type  1   force =     0.00000000    0.00000507   -0.00000507
     atom    9 type  1   force =     0.00000000    0.00000000    0.00000000
     atom   10 type  1   force =     0.00000507   -0.00000507    0.00000000
     atom   11 type  1   force =     0.00000933   -0.00000000    0.00000933
     atom   12 type  1   force =     0.00000000   -0.00000507    0.00000507
     atom   13 type  1   force =     0.00000000    0.00000000    0.00000000
     atom   14 type  1   force =     0.00000933   -0.00000933   -0.00000000
     atom   15 type  1   force =     0.00000933   -0.00000000   -0.00000933
     atom   16 type  1   force =    -0.00000000   -0.00000507   -0.00000507
     atom   17 type  1   force =     0.00000000    0.00000000    0.00000000
     atom   18 type  1   force =    -0.00000507    0.00000507    0.00000000
     atom   19 type  1   force =    -0.00000507    0.00000000    0.00000507
     atom   20 type  1   force =     0.00000000    0.00000933    0.00000933
     atom   21 type  1   force =     0.00000000    0.00000000    0.00000000
     atom   22 type  1   force =    -0.00000933    0.00000933    0.00000000
     atom   23 type  1   force =    -0.00000507   -0.00000000   -0.00000507
     atom   24 type  1   force =    -0.00000000    0.00000933   -0.00000933
     atom   25 type  1   force =     0.00000000    0.00000000    0.00000000
     atom   26 type  1   force =    -0.00000507   -0.00000507   -0.00000000
     atom   27 type  1   force =    -0.00000933   -0.00000000    0.00000933
     atom   28 type  1   force =     0.00000000   -0.00000933    0.00000933
     atom   29 type  1   force =     0.00000000    0.00000000    0.00000000
     atom   30 type  1   force =    -0.00000933   -0.00000933   -0.00000000
     atom   31 type  1   force =    -0.00000933    0.00000000   -0.00000933
     atom   32 type  1   force =    -0.00000000   -0.00000933   -0.00000933

     Total force =     0.000052     Total SCF correction =     0.000250
     SCF correction compared to forces is large: reduce conv_thr to get better values

     Computing stress (Cartesian axis) and pressure

          total   stress  (Ry/bohr**3)                   (kbar)     P=     -433.93
  -0.00294979   0.00000000   0.00000000         -433.93        0.00        0.00
   0.00000000  -0.00294979   0.00000000            0.00     -433.93        0.00
   0.00000000   0.00000000  -0.00294979            0.00        0.00     -433.93

     Writing output data file /scratch/sxfnWWREqczzgROA.save/

     General routines

     Parallel routines

   This run was terminated on:  15:34: 9  25Nov2021

   JOB DONE.