     Program PWSCF v.6.7MaX starts on 25Nov2021 at 17:42: 6

     R & G space division:  proc/nbgrp/npool/nimage =      72
     Reading input from fcc_8.in
Warning: card &CELL ignored
Warning: card CELL_DYNAMICS = 'BFGS', ignored
Warning: card CELL_FACTOR = 2.0, ignored
Warning: card PRESS = 0.0, ignored
Warning: card / ignored

     Current dimensions of program PWSCF are:
     Max number of different atomic species (ntypx) = 10
     Max number of k-points (npk) =  40000
     Max angular momentum in pseudopotentials (lmaxx) =  3
     file Ru.pbe-spn-kjpaw_psl.1.0.0.UPF: wavefunction(s)  4D renormalized

     Subspace diagonalization in iterative solution of the eigenvalue problem:
     one sub-group per band group will be used

     Found symmetry operation: I + (  0.2500  0.2500  0.0000)
     This is a supercell, fractional translations are disabled
     Message from routine setup:
     using ibrav=0 with symmetry is DISCOURAGED, use correct ibrav instead

     bravais-lattice index     =            0
     lattice parameter (alat)  =      14.4000  a.u.
     unit-cell volume          =   14670.1394 (a.u.)^3
     number of atoms/cell      =           32
     number of atomic types    =            1
     number of electrons       =       512.00
     number of Kohn-Sham states=          307
     kinetic-energy cutoff     =      71.0000  Ry
     charge density cutoff     =     430.0000  Ry
     scf convergence threshold =      1.0E-06
     mixing beta               =       0.1000
     number of iterations used =           10  TF        mixing
     Exchange-correlation= SLA  PW   PBX  PBC
                           (   1   4   3   4   0   0   0)

     celldm(1)=  14.400000  celldm(2)=   0.000000  celldm(3)=   0.000000
     celldm(4)=   0.000000  celldm(5)=   0.000000  celldm(6)=   0.000000

     crystal axes: (cart. coord. in units of alat)
               a(1) = (   1.700000   0.000000   0.000000 )
               a(2) = (   0.000000   1.700000   0.000000 )
               a(3) = (   0.000000   0.000000   1.700000 )

     reciprocal axes: (cart. coord. in units 2 pi/alat)
               b(1) = (  0.588235  0.000000  0.000000 )
               b(2) = (  0.000000  0.588235  0.000000 )
               b(3) = (  0.000000  0.000000  0.588235 )

     PseudoPot. # 1 for Ru read from file:
     /rds/homes/b/bxp912/pp/Ru.pbe-spn-kjpaw_psl.1.0.0.UPF
     MD5 check sum: 0ae1f594dea09af7be8575c3a481d1ae
     Pseudo is Projector augmented-wave + core cor, Zval = 16.0
     Generated using "atomic" code by A. Dal Corso  v.5.1
     Shape of augmentation charge: PSQ
     Using radial grid of 1233 points,  6 beta functions with:
                l(1) =   0
                l(2) =   0
                l(3) =   1
                l(4) =   1
                l(5) =   2
                l(6) =   2
     Q(r) pseudized with 0 coefficients

     atomic species   valence    mass     pseudopotential
        Ru            16.00   101.07000     Ru( 1.00)

     48 Sym. Ops., with inversion, found

   Cartesian axes

     site n.     atom                  positions (alat units)
         1           Ru  tau(   1) = (   0.0000000   0.0000000   0.0000000  )
         2           Ru  tau(   2) = (   0.4250000   0.4250000   0.0000000  )
         3           Ru  tau(   3) = (   0.4250000   0.0000000   0.4250000  )
         4           Ru  tau(   4) = (   0.0000000   0.4250000   0.4250000  )
         5           Ru  tau(   5) = (   0.0000000   0.0000000   0.8500000  )
         6           Ru  tau(   6) = (   0.4250000   0.4250000   0.8500000  )
         7           Ru  tau(   7) = (   0.4250000   0.0000000   1.2750000  )
         8           Ru  tau(   8) = (   0.0000000   0.4250000   1.2750000  )
         9           Ru  tau(   9) = (   0.0000000   0.8500000   0.0000000  )
        10           Ru  tau(  10) = (   0.4250000   1.2750000   0.0000000  )
        11           Ru  tau(  11) = (   0.4250000   0.8500000   0.4250000  )
        12           Ru  tau(  12) = (   0.0000000   1.2750000   0.4250000  )
        13           Ru  tau(  13) = (   0.0000000   0.8500000   0.8500000  )
        14           Ru  tau(  14) = (   0.4250000   1.2750000   0.8500000  )
        15           Ru  tau(  15) = (   0.4250000   0.8500000   1.2750000  )
        16           Ru  tau(  16) = (   0.0000000   1.2750000   1.2750000  )
        17           Ru  tau(  17) = (   0.8500000   0.0000000   0.0000000  )
        18           Ru  tau(  18) = (   1.2750000   0.4250000   0.0000000  )
        19           Ru  tau(  19) = (   1.2750000   0.0000000   0.4250000  )
        20           Ru  tau(  20) = (   0.8500000   0.4250000   0.4250000  )
        21           Ru  tau(  21) = (   0.8500000   0.0000000   0.8500000  )
        22           Ru  tau(  22) = (   1.2750000   0.4250000   0.8500000  )
        23           Ru  tau(  23) = (   1.2750000   0.0000000   1.2750000  )
        24           Ru  tau(  24) = (   0.8500000   0.4250000   1.2750000  )
        25           Ru  tau(  25) = (   0.8500000   0.8500000   0.0000000  )
        26           Ru  tau(  26) = (   1.2750000   1.2750000   0.0000000  )
        27           Ru  tau(  27) = (   1.2750000   0.8500000   0.4250000  )
        28           Ru  tau(  28) = (   0.8500000   1.2750000   0.4250000  )
        29           Ru  tau(  29) = (   0.8500000   0.8500000   0.8500000  )
        30           Ru  tau(  30) = (   1.2750000   1.2750000   0.8500000  )
        31           Ru  tau(  31) = (   1.2750000   0.8500000   1.2750000  )
        32           Ru  tau(  32) = (   0.8500000   1.2750000   1.2750000  )

     number of k points=    35  Marzari-Vanderbilt smearing, width (Ry)=  0.0400
                       cart. coord. in units 2pi/alat
        k(    1) = (   0.0326797   0.0326797   0.0326797), wk =   0.0219479
        k(    2) = (   0.0326797   0.0326797   0.0980392), wk =   0.0658436
        k(    3) = (   0.0326797   0.0326797   0.1633987), wk =   0.0658436
        k(    4) = (   0.0326797   0.0326797   0.2287582), wk =   0.0658436
        k(    5) = (   0.0326797   0.0326797  -0.2941176), wk =   0.0329218
        k(    6) = (   0.0326797   0.0980392   0.0980392), wk =   0.0658436
        k(    7) = (   0.0326797   0.0980392   0.1633987), wk =   0.1316872
        k(    8) = (   0.0326797   0.0980392   0.2287582), wk =   0.1316872
        k(    9) = (   0.0326797   0.0980392  -0.2941176), wk =   0.0658436
        k(   10) = (   0.0326797   0.1633987   0.1633987), wk =   0.0658436
        k(   11) = (   0.0326797   0.1633987   0.2287582), wk =   0.1316872
        k(   12) = (   0.0326797   0.1633987  -0.2941176), wk =   0.0658436
        k(   13) = (   0.0326797   0.2287582   0.2287582), wk =   0.0658436
        k(   14) = (   0.0326797   0.2287582  -0.2941176), wk =   0.0658436
        k(   15) = (   0.0326797  -0.2941176  -0.2941176), wk =   0.0164609
        k(   16) = (   0.0980392   0.0980392   0.0980392), wk =   0.0219479
        k(   17) = (   0.0980392   0.0980392   0.1633987), wk =   0.0658436
        k(   18) = (   0.0980392   0.0980392   0.2287582), wk =   0.0658436
        k(   19) = (   0.0980392   0.0980392  -0.2941176), wk =   0.0329218
        k(   20) = (   0.0980392   0.1633987   0.1633987), wk =   0.0658436
        k(   21) = (   0.0980392   0.1633987   0.2287582), wk =   0.1316872
        k(   22) = (   0.0980392   0.1633987  -0.2941176), wk =   0.0658436
        k(   23) = (   0.0980392   0.2287582   0.2287582), wk =   0.0658436
        k(   24) = (   0.0980392   0.2287582  -0.2941176), wk =   0.0658436
        k(   25) = (   0.0980392  -0.2941176  -0.2941176), wk =   0.0164609
        k(   26) = (   0.1633987   0.1633987   0.1633987), wk =   0.0219479
        k(   27) = (   0.1633987   0.1633987   0.2287582), wk =   0.0658436
        k(   28) = (   0.1633987   0.1633987  -0.2941176), wk =   0.0329218
        k(   29) = (   0.1633987   0.2287582   0.2287582), wk =   0.0658436
        k(   30) = (   0.1633987   0.2287582  -0.2941176), wk =   0.0658436
        k(   31) = (   0.1633987  -0.2941176  -0.2941176), wk =   0.0164609
        k(   32) = (   0.2287582   0.2287582   0.2287582), wk =   0.0219479
        k(   33) = (   0.2287582   0.2287582  -0.2941176), wk =   0.0329218
        k(   34) = (   0.2287582  -0.2941176  -0.2941176), wk =   0.0164609
        k(   35) = (  -0.2941176  -0.2941176  -0.2941176), wk =   0.0027435

     Check: negative core charge=   -0.000001

     Initial potential from superposition of free atoms

     starting charge  511.97959, renormalised to  512.00000
     Starting wfcs are  320 randomized atomic wfcs
     Checking if some PAW data can be deallocated...

     Self-consistent Calculation

     iteration #  1     ecut=    71.00 Ry     beta= 0.10
     Davidson diagonalization with overlap
     ethr =  1.00E-02,  avg # of iterations =  2.0

     total energy              =  -13798.48531338 Ry
     estimated scf accuracy    <      17.36769670 Ry

[...]

     total energy              =  -13796.63624149 Ry
     estimated scf accuracy    <       0.00000141 Ry

     iteration # 26     ecut=    71.00 Ry     beta= 0.10
     Davidson diagonalization with overlap
     ethr =  2.75E-10,  avg # of iterations =  2.2

     End of self-consistent calculation

          k = 0.0327 0.0327 0.0327 (148283 PWs)   bands (ev):

   -70.2154 -70.2154 -70.2154 -70.2154 -70.2153 -70.2153 -70.2153 -70.2153
   -70.2153 -70.2153 -70.2153 -70.2153 -70.2153 -70.2153 -70.2153 -70.2153
   -70.2153 -70.2153 -70.2153 -70.2153 -70.2153 -70.2153 -70.2153 -70.2153
   -70.2153 -70.2153 -70.2153 -70.2153 -70.2153 -70.2153 -70.2153 -70.2150
   -40.2706 -40.2706 -40.2706 -40.2705 -40.2705 -40.2705 -40.2705 -40.2703
   -40.2703 -40.2703 -40.2703 -40.2703 -40.2703 -40.2703 -40.2703 -40.2703
   -40.2703 -40.2703 -40.2703 -40.2703 -40.2703 -40.2703 -40.2703 -40.2703
   -40.2703 -40.2703 -40.2703 -40.2703 -40.2702 -40.2702 -40.2702 -40.2701
   -40.2701 -40.2701 -40.2701 -40.2701 -40.2701 -40.2701 -40.2701 -40.2700
   -40.2700 -40.2700 -40.2700 -40.2700 -40.2700 -40.2700 -40.2700 -40.2700
   -40.2700 -40.2700 -40.2700 -40.2700 -40.2700 -40.2700 -40.2700 -40.2700
   -40.2700 -40.2700 -40.2699 -40.2699 -40.2699 -40.2698 -40.2698 -40.2698
   -40.2698 -40.2698 -40.2698 -40.2697 -40.2697 -40.2697 -40.2697 -40.2697
   -40.2697 -40.2697 -40.2697 -40.2697 -40.2697 -40.2697 -40.2697 -40.2697
   -40.2697 -40.2697 -40.2697 -40.2697 -40.2697 -40.2697 -40.2697 -40.2697
   -40.2697 -40.2697 -40.2697 -40.2697 -40.2697 -40.2695 -40.2695 -40.2695
    -0.4717   0.2864   0.2864   0.2864   0.4189   0.4189   0.4189   0.4492
     0.4538   0.4538   0.4538   0.5438   0.5438   0.5439   0.5752   0.5752
     0.5752   0.6380   0.6380   0.6380   0.6659   0.6659   0.6659   0.6659
     0.6659   0.6659   0.6746   0.6746   0.6746   0.6808   0.6808   0.6808
     0.7013   0.7013   0.7013   0.7053   0.7053   0.7053   0.7053   0.7053
     0.7053   0.7704   0.7704   0.7704   0.7704   0.7704   0.7704   0.7750
     0.7750   0.7750   0.7792   0.7792   0.7792   0.7792   0.7792   0.7792
     0.7902   0.7902   0.7902   0.8093   0.8093   0.8093   0.8095   0.8110
     0.8110   0.8114   0.8114   0.8124   0.8124   0.8124   0.8156   0.8156
     0.8156   0.8156   0.8156   0.8156   0.8480   0.8480   0.8480   0.8480
     0.8480   0.8480   0.8547   0.8547   0.8547   0.8575   0.8575   0.8575
     0.9138   0.9138   0.9138   0.9165   0.9165   0.9165   0.9264   0.9264
     0.9264   0.9284   0.9284   0.9284   0.9284   0.9284   0.9284   0.9416
     0.9416   0.9416   0.9465   0.9465   0.9465   0.9605   0.9605   0.9605
     0.9690   0.9690   0.9690   0.9702   0.9702   0.9710   0.9710   0.9710
     0.9806   0.9806   0.9806   0.9806   0.9806   0.9806   0.9873   0.9873
     0.9873   0.9873   0.9873   0.9873   0.9986   0.9986   0.9986   1.0081
     1.0081   1.0081   1.0270   1.0270   1.0270   1.0382   1.0382   1.0382
     1.0914   1.0914   1.0914   1.0963   1.0963   1.0963   1.0995   1.0995
     1.1015   1.1015   1.1015   1.1315   1.1315   1.1315   1.1337   1.1337
     1.1337   1.1337   1.1337   1.1337   1.1340   1.1340   1.1340   1.5509
     1.5510   1.5510   1.7051   1.7051   1.7052   1.7052   1.7052   1.7052
     1.8661   1.8661   1.8661

[...]

          k = 0.2288-0.2941-0.2941 (148268 PWs)   bands (ev):

[...]

          k =-0.2941-0.2941-0.2941 (148304 PWs)   bands (ev):

   -70.2154 -70.2154 -70.2154 -70.2154 -70.2154 -70.2154 -70.2154 -70.2154
   -70.2153 -70.2153 -70.2153 -70.2153 -70.2153 -70.2153 -70.2153 -70.2153
   -70.2153 -70.2153 -70.2153 -70.2153 -70.2153 -70.2153 -70.2153 -70.2153
   -70.2153 -70.2153 -70.2153 -70.2153 -70.2153 -70.2153 -70.2153 -70.2150
   -40.2705 -40.2705 -40.2705 -40.2705 -40.2705 -40.2705 -40.2705 -40.2705
   -40.2705 -40.2704 -40.2704 -40.2704 -40.2704 -40.2704 -40.2704 -40.2704
   -40.2704 -40.2704 -40.2704 -40.2704 -40.2704 -40.2704 -40.2704 -40.2704
   -40.2701 -40.2701 -40.2701 -40.2701 -40.2701 -40.2701 -40.2701 -40.2701
   -40.2700 -40.2700 -40.2700 -40.2700 -40.2700 -40.2700 -40.2700 -40.2700
   -40.2700 -40.2700 -40.2700 -40.2700 -40.2700 -40.2700 -40.2700 -40.2700
   -40.2700 -40.2700 -40.2700 -40.2700 -40.2699 -40.2699 -40.2699 -40.2699
   -40.2699 -40.2699 -40.2699 -40.2699 -40.2699 -40.2699 -40.2699 -40.2699
   -40.2699 -40.2699 -40.2699 -40.2699 -40.2699 -40.2699 -40.2699 -40.2699
   -40.2699 -40.2699 -40.2699 -40.2699 -40.2699 -40.2698 -40.2698 -40.2698
   -40.2697 -40.2697 -40.2696 -40.2696 -40.2696 -40.2696 -40.2696 -40.2696
   -40.2696 -40.2696 -40.2696 -40.2696 -40.2696 -40.2696 -40.2696 -40.2696
     0.1412   0.1412   0.1412   0.1412   0.1412   0.1412   0.1412   0.1412
     0.6124   0.6124   0.6124   0.6124   0.6124   0.6124   0.6124   0.6124
     0.6124   0.6124   0.6124   0.6124   0.6124   0.6124   0.6124   0.6124
     0.6124   0.6124   0.6124   0.6124   0.6124   0.6124   0.6124   0.6124
     0.7546   0.7546   0.7546   0.7546   0.7546   0.7546   0.7546   0.7546
     0.7546   0.7546   0.7546   0.7546   0.7546   0.7546   0.7546   0.7546
     0.7547   0.7547   0.7547   0.7547   0.7547   0.7547   0.7547   0.7547
     0.8447   0.8447   0.8447   0.8447   0.8447   0.8447   0.8447   0.8447
     0.8447   0.8447   0.8447   0.8447   0.8447   0.8447   0.8447   0.8447
     0.8511   0.8511   0.8511   0.8511   0.8511   0.8511   0.8511   0.8511
     0.9054   0.9054   0.9054   0.9054   0.9054   0.9054   0.9054   0.9054
     0.9054   0.9054   0.9054   0.9054   0.9054   0.9054   0.9054   0.9054
     0.9054   0.9054   0.9054   0.9054   0.9054   0.9054   0.9054   0.9054
     0.9510   0.9510   0.9511   0.9511   0.9511   0.9511   0.9511   0.9511
     0.9511   0.9511   0.9511   0.9511   0.9511   0.9511   0.9511   0.9511
     0.9511   0.9511   0.9511   0.9511   0.9511   0.9511   0.9511   0.9511
     0.9971   0.9971   0.9971   0.9971   0.9971   0.9971   0.9971   0.9971
     0.9971   0.9971   0.9971   0.9971   0.9971   0.9971   0.9971   0.9971
     1.1102   1.1102   1.1102   1.1102   1.1102   1.1102   1.1102   1.1102
     1.1102   1.1102   1.1102   1.1102   1.1102   1.1102   1.1102   1.1102
     1.1102   1.1102   1.1102   1.1102   1.1102   1.1102   1.1102   1.1102
     2.2663   2.2664   2.2664   2.2664   2.2664   2.2664   2.2664   2.2664
     2.2664   2.2664   2.2664

     the Fermi energy is     1.1511 ev

!    total energy              =  -13796.63624201 Ry

     total all-electron energy =   -289973.026581 Ry
     estimated scf accuracy    <       0.00000083 Ry
     smearing contrib. (-TS)   =      -0.74597303 Ry
     internal energy E=F+TS    =  -13795.89026898 Ry

     The total energy is F=E-TS. E is the sum of the following terms:
     one-electron contribution =   -4514.43850678 Ry
     hartree contribution      =    2291.40566462 Ry
     xc contribution           =    -915.42835199 Ry
     ewald contribution        =   -3068.56128359 Ry
     one-center paw contrib.   =   -7588.86779123 Ry

     convergence has been achieved in  26 iterations

     Forces acting on atoms (cartesian axes, Ry/au):

     atom    1 type  1   force =     0.00000000    0.00000000    0.00000000
     atom    2 type  1   force =    -0.00003585   -0.00003585    0.00000000
     atom    3 type  1   force =    -0.00003585    0.00000000   -0.00003585
     atom    4 type  1   force =     0.00000000   -0.00003585   -0.00003585
     atom    5 type  1   force =     0.00000000    0.00000000    0.00000000
     atom    6 type  1   force =    -0.00001424   -0.00001424    0.00000000
     atom    7 type  1   force =    -0.00003585    0.00000000    0.00003585
     atom    8 type  1   force =     0.00000000   -0.00003585    0.00003585
     atom    9 type  1   force =     0.00000000    0.00000000    0.00000000
     atom   10 type  1   force =    -0.00003585    0.00003585   -0.00000000
     atom   11 type  1   force =    -0.00001424   -0.00000000   -0.00001424
     atom   12 type  1   force =     0.00000000    0.00003585   -0.00003585
     atom   13 type  1   force =     0.00000000    0.00000000    0.00000000
     atom   14 type  1   force =    -0.00001424    0.00001424   -0.00000000
     atom   15 type  1   force =    -0.00001424    0.00000000    0.00001424
     atom   16 type  1   force =    -0.00000000    0.00003585    0.00003585
     atom   17 type  1   force =     0.00000000    0.00000000    0.00000000
     atom   18 type  1   force =     0.00003585   -0.00003585   -0.00000000
     atom   19 type  1   force =     0.00003585   -0.00000000   -0.00003585
     atom   20 type  1   force =    -0.00000000   -0.00001424   -0.00001424
     atom   21 type  1   force =     0.00000000    0.00000000    0.00000000
     atom   22 type  1   force =     0.00001424   -0.00001424    0.00000000
     atom   23 type  1   force =     0.00003585    0.00000000    0.00003585
     atom   24 type  1   force =     0.00000000   -0.00001424    0.00001424
     atom   25 type  1   force =     0.00000000    0.00000000    0.00000000
     atom   26 type  1   force =     0.00003585    0.00003585    0.00000000
     atom   27 type  1   force =     0.00001424    0.00000000   -0.00001424
     atom   28 type  1   force =     0.00000000    0.00001424   -0.00001424
     atom   29 type  1   force =     0.00000000    0.00000000    0.00000000
     atom   30 type  1   force =     0.00001424    0.00001424    0.00000000
     atom   31 type  1   force =     0.00001424   -0.00000000    0.00001424
     atom   32 type  1   force =    -0.00000000    0.00001424    0.00001424

     Total force =     0.000189     Total SCF correction =     0.001165
     SCF correction compared to forces is large: reduce conv_thr to get better values

     Computing stress (Cartesian axis) and pressure

          total   stress  (Ry/bohr**3)                   (kbar)     P=      -55.13
  -0.00037480   0.00000000   0.00000000          -55.13        0.00        0.00
   0.00000000  -0.00037480   0.00000000            0.00      -55.13        0.00
   0.00000000   0.00000000  -0.00037480            0.00        0.00      -55.13

     Writing output data file /scratch/VNWozMDhGsjXcrUy.save/

     General routines

     Parallel routines

   This run was terminated on:  18:30:59  25Nov2021

   JOB DONE.