     Program PWSCF v.6.7MaX starts on 25Nov2021 at 15:34:30

     R & G space division:  proc/nbgrp/npool/nimage =      72
     Reading input from fcc_3.in
Warning: card &CELL ignored
Warning: card CELL_DYNAMICS = 'BFGS', ignored
Warning: card CELL_FACTOR = 2.0, ignored
Warning: card PRESS = 0.0, ignored
Warning: card / ignored

     Current dimensions of program PWSCF are:
     Max number of different atomic species (ntypx) = 10
     Max number of k-points (npk) =  40000
     Max angular momentum in pseudopotentials (lmaxx) =  3
     file Ru.pbe-spn-kjpaw_psl.1.0.0.UPF: wavefunction(s)  4D renormalized

     Subspace diagonalization in iterative solution of the eigenvalue problem:
     one sub-group per band group will be used

     Found symmetry operation: I + (  0.2500  0.2500  0.0000)
     This is a supercell, fractional translations are disabled
     Message from routine setup:
     using ibrav=0 with symmetry is DISCOURAGED, use correct ibrav instead

     bravais-lattice index     =            0
     lattice parameter (alat)  =      14.4000  a.u.
     unit-cell volume          =    5159.7804 (a.u.)^3
     number of atoms/cell      =           32
     number of atomic types    =            1
     number of electrons       =       512.00
     number of Kohn-Sham states=          307
     kinetic-energy cutoff     =      71.0000  Ry
     charge density cutoff     =     430.0000  Ry
     scf convergence threshold =      1.0E-06
     mixing beta               =       0.1000
     number of iterations used =           10  TF        mixing
     Exchange-correlation= SLA  PW   PBX  PBC
                           (   1   4   3   4   0   0   0)

     celldm(1)=  14.400000  celldm(2)=   0.000000  celldm(3)=   0.000000
     celldm(4)=   0.000000  celldm(5)=   0.000000  celldm(6)=   0.000000

     crystal axes: (cart. coord. in units of alat)
               a(1) = (   1.200000   0.000000   0.000000 )
               a(2) = (   0.000000   1.200000   0.000000 )
               a(3) = (   0.000000   0.000000   1.200000 )

     reciprocal axes: (cart. coord. in units 2 pi/alat)
               b(1) = (  0.833333  0.000000  0.000000 )
               b(2) = (  0.000000  0.833333  0.000000 )
               b(3) = (  0.000000  0.000000  0.833333 )

     PseudoPot. # 1 for Ru read from file:
     /rds/homes/b/bxp912/pp/Ru.pbe-spn-kjpaw_psl.1.0.0.UPF
     MD5 check sum: 0ae1f594dea09af7be8575c3a481d1ae
     Pseudo is Projector augmented-wave + core cor, Zval = 16.0
     Generated using "atomic" code by A. Dal Corso  v.5.1
     Shape of augmentation charge: PSQ
     Using radial grid of 1233 points,  6 beta functions with:
                l(1) =   0
                l(2) =   0
                l(3) =   1
                l(4) =   1
                l(5) =   2
                l(6) =   2
     Q(r) pseudized with 0 coefficients

     atomic species   valence    mass     pseudopotential
        Ru            16.00   101.07000     Ru( 1.00)

     48 Sym. Ops., with inversion, found

   Cartesian axes

     site n.     atom                  positions (alat units)
         1           Ru  tau(   1) = (   0.0000000   0.0000000   0.0000000  )
         2           Ru  tau(   2) = (   0.3000000   0.3000000   0.0000000  )
         3           Ru  tau(   3) = (   0.3000000   0.0000000   0.3000000  )
         4           Ru  tau(   4) = (   0.0000000   0.3000000   0.3000000  )
         5           Ru  tau(   5) = (   0.0000000   0.0000000   0.6000000  )
         6           Ru  tau(   6) = (   0.3000000   0.3000000   0.6000000  )
         7           Ru  tau(   7) = (   0.3000000   0.0000000   0.9000000  )
         8           Ru  tau(   8) = (   0.0000000   0.3000000   0.9000000  )
         9           Ru  tau(   9) = (   0.0000000   0.6000000   0.0000000  )
        10           Ru  tau(  10) = (   0.3000000   0.9000000   0.0000000  )
        11           Ru  tau(  11) = (   0.3000000   0.6000000   0.3000000  )
        12           Ru  tau(  12) = (   0.0000000   0.9000000   0.3000000  )
        13           Ru  tau(  13) = (   0.0000000   0.6000000   0.6000000  )
        14           Ru  tau(  14) = (   0.3000000   0.9000000   0.6000000  )
        15           Ru  tau(  15) = (   0.3000000   0.6000000   0.9000000  )
        16           Ru  tau(  16) = (   0.0000000   0.9000000   0.9000000  )
        17           Ru  tau(  17) = (   0.6000000   0.0000000   0.0000000  )
        18           Ru  tau(  18) = (   0.9000000   0.3000000   0.0000000  )
        19           Ru  tau(  19) = (   0.9000000   0.0000000   0.3000000  )
        20           Ru  tau(  20) = (   0.6000000   0.3000000   0.3000000  )
        21           Ru  tau(  21) = (   0.6000000   0.0000000   0.6000000  )
        22           Ru  tau(  22) = (   0.9000000   0.3000000   0.6000000  )
        23           Ru  tau(  23) = (   0.9000000   0.0000000   0.9000000  )
        24           Ru  tau(  24) = (   0.6000000   0.3000000   0.9000000  )
        25           Ru  tau(  25) = (   0.6000000   0.6000000   0.0000000  )
        26           Ru  tau(  26) = (   0.9000000   0.9000000   0.0000000  )
        27           Ru  tau(  27) = (   0.9000000   0.6000000   0.3000000  )
        28           Ru  tau(  28) = (   0.6000000   0.9000000   0.3000000  )
        29           Ru  tau(  29) = (   0.6000000   0.6000000   0.6000000  )
        30           Ru  tau(  30) = (   0.9000000   0.9000000   0.6000000  )
        31           Ru  tau(  31) = (   0.9000000   0.6000000   0.9000000  )
        32           Ru  tau(  32) = (   0.6000000   0.9000000   0.9000000  )

     number of k points=    35  Marzari-Vanderbilt smearing, width (Ry)=  0.0400
                       cart. coord. in units 2pi/alat
        k(    1) = (   0.0462963   0.0462963   0.0462963), wk =   0.0219479
        k(    2) = (   0.0462963   0.0462963   0.1388889), wk =   0.0658436
        k(    3) = (   0.0462963   0.0462963   0.2314815), wk =   0.0658436
        k(    4) = (   0.0462963   0.0462963   0.3240741), wk =   0.0658436
        k(    5) = (   0.0462963   0.0462963  -0.4166667), wk =   0.0329218
        k(    6) = (   0.0462963   0.1388889   0.1388889), wk =   0.0658436
        k(    7) = (   0.0462963   0.1388889   0.2314815), wk =   0.1316872
        k(    8) = (   0.0462963   0.1388889   0.3240741), wk =   0.1316872
        k(    9) = (   0.0462963   0.1388889  -0.4166667), wk =   0.0658436
        k(   10) = (   0.0462963   0.2314815   0.2314815), wk =   0.0658436
        k(   11) = (   0.0462963   0.2314815   0.3240741), wk =   0.1316872
        k(   12) = (   0.0462963   0.2314815  -0.4166667), wk =   0.0658436
        k(   13) = (   0.0462963   0.3240741   0.3240741), wk =   0.0658436
        k(   14) = (   0.0462963   0.3240741  -0.4166667), wk =   0.0658436
        k(   15) = (   0.0462963  -0.4166667  -0.4166667), wk =   0.0164609
        k(   16) = (   0.1388889   0.1388889   0.1388889), wk =   0.0219479
        k(   17) = (   0.1388889   0.1388889   0.2314815), wk =   0.0658436
        k(   18) = (   0.1388889   0.1388889   0.3240741), wk =   0.0658436
        k(   19) = (   0.1388889   0.1388889  -0.4166667), wk =   0.0329218
        k(   20) = (   0.1388889   0.2314815   0.2314815), wk =   0.0658436
        k(   21) = (   0.1388889   0.2314815   0.3240741), wk =   0.1316872
        k(   22) = (   0.1388889   0.2314815  -0.4166667), wk =   0.0658436
        k(   23) = (   0.1388889   0.3240741   0.3240741), wk =   0.0658436
        k(   24) = (   0.1388889   0.3240741  -0.4166667), wk =   0.0658436
        k(   25) = (   0.1388889  -0.4166667  -0.4166667), wk =   0.0164609
        k(   26) = (   0.2314815   0.2314815   0.2314815), wk =   0.0219479
        k(   27) = (   0.2314815   0.2314815   0.3240741), wk =   0.0658436
        k(   28) = (   0.2314815   0.2314815  -0.4166667), wk =   0.0329218
        k(   29) = (   0.2314815   0.3240741   0.3240741), wk =   0.0658436
        k(   30) = (   0.2314815   0.3240741  -0.4166667), wk =   0.0658436
        k(   31) = (   0.2314815  -0.4166667  -0.4166667), wk =   0.0164609
        k(   32) = (   0.3240741   0.3240741   0.3240741), wk =   0.0219479
        k(   33) = (   0.3240741   0.3240741  -0.4166667), wk =   0.0329218
        k(   34) = (   0.3240741  -0.4166667  -0.4166667), wk =   0.0164609
        k(   35) = (  -0.4166667  -0.4166667  -0.4166667), wk =   0.0027435

     Check: negative core charge=   -0.000002

     Initial potential from superposition of free atoms

     starting charge  511.97959, renormalised to  512.00000
     Starting wfcs are  320 randomized atomic wfcs
     Checking if some PAW data can be deallocated...

     Self-consistent Calculation

     iteration #  1     ecut=    71.00 Ry     beta= 0.10
     Davidson diagonalization with overlap
     ethr =  1.00E-02,  avg # of iterations =  3.5

     Threshold (ethr) on eigenvalues was too large:
     Diagonalizing with lowered threshold

     Davidson diagonalization with overlap
     ethr =  2.99E-05,  avg # of iterations =  6.5

     total energy              =  -13807.85234188 Ry
     estimated scf accuracy    <       0.02179070 Ry

[...]

     total energy              =  -13807.86043038 Ry
     estimated scf accuracy    <       0.00000701 Ry

     iteration # 10     ecut=    71.00 Ry     beta= 0.10
     Davidson diagonalization with overlap
     ethr =  1.26E-09,  avg # of iterations =  2.0

     End of self-consistent calculation

          k = 0.0463 0.0463 0.0463 ( 52122 PWs)   bands (ev):

   -61.1652 -61.1571 -61.1571 -61.1571 -61.1555 -61.1555 -61.1555 -61.1527
   -61.1527 -61.1527 -61.1520 -61.1518 -61.1518 -61.1518 -61.1518 -61.1518
   -61.1518 -61.1518 -61.1518 -61.1518 -61.1511 -61.1511 -61.1511 -61.1475
   -61.1475 -61.1474 -61.1474 -61.1474 -61.1474 -61.1474 -61.1474 -61.1474
   -31.1589 -31.1589 -31.1589 -31.1584 -31.1522 -31.1522 -31.1522 -31.1229
   -31.1229 -31.1229 -31.1212 -31.1212 -31.1212 -31.1212 -31.1212 -31.1212
   -31.1182 -31.1182 -31.1182 -31.1172 -31.1172 -31.1172 -31.1172 -31.1172
   -31.1172 -31.1103 -31.1103 -31.1103 -31.1103 -31.1103 -31.1103 -31.0940
   -31.0940 -31.0940 -31.0860 -31.0860 -31.0860 -31.0828 -31.0828 -31.0828
   -31.0803 -31.0803 -31.0803 -31.0802 -31.0802 -31.0802 -31.0748 -31.0748
   -31.0748 -31.0747 -31.0747 -31.0747 -31.0745 -31.0745 -31.0745 -31.0745
   -31.0745 -31.0745 -31.0743 -31.0743 -31.0743 -31.0502 -31.0502 -31.0502
   -31.0502 -31.0502 -31.0502 -31.0456 -31.0456 -31.0456 -31.0455 -31.0455
   -31.0455 -31.0446 -31.0446 -31.0446 -31.0430 -31.0430 -31.0430 -31.0426
   -31.0426 -31.0426 -31.0426 -31.0426 -31.0426 -31.0425 -31.0425 -31.0425
   -31.0421 -31.0421 -31.0400 -31.0400 -31.0400 -31.0224 -31.0215 -31.0215
     6.3264   7.9373   7.9373   7.9373   8.1923   8.1923   8.1923   8.2409
     8.2543   8.2543   8.2543   8.3529   8.3529   8.3529   8.5895   8.5895
     8.5895   8.9139   8.9139   8.9139   9.0417   9.0417   9.0417   9.0417
     9.0417   9.0418   9.0537   9.0537   9.0537   9.0537   9.0537   9.0537
     9.1129   9.1130   9.1130   9.1836   9.1836   9.1836   9.3064   9.3064
     9.3064   9.5087   9.5087   9.5087   9.5087   9.5087   9.5087   9.5805
     9.5805   9.5805   9.5972   9.5972   9.5972   9.5972   9.5972   9.5972
     9.6420   9.6420   9.6420   9.7356   9.7356   9.7356   9.7356   9.7356
     9.7356   9.7628   9.7628   9.7628   9.7971   9.7971   9.7971   9.7971
     9.7971   9.7971   9.8803   9.8803   9.8803   9.9705   9.9705   9.9705
     9.9839   9.9839   9.9908   9.9908   9.9908  10.0045  10.0173  10.0173
    10.4471  10.4471  10.4471  10.5014  10.5014  10.5014  10.5700  10.5700
    10.5700  10.6131  10.6131  10.6131  10.6131  10.6131  10.6131  10.6201
    10.6201  10.6201  10.7215  10.7215  10.7215  10.7717  10.7717  10.7717
    10.8795  10.8795  10.8795  10.9268  10.9268  10.9268  10.9381  10.9381
    10.9381  10.9430  10.9430  10.9430  10.9430  10.9430  10.9430  10.9924
    10.9924  11.0222  11.0222  11.0222  11.0222  11.0222  11.0222  11.0934
    11.0934  11.0934  11.3196  11.3196  11.3196  11.3852  11.3852  11.3852
    11.6204  11.6204  11.6204  11.7095  11.7095  11.7095  11.7396  11.7396
    11.7525  11.7525  11.7525  11.9024  11.9025  11.9025  11.9416  11.9416
    11.9416  11.9416  11.9416  11.9416  11.9436  11.9436  11.9436  12.2409
    12.4836  12.4836  12.4836  12.7623  12.7623  12.7623  13.0805  13.0805
    13.0805  13.0805  13.0805

[...]

          k = 0.3241-0.4167-0.4167 ( 52156 PWs)   bands (ev):

[...]

          k =-0.4167-0.4167-0.4167 ( 52280 PWs)   bands (ev):

   -61.1586 -61.1586 -61.1586 -61.1586 -61.1586 -61.1586 -61.1586 -61.1586
   -61.1497 -61.1497 -61.1497 -61.1496 -61.1496 -61.1496 -61.1496 -61.1496
   -61.1496 -61.1496 -61.1496 -61.1496 -61.1496 -61.1496 -61.1496 -61.1496
   -61.1496 -61.1496 -61.1496 -61.1496 -61.1496 -61.1496 -61.1496 -61.1495
   -31.1367 -31.1367 -31.1367 -31.1366 -31.1366 -31.1366 -31.1366 -31.1366
   -31.1366 -31.1366 -31.1366 -31.1366 -31.1366 -31.1366 -31.1366 -31.1366
   -31.1366 -31.1366 -31.1366 -31.1366 -31.1366 -31.1366 -31.1366 -31.1366
   -31.0907 -31.0907 -31.0907 -31.0907 -31.0907 -31.0907 -31.0907 -31.0907
   -31.0781 -31.0781 -31.0781 -31.0781 -31.0781 -31.0781 -31.0781 -31.0781
   -31.0781 -31.0780 -31.0780 -31.0780 -31.0780 -31.0780 -31.0780 -31.0780
   -31.0780 -31.0780 -31.0780 -31.0780 -31.0780 -31.0780 -31.0780 -31.0780
   -31.0584 -31.0584 -31.0584 -31.0584 -31.0584 -31.0584 -31.0584 -31.0584
   -31.0584 -31.0584 -31.0584 -31.0584 -31.0584 -31.0584 -31.0584 -31.0584
   -31.0584 -31.0584 -31.0584 -31.0584 -31.0584 -31.0584 -31.0584 -31.0584
   -31.0318 -31.0318 -31.0318 -31.0318 -31.0318 -31.0318 -31.0318 -31.0318
   -31.0318 -31.0318 -31.0318 -31.0318 -31.0318 -31.0318 -31.0318 -31.0318
     7.6431   7.6431   7.6431   7.6431   7.6431   7.6431   7.6431   7.6431
     8.7958   8.7958   8.7958   8.7958   8.7958   8.7958   8.7958   8.7958
     8.7958   8.7958   8.7958   8.7958   8.7958   8.7958   8.7958   8.7958
     8.7958   8.7958   8.7958   8.7958   8.7958   8.7958   8.7958   8.7958
     9.3442   9.3442   9.3442   9.3442   9.3442   9.3442   9.3442   9.3442
     9.3442   9.3442   9.3442   9.3442   9.3442   9.3442   9.3442   9.3442
     9.3442   9.3442   9.3442   9.3442   9.3442   9.3442   9.3442   9.3442
     9.8792   9.8792   9.8792   9.8792   9.8792   9.8792   9.8792   9.8792
    10.1932  10.1932  10.1932  10.1932  10.1932  10.1932  10.1932  10.1932
    10.1932  10.1932  10.1932  10.1932  10.1932  10.1932  10.1932  10.1932
    10.2087  10.2087  10.2087  10.2088  10.2088  10.2088  10.2088  10.2088
    10.2088  10.2088  10.2088  10.2088  10.2088  10.2088  10.2088  10.2088
    10.2088  10.2088  10.2088  10.2088  10.2088  10.2088  10.2088  10.2088
    10.7759  10.7759  10.7759  10.7759  10.7759  10.7759  10.7759  10.7759
    10.7759  10.7759  10.7759  10.7759  10.7759  10.7759  10.7760  10.7760
    10.7760  10.7760  10.7760  10.7760  10.7760  10.7760  10.7760  10.7760
    11.1023  11.1023  11.1023  11.1023  11.1023  11.1023  11.1023  11.1023
    11.1023  11.1023  11.1023  11.1023  11.1023  11.1023  11.1023  11.1023
    11.8069  11.8069  11.8069  11.8069  11.8069  11.8069  11.8069  11.8069
    11.8069  11.8069  11.8069  11.8069  11.8069  11.8069  11.8069  11.8069
    11.8069  11.8069  11.8069  11.8069  11.8069  11.8069  11.8069  11.8069
    14.0229  14.0229  14.0229  14.0229  14.0229  14.0229  14.0229  14.0229
    14.0229  14.0229  14.0229

     the Fermi energy is    11.1125 ev

!    total energy              =  -13807.86043556 Ry

     total all-electron energy =   -289984.250775 Ry
     estimated scf accuracy    <       0.00000031 Ry
     smearing contrib. (-TS)   =       0.06304647 Ry
     internal energy E=F+TS    =  -13807.92348203 Ry

     The total energy is F=E-TS. E is the sum of the following terms:
     one-electron contribution =   -2322.72124929 Ry
     hartree contribution      =    1366.29399957 Ry
     xc contribution           =    -915.36423328 Ry
     ewald contribution        =   -4347.12848509 Ry
     one-center paw contrib.   =   -7589.00351395 Ry

     convergence has been achieved in  10 iterations

     Forces acting on atoms (cartesian axes, Ry/au):

     atom    1 type  1   force =     0.00000000    0.00000000    0.00000000
     atom    2 type  1   force =    -0.00002050   -0.00002050    0.00000000
     atom    3 type  1   force =    -0.00002050    0.00000000   -0.00002050
     atom    4 type  1   force =    -0.00000000   -0.00002050   -0.00002050
     atom    5 type  1   force =     0.00000000    0.00000000    0.00000000
     atom    6 type  1   force =     0.00004002    0.00004002   -0.00000000
     atom    7 type  1   force =    -0.00002050    0.00000000    0.00002050
     atom    8 type  1   force =     0.00000000   -0.00002050    0.00002050
     atom    9 type  1   force =     0.00000000    0.00000000    0.00000000
     atom   10 type  1   force =    -0.00002050    0.00002050    0.00000000
     atom   11 type  1   force =     0.00004002    0.00000000    0.00004002
     atom   12 type  1   force =     0.00000000    0.00002050   -0.00002050
     atom   13 type  1   force =     0.00000000    0.00000000    0.00000000
     atom   14 type  1   force =     0.00004002   -0.00004002    0.00000000
     atom   15 type  1   force =     0.00004002    0.00000000   -0.00004002
     atom   16 type  1   force =     0.00000000    0.00002050    0.00002050
     atom   17 type  1   force =     0.00000000    0.00000000    0.00000000
     atom   18 type  1   force =     0.00002050   -0.00002050   -0.00000000
     atom   19 type  1   force =     0.00002050    0.00000000   -0.00002050
     atom   20 type  1   force =     0.00000000    0.00004002    0.00004002
     atom   21 type  1   force =     0.00000000    0.00000000    0.00000000
     atom   22 type  1   force =    -0.00004002    0.00004002   -0.00000000
     atom   23 type  1   force =     0.00002050    0.00000000    0.00002050
     atom   24 type  1   force =    -0.00000000    0.00004002   -0.00004002
     atom   25 type  1   force =     0.00000000    0.00000000    0.00000000
     atom   26 type  1   force =     0.00002050    0.00002050    0.00000000
     atom   27 type  1   force =    -0.00004002    0.00000000    0.00004002
     atom   28 type  1   force =     0.00000000   -0.00004002    0.00004002
     atom   29 type  1   force =     0.00000000    0.00000000    0.00000000
     atom   30 type  1   force =    -0.00004002   -0.00004002   -0.00000000
     atom   31 type  1   force =    -0.00004002   -0.00000000   -0.00004002
     atom   32 type  1   force =     0.00000000   -0.00004002   -0.00004002

     Total force =     0.000220     Total SCF correction =     0.000679
     SCF correction compared to forces is large: reduce conv_thr to get better values

     Computing stress (Cartesian axis) and pressure

          total   stress  (Ry/bohr**3)                   (kbar)     P=     -419.28
  -0.00285024   0.00000000   0.00000000         -419.28        0.00        0.00
   0.00000000  -0.00285024   0.00000000            0.00     -419.28        0.00
   0.00000000   0.00000000  -0.00285024            0.00        0.00     -419.28

     Writing output data file /scratch/pbpQaQqutLkiLcOC.save/

     General routines

     Parallel routines

   This run was terminated on:  15:45:28  25Nov2021

   JOB DONE.