     Program PWSCF v.6.7MaX starts on 25Nov2021 at 16: 4: 6

     R & G space division:  proc/nbgrp/npool/nimage =      72
     Reading input from fcc_5.in
Warning: card &CELL ignored
Warning: card CELL_DYNAMICS = 'BFGS', ignored
Warning: card CELL_FACTOR = 2.0, ignored
Warning: card PRESS = 0.0, ignored
Warning: card / ignored

     Current dimensions of program PWSCF are:
     Max number of different atomic species (ntypx) = 10
     Max number of k-points (npk) =  40000
     Max angular momentum in pseudopotentials (lmaxx) =  3
     file Ru.pbe-spn-kjpaw_psl.1.0.0.UPF: wavefunction(s)  4D renormalized

     Subspace diagonalization in iterative solution of the eigenvalue problem:
     one sub-group per band group will be used

     Found symmetry operation: I + (  0.2500  0.2500  0.0000)
     This is a supercell, fractional translations are disabled
     Message from routine setup:
     using ibrav=0 with symmetry is DISCOURAGED, use correct ibrav instead

     bravais-lattice index     =            0
     lattice parameter (alat)  =      14.4000  a.u.
     unit-cell volume          =    8193.5401 (a.u.)^3
     number of atoms/cell      =           32
     number of atomic types    =            1
     number of electrons       =       512.00
     number of Kohn-Sham states=          307
     kinetic-energy cutoff     =      71.0000  Ry
     charge density cutoff     =     430.0000  Ry
     scf convergence threshold =      1.0E-06
     mixing beta               =       0.1000
     number of iterations used =           10  TF        mixing
     Exchange-correlation= SLA  PW   PBX  PBC
                           (   1   4   3   4   0   0   0)

     celldm(1)=  14.400000  celldm(2)=   0.000000  celldm(3)=   0.000000
     celldm(4)=   0.000000  celldm(5)=   0.000000  celldm(6)=   0.000000

     crystal axes: (cart. coord. in units of alat)
               a(1) = (   1.400000   0.000000   0.000000 )
               a(2) = (   0.000000   1.400000   0.000000 )
               a(3) = (   0.000000   0.000000   1.400000 )

     reciprocal axes: (cart. coord. in units 2 pi/alat)
               b(1) = (  0.714286  0.000000  0.000000 )
               b(2) = (  0.000000  0.714286  0.000000 )
               b(3) = (  0.000000  0.000000  0.714286 )

     PseudoPot. # 1 for Ru read from file:
     /rds/homes/b/bxp912/pp/Ru.pbe-spn-kjpaw_psl.1.0.0.UPF
     MD5 check sum: 0ae1f594dea09af7be8575c3a481d1ae
     Pseudo is Projector augmented-wave + core cor, Zval = 16.0
     Generated using "atomic" code by A. Dal Corso  v.5.1
     Shape of augmentation charge: PSQ
     Using radial grid of 1233 points,  6 beta functions with:
                l(1) =   0
                l(2) =   0
                l(3) =   1
                l(4) =   1
                l(5) =   2
                l(6) =   2
     Q(r) pseudized with 0 coefficients

     atomic species   valence    mass     pseudopotential
        Ru            16.00   101.07000     Ru( 1.00)

     48 Sym. Ops., with inversion, found

   Cartesian axes

     site n.     atom                  positions (alat units)
         1           Ru  tau(   1) = (   0.0000000   0.0000000   0.0000000  )
         2           Ru  tau(   2) = (   0.3500000   0.3500000   0.0000000  )
         3           Ru  tau(   3) = (   0.3500000   0.0000000   0.3500000  )
         4           Ru  tau(   4) = (   0.0000000   0.3500000   0.3500000  )
         5           Ru  tau(   5) = (   0.0000000   0.0000000   0.7000000  )
         6           Ru  tau(   6) = (   0.3500000   0.3500000   0.7000000  )
         7           Ru  tau(   7) = (   0.3500000   0.0000000   1.0500000  )
         8           Ru  tau(   8) = (   0.0000000   0.3500000   1.0500000  )
         9           Ru  tau(   9) = (   0.0000000   0.7000000   0.0000000  )
        10           Ru  tau(  10) = (   0.3500000   1.0500000   0.0000000  )
        11           Ru  tau(  11) = (   0.3500000   0.7000000   0.3500000  )
        12           Ru  tau(  12) = (   0.0000000   1.0500000   0.3500000  )
        13           Ru  tau(  13) = (   0.0000000   0.7000000   0.7000000  )
        14           Ru  tau(  14) = (   0.3500000   1.0500000   0.7000000  )
        15           Ru  tau(  15) = (   0.3500000   0.7000000   1.0500000  )
        16           Ru  tau(  16) = (   0.0000000   1.0500000   1.0500000  )
        17           Ru  tau(  17) = (   0.7000000   0.0000000   0.0000000  )
        18           Ru  tau(  18) = (   1.0500000   0.3500000   0.0000000  )
        19           Ru  tau(  19) = (   1.0500000   0.0000000   0.3500000  )
        20           Ru  tau(  20) = (   0.7000000   0.3500000   0.3500000  )
        21           Ru  tau(  21) = (   0.7000000   0.0000000   0.7000000  )
        22           Ru  tau(  22) = (   1.0500000   0.3500000   0.7000000  )
        23           Ru  tau(  23) = (   1.0500000   0.0000000   1.0500000  )
        24           Ru  tau(  24) = (   0.7000000   0.3500000   1.0500000  )
        25           Ru  tau(  25) = (   0.7000000   0.7000000   0.0000000  )
        26           Ru  tau(  26) = (   1.0500000   1.0500000   0.0000000  )
        27           Ru  tau(  27) = (   1.0500000   0.7000000   0.3500000  )
        28           Ru  tau(  28) = (   0.7000000   1.0500000   0.3500000  )
        29           Ru  tau(  29) = (   0.7000000   0.7000000   0.7000000  )
        30           Ru  tau(  30) = (   1.0500000   1.0500000   0.7000000  )
        31           Ru  tau(  31) = (   1.0500000   0.7000000   1.0500000  )
        32           Ru  tau(  32) = (   0.7000000   1.0500000   1.0500000  )

     number of k points=    35  Marzari-Vanderbilt smearing, width (Ry)=  0.0400
                       cart. coord. in units 2pi/alat
        k(    1) = (   0.0396825   0.0396825   0.0396825), wk =   0.0219479
        k(    2) = (   0.0396825   0.0396825   0.1190476), wk =   0.0658436
        k(    3) = (   0.0396825   0.0396825   0.1984127), wk =   0.0658436
        k(    4) = (   0.0396825   0.0396825   0.2777778), wk =   0.0658436
        k(    5) = (   0.0396825   0.0396825  -0.3571429), wk =   0.0329218
        k(    6) = (   0.0396825   0.1190476   0.1190476), wk =   0.0658436
        k(    7) = (   0.0396825   0.1190476   0.1984127), wk =   0.1316872
        k(    8) = (   0.0396825   0.1190476   0.2777778), wk =   0.1316872
        k(    9) = (   0.0396825   0.1190476  -0.3571429), wk =   0.0658436
        k(   10) = (   0.0396825   0.1984127   0.1984127), wk =   0.0658436
        k(   11) = (   0.0396825   0.1984127   0.2777778), wk =   0.1316872
        k(   12) = (   0.0396825   0.1984127  -0.3571429), wk =   0.0658436
        k(   13) = (   0.0396825   0.2777778   0.2777778), wk =   0.0658436
        k(   14) = (   0.0396825   0.2777778  -0.3571429), wk =   0.0658436
        k(   15) = (   0.0396825  -0.3571429  -0.3571429), wk =   0.0164609
        k(   16) = (   0.1190476   0.1190476   0.1190476), wk =   0.0219479
        k(   17) = (   0.1190476   0.1190476   0.1984127), wk =   0.0658436
        k(   18) = (   0.1190476   0.1190476   0.2777778), wk =   0.0658436
        k(   19) = (   0.1190476   0.1190476  -0.3571429), wk =   0.0329218
        k(   20) = (   0.1190476   0.1984127   0.1984127), wk =   0.0658436
        k(   21) = (   0.1190476   0.1984127   0.2777778), wk =   0.1316872
        k(   22) = (   0.1190476   0.1984127  -0.3571429), wk =   0.0658436
        k(   23) = (   0.1190476   0.2777778   0.2777778), wk =   0.0658436
        k(   24) = (   0.1190476   0.2777778  -0.3571429), wk =   0.0658436
        k(   25) = (   0.1190476  -0.3571429  -0.3571429), wk =   0.0164609
        k(   26) = (   0.1984127   0.1984127   0.1984127), wk =   0.0219479
        k(   27) = (   0.1984127   0.1984127   0.2777778), wk =   0.0658436
        k(   28) = (   0.1984127   0.1984127  -0.3571429), wk =   0.0329218
        k(   29) = (   0.1984127   0.2777778   0.2777778), wk =   0.0658436
        k(   30) = (   0.1984127   0.2777778  -0.3571429), wk =   0.0658436
        k(   31) = (   0.1984127  -0.3571429  -0.3571429), wk =   0.0164609
        k(   32) = (   0.2777778   0.2777778   0.2777778), wk =   0.0219479
        k(   33) = (   0.2777778   0.2777778  -0.3571429), wk =   0.0329218
        k(   34) = (   0.2777778  -0.3571429  -0.3571429), wk =   0.0164609
        k(   35) = (  -0.3571429  -0.3571429  -0.3571429), wk =   0.0027435

     Check: negative core charge=   -0.000002

     Initial potential from superposition of free atoms

     starting charge  511.97959, renormalised to  512.00000
     Starting wfcs are  320 randomized atomic wfcs
     Checking if some PAW data can be deallocated...

     Self-consistent Calculation

     iteration #  1     ecut=    71.00 Ry     beta= 0.10
     Davidson diagonalization with overlap
     ethr =  1.00E-02,  avg # of iterations =  3.6

     Threshold (ethr) on eigenvalues was too large:
     Diagonalizing with lowered threshold

     Davidson diagonalization with overlap
     ethr =  8.68E-04,  avg # of iterations =  2.7

     total energy              =  -13801.85069305 Ry
     estimated scf accuracy    <       3.51381507 Ry

[...]

     total energy              =  -13801.54567388 Ry
     estimated scf accuracy    <       0.00000118 Ry

     iteration # 17     ecut=    71.00 Ry     beta= 0.10
     Davidson diagonalization with overlap
     ethr =  2.30E-10,  avg # of iterations =  1.1

     End of self-consistent calculation

          k = 0.0397 0.0397 0.0397 ( 82786 PWs)   bands (ev):

   -66.5815 -66.5807 -66.5807 -66.5807 -66.5806 -66.5806 -66.5806 -66.5803
   -66.5803 -66.5803 -66.5803 -66.5803 -66.5803 -66.5803 -66.5803 -66.5803
   -66.5803 -66.5803 -66.5803 -66.5802 -66.5802 -66.5802 -66.5802 -66.5799
   -66.5799 -66.5799 -66.5799 -66.5799 -66.5799 -66.5799 -66.5799 -66.5799
   -36.5742 -36.5742 -36.5742 -36.5741 -36.5735 -36.5735 -36.5735 -36.5692
   -36.5692 -36.5692 -36.5689 -36.5689 -36.5689 -36.5689 -36.5689 -36.5689
   -36.5686 -36.5686 -36.5686 -36.5685 -36.5685 -36.5685 -36.5684 -36.5684
   -36.5684 -36.5676 -36.5676 -36.5676 -36.5676 -36.5676 -36.5676 -36.5649
   -36.5649 -36.5649 -36.5640 -36.5640 -36.5640 -36.5633 -36.5633 -36.5633
   -36.5633 -36.5632 -36.5632 -36.5632 -36.5632 -36.5632 -36.5625 -36.5625
   -36.5625 -36.5625 -36.5625 -36.5625 -36.5625 -36.5625 -36.5625 -36.5625
   -36.5625 -36.5625 -36.5624 -36.5624 -36.5624 -36.5589 -36.5589 -36.5589
   -36.5589 -36.5589 -36.5589 -36.5583 -36.5582 -36.5582 -36.5582 -36.5582
   -36.5582 -36.5581 -36.5581 -36.5581 -36.5579 -36.5579 -36.5579 -36.5578
   -36.5578 -36.5578 -36.5578 -36.5578 -36.5578 -36.5578 -36.5578 -36.5578
   -36.5577 -36.5577 -36.5574 -36.5574 -36.5574 -36.5548 -36.5547 -36.5547
     2.2209   3.3937   3.3937   3.3938   3.6027   3.6027   3.6027   3.7164
     3.7256   3.7256   3.7256   3.8625   3.8625   3.8625   3.9741   3.9741
     3.9741   4.0794   4.0794   4.0794   4.1629   4.1629   4.1629   4.1629
     4.1629   4.1629   4.2066   4.2066   4.2066   4.2451   4.2451   4.2451
     4.2451   4.2451   4.2451   4.2650   4.2650   4.2650   4.3231   4.3231
     4.3232   4.4449   4.4449   4.4449   4.4449   4.4449   4.4449   4.4740
     4.4740   4.4740   4.4830   4.4830   4.4831   4.4831   4.4831   4.4831
     4.5065   4.5065   4.5065   4.5603   4.5603   4.5603   4.5603   4.5603
     4.5603   4.6034   4.6034   4.6034   4.6051   4.6052   4.6052   4.6052
     4.6052   4.6052   4.6302   4.6302   4.6302   4.6358   4.6358   4.6366
     4.6366   4.6366   4.6392   4.6392   4.6392   4.6394   4.6451   4.6451
     4.8736   4.8736   4.8736   4.9177   4.9177   4.9177   4.9191   4.9191
     4.9191   4.9409   4.9409   4.9409   4.9409   4.9409   4.9409   4.9426
     4.9426   4.9426   4.9868   4.9868   4.9868   5.0156   5.0156   5.0156
     5.0613   5.0613   5.0613   5.0778   5.0778   5.0778   5.0916   5.0916
     5.0937   5.0937   5.0937   5.0937   5.0937   5.0937   5.0991   5.0991
     5.0991   5.1222   5.1222   5.1222   5.1222   5.1222   5.1222   5.1545
     5.1545   5.1545   5.2452   5.2452   5.2452   5.2757   5.2757   5.2757
     5.4217   5.4217   5.4218   5.4231   5.4231   5.4231   5.4414   5.4414
     5.4470   5.4470   5.4470   5.5242   5.5242   5.5242   5.5346   5.5346
     5.5346   5.5346   5.5346   5.5346   5.5355   5.5355   5.5355   6.1110
     6.1110   6.1110   6.3371   6.3371   6.3371   6.3371   6.3371   6.3371
     6.5833   6.5833   6.5833

[...]

          k = 0.2778-0.3571-0.3571 ( 82808 PWs)   bands (ev):

[...]

          k =-0.3571-0.3571-0.3571 ( 82856 PWs)   bands (ev):

   -66.5809 -66.5809 -66.5809 -66.5809 -66.5809 -66.5809 -66.5809 -66.5809
   -66.5801 -66.5801 -66.5801 -66.5801 -66.5801 -66.5801 -66.5801 -66.5801
   -66.5801 -66.5801 -66.5801 -66.5801 -66.5801 -66.5801 -66.5801 -66.5801
   -66.5801 -66.5801 -66.5801 -66.5801 -66.5801 -66.5801 -66.5801 -66.5801
   -36.5713 -36.5713 -36.5713 -36.5712 -36.5712 -36.5712 -36.5712 -36.5712
   -36.5712 -36.5712 -36.5712 -36.5712 -36.5712 -36.5712 -36.5712 -36.5712
   -36.5712 -36.5712 -36.5712 -36.5712 -36.5712 -36.5712 -36.5712 -36.5711
   -36.5644 -36.5644 -36.5644 -36.5644 -36.5644 -36.5644 -36.5644 -36.5644
   -36.5630 -36.5630 -36.5630 -36.5630 -36.5630 -36.5630 -36.5630 -36.5630
   -36.5630 -36.5630 -36.5630 -36.5630 -36.5629 -36.5629 -36.5629 -36.5629
   -36.5629 -36.5629 -36.5629 -36.5629 -36.5629 -36.5629 -36.5629 -36.5628
   -36.5602 -36.5602 -36.5602 -36.5602 -36.5601 -36.5601 -36.5601 -36.5601
   -36.5601 -36.5601 -36.5601 -36.5601 -36.5601 -36.5601 -36.5601 -36.5601
   -36.5601 -36.5601 -36.5601 -36.5601 -36.5601 -36.5601 -36.5601 -36.5601
   -36.5562 -36.5562 -36.5562 -36.5562 -36.5562 -36.5562 -36.5562 -36.5562
   -36.5562 -36.5562 -36.5562 -36.5562 -36.5562 -36.5562 -36.5562 -36.5562
     3.1775   3.1775   3.1775   3.1775   3.1775   3.1775   3.1775   3.1775
     4.0626   4.0626   4.0626   4.0626   4.0626   4.0626   4.0626   4.0626
     4.0626   4.0626   4.0626   4.0626   4.0626   4.0626   4.0627   4.0627
     4.0627   4.0627   4.0627   4.0627   4.0627   4.0627   4.0627   4.0627
     4.3833   4.3833   4.3833   4.3834   4.3834   4.3834   4.3834   4.3834
     4.3834   4.3834   4.3834   4.3834   4.3834   4.3834   4.3834   4.3834
     4.3834   4.3834   4.3834   4.3834   4.3834   4.3834   4.3834   4.3834
     4.6291   4.6291   4.6291   4.6291   4.6291   4.6291   4.6291   4.6291
     4.7320   4.7320   4.7320   4.7320   4.7320   4.7320   4.7320   4.7320
     4.7320   4.7320   4.7320   4.7320   4.7320   4.7320   4.7320   4.7320
     4.7935   4.7935   4.7935   4.7935   4.7935   4.7935   4.7935   4.7935
     4.7935   4.7935   4.7935   4.7935   4.7935   4.7935   4.7935   4.7935
     4.7935   4.7935   4.7935   4.7935   4.7935   4.7935   4.7935   4.7935
     5.0131   5.0131   5.0131   5.0131   5.0131   5.0131   5.0131   5.0131
     5.0131   5.0131   5.0131   5.0131   5.0131   5.0131   5.0131   5.0131
     5.0131   5.0131   5.0131   5.0131   5.0131   5.0131   5.0131   5.0131
     5.1538   5.1538   5.1538   5.1538   5.1538   5.1538   5.1538   5.1538
     5.1538   5.1538   5.1538   5.1538   5.1538   5.1538   5.1538   5.1538
     5.4714   5.4714   5.4714   5.4714   5.4714   5.4714   5.4714   5.4714
     5.4714   5.4714   5.4714   5.4714   5.4714   5.4714   5.4714   5.4714
     5.4714   5.4714   5.4714   5.4714   5.4714   5.4714   5.4714   5.4714
     7.1567   7.1567   7.1567   7.1567   7.1567   7.1567   7.1567   7.1567
     7.1567   7.1567   7.1567

     the Fermi energy is     5.2035 ev

!    total energy              =  -13801.54567529 Ry

     total all-electron energy =   -289977.936015 Ry
     estimated scf accuracy    <       0.00000042 Ry
     smearing contrib. (-TS)   =      -0.06120025 Ry
     internal energy E=F+TS    =  -13801.48447505 Ry

     The total energy is F=E-TS. E is the sum of the following terms:
     one-electron contribution =   -3351.64682157 Ry
     hartree contribution      =    1778.65141994 Ry
     xc contribution           =    -913.47390256 Ry
     ewald contribution        =   -3726.11013007 Ry
     one-center paw contrib.   =   -7588.90504079 Ry

     convergence has been achieved in  17 iterations

     Forces acting on atoms (cartesian axes, Ry/au):

     atom    1 type  1   force =     0.00000000    0.00000000    0.00000000
     atom    2 type  1   force =     0.00001573    0.00001573    0.00000000
     atom    3 type  1   force =     0.00001573    0.00000000    0.00001573
     atom    4 type  1   force =     0.00000000    0.00001573    0.00001573
     atom    5 type  1   force =     0.00000000    0.00000000    0.00000000
     atom    6 type  1   force =    -0.00000237   -0.00000237    0.00000000
     atom    7 type  1   force =     0.00001573    0.00000000   -0.00001573
     atom    8 type  1   force =    -0.00000000    0.00001573   -0.00001573
     atom    9 type  1   force =     0.00000000    0.00000000    0.00000000
     atom   10 type  1   force =     0.00001573   -0.00001573   -0.00000000
     atom   11 type  1   force =    -0.00000237    0.00000000   -0.00000237
     atom   12 type  1   force =    -0.00000000   -0.00001573    0.00001573
     atom   13 type  1   force =     0.00000000    0.00000000    0.00000000
     atom   14 type  1   force =    -0.00000237    0.00000237    0.00000000
     atom   15 type  1   force =    -0.00000237   -0.00000000    0.00000237
     atom   16 type  1   force =     0.00000000   -0.00001573   -0.00001573
     atom   17 type  1   force =     0.00000000    0.00000000    0.00000000
     atom   18 type  1   force =    -0.00001573    0.00001573   -0.00000000
     atom   19 type  1   force =    -0.00001573    0.00000000    0.00001573
     atom   20 type  1   force =     0.00000000   -0.00000237   -0.00000237
     atom   21 type  1   force =     0.00000000    0.00000000    0.00000000
     atom   22 type  1   force =     0.00000237   -0.00000237   -0.00000000
     atom   23 type  1   force =    -0.00001573    0.00000000   -0.00001573
     atom   24 type  1   force =    -0.00000000   -0.00000237    0.00000237
     atom   25 type  1   force =     0.00000000    0.00000000    0.00000000
     atom   26 type  1   force =    -0.00001573   -0.00001573    0.00000000
     atom   27 type  1   force =     0.00000237    0.00000000   -0.00000237
     atom   28 type  1   force =     0.00000000    0.00000237   -0.00000237
     atom   29 type  1   force =     0.00000000    0.00000000    0.00000000
     atom   30 type  1   force =     0.00000237    0.00000237    0.00000000
     atom   31 type  1   force =     0.00000237    0.00000000    0.00000237
     atom   32 type  1   force =     0.00000000    0.00000237    0.00000237

     Total force =     0.000078     Total SCF correction =     0.000548
     SCF correction compared to forces is large: reduce conv_thr to get better values

     Computing stress (Cartesian axis) and pressure

          total   stress  (Ry/bohr**3)                   (kbar)     P=     -213.43
  -0.00145088   0.00000000   0.00000000         -213.43        0.00        0.00
   0.00000000  -0.00145088   0.00000000            0.00     -213.43        0.00
   0.00000000   0.00000000  -0.00145088            0.00        0.00     -213.43

     Writing output data file /scratch/ARXIYioyHzwxNjnS.save/

     General routines

     Parallel routines

   This run was terminated on:  16:25:21  25Nov2021

   JOB DONE.