     Program PWSCF v.6.7MaX starts on 25Nov2021 at 16:25:41

     R & G space division:  proc/nbgrp/npool/nimage =      72
     Reading input from fcc_6.in
Warning: card &CELL ignored
Warning: card CELL_DYNAMICS = 'BFGS', ignored
Warning: card CELL_FACTOR = 2.0, ignored
Warning: card PRESS = 0.0, ignored
Warning: card / ignored

     Current dimensions of program PWSCF are:
     Max number of different atomic species (ntypx) = 10
     Max number of k-points (npk) =  40000
     Max angular momentum in pseudopotentials (lmaxx) =  3
     file Ru.pbe-spn-kjpaw_psl.1.0.0.UPF: wavefunction(s)  4D renormalized

     Subspace diagonalization in iterative solution of the eigenvalue problem:
     one sub-group per band group will be used

     Found symmetry operation: I + (  0.2500  0.2500  0.0000)
     This is a supercell, fractional translations are disabled
     Message from routine setup:
     using ibrav=0 with symmetry is DISCOURAGED, use correct ibrav instead

     bravais-lattice index     =            0
     lattice parameter (alat)  =      14.4000  a.u.
     unit-cell volume          =   10077.6960 (a.u.)^3
     number of atoms/cell      =           32
     number of atomic types    =            1
     number of electrons       =       512.00
     number of Kohn-Sham states=          307
     kinetic-energy cutoff     =      71.0000  Ry
     charge density cutoff     =     430.0000  Ry
     scf convergence threshold =      1.0E-06
     mixing beta               =       0.1000
     number of iterations used =           10  TF        mixing
     Exchange-correlation= SLA  PW   PBX  PBC
                           (   1   4   3   4   0   0   0)

     celldm(1)=  14.400000  celldm(2)=   0.000000  celldm(3)=   0.000000
     celldm(4)=   0.000000  celldm(5)=   0.000000  celldm(6)=   0.000000

     crystal axes: (cart. coord. in units of alat)
               a(1) = (   1.500000   0.000000   0.000000 )
               a(2) = (   0.000000   1.500000   0.000000 )
               a(3) = (   0.000000   0.000000   1.500000 )

     reciprocal axes: (cart. coord. in units 2 pi/alat)
               b(1) = (  0.666667  0.000000  0.000000 )
               b(2) = (  0.000000  0.666667  0.000000 )
               b(3) = (  0.000000  0.000000  0.666667 )

     PseudoPot. # 1 for Ru read from file:
     /rds/homes/b/bxp912/pp/Ru.pbe-spn-kjpaw_psl.1.0.0.UPF
     MD5 check sum: 0ae1f594dea09af7be8575c3a481d1ae
     Pseudo is Projector augmented-wave + core cor, Zval = 16.0
     Generated using "atomic" code by A. Dal Corso  v.5.1
     Shape of augmentation charge: PSQ
     Using radial grid of 1233 points,  6 beta functions with:
                l(1) =   0
                l(2) =   0
                l(3) =   1
                l(4) =   1
                l(5) =   2
                l(6) =   2
     Q(r) pseudized with 0 coefficients

     atomic species   valence    mass     pseudopotential
        Ru            16.00   101.07000     Ru( 1.00)

     48 Sym. Ops., with inversion, found

   Cartesian axes

     site n.     atom                  positions (alat units)
         1           Ru  tau(   1) = (   0.0000000   0.0000000   0.0000000  )
         2           Ru  tau(   2) = (   0.3750000   0.3750000   0.0000000  )
         3           Ru  tau(   3) = (   0.3750000   0.0000000   0.3750000  )
         4           Ru  tau(   4) = (   0.0000000   0.3750000   0.3750000  )
         5           Ru  tau(   5) = (   0.0000000   0.0000000   0.7500000  )
         6           Ru  tau(   6) = (   0.3750000   0.3750000   0.7500000  )
         7           Ru  tau(   7) = (   0.3750000   0.0000000   1.1250000  )
         8           Ru  tau(   8) = (   0.0000000   0.3750000   1.1250000  )
         9           Ru  tau(   9) = (   0.0000000   0.7500000   0.0000000  )
        10           Ru  tau(  10) = (   0.3750000   1.1250000   0.0000000  )
        11           Ru  tau(  11) = (   0.3750000   0.7500000   0.3750000  )
        12           Ru  tau(  12) = (   0.0000000   1.1250000   0.3750000  )
        13           Ru  tau(  13) = (   0.0000000   0.7500000   0.7500000  )
        14           Ru  tau(  14) = (   0.3750000   1.1250000   0.7500000  )
        15           Ru  tau(  15) = (   0.3750000   0.7500000   1.1250000  )
        16           Ru  tau(  16) = (   0.0000000   1.1250000   1.1250000  )
        17           Ru  tau(  17) = (   0.7500000   0.0000000   0.0000000  )
        18           Ru  tau(  18) = (   1.1250000   0.3750000   0.0000000  )
        19           Ru  tau(  19) = (   1.1250000   0.0000000   0.3750000  )
        20           Ru  tau(  20) = (   0.7500000   0.3750000   0.3750000  )
        21           Ru  tau(  21) = (   0.7500000   0.0000000   0.7500000  )
        22           Ru  tau(  22) = (   1.1250000   0.3750000   0.7500000  )
        23           Ru  tau(  23) = (   1.1250000   0.0000000   1.1250000  )
        24           Ru  tau(  24) = (   0.7500000   0.3750000   1.1250000  )
        25           Ru  tau(  25) = (   0.7500000   0.7500000   0.0000000  )
        26           Ru  tau(  26) = (   1.1250000   1.1250000   0.0000000  )
        27           Ru  tau(  27) = (   1.1250000   0.7500000   0.3750000  )
        28           Ru  tau(  28) = (   0.7500000   1.1250000   0.3750000  )
        29           Ru  tau(  29) = (   0.7500000   0.7500000   0.7500000  )
        30           Ru  tau(  30) = (   1.1250000   1.1250000   0.7500000  )
        31           Ru  tau(  31) = (   1.1250000   0.7500000   1.1250000  )
        32           Ru  tau(  32) = (   0.7500000   1.1250000   1.1250000  )

     number of k points=    35  Marzari-Vanderbilt smearing, width (Ry)=  0.0400
                       cart. coord. in units 2pi/alat
        k(    1) = (   0.0370370   0.0370370   0.0370370), wk =   0.0219479
        k(    2) = (   0.0370370   0.0370370   0.1111111), wk =   0.0658436
        k(    3) = (   0.0370370   0.0370370   0.1851852), wk =   0.0658436
        k(    4) = (   0.0370370   0.0370370   0.2592593), wk =   0.0658436
        k(    5) = (   0.0370370   0.0370370  -0.3333333), wk =   0.0329218
        k(    6) = (   0.0370370   0.1111111   0.1111111), wk =   0.0658436
        k(    7) = (   0.0370370   0.1111111   0.1851852), wk =   0.1316872
        k(    8) = (   0.0370370   0.1111111   0.2592593), wk =   0.1316872
        k(    9) = (   0.0370370   0.1111111  -0.3333333), wk =   0.0658436
        k(   10) = (   0.0370370   0.1851852   0.1851852), wk =   0.0658436
        k(   11) = (   0.0370370   0.1851852   0.2592593), wk =   0.1316872
        k(   12) = (   0.0370370   0.1851852  -0.3333333), wk =   0.0658436
        k(   13) = (   0.0370370   0.2592593   0.2592593), wk =   0.0658436
        k(   14) = (   0.0370370   0.2592593  -0.3333333), wk =   0.0658436
        k(   15) = (   0.0370370  -0.3333333  -0.3333333), wk =   0.0164609
        k(   16) = (   0.1111111   0.1111111   0.1111111), wk =   0.0219479
        k(   17) = (   0.1111111   0.1111111   0.1851852), wk =   0.0658436
        k(   18) = (   0.1111111   0.1111111   0.2592593), wk =   0.0658436
        k(   19) = (   0.1111111   0.1111111  -0.3333333), wk =   0.0329218
        k(   20) = (   0.1111111   0.1851852   0.1851852), wk =   0.0658436
        k(   21) = (   0.1111111   0.1851852   0.2592593), wk =   0.1316872
        k(   22) = (   0.1111111   0.1851852  -0.3333333), wk =   0.0658436
        k(   23) = (   0.1111111   0.2592593   0.2592593), wk =   0.0658436
        k(   24) = (   0.1111111   0.2592593  -0.3333333), wk =   0.0658436
        k(   25) = (   0.1111111  -0.3333333  -0.3333333), wk =   0.0164609
        k(   26) = (   0.1851852   0.1851852   0.1851852), wk =   0.0219479
        k(   27) = (   0.1851852   0.1851852   0.2592593), wk =   0.0658436
        k(   28) = (   0.1851852   0.1851852  -0.3333333), wk =   0.0329218
        k(   29) = (   0.1851852   0.2592593   0.2592593), wk =   0.0658436
        k(   30) = (   0.1851852   0.2592593  -0.3333333), wk =   0.0658436
        k(   31) = (   0.1851852  -0.3333333  -0.3333333), wk =   0.0164609
        k(   32) = (   0.2592593   0.2592593   0.2592593), wk =   0.0219479
        k(   33) = (   0.2592593   0.2592593  -0.3333333), wk =   0.0329218
        k(   34) = (   0.2592593  -0.3333333  -0.3333333), wk =   0.0164609
        k(   35) = (  -0.3333333  -0.3333333  -0.3333333), wk =   0.0027435

     Check: negative core charge=   -0.000001

     Initial potential from superposition of free atoms

     starting charge  511.97959, renormalised to  512.00000
     Starting wfcs are  320 randomized atomic wfcs
     Checking if some PAW data can be deallocated...

     Self-consistent Calculation

     iteration #  1     ecut=    71.00 Ry     beta= 0.10
     Davidson diagonalization with overlap
     ethr =  1.00E-02,  avg # of iterations =  2.0

     total energy              =  -13799.90236140 Ry
     estimated scf accuracy    <       8.50069399 Ry

[...]

     total energy              =  -13799.36057324 Ry
     estimated scf accuracy    <       0.00000102 Ry

     iteration # 22     ecut=    71.00 Ry     beta= 0.10
     Davidson diagonalization with overlap
     ethr =  1.99E-10,  avg # of iterations =  4.0

     End of self-consistent calculation

          k = 0.0370 0.0370 0.0370 (101643 PWs)   bands (ev):

   -68.1863 -68.1861 -68.1861 -68.1861 -68.1861 -68.1861 -68.1861 -68.1860
   -68.1860 -68.1860 -68.1860 -68.1860 -68.1860 -68.1860 -68.1860 -68.1860
   -68.1860 -68.1860 -68.1859 -68.1859 -68.1859 -68.1859 -68.1859 -68.1859
   -68.1859 -68.1859 -68.1859 -68.1859 -68.1859 -68.1859 -68.1859 -68.1859
   -38.2012 -38.2012 -38.2012 -38.2011 -38.2010 -38.2010 -38.2010 -38.1992
   -38.1992 -38.1992 -38.1991 -38.1991 -38.1991 -38.1991 -38.1991 -38.1990
   -38.1990 -38.1990 -38.1990 -38.1990 -38.1990 -38.1990 -38.1989 -38.1989
   -38.1989 -38.1986 -38.1986 -38.1986 -38.1986 -38.1986 -38.1986 -38.1976
   -38.1976 -38.1976 -38.1972 -38.1972 -38.1972 -38.1969 -38.1969 -38.1969
   -38.1969 -38.1969 -38.1969 -38.1969 -38.1969 -38.1969 -38.1967 -38.1967
   -38.1967 -38.1967 -38.1967 -38.1967 -38.1966 -38.1966 -38.1966 -38.1966
   -38.1966 -38.1966 -38.1965 -38.1965 -38.1965 -38.1952 -38.1952 -38.1952
   -38.1952 -38.1952 -38.1952 -38.1950 -38.1950 -38.1950 -38.1949 -38.1949
   -38.1949 -38.1949 -38.1949 -38.1949 -38.1948 -38.1948 -38.1948 -38.1948
   -38.1948 -38.1948 -38.1948 -38.1948 -38.1948 -38.1948 -38.1948 -38.1948
   -38.1948 -38.1948 -38.1946 -38.1946 -38.1946 -38.1935 -38.1934 -38.1934
     1.0224   2.0338   2.0338   2.0338   2.2163   2.2163   2.2163   2.3073
     2.3146   2.3146   2.3146   2.4397   2.4397   2.4397   2.5142   2.5142
     2.5142   2.5954   2.5954   2.5954   2.6569   2.6569   2.6569   2.6569
     2.6569   2.6569   2.6856   2.6856   2.6856   2.7204   2.7204   2.7204
     2.7259   2.7259   2.7259   2.7259   2.7259   2.7259   2.7611   2.7611
     2.7611   2.8619   2.8619   2.8619   2.8619   2.8619   2.8619   2.8790
     2.8790   2.8790   2.8859   2.8859   2.8859   2.8859   2.8859   2.8859
     2.9036   2.9036   2.9036   2.9458   2.9458   2.9458   2.9458   2.9458
     2.9458   2.9753   2.9753   2.9753   2.9790   2.9790   2.9796   2.9815
     2.9815   2.9815   2.9835   2.9835   2.9852   2.9852   2.9852   2.9852
     2.9852   2.9852   2.9910   2.9910   2.9910   3.0035   3.0035   3.0035
     3.1560   3.1560   3.1560   3.1795   3.1795   3.1795   3.1975   3.1975
     3.1975   3.1975   3.1975   3.1975   3.1976   3.1976   3.1976   3.1989
     3.1989   3.1989   3.2280   3.2280   3.2280   3.2517   3.2517   3.2517
     3.2806   3.2806   3.2806   3.2897   3.2897   3.2897   3.2952   3.2952
     3.3036   3.3036   3.3036   3.3036   3.3036   3.3036   3.3153   3.3153
     3.3153   3.3210   3.3210   3.3210   3.3210   3.3210   3.3210   3.3434
     3.3434   3.3434   3.4038   3.4038   3.4038   3.4252   3.4252   3.4252
     3.5284   3.5284   3.5284   3.5322   3.5322   3.5322   3.5423   3.5423
     3.5461   3.5461   3.5461   3.6019   3.6019   3.6019   3.6078   3.6078
     3.6078   3.6078   3.6078   3.6078   3.6084   3.6084   3.6084   4.1156
     4.1156   4.1156   4.3139   4.3139   4.3139   4.3139   4.3139   4.3139
     4.5287   4.5287   4.5287

[...]

          k = 0.2593-0.3333-0.3333 (101816 PWs)   bands (ev):

[...]

          k =-0.3333-0.3333-0.3333 (101824 PWs)   bands (ev):

   -68.1862 -68.1861 -68.1861 -68.1861 -68.1861 -68.1861 -68.1861 -68.1861
   -68.1860 -68.1859 -68.1859 -68.1859 -68.1859 -68.1859 -68.1859 -68.1859
   -68.1859 -68.1859 -68.1859 -68.1859 -68.1859 -68.1859 -68.1859 -68.1859
   -68.1859 -68.1859 -68.1859 -68.1859 -68.1859 -68.1859 -68.1859 -68.1859
   -38.2000 -38.2000 -38.2000 -38.2000 -38.2000 -38.2000 -38.2000 -38.2000
   -38.2000 -38.2000 -38.2000 -38.2000 -38.2000 -38.2000 -38.2000 -38.2000
   -38.2000 -38.2000 -38.2000 -38.2000 -38.2000 -38.2000 -38.2000 -38.2000
   -38.1974 -38.1974 -38.1974 -38.1974 -38.1974 -38.1974 -38.1974 -38.1973
   -38.1968 -38.1968 -38.1968 -38.1968 -38.1968 -38.1968 -38.1968 -38.1968
   -38.1968 -38.1968 -38.1968 -38.1968 -38.1968 -38.1968 -38.1968 -38.1968
   -38.1968 -38.1968 -38.1968 -38.1968 -38.1968 -38.1968 -38.1968 -38.1968
   -38.1958 -38.1958 -38.1958 -38.1958 -38.1957 -38.1957 -38.1957 -38.1957
   -38.1957 -38.1957 -38.1957 -38.1957 -38.1957 -38.1957 -38.1957 -38.1957
   -38.1957 -38.1957 -38.1957 -38.1957 -38.1957 -38.1957 -38.1957 -38.1957
   -38.1942 -38.1942 -38.1942 -38.1941 -38.1941 -38.1941 -38.1941 -38.1941
   -38.1941 -38.1941 -38.1941 -38.1941 -38.1941 -38.1941 -38.1941 -38.1941
     1.8452   1.8452   1.8452   1.8452   1.8452   1.8452   1.8452   1.8452
     2.5783   2.5783   2.5783   2.5783   2.5783   2.5783   2.5783   2.5783
     2.5783   2.5783   2.5783   2.5783   2.5783   2.5783   2.5783   2.5783
     2.5783   2.5783   2.5783   2.5783   2.5783   2.5783   2.5783   2.5783
     2.8237   2.8237   2.8237   2.8237   2.8237   2.8237   2.8237   2.8237
     2.8237   2.8237   2.8237   2.8237   2.8237   2.8237   2.8237   2.8237
     2.8237   2.8237   2.8237   2.8237   2.8237   2.8237   2.8237   2.8237
     2.9972   2.9972   2.9972   2.9972   2.9972   2.9972   2.9972   2.9972
     3.0459   3.0459   3.0459   3.0459   3.0459   3.0459   3.0459   3.0459
     3.0459   3.0459   3.0459   3.0459   3.0459   3.0459   3.0459   3.0459
     3.1140   3.1140   3.1140   3.1140   3.1140   3.1140   3.1140   3.1140
     3.1140   3.1140   3.1140   3.1140   3.1140   3.1140   3.1140   3.1140
     3.1140   3.1140   3.1140   3.1140   3.1140   3.1140   3.1140   3.1141
     3.2465   3.2465   3.2465   3.2465   3.2465   3.2465   3.2466   3.2466
     3.2466   3.2466   3.2466   3.2466   3.2466   3.2466   3.2466   3.2466
     3.2466   3.2466   3.2466   3.2466   3.2466   3.2466   3.2466   3.2466
     3.3420   3.3420   3.3420   3.3420   3.3420   3.3420   3.3420   3.3420
     3.3420   3.3420   3.3420   3.3420   3.3420   3.3420   3.3420   3.3420
     3.5631   3.5631   3.5631   3.5631   3.5631   3.5631   3.5631   3.5631
     3.5631   3.5631   3.5631   3.5631   3.5631   3.5631   3.5631   3.5631
     3.5631   3.5631   3.5631   3.5631   3.5631   3.5631   3.5631   3.5631
     5.0583   5.0583   5.0583   5.0583   5.0583   5.0583   5.0583   5.0583
     5.0583   5.0583   5.0583

     the Fermi energy is     3.4259 ev

!    total energy              =  -13799.36057400 Ry

     total all-electron energy =   -289975.750913 Ry
     estimated scf accuracy    <       0.00000013 Ry
     smearing contrib. (-TS)   =      -0.26174667 Ry
     internal energy E=F+TS    =  -13799.09882733 Ry

     The total energy is F=E-TS. E is the sum of the following terms:
     one-electron contribution =   -3782.37328771 Ry
     hartree contribution      =    1963.73853139 Ry
     xc contribution           =    -913.87176158 Ry
     ewald contribution        =   -3477.70278807 Ry
     one-center paw contrib.   =   -7588.88952136 Ry

     convergence has been achieved in  22 iterations

     Forces acting on atoms (cartesian axes, Ry/au):

     atom    1 type  1   force =     0.00000000    0.00000000    0.00000000
     atom    2 type  1   force =     0.00000101    0.00000101   -0.00000000
     atom    3 type  1   force =     0.00000101   -0.00000000    0.00000101
     atom    4 type  1   force =    -0.00000000    0.00000101    0.00000101
     atom    5 type  1   force =     0.00000000    0.00000000    0.00000000
     atom    6 type  1   force =    -0.00000255   -0.00000255   -0.00000000
     atom    7 type  1   force =     0.00000101    0.00000000   -0.00000101
     atom    8 type  1   force =    -0.00000000    0.00000101   -0.00000101
     atom    9 type  1   force =     0.00000000    0.00000000    0.00000000
     atom   10 type  1   force =     0.00000101   -0.00000101   -0.00000000
     atom   11 type  1   force =    -0.00000255   -0.00000000   -0.00000255
     atom   12 type  1   force =    -0.00000000   -0.00000101    0.00000101
     atom   13 type  1   force =     0.00000000    0.00000000    0.00000000
     atom   14 type  1   force =    -0.00000255    0.00000255   -0.00000000
     atom   15 type  1   force =    -0.00000255   -0.00000000    0.00000255
     atom   16 type  1   force =     0.00000000   -0.00000101   -0.00000101
     atom   17 type  1   force =     0.00000000    0.00000000    0.00000000
     atom   18 type  1   force =    -0.00000101    0.00000101   -0.00000000
     atom   19 type  1   force =    -0.00000101   -0.00000000    0.00000101
     atom   20 type  1   force =     0.00000000   -0.00000255   -0.00000255
     atom   21 type  1   force =     0.00000000    0.00000000    0.00000000
     atom   22 type  1   force =     0.00000255   -0.00000255    0.00000000
     atom   23 type  1   force =    -0.00000101   -0.00000000   -0.00000101
     atom   24 type  1   force =    -0.00000000   -0.00000255    0.00000255
     atom   25 type  1   force =     0.00000000    0.00000000    0.00000000
     atom   26 type  1   force =    -0.00000101   -0.00000101    0.00000000
     atom   27 type  1   force =     0.00000255    0.00000000   -0.00000255
     atom   28 type  1   force =     0.00000000    0.00000255   -0.00000255
     atom   29 type  1   force =     0.00000000    0.00000000    0.00000000
     atom   30 type  1   force =     0.00000255    0.00000255    0.00000000
     atom   31 type  1   force =     0.00000255   -0.00000000    0.00000255
     atom   32 type  1   force =     0.00000000    0.00000255    0.00000255

     Total force =     0.000013     Total SCF correction =     0.000124
     SCF correction compared to forces is large: reduce conv_thr to get better values

     Computing stress (Cartesian axis) and pressure

          total   stress  (Ry/bohr**3)                   (kbar)     P=     -138.55
  -0.00094185   0.00000000   0.00000000         -138.55        0.00        0.00
   0.00000000  -0.00094185   0.00000000            0.00     -138.55        0.00
   0.00000000   0.00000000  -0.00094185            0.00        0.00     -138.55

     Writing output data file /scratch/wXHZLwqlfiDXwvGW.save/

     General routines

     Parallel routines

   This run was terminated on:  16:59: 9  25Nov2021

   JOB DONE.