     Program PWSCF v.6.7MaX starts on 25Nov2021 at 15:45:49

     R & G space division:  proc/nbgrp/npool/nimage =      72
     Reading input from fcc_4.in
Warning: card &CELL ignored
Warning: card CELL_DYNAMICS = 'BFGS', ignored
Warning: card CELL_FACTOR = 2.0, ignored
Warning: card PRESS = 0.0, ignored
Warning: card / ignored

     Current dimensions of program PWSCF are:
     Max number of different atomic species (ntypx) = 10
     Max number of k-points (npk) =  40000
     Max angular momentum in pseudopotentials (lmaxx) =  3
     file Ru.pbe-spn-kjpaw_psl.1.0.0.UPF: wavefunction(s)  4D renormalized

     Subspace diagonalization in iterative solution of the eigenvalue problem:
     one sub-group per band group will be used

     Found symmetry operation: I + (  0.2500  0.2500  0.0000)
     This is a supercell, fractional translations are disabled
     Message from routine setup:
     using ibrav=0 with symmetry is DISCOURAGED, use correct ibrav instead

     bravais-lattice index     =            0
     lattice parameter (alat)  =      14.4000  a.u.
     unit-cell volume          =    6560.2068 (a.u.)^3
     number of atoms/cell      =           32
     number of atomic types    =            1
     number of electrons       =       512.00
     number of Kohn-Sham states=          307
     kinetic-energy cutoff     =      71.0000  Ry
     charge density cutoff     =     430.0000  Ry
     scf convergence threshold =      1.0E-06
     mixing beta               =       0.1000
     number of iterations used =           10  TF        mixing
     Exchange-correlation= SLA  PW   PBX  PBC
                           (   1   4   3   4   0   0   0)

     celldm(1)=  14.400000  celldm(2)=   0.000000  celldm(3)=   0.000000
     celldm(4)=   0.000000  celldm(5)=   0.000000  celldm(6)=   0.000000

     crystal axes: (cart. coord. in units of alat)
               a(1) = (   1.300000   0.000000   0.000000 )
               a(2) = (   0.000000   1.300000   0.000000 )
               a(3) = (   0.000000   0.000000   1.300000 )

     reciprocal axes: (cart. coord. in units 2 pi/alat)
               b(1) = (  0.769231  0.000000  0.000000 )
               b(2) = (  0.000000  0.769231  0.000000 )
               b(3) = (  0.000000  0.000000  0.769231 )

     PseudoPot. # 1 for Ru read from file:
     /rds/homes/b/bxp912/pp/Ru.pbe-spn-kjpaw_psl.1.0.0.UPF
     MD5 check sum: 0ae1f594dea09af7be8575c3a481d1ae
     Pseudo is Projector augmented-wave + core cor, Zval = 16.0
     Generated using "atomic" code by A. Dal Corso  v.5.1
     Shape of augmentation charge: PSQ
     Using radial grid of 1233 points,  6 beta functions with:
                l(1) =   0
                l(2) =   0
                l(3) =   1
                l(4) =   1
                l(5) =   2
                l(6) =   2
     Q(r) pseudized with 0 coefficients

     atomic species   valence    mass     pseudopotential
        Ru            16.00   101.07000     Ru( 1.00)

     48 Sym. Ops., with inversion, found

   Cartesian axes

     site n.     atom                  positions (alat units)
         1           Ru  tau(   1) = (   0.0000000   0.0000000   0.0000000  )
         2           Ru  tau(   2) = (   0.3250000   0.3250000   0.0000000  )
         3           Ru  tau(   3) = (   0.3250000   0.0000000   0.3250000  )
         4           Ru  tau(   4) = (   0.0000000   0.3250000   0.3250000  )
         5           Ru  tau(   5) = (   0.0000000   0.0000000   0.6500000  )
         6           Ru  tau(   6) = (   0.3250000   0.3250000   0.6500000  )
         7           Ru  tau(   7) = (   0.3250000   0.0000000   0.9750000  )
         8           Ru  tau(   8) = (   0.0000000   0.3250000   0.9750000  )
         9           Ru  tau(   9) = (   0.0000000   0.6500000   0.0000000  )
        10           Ru  tau(  10) = (   0.3250000   0.9750000   0.0000000  )
        11           Ru  tau(  11) = (   0.3250000   0.6500000   0.3250000  )
        12           Ru  tau(  12) = (   0.0000000   0.9750000   0.3250000  )
        13           Ru  tau(  13) = (   0.0000000   0.6500000   0.6500000  )
        14           Ru  tau(  14) = (   0.3250000   0.9750000   0.6500000  )
        15           Ru  tau(  15) = (   0.3250000   0.6500000   0.9750000  )
        16           Ru  tau(  16) = (   0.0000000   0.9750000   0.9750000  )
        17           Ru  tau(  17) = (   0.6500000   0.0000000   0.0000000  )
        18           Ru  tau(  18) = (   0.9750000   0.3250000   0.0000000  )
        19           Ru  tau(  19) = (   0.9750000   0.0000000   0.3250000  )
        20           Ru  tau(  20) = (   0.6500000   0.3250000   0.3250000  )
        21           Ru  tau(  21) = (   0.6500000   0.0000000   0.6500000  )
        22           Ru  tau(  22) = (   0.9750000   0.3250000   0.6500000  )
        23           Ru  tau(  23) = (   0.9750000   0.0000000   0.9750000  )
        24           Ru  tau(  24) = (   0.6500000   0.3250000   0.9750000  )
        25           Ru  tau(  25) = (   0.6500000   0.6500000   0.0000000  )
        26           Ru  tau(  26) = (   0.9750000   0.9750000   0.0000000  )
        27           Ru  tau(  27) = (   0.9750000   0.6500000   0.3250000  )
        28           Ru  tau(  28) = (   0.6500000   0.9750000   0.3250000  )
        29           Ru  tau(  29) = (   0.6500000   0.6500000   0.6500000  )
        30           Ru  tau(  30) = (   0.9750000   0.9750000   0.6500000  )
        31           Ru  tau(  31) = (   0.9750000   0.6500000   0.9750000  )
        32           Ru  tau(  32) = (   0.6500000   0.9750000   0.9750000  )

     number of k points=    35  Marzari-Vanderbilt smearing, width (Ry)=  0.0400
                       cart. coord. in units 2pi/alat
        k(    1) = (   0.0427350   0.0427350   0.0427350), wk =   0.0219479
        k(    2) = (   0.0427350   0.0427350   0.1282051), wk =   0.0658436
        k(    3) = (   0.0427350   0.0427350   0.2136752), wk =   0.0658436
        k(    4) = (   0.0427350   0.0427350   0.2991453), wk =   0.0658436
        k(    5) = (   0.0427350   0.0427350  -0.3846154), wk =   0.0329218
        k(    6) = (   0.0427350   0.1282051   0.1282051), wk =   0.0658436
        k(    7) = (   0.0427350   0.1282051   0.2136752), wk =   0.1316872
        k(    8) = (   0.0427350   0.1282051   0.2991453), wk =   0.1316872
        k(    9) = (   0.0427350   0.1282051  -0.3846154), wk =   0.0658436
        k(   10) = (   0.0427350   0.2136752   0.2136752), wk =   0.0658436
        k(   11) = (   0.0427350   0.2136752   0.2991453), wk =   0.1316872
        k(   12) = (   0.0427350   0.2136752  -0.3846154), wk =   0.0658436
        k(   13) = (   0.0427350   0.2991453   0.2991453), wk =   0.0658436
        k(   14) = (   0.0427350   0.2991453  -0.3846154), wk =   0.0658436
        k(   15) = (   0.0427350  -0.3846154  -0.3846154), wk =   0.0164609
        k(   16) = (   0.1282051   0.1282051   0.1282051), wk =   0.0219479
        k(   17) = (   0.1282051   0.1282051   0.2136752), wk =   0.0658436
        k(   18) = (   0.1282051   0.1282051   0.2991453), wk =   0.0658436
        k(   19) = (   0.1282051   0.1282051  -0.3846154), wk =   0.0329218
        k(   20) = (   0.1282051   0.2136752   0.2136752), wk =   0.0658436
        k(   21) = (   0.1282051   0.2136752   0.2991453), wk =   0.1316872
        k(   22) = (   0.1282051   0.2136752  -0.3846154), wk =   0.0658436
        k(   23) = (   0.1282051   0.2991453   0.2991453), wk =   0.0658436
        k(   24) = (   0.1282051   0.2991453  -0.3846154), wk =   0.0658436
        k(   25) = (   0.1282051  -0.3846154  -0.3846154), wk =   0.0164609
        k(   26) = (   0.2136752   0.2136752   0.2136752), wk =   0.0219479
        k(   27) = (   0.2136752   0.2136752   0.2991453), wk =   0.0658436
        k(   28) = (   0.2136752   0.2136752  -0.3846154), wk =   0.0329218
        k(   29) = (   0.2136752   0.2991453   0.2991453), wk =   0.0658436
        k(   30) = (   0.2136752   0.2991453  -0.3846154), wk =   0.0658436
        k(   31) = (   0.2136752  -0.3846154  -0.3846154), wk =   0.0164609
        k(   32) = (   0.2991453   0.2991453   0.2991453), wk =   0.0219479
        k(   33) = (   0.2991453   0.2991453  -0.3846154), wk =   0.0329218
        k(   34) = (   0.2991453  -0.3846154  -0.3846154), wk =   0.0164609
        k(   35) = (  -0.3846154  -0.3846154  -0.3846154), wk =   0.0027435

     Check: negative core charge=   -0.000002

     Initial potential from superposition of free atoms

     starting charge  511.97959, renormalised to  512.00000
     Starting wfcs are  320 randomized atomic wfcs
     Checking if some PAW data can be deallocated...

     Self-consistent Calculation

     iteration #  1     ecut=    71.00 Ry     beta= 0.10
     Davidson diagonalization with overlap
     ethr =  1.00E-02,  avg # of iterations =  3.8

     Threshold (ethr) on eigenvalues was too large:
     Diagonalizing with lowered threshold

     Davidson diagonalization with overlap
     ethr =  3.13E-04,  avg # of iterations =  4.8

     total energy              =  -13804.48289050 Ry
     estimated scf accuracy    <       0.81783309 Ry

[...]

     total energy              =  -13804.40242118 Ry
     estimated scf accuracy    <       0.00000147 Ry

     iteration # 15     ecut=    71.00 Ry     beta= 0.10
     Davidson diagonalization with overlap
     ethr =  2.88E-10,  avg # of iterations =  2.0

     End of self-consistent calculation

          k = 0.0427 0.0427 0.0427 ( 66326 PWs)   bands (ev):

   -64.3460 -64.3436 -64.3436 -64.3436 -64.3432 -64.3432 -64.3431 -64.3424
   -64.3424 -64.3423 -64.3421 -64.3421 -64.3421 -64.3421 -64.3421 -64.3421
   -64.3421 -64.3421 -64.3421 -64.3421 -64.3419 -64.3419 -64.3419 -64.3409
   -64.3409 -64.3409 -64.3409 -64.3409 -64.3409 -64.3408 -64.3408 -64.3408
   -34.3244 -34.3244 -34.3244 -34.3242 -34.3222 -34.3222 -34.3222 -34.3110
   -34.3110 -34.3110 -34.3103 -34.3103 -34.3103 -34.3103 -34.3103 -34.3103
   -34.3091 -34.3091 -34.3091 -34.3091 -34.3091 -34.3091 -34.3091 -34.3091
   -34.3091 -34.3065 -34.3065 -34.3065 -34.3065 -34.3065 -34.3065 -34.2999
   -34.2999 -34.2999 -34.2972 -34.2972 -34.2972 -34.2956 -34.2956 -34.2956
   -34.2951 -34.2951 -34.2951 -34.2951 -34.2950 -34.2950 -34.2931 -34.2931
   -34.2931 -34.2930 -34.2930 -34.2930 -34.2930 -34.2930 -34.2930 -34.2929
   -34.2929 -34.2929 -34.2929 -34.2929 -34.2929 -34.2836 -34.2836 -34.2836
   -34.2836 -34.2836 -34.2836 -34.2818 -34.2818 -34.2818 -34.2818 -34.2818
   -34.2818 -34.2816 -34.2816 -34.2816 -34.2809 -34.2809 -34.2809 -34.2809
   -34.2809 -34.2809 -34.2809 -34.2808 -34.2808 -34.2808 -34.2808 -34.2808
   -34.2806 -34.2806 -34.2798 -34.2798 -34.2798 -34.2729 -34.2726 -34.2726
     3.9069   5.2755   5.2755   5.2755   5.5101   5.5101   5.5101   5.6204
     5.6316   5.6316   5.6316   5.7656   5.7656   5.7656   5.9296   5.9296
     5.9296   6.0983   6.0983   6.0983   6.2050   6.2050   6.2050   6.2050
     6.2050   6.2050   6.2644   6.2644   6.2644   6.2802   6.2802   6.2802
     6.2802   6.2802   6.2802   6.3433   6.3433   6.3433   6.4272   6.4272
     6.4272   6.5784   6.5784   6.5784   6.5785   6.5785   6.5785   6.6253
     6.6253   6.6253   6.6374   6.6374   6.6374   6.6374   6.6374   6.6374
     6.6694   6.6694   6.6694   6.7388   6.7388   6.7388   6.7388   6.7388
     6.7388   6.7769   6.7769   6.7769   6.7921   6.7921   6.7921   6.7921
     6.7921   6.7921   6.8441   6.8441   6.8441   6.8743   6.8743   6.8743
     6.8829   6.8829   6.8877   6.8877   6.8877   6.8924   6.9009   6.9009
     7.2097   7.2097   7.2097   7.2581   7.2581   7.2581   7.2853   7.2853
     7.2853   7.3164   7.3164   7.3164   7.3164   7.3164   7.3164   7.3203
     7.3203   7.3203   7.3863   7.3863   7.3863   7.4233   7.4233   7.4233
     7.4937   7.4937   7.4937   7.5222   7.5222   7.5222   7.5389   7.5389
     7.5389   7.5391   7.5392   7.5392   7.5392   7.5392   7.5392   7.5526
     7.5526   7.5865   7.5865   7.5865   7.5865   7.5865   7.5865   7.6338
     7.6338   7.6338   7.7741   7.7742   7.7742   7.8183   7.8183   7.8183
     8.0143   8.0143   8.0143   8.0338   8.0338   8.0338   8.0578   8.0578
     8.0661   8.0661   8.0661   8.1739   8.1739   8.1739   8.1933   8.1933
     8.1933   8.1933   8.1933   8.1933   8.1946   8.1946   8.1946   8.8682
     8.8682   8.8682   9.1321   9.1321   9.1321   9.1321   9.1321   9.1321
     9.1761   9.1761   9.1761

[...]

          k = 0.2991-0.3846-0.3846 ( 66356 PWs)   bands (ev):

[...]

          k =-0.3846-0.3846-0.3846 ( 66232 PWs)   bands (ev):

   -64.3441 -64.3441 -64.3441 -64.3441 -64.3441 -64.3441 -64.3440 -64.3440
   -64.3415 -64.3415 -64.3415 -64.3415 -64.3415 -64.3415 -64.3415 -64.3415
   -64.3415 -64.3415 -64.3415 -64.3415 -64.3415 -64.3415 -64.3415 -64.3415
   -64.3415 -64.3415 -64.3415 -64.3415 -64.3415 -64.3415 -64.3415 -64.3414
   -34.3162 -34.3162 -34.3162 -34.3162 -34.3162 -34.3162 -34.3162 -34.3162
   -34.3162 -34.3162 -34.3162 -34.3162 -34.3162 -34.3162 -34.3162 -34.3162
   -34.3162 -34.3162 -34.3162 -34.3162 -34.3162 -34.3161 -34.3161 -34.3161
   -34.2986 -34.2986 -34.2986 -34.2986 -34.2986 -34.2986 -34.2986 -34.2986
   -34.2943 -34.2943 -34.2942 -34.2942 -34.2942 -34.2942 -34.2942 -34.2942
   -34.2942 -34.2942 -34.2942 -34.2942 -34.2942 -34.2942 -34.2942 -34.2942
   -34.2942 -34.2942 -34.2942 -34.2942 -34.2942 -34.2942 -34.2942 -34.2942
   -34.2869 -34.2869 -34.2869 -34.2869 -34.2869 -34.2869 -34.2869 -34.2869
   -34.2869 -34.2869 -34.2869 -34.2869 -34.2869 -34.2869 -34.2869 -34.2869
   -34.2869 -34.2869 -34.2869 -34.2869 -34.2869 -34.2869 -34.2869 -34.2869
   -34.2766 -34.2766 -34.2766 -34.2766 -34.2766 -34.2766 -34.2766 -34.2766
   -34.2766 -34.2766 -34.2766 -34.2766 -34.2766 -34.2766 -34.2766 -34.2766
     5.0252   5.0252   5.0252   5.0252   5.0252   5.0252   5.0252   5.0252
     6.0599   6.0599   6.0599   6.0599   6.0599   6.0599   6.0599   6.0599
     6.0599   6.0599   6.0599   6.0599   6.0599   6.0599   6.0599   6.0599
     6.0599   6.0599   6.0599   6.0599   6.0599   6.0599   6.0599   6.0599
     6.4781   6.4781   6.4781   6.4781   6.4781   6.4781   6.4781   6.4781
     6.4781   6.4781   6.4781   6.4781   6.4781   6.4781   6.4781   6.4781
     6.4781   6.4781   6.4781   6.4781   6.4781   6.4781   6.4781   6.4781
     6.8366   6.8366   6.8366   6.8366   6.8366   6.8366   6.8366   6.8366
     7.0233   7.0233   7.0233   7.0234   7.0234   7.0234   7.0234   7.0234
     7.0234   7.0234   7.0234   7.0234   7.0234   7.0234   7.0234   7.0234
     7.0673   7.0673   7.0673   7.0673   7.0673   7.0673   7.0673   7.0673
     7.0673   7.0673   7.0673   7.0673   7.0673   7.0673   7.0673   7.0673
     7.0673   7.0673   7.0673   7.0673   7.0673   7.0673   7.0673   7.0673
     7.4239   7.4239   7.4239   7.4239   7.4239   7.4239   7.4239   7.4239
     7.4239   7.4239   7.4239   7.4239   7.4239   7.4239   7.4239   7.4239
     7.4239   7.4239   7.4239   7.4239   7.4239   7.4239   7.4239   7.4239
     7.6356   7.6356   7.6356   7.6356   7.6356   7.6356   7.6356   7.6356
     7.6356   7.6356   7.6356   7.6356   7.6356   7.6356   7.6356   7.6356
     8.1021   8.1021   8.1021   8.1021   8.1021   8.1021   8.1021   8.1021
     8.1021   8.1021   8.1021   8.1021   8.1021   8.1021   8.1021   8.1021
     8.1021   8.1021   8.1021   8.1021   8.1021   8.1021   8.1021   8.1021
    10.0164  10.0164  10.0164  10.0164  10.0164  10.0164  10.0164  10.0164
    10.0164  10.0164  10.0164

     the Fermi energy is     7.6586 ev

!    total energy              =  -13804.40242258 Ry

     total all-electron energy =   -289980.792762 Ry
     estimated scf accuracy    <       0.00000025 Ry
     smearing contrib. (-TS)   =       0.05229321 Ry
     internal energy E=F+TS    =  -13804.45471579 Ry

     The total energy is F=E-TS. E is the sum of the following terms:
     one-electron contribution =   -2868.08013120 Ry
     hartree contribution      =    1579.03693870 Ry
     xc contribution           =    -913.74062022 Ry
     ewald contribution        =   -4012.73398623 Ry
     one-center paw contrib.   =   -7588.93691683 Ry

     convergence has been achieved in  15 iterations

     Forces acting on atoms (cartesian axes, Ry/au):

     atom    1 type  1   force =     0.00000000    0.00000000    0.00000000
     atom    2 type  1   force =     0.00002013    0.00002013    0.00000000
     atom    3 type  1   force =     0.00002013   -0.00000000    0.00002013
     atom    4 type  1   force =     0.00000000    0.00002013    0.00002013
     atom    5 type  1   force =     0.00000000    0.00000000    0.00000000
     atom    6 type  1   force =    -0.00001371   -0.00001371    0.00000000
     atom    7 type  1   force =     0.00002013   -0.00000000   -0.00002013
     atom    8 type  1   force =    -0.00000000    0.00002013   -0.00002013
     atom    9 type  1   force =     0.00000000    0.00000000    0.00000000
     atom   10 type  1   force =     0.00002013   -0.00002013    0.00000000
     atom   11 type  1   force =    -0.00001371    0.00000000   -0.00001371
     atom   12 type  1   force =     0.00000000   -0.00002013    0.00002013
     atom   13 type  1   force =     0.00000000    0.00000000    0.00000000
     atom   14 type  1   force =    -0.00001371    0.00001371    0.00000000
     atom   15 type  1   force =    -0.00001371   -0.00000000    0.00001371
     atom   16 type  1   force =     0.00000000   -0.00002013   -0.00002013
     atom   17 type  1   force =     0.00000000    0.00000000    0.00000000
     atom   18 type  1   force =    -0.00002013    0.00002013    0.00000000
     atom   19 type  1   force =    -0.00002013    0.00000000    0.00002013
     atom   20 type  1   force =     0.00000000   -0.00001371   -0.00001371
     atom   21 type  1   force =     0.00000000    0.00000000    0.00000000
     atom   22 type  1   force =     0.00001371   -0.00001371   -0.00000000
     atom   23 type  1   force =    -0.00002013    0.00000000   -0.00002013
     atom   24 type  1   force =    -0.00000000   -0.00001371    0.00001371
     atom   25 type  1   force =     0.00000000    0.00000000    0.00000000
     atom   26 type  1   force =    -0.00002013   -0.00002013   -0.00000000
     atom   27 type  1   force =     0.00001371    0.00000000   -0.00001371
     atom   28 type  1   force =     0.00000000    0.00001371   -0.00001371
     atom   29 type  1   force =     0.00000000    0.00000000    0.00000000
     atom   30 type  1   force =     0.00001371    0.00001371   -0.00000000
     atom   31 type  1   force =     0.00001371    0.00000000    0.00001371
     atom   32 type  1   force =     0.00000000    0.00001371    0.00001371

     Total force =     0.000119     Total SCF correction =     0.000794
     SCF correction compared to forces is large: reduce conv_thr to get better values

     Computing stress (Cartesian axis) and pressure

          total   stress  (Ry/bohr**3)                   (kbar)     P=     -313.70
  -0.00213248   0.00000000   0.00000000         -313.70        0.00        0.00
   0.00000000  -0.00213248   0.00000000            0.00     -313.70        0.00
   0.00000000   0.00000000  -0.00213248            0.00        0.00     -313.70

     Writing output data file /scratch/BCfjEDaCQbgLeCeS.save/

     General routines

     Parallel routines

   This run was terminated on:  16: 3:46  25Nov2021

   JOB DONE.