     Program PWSCF v.6.7MaX starts on 25Nov2021 at 15:11:32

     R & G space division:  proc/nbgrp/npool/nimage =      72
     Reading input from fcc_1.in
Warning: card &CELL ignored
Warning: card CELL_DYNAMICS = 'BFGS', ignored
Warning: card CELL_FACTOR = 2.0, ignored
Warning: card PRESS = 0.0, ignored
Warning: card / ignored

     Current dimensions of program PWSCF are:
     Max number of different atomic species (ntypx) = 10
     Max number of k-points (npk) =  40000
     Max angular momentum in pseudopotentials (lmaxx) =  3
     file Ru.pbe-spn-kjpaw_psl.1.0.0.UPF: wavefunction(s)  4D renormalized

     Subspace diagonalization in iterative solution of the eigenvalue problem:
     one sub-group per band group will be used

     Found symmetry operation: I + (  0.2500  0.2500  0.0000)
     This is a supercell, fractional translations are disabled
     Message from routine setup:
     using ibrav=0 with symmetry is DISCOURAGED, use correct ibrav instead

     bravais-lattice index     =            0
     lattice parameter (alat)  =      14.4000  a.u.
     unit-cell volume          =    2985.9840 (a.u.)^3
     number of atoms/cell      =           32
     number of atomic types    =            1
     number of electrons       =       512.00
     number of Kohn-Sham states=          307
     kinetic-energy cutoff     =      71.0000  Ry
     charge density cutoff     =     430.0000  Ry
     scf convergence threshold =      1.0E-06
     mixing beta               =       0.1000
     number of iterations used =           10  TF        mixing
     Exchange-correlation= SLA  PW   PBX  PBC
                           (   1   4   3   4   0   0   0)

     celldm(1)=  14.400000  celldm(2)=   0.000000  celldm(3)=   0.000000
     celldm(4)=   0.000000  celldm(5)=   0.000000  celldm(6)=   0.000000

     crystal axes: (cart. coord. in units of alat)
               a(1) = (   1.000000   0.000000   0.000000 )
               a(2) = (   0.000000   1.000000   0.000000 )
               a(3) = (   0.000000   0.000000   1.000000 )

     reciprocal axes: (cart. coord. in units 2 pi/alat)
               b(1) = (  1.000000  0.000000  0.000000 )
               b(2) = (  0.000000  1.000000  0.000000 )
               b(3) = (  0.000000  0.000000  1.000000 )

     PseudoPot. # 1 for Ru read from file:
     /rds/homes/b/bxp912/pp/Ru.pbe-spn-kjpaw_psl.1.0.0.UPF
     MD5 check sum: 0ae1f594dea09af7be8575c3a481d1ae
     Pseudo is Projector augmented-wave + core cor, Zval = 16.0
     Generated using "atomic" code by A. Dal Corso  v.5.1
     Shape of augmentation charge: PSQ
     Using radial grid of 1233 points,  6 beta functions with:
                l(1) =   0
                l(2) =   0
                l(3) =   1
                l(4) =   1
                l(5) =   2
                l(6) =   2
     Q(r) pseudized with 0 coefficients

     atomic species   valence    mass     pseudopotential
        Ru            16.00   101.07000     Ru( 1.00)

     48 Sym. Ops., with inversion, found

   Cartesian axes

     site n.     atom                  positions (alat units)
         1           Ru  tau(   1) = (   0.0000000   0.0000000   0.0000000  )
         2           Ru  tau(   2) = (   0.2500000   0.2500000   0.0000000  )
         3           Ru  tau(   3) = (   0.2500000   0.0000000   0.2500000  )
         4           Ru  tau(   4) = (   0.0000000   0.2500000   0.2500000  )
         5           Ru  tau(   5) = (   0.0000000   0.0000000   0.5000000  )
         6           Ru  tau(   6) = (   0.2500000   0.2500000   0.5000000  )
         7           Ru  tau(   7) = (   0.2500000   0.0000000   0.7500000  )
         8           Ru  tau(   8) = (   0.0000000   0.2500000   0.7500000  )
         9           Ru  tau(   9) = (   0.0000000   0.5000000   0.0000000  )
        10           Ru  tau(  10) = (   0.2500000   0.7500000   0.0000000  )
        11           Ru  tau(  11) = (   0.2500000   0.5000000   0.2500000  )
        12           Ru  tau(  12) = (   0.0000000   0.7500000   0.2500000  )
        13           Ru  tau(  13) = (   0.0000000   0.5000000   0.5000000  )
        14           Ru  tau(  14) = (   0.2500000   0.7500000   0.5000000  )
        15           Ru  tau(  15) = (   0.2500000   0.5000000   0.7500000  )
        16           Ru  tau(  16) = (   0.0000000   0.7500000   0.7500000  )
        17           Ru  tau(  17) = (   0.5000000   0.0000000   0.0000000  )
        18           Ru  tau(  18) = (   0.7500000   0.2500000   0.0000000  )
        19           Ru  tau(  19) = (   0.7500000   0.0000000   0.2500000  )
        20           Ru  tau(  20) = (   0.5000000   0.2500000   0.2500000  )
        21           Ru  tau(  21) = (   0.5000000   0.0000000   0.5000000  )
        22           Ru  tau(  22) = (   0.7500000   0.2500000   0.5000000  )
        23           Ru  tau(  23) = (   0.7500000   0.0000000   0.7500000  )
        24           Ru  tau(  24) = (   0.5000000   0.2500000   0.7500000  )
        25           Ru  tau(  25) = (   0.5000000   0.5000000   0.0000000  )
        26           Ru  tau(  26) = (   0.7500000   0.7500000   0.0000000  )
        27           Ru  tau(  27) = (   0.7500000   0.5000000   0.2500000  )
        28           Ru  tau(  28) = (   0.5000000   0.7500000   0.2500000  )
        29           Ru  tau(  29) = (   0.5000000   0.5000000   0.5000000  )
        30           Ru  tau(  30) = (   0.7500000   0.7500000   0.5000000  )
        31           Ru  tau(  31) = (   0.7500000   0.5000000   0.7500000  )
        32           Ru  tau(  32) = (   0.5000000   0.7500000   0.7500000  )

     number of k points=    35  Marzari-Vanderbilt smearing, width (Ry)=  0.0400
                       cart. coord. in units 2pi/alat
        k(    1) = (   0.0555556   0.0555556   0.0555556), wk =   0.0219479
        k(    2) = (   0.0555556   0.0555556   0.1666667), wk =   0.0658436
        k(    3) = (   0.0555556   0.0555556   0.2777778), wk =   0.0658436
        k(    4) = (   0.0555556   0.0555556   0.3888889), wk =   0.0658436
        k(    5) = (   0.0555556   0.0555556  -0.5000000), wk =   0.0329218
        k(    6) = (   0.0555556   0.1666667   0.1666667), wk =   0.0658436
        k(    7) = (   0.0555556   0.1666667   0.2777778), wk =   0.1316872
        k(    8) = (   0.0555556   0.1666667   0.3888889), wk =   0.1316872
        k(    9) = (   0.0555556   0.1666667  -0.5000000), wk =   0.0658436
        k(   10) = (   0.0555556   0.2777778   0.2777778), wk =   0.0658436
        k(   11) = (   0.0555556   0.2777778   0.3888889), wk =   0.1316872
        k(   12) = (   0.0555556   0.2777778  -0.5000000), wk =   0.0658436
        k(   13) = (   0.0555556   0.3888889   0.3888889), wk =   0.0658436
        k(   14) = (   0.0555556   0.3888889  -0.5000000), wk =   0.0658436
        k(   15) = (   0.0555556  -0.5000000  -0.5000000), wk =   0.0164609
        k(   16) = (   0.1666667   0.1666667   0.1666667), wk =   0.0219479
        k(   17) = (   0.1666667   0.1666667   0.2777778), wk =   0.0658436
        k(   18) = (   0.1666667   0.1666667   0.3888889), wk =   0.0658436
        k(   19) = (   0.1666667   0.1666667  -0.5000000), wk =   0.0329218
        k(   20) = (   0.1666667   0.2777778   0.2777778), wk =   0.0658436
        k(   21) = (   0.1666667   0.2777778   0.3888889), wk =   0.1316872
        k(   22) = (   0.1666667   0.2777778  -0.5000000), wk =   0.0658436
        k(   23) = (   0.1666667   0.3888889   0.3888889), wk =   0.0658436
        k(   24) = (   0.1666667   0.3888889  -0.5000000), wk =   0.0658436
        k(   25) = (   0.1666667  -0.5000000  -0.5000000), wk =   0.0164609
        k(   26) = (   0.2777778   0.2777778   0.2777778), wk =   0.0219479
        k(   27) = (   0.2777778   0.2777778   0.3888889), wk =   0.0658436
        k(   28) = (   0.2777778   0.2777778  -0.5000000), wk =   0.0329218
        k(   29) = (   0.2777778   0.3888889   0.3888889), wk =   0.0658436
        k(   30) = (   0.2777778   0.3888889  -0.5000000), wk =   0.0658436
        k(   31) = (   0.2777778  -0.5000000  -0.5000000), wk =   0.0164609
        k(   32) = (   0.3888889   0.3888889   0.3888889), wk =   0.0219479
        k(   33) = (   0.3888889   0.3888889  -0.5000000), wk =   0.0329218
        k(   34) = (   0.3888889  -0.5000000  -0.5000000), wk =   0.0164609
        k(   35) = (  -0.5000000  -0.5000000  -0.5000000), wk =   0.0027435

     Check: negative core charge=   -0.000002

     Initial potential from superposition of free atoms

     starting charge  511.97959, renormalised to  512.00000
     Starting wfcs are  320 randomized atomic wfcs
     Checking if some PAW data can be deallocated...

     Self-consistent Calculation

     iteration #  1     ecut=    71.00 Ry     beta= 0.10
     Davidson diagonalization with overlap
     ethr =  1.00E-02,  avg # of iterations =  3.4

     Threshold (ethr) on eigenvalues was too large:
     Diagonalizing with lowered threshold

     Davidson diagonalization with overlap
     ethr =  8.35E-05,  avg # of iterations =  5.4

     total energy              =  -13813.45351567 Ry
     estimated scf accuracy    <       0.63782328 Ry

[...]

     total energy              =  -13813.30087755 Ry
     estimated scf accuracy    <       0.00001449 Ry

     iteration # 11     ecut=    71.00 Ry     beta= 0.10
     Davidson diagonalization with overlap
     ethr =  2.83E-09,  avg # of iterations =  3.4

     End of self-consistent calculation

          k = 0.0556 0.0556 0.0556 ( 30224 PWs)   bands (ev):

   -49.9024 -49.8025 -49.8025 -49.8025 -49.7832 -49.7832 -49.7832 -49.7472
   -49.7472 -49.7472 -49.7378 -49.7367 -49.7367 -49.7367 -49.7366 -49.7366
   -49.7366 -49.7362 -49.7361 -49.7361 -49.7278 -49.7278 -49.7278 -49.6823
   -49.6822 -49.6822 -49.6819 -49.6819 -49.6819 -49.6818 -49.6818 -49.6818
   -20.3076 -20.3076 -20.3076 -20.3034 -20.2449 -20.2449 -20.2449 -20.0444
   -20.0444 -20.0444 -20.0330 -20.0330 -20.0330 -20.0329 -20.0329 -20.0329
   -20.0127 -20.0127 -20.0127 -19.9900 -19.9900 -19.9900 -19.9900 -19.9900
   -19.9900 -19.9394 -19.9394 -19.9394 -19.9394 -19.9394 -19.9394 -19.8400
   -19.8400 -19.8400 -19.7668 -19.7668 -19.7668 -19.7590 -19.7590 -19.7590
   -19.7252 -19.7252 -19.7252 -19.7251 -19.7251 -19.7251 -19.6850 -19.6850
   -19.6849 -19.6781 -19.6781 -19.6781 -19.6780 -19.6780 -19.6780 -19.6723
   -19.6722 -19.6722 -19.6677 -19.6677 -19.6677 -19.5050 -19.5050 -19.5050
   -19.5044 -19.5044 -19.5044 -19.4728 -19.4728 -19.4728 -19.4726 -19.4726
   -19.4726 -19.4578 -19.4578 -19.4578 -19.4455 -19.4454 -19.4454 -19.4444
   -19.4444 -19.4444 -19.4444 -19.4444 -19.4444 -19.4424 -19.4424 -19.4424
   -19.4395 -19.4395 -19.4259 -19.4259 -19.4259 -19.3129 -19.3060 -19.3060
    15.3475  16.9044  16.9044  16.9044  17.1846  17.2023  17.2023  17.2023
    17.3729  17.3729  17.3729  17.6017  17.6017  17.6017  17.7729  17.7729
    17.7729  18.3138  18.3138  18.3138  18.3138  18.3138  18.3138  18.6294
    18.6294  18.6294  18.8966  18.8966  18.8966  18.9027  18.9027  18.9027
    19.0021  19.0021  19.0021  19.0058  19.0058  19.0058  19.0058  19.0058
    19.0058  19.4963  19.4963  19.4963  19.4963  19.4963  19.4963  19.6406
    19.6406  19.6407  19.6725  19.6725  19.6725  19.6725  19.6725  19.6725
    19.7369  19.7369  19.7369  20.0002  20.0002  20.0002  20.0013  20.0013
    20.0013  20.0013  20.0013  20.0013  20.0018  20.0018  20.0018  20.0018
    20.0018  20.0018  20.1712  20.1712  20.1712  20.4556  20.4556  20.4556
    20.4917  20.4917  20.5068  20.5068  20.5069  20.5857  20.6171  20.6171
    21.5935  21.5935  21.5935  21.7640  21.7640  21.7640  21.8117  21.8117
    21.8117  21.9119  21.9119  21.9119  21.9119  21.9119  21.9119  21.9258
    21.9258  21.9258  22.2229  22.2229  22.2229  22.3428  22.3428  22.3428
    22.5918  22.5918  22.5918  22.6692  22.6692  22.6692  22.6692  22.6692
    22.6692  22.6878  22.6878  22.6878  22.7280  22.7280  22.7280  22.9178
    22.9178  22.9178  22.9178  22.9178  22.9178  22.9772  22.9772  23.0911
    23.0911  23.0911  23.7527  23.7527  23.7527  23.7987  23.7987  23.7987
    23.9129  23.9130  23.9130  23.9991  24.7326  24.7326  24.7327  24.7749
    24.7749  24.8099  24.8099  24.8099  25.0936  25.0936  25.0936  25.1179
    25.1179  25.1179  25.2801  25.2801  25.2801  25.2802  25.2802  25.2802
    25.2852  25.2852  25.2852  26.7286  26.7286  26.7286  26.8923  26.8923
    26.8923  27.2624  27.2624

[...]

          k = 0.3889-0.5000-0.5000 ( 30188 PWs)   bands (ev):

[...]

          k =-0.5000-0.5000-0.5000 ( 30280 PWs)   bands (ev):

   -49.8207 -49.8207 -49.8207 -49.8207 -49.8206 -49.8206 -49.8206 -49.8206
   -49.7094 -49.7094 -49.7094 -49.7094 -49.7093 -49.7093 -49.7093 -49.7093
   -49.7093 -49.7093 -49.7093 -49.7093 -49.7093 -49.7093 -49.7093 -49.7093
   -49.7093 -49.7093 -49.7093 -49.7093 -49.7093 -49.7093 -49.7093 -49.7093
   -20.1389 -20.1389 -20.1389 -20.1389 -20.1389 -20.1388 -20.1388 -20.1388
   -20.1388 -20.1388 -20.1388 -20.1388 -20.1388 -20.1388 -20.1388 -20.1388
   -20.1388 -20.1388 -20.1388 -20.1388 -20.1388 -20.1388 -20.1388 -20.1388
   -19.8186 -19.8186 -19.8186 -19.8186 -19.8186 -19.8186 -19.8186 -19.8186
   -19.7064 -19.7064 -19.7064 -19.7064 -19.7063 -19.7063 -19.7063 -19.7063
   -19.7063 -19.7063 -19.7063 -19.7063 -19.7063 -19.7063 -19.7063 -19.7063
   -19.7063 -19.7063 -19.7063 -19.7063 -19.7063 -19.7063 -19.7063 -19.7063
   -19.5562 -19.5562 -19.5562 -19.5562 -19.5562 -19.5561 -19.5561 -19.5561
   -19.5561 -19.5561 -19.5561 -19.5561 -19.5561 -19.5561 -19.5561 -19.5561
   -19.5561 -19.5561 -19.5561 -19.5561 -19.5561 -19.5561 -19.5561 -19.5561
   -19.3731 -19.3731 -19.3731 -19.3731 -19.3731 -19.3731 -19.3731 -19.3731
   -19.3731 -19.3731 -19.3731 -19.3731 -19.3731 -19.3731 -19.3731 -19.3731
    17.1469  17.1469  17.1469  17.1469  17.1469  17.1469  17.1469  17.1469
    18.0015  18.0015  18.0015  18.0015  18.0015  18.0015  18.0015  18.0015
    18.0015  18.0015  18.0015  18.0015  18.0015  18.0015  18.0015  18.0015
    18.0015  18.0015  18.0015  18.0015  18.0015  18.0015  18.0015  18.0015
    19.0312  19.0312  19.0312  19.0312  19.0312  19.0312  19.0312  19.0312
    19.0312  19.0312  19.0312  19.0312  19.0312  19.0312  19.0312  19.0312
    19.0312  19.0312  19.0312  19.0312  19.0312  19.0312  19.0312  19.0312
    20.3547  20.3547  20.3547  20.3547  20.3548  20.3548  20.3548  20.3548
    20.9950  20.9950  20.9950  20.9950  20.9950  20.9950  20.9950  20.9950
    20.9950  20.9950  20.9950  20.9950  20.9950  20.9950  20.9950  20.9950
    21.1045  21.1045  21.1045  21.1045  21.1046  21.1046  21.1046  21.1046
    21.1046  21.1046  21.1046  21.1046  21.1046  21.1046  21.1046  21.1046
    21.1046  21.1046  21.1046  21.1046  21.1046  21.1046  21.1046  21.1046
    22.3198  22.3198  22.3198  22.3198  22.3198  22.3198  22.3198  22.3198
    22.3198  22.3198  22.3198  22.3198  22.3198  22.3198  22.3198  22.3198
    22.3198  22.3198  22.3198  22.3198  22.3198  22.3198  22.3198  22.3198
    23.1520  23.1520  23.1520  23.1520  23.1520  23.1520  23.1520  23.1520
    23.1520  23.1520  23.1520  23.1520  23.1520  23.1520  23.1520  23.1520
    24.9501  24.9501  24.9501  24.9501  24.9501  24.9501  24.9501  24.9501
    24.9502  24.9502  24.9502  24.9502  24.9502  24.9502  24.9502  24.9502
    24.9502  24.9502  24.9502  24.9502  24.9502  24.9502  24.9502  24.9502
    28.3308  28.3308  28.3308  28.3308  28.3308  28.3308  28.3308  28.3308
    28.3308  28.3308  28.3308

     the Fermi energy is    23.1192 ev

!    total energy              =  -13813.30088493 Ry

     total all-electron energy =   -289989.691224 Ry
     estimated scf accuracy    <       0.00000090 Ry
     smearing contrib. (-TS)   =       0.02044401 Ry
     internal energy E=F+TS    =  -13813.32132894 Ry

     The total energy is F=E-TS. E is the sum of the following terms:
     one-electron contribution =    -995.13156450 Ry
     hartree contribution      =     915.87300651 Ry
     xc contribution           =    -928.06698852 Ry
     ewald contribution        =   -5216.55418210 Ry
     one-center paw contrib.   =   -7589.44160032 Ry

     convergence has been achieved in  11 iterations

     Forces acting on atoms (cartesian axes, Ry/au):

     atom    1 type  1   force =     0.00000000    0.00000000    0.00000000
     atom    2 type  1   force =     0.00000823    0.00000823    0.00000000
     atom    3 type  1   force =     0.00000823   -0.00000000    0.00000823
     atom    4 type  1   force =    -0.00000000    0.00000823    0.00000823
     atom    5 type  1   force =     0.00000000    0.00000000    0.00000000
     atom    6 type  1   force =    -0.00000704   -0.00000704    0.00000000
     atom    7 type  1   force =     0.00000823    0.00000000   -0.00000823
     atom    8 type  1   force =    -0.00000000    0.00000823   -0.00000823
     atom    9 type  1   force =     0.00000000    0.00000000    0.00000000
     atom   10 type  1   force =     0.00000823   -0.00000823    0.00000000
     atom   11 type  1   force =    -0.00000704    0.00000000   -0.00000704
     atom   12 type  1   force =     0.00000000   -0.00000823    0.00000823
     atom   13 type  1   force =     0.00000000    0.00000000    0.00000000
     atom   14 type  1   force =    -0.00000704    0.00000704    0.00000000
     atom   15 type  1   force =    -0.00000704    0.00000000    0.00000704
     atom   16 type  1   force =     0.00000000   -0.00000823   -0.00000823
     atom   17 type  1   force =     0.00000000    0.00000000    0.00000000
     atom   18 type  1   force =    -0.00000823    0.00000823    0.00000000
     atom   19 type  1   force =    -0.00000823    0.00000000    0.00000823
     atom   20 type  1   force =     0.00000000   -0.00000704   -0.00000704
     atom   21 type  1   force =     0.00000000    0.00000000    0.00000000
     atom   22 type  1   force =     0.00000704   -0.00000704    0.00000000
     atom   23 type  1   force =    -0.00000823   -0.00000000   -0.00000823
     atom   24 type  1   force =     0.00000000   -0.00000704    0.00000704
     atom   25 type  1   force =     0.00000000    0.00000000    0.00000000
     atom   26 type  1   force =    -0.00000823   -0.00000823    0.00000000
     atom   27 type  1   force =     0.00000704    0.00000000   -0.00000704
     atom   28 type  1   force =     0.00000000    0.00000704   -0.00000704
     atom   29 type  1   force =     0.00000000    0.00000000    0.00000000
     atom   30 type  1   force =     0.00000704    0.00000704    0.00000000
     atom   31 type  1   force =     0.00000704    0.00000000    0.00000704
     atom   32 type  1   force =     0.00000000    0.00000704    0.00000704

     Total force =     0.000053     Total SCF correction =     0.000268
     SCF correction compared to forces is large: reduce conv_thr to get better values

     Computing stress (Cartesian axis) and pressure

          total   stress  (Ry/bohr**3)                   (kbar)     P=       -4.78
  -0.00003250   0.00000000   0.00000000           -4.78        0.00        0.00
   0.00000000  -0.00003250   0.00000000            0.00       -4.78        0.00
   0.00000000   0.00000000  -0.00003250            0.00        0.00       -4.78

     Writing output data file /scratch/IuUZljwpXgfhpeHG.save/

     General routines

     Parallel routines

   This run was terminated on:  15:20:50  25Nov2021

   JOB DONE.