     Program PWSCF v.6.7MaX starts on 25Nov2021 at 16:59:29

     R & G space division:  proc/nbgrp/npool/nimage =      72
     Reading input from fcc_7.in
Warning: card &CELL ignored
Warning: card CELL_DYNAMICS = 'BFGS', ignored
Warning: card CELL_FACTOR = 2.0, ignored
Warning: card PRESS = 0.0, ignored
Warning: card / ignored

     Current dimensions of program PWSCF are:
     Max number of different atomic species (ntypx) = 10
     Max number of k-points (npk) =  40000
     Max angular momentum in pseudopotentials (lmaxx) =  3
     file Ru.pbe-spn-kjpaw_psl.1.0.0.UPF: wavefunction(s)  4D renormalized

     Subspace diagonalization in iterative solution of the eigenvalue problem:
     one sub-group per band group will be used

     Found symmetry operation: I + (  0.2500  0.2500  0.0000)
     This is a supercell, fractional translations are disabled
     Message from routine setup:
     using ibrav=0 with symmetry is DISCOURAGED, use correct ibrav instead

     bravais-lattice index     =            0
     lattice parameter (alat)  =      14.4000  a.u.
     unit-cell volume          =   12230.5905 (a.u.)^3
     number of atoms/cell      =           32
     number of atomic types    =            1
     number of electrons       =       512.00
     number of Kohn-Sham states=          307
     kinetic-energy cutoff     =      71.0000  Ry
     charge density cutoff     =     430.0000  Ry
     scf convergence threshold =      1.0E-06
     mixing beta               =       0.1000
     number of iterations used =           10  TF        mixing
     Exchange-correlation= SLA  PW   PBX  PBC
                           (   1   4   3   4   0   0   0)

     celldm(1)=  14.400000  celldm(2)=   0.000000  celldm(3)=   0.000000
     celldm(4)=   0.000000  celldm(5)=   0.000000  celldm(6)=   0.000000

     crystal axes: (cart. coord. in units of alat)
               a(1) = (   1.600000   0.000000   0.000000 )
               a(2) = (   0.000000   1.600000   0.000000 )
               a(3) = (   0.000000   0.000000   1.600000 )

     reciprocal axes: (cart. coord. in units 2 pi/alat)
               b(1) = (  0.625000  0.000000  0.000000 )
               b(2) = (  0.000000  0.625000  0.000000 )
               b(3) = (  0.000000  0.000000  0.625000 )

     PseudoPot. # 1 for Ru read from file:
     /rds/homes/b/bxp912/pp/Ru.pbe-spn-kjpaw_psl.1.0.0.UPF
     MD5 check sum: 0ae1f594dea09af7be8575c3a481d1ae
     Pseudo is Projector augmented-wave + core cor, Zval = 16.0
     Generated using "atomic" code by A. Dal Corso  v.5.1
     Shape of augmentation charge: PSQ
     Using radial grid of 1233 points,  6 beta functions with:
                l(1) =   0
                l(2) =   0
                l(3) =   1
                l(4) =   1
                l(5) =   2
                l(6) =   2
     Q(r) pseudized with 0 coefficients

     atomic species   valence    mass     pseudopotential
        Ru            16.00   101.07000     Ru( 1.00)

     48 Sym. Ops., with inversion, found

   Cartesian axes

     site n.     atom                  positions (alat units)
         1           Ru  tau(   1) = (   0.0000000   0.0000000   0.0000000  )
         2           Ru  tau(   2) = (   0.4000000   0.4000000   0.0000000  )
         3           Ru  tau(   3) = (   0.4000000   0.0000000   0.4000000  )
         4           Ru  tau(   4) = (   0.0000000   0.4000000   0.4000000  )
         5           Ru  tau(   5) = (   0.0000000   0.0000000   0.8000000  )
         6           Ru  tau(   6) = (   0.4000000   0.4000000   0.8000000  )
         7           Ru  tau(   7) = (   0.4000000   0.0000000   1.2000000  )
         8           Ru  tau(   8) = (   0.0000000   0.4000000   1.2000000  )
         9           Ru  tau(   9) = (   0.0000000   0.8000000   0.0000000  )
        10           Ru  tau(  10) = (   0.4000000   1.2000000   0.0000000  )
        11           Ru  tau(  11) = (   0.4000000   0.8000000   0.4000000  )
        12           Ru  tau(  12) = (   0.0000000   1.2000000   0.4000000  )
        13           Ru  tau(  13) = (   0.0000000   0.8000000   0.8000000  )
        14           Ru  tau(  14) = (   0.4000000   1.2000000   0.8000000  )
        15           Ru  tau(  15) = (   0.4000000   0.8000000   1.2000000  )
        16           Ru  tau(  16) = (   0.0000000   1.2000000   1.2000000  )
        17           Ru  tau(  17) = (   0.8000000   0.0000000   0.0000000  )
        18           Ru  tau(  18) = (   1.2000000   0.4000000   0.0000000  )
        19           Ru  tau(  19) = (   1.2000000   0.0000000   0.4000000  )
        20           Ru  tau(  20) = (   0.8000000   0.4000000   0.4000000  )
        21           Ru  tau(  21) = (   0.8000000   0.0000000   0.8000000  )
        22           Ru  tau(  22) = (   1.2000000   0.4000000   0.8000000  )
        23           Ru  tau(  23) = (   1.2000000   0.0000000   1.2000000  )
        24           Ru  tau(  24) = (   0.8000000   0.4000000   1.2000000  )
        25           Ru  tau(  25) = (   0.8000000   0.8000000   0.0000000  )
        26           Ru  tau(  26) = (   1.2000000   1.2000000   0.0000000  )
        27           Ru  tau(  27) = (   1.2000000   0.8000000   0.4000000  )
        28           Ru  tau(  28) = (   0.8000000   1.2000000   0.4000000  )
        29           Ru  tau(  29) = (   0.8000000   0.8000000   0.8000000  )
        30           Ru  tau(  30) = (   1.2000000   1.2000000   0.8000000  )
        31           Ru  tau(  31) = (   1.2000000   0.8000000   1.2000000  )
        32           Ru  tau(  32) = (   0.8000000   1.2000000   1.2000000  )

     number of k points=    35  Marzari-Vanderbilt smearing, width (Ry)=  0.0400
                       cart. coord. in units 2pi/alat
        k(    1) = (   0.0347222   0.0347222   0.0347222), wk =   0.0219479
        k(    2) = (   0.0347222   0.0347222   0.1041667), wk =   0.0658436
        k(    3) = (   0.0347222   0.0347222   0.1736111), wk =   0.0658436
        k(    4) = (   0.0347222   0.0347222   0.2430556), wk =   0.0658436
        k(    5) = (   0.0347222   0.0347222  -0.3125000), wk =   0.0329218
        k(    6) = (   0.0347222   0.1041667   0.1041667), wk =   0.0658436
        k(    7) = (   0.0347222   0.1041667   0.1736111), wk =   0.1316872
        k(    8) = (   0.0347222   0.1041667   0.2430556), wk =   0.1316872
        k(    9) = (   0.0347222   0.1041667  -0.3125000), wk =   0.0658436
        k(   10) = (   0.0347222   0.1736111   0.1736111), wk =   0.0658436
        k(   11) = (   0.0347222   0.1736111   0.2430556), wk =   0.1316872
        k(   12) = (   0.0347222   0.1736111  -0.3125000), wk =   0.0658436
        k(   13) = (   0.0347222   0.2430556   0.2430556), wk =   0.0658436
        k(   14) = (   0.0347222   0.2430556  -0.3125000), wk =   0.0658436
        k(   15) = (   0.0347222  -0.3125000  -0.3125000), wk =   0.0164609
        k(   16) = (   0.1041667   0.1041667   0.1041667), wk =   0.0219479
        k(   17) = (   0.1041667   0.1041667   0.1736111), wk =   0.0658436
        k(   18) = (   0.1041667   0.1041667   0.2430556), wk =   0.0658436
        k(   19) = (   0.1041667   0.1041667  -0.3125000), wk =   0.0329218
        k(   20) = (   0.1041667   0.1736111   0.1736111), wk =   0.0658436
        k(   21) = (   0.1041667   0.1736111   0.2430556), wk =   0.1316872
        k(   22) = (   0.1041667   0.1736111  -0.3125000), wk =   0.0658436
        k(   23) = (   0.1041667   0.2430556   0.2430556), wk =   0.0658436
        k(   24) = (   0.1041667   0.2430556  -0.3125000), wk =   0.0658436
        k(   25) = (   0.1041667  -0.3125000  -0.3125000), wk =   0.0164609
        k(   26) = (   0.1736111   0.1736111   0.1736111), wk =   0.0219479
        k(   27) = (   0.1736111   0.1736111   0.2430556), wk =   0.0658436
        k(   28) = (   0.1736111   0.1736111  -0.3125000), wk =   0.0329218
        k(   29) = (   0.1736111   0.2430556   0.2430556), wk =   0.0658436
        k(   30) = (   0.1736111   0.2430556  -0.3125000), wk =   0.0658436
        k(   31) = (   0.1736111  -0.3125000  -0.3125000), wk =   0.0164609
        k(   32) = (   0.2430556   0.2430556   0.2430556), wk =   0.0219479
        k(   33) = (   0.2430556   0.2430556  -0.3125000), wk =   0.0329218
        k(   34) = (   0.2430556  -0.3125000  -0.3125000), wk =   0.0164609
        k(   35) = (  -0.3125000  -0.3125000  -0.3125000), wk =   0.0027435

     Check: negative core charge=   -0.000001

     Initial potential from superposition of free atoms

     starting charge  511.97959, renormalised to  512.00000
     Starting wfcs are  320 randomized atomic wfcs
     Checking if some PAW data can be deallocated...

     Self-consistent Calculation

     iteration #  1     ecut=    71.00 Ry     beta= 0.10
     Davidson diagonalization with overlap
     ethr =  1.00E-02,  avg # of iterations =  2.0

     total energy              =  -13798.90544470 Ry
     estimated scf accuracy    <      13.59683914 Ry

[...]

     total energy              =  -13797.76682435 Ry
     estimated scf accuracy    <       0.00000303 Ry

     iteration # 24     ecut=    71.00 Ry     beta= 0.10
     Davidson diagonalization with overlap
     ethr =  5.92E-10,  avg # of iterations =  4.9

     End of self-consistent calculation

          k = 0.0347 0.0347 0.0347 (123590 PWs)   bands (ev):

   -69.3518 -69.3516 -69.3516 -69.3516 -69.3516 -69.3515 -69.3515 -69.3515
   -69.3515 -69.3515 -69.3515 -69.3515 -69.3515 -69.3515 -69.3515 -69.3515
   -69.3515 -69.3515 -69.3515 -69.3515 -69.3515 -69.3515 -69.3515 -69.3515
   -69.3515 -69.3515 -69.3515 -69.3515 -69.3515 -69.3515 -69.3515 -69.3515
   -39.3882 -39.3882 -39.3882 -39.3882 -39.3882 -39.3882 -39.3882 -39.3875
   -39.3875 -39.3875 -39.3875 -39.3875 -39.3874 -39.3874 -39.3874 -39.3874
   -39.3874 -39.3874 -39.3874 -39.3874 -39.3874 -39.3874 -39.3874 -39.3874
   -39.3874 -39.3872 -39.3872 -39.3872 -39.3872 -39.3872 -39.3872 -39.3869
   -39.3868 -39.3868 -39.3867 -39.3867 -39.3867 -39.3866 -39.3866 -39.3866
   -39.3866 -39.3866 -39.3866 -39.3866 -39.3866 -39.3866 -39.3865 -39.3865
   -39.3865 -39.3865 -39.3865 -39.3865 -39.3865 -39.3865 -39.3865 -39.3864
   -39.3864 -39.3864 -39.3864 -39.3864 -39.3864 -39.3859 -39.3859 -39.3859
   -39.3859 -39.3859 -39.3859 -39.3858 -39.3858 -39.3858 -39.3858 -39.3858
   -39.3858 -39.3858 -39.3858 -39.3858 -39.3857 -39.3857 -39.3857 -39.3857
   -39.3857 -39.3857 -39.3857 -39.3857 -39.3857 -39.3857 -39.3857 -39.3857
   -39.3857 -39.3857 -39.3857 -39.3857 -39.3856 -39.3852 -39.3852 -39.3852
     0.1590   1.0343   1.0343   1.0343   1.1913   1.1913   1.1913   1.2521
     1.2579   1.2579   1.2579   1.3661   1.3661   1.3661   1.4150   1.4150
     1.4150   1.4852   1.4852   1.4852   1.5279   1.5279   1.5279   1.5279
     1.5279   1.5279   1.5448   1.5448   1.5448   1.5622   1.5622   1.5622
     1.5810   1.5810   1.5810   1.5810   1.5810   1.5810   1.5911   1.5911
     1.5911   1.6747   1.6747   1.6747   1.6747   1.6747   1.6747   1.6841
     1.6841   1.6841   1.6894   1.6894   1.6894   1.6894   1.6894   1.6894
     1.7032   1.7032   1.7032   1.7361   1.7361   1.7361   1.7362   1.7362
     1.7362   1.7424   1.7424   1.7424   1.7440   1.7449   1.7449   1.7467
     1.7467   1.7467   1.7467   1.7467   1.7718   1.7718   1.7718   1.7718
     1.7718   1.7718   1.7808   1.7808   1.7808   1.7825   1.7825   1.7825
     1.8789   1.8789   1.8789   1.8895   1.8896   1.8896   1.9029   1.9029
     1.9029   1.9039   1.9039   1.9039   1.9039   1.9039   1.9039   1.9175
     1.9175   1.9175   1.9242   1.9242   1.9242   1.9447   1.9447   1.9447
     1.9619   1.9619   1.9619   1.9666   1.9666   1.9666   1.9678   1.9678
     1.9782   1.9782   1.9782   1.9782   1.9782   1.9782   1.9890   1.9890
     1.9890   1.9890   1.9890   1.9890   1.9969   1.9969   1.9969   2.0048
     2.0048   2.0048   2.0459   2.0459   2.0459   2.0613   2.0613   2.0613
     2.1348   2.1348   2.1348   2.1399   2.1399   2.1399   2.1454   2.1454
     2.1481   2.1481   2.1481   2.1888   2.1888   2.1888   2.1924   2.1924
     2.1924   2.1924   2.1924   2.1924   2.1928   2.1928   2.1928   2.6491
     2.6491   2.6491   2.8243   2.8243   2.8243   2.8243   2.8243   2.8243
     3.0113   3.0113   3.0113

[...]

          k = 0.2431-0.3125-0.3125 (123664 PWs)   bands (ev):

[...]

          k =-0.3125-0.3125-0.3125 (123360 PWs)   bands (ev):

   -69.3518 -69.3515 -69.3515 -69.3515 -69.3515 -69.3515 -69.3515 -69.3515
   -69.3515 -69.3515 -69.3515 -69.3515 -69.3515 -69.3515 -69.3515 -69.3515
   -69.3515 -69.3515 -69.3515 -69.3515 -69.3515 -69.3515 -69.3515 -69.3515
   -69.3515 -69.3515 -69.3515 -69.3515 -69.3515 -69.3515 -69.3515 -69.3515
   -39.3878 -39.3878 -39.3878 -39.3878 -39.3878 -39.3878 -39.3878 -39.3878
   -39.3878 -39.3878 -39.3878 -39.3878 -39.3878 -39.3878 -39.3878 -39.3878
   -39.3878 -39.3878 -39.3878 -39.3878 -39.3878 -39.3878 -39.3878 -39.3878
   -39.3867 -39.3867 -39.3867 -39.3867 -39.3867 -39.3867 -39.3867 -39.3867
   -39.3866 -39.3866 -39.3866 -39.3865 -39.3865 -39.3865 -39.3865 -39.3865
   -39.3865 -39.3865 -39.3865 -39.3865 -39.3865 -39.3865 -39.3865 -39.3865
   -39.3865 -39.3865 -39.3865 -39.3865 -39.3865 -39.3865 -39.3865 -39.3865
   -39.3861 -39.3861 -39.3861 -39.3861 -39.3861 -39.3861 -39.3861 -39.3861
   -39.3861 -39.3861 -39.3861 -39.3861 -39.3861 -39.3861 -39.3861 -39.3861
   -39.3861 -39.3861 -39.3861 -39.3861 -39.3861 -39.3861 -39.3861 -39.3861
   -39.3854 -39.3854 -39.3854 -39.3854 -39.3854 -39.3854 -39.3854 -39.3854
   -39.3854 -39.3854 -39.3854 -39.3854 -39.3854 -39.3854 -39.3854 -39.3854
     0.8690   0.8690   0.8690   0.8690   0.8690   0.8690   0.8690   0.8690
     1.4632   1.4632   1.4632   1.4632   1.4632   1.4632   1.4632   1.4632
     1.4632   1.4632   1.4632   1.4632   1.4632   1.4632   1.4632   1.4632
     1.4632   1.4632   1.4632   1.4632   1.4632   1.4632   1.4632   1.4632
     1.6505   1.6505   1.6505   1.6505   1.6505   1.6505   1.6505   1.6505
     1.6505   1.6505   1.6505   1.6505   1.6505   1.6505   1.6505   1.6505
     1.6505   1.6505   1.6505   1.6505   1.6505   1.6505   1.6505   1.6505
     1.7773   1.7773   1.7773   1.7773   1.7773   1.7773   1.7773   1.7773
     1.7921   1.7921   1.7921   1.7921   1.7921   1.7921   1.7921   1.7921
     1.7921   1.7921   1.7921   1.7921   1.7921   1.7921   1.7921   1.7921
     1.8587   1.8587   1.8587   1.8587   1.8587   1.8587   1.8587   1.8587
     1.8587   1.8587   1.8587   1.8587   1.8587   1.8587   1.8587   1.8587
     1.8587   1.8587   1.8587   1.8587   1.8587   1.8587   1.8587   1.8587
     1.9374   1.9374   1.9374   1.9374   1.9374   1.9374   1.9374   1.9374
     1.9374   1.9374   1.9374   1.9374   1.9374   1.9374   1.9374   1.9374
     1.9374   1.9374   1.9374   1.9374   1.9374   1.9374   1.9374   1.9374
     2.0032   2.0032   2.0032   2.0032   2.0032   2.0032   2.0032   2.0032
     2.0032   2.0032   2.0032   2.0032   2.0032   2.0032   2.0032   2.0032
     2.1602   2.1602   2.1602   2.1602   2.1602   2.1602   2.1602   2.1602
     2.1602   2.1602   2.1602   2.1602   2.1602   2.1602   2.1602   2.1602
     2.1602   2.1602   2.1602   2.1602   2.1602   2.1602   2.1602   2.1602
     3.4810   3.4810   3.4810   3.4810   3.4810   3.4810   3.4810   3.4810
     3.4810   3.4810   3.4811

     the Fermi energy is     2.1239 ev

!    total energy              =  -13797.76682553 Ry

     total all-electron energy =   -289974.157165 Ry
     estimated scf accuracy    <       0.00000064 Ry
     smearing contrib. (-TS)   =      -0.51883034 Ry
     internal energy E=F+TS    =  -13797.24799519 Ry

     The total energy is F=E-TS. E is the sum of the following terms:
     one-electron contribution =   -4167.93617186 Ry
     hartree contribution      =    2134.51054673 Ry
     xc contribution           =    -914.59740651 Ry
     ewald contribution        =   -3260.34636381 Ry
     one-center paw contrib.   =   -7588.87859974 Ry

     convergence has been achieved in  24 iterations

     Forces acting on atoms (cartesian axes, Ry/au):

     atom    1 type  1   force =     0.00000000    0.00000000    0.00000000
     atom    2 type  1   force =     0.00001739    0.00001739   -0.00000000
     atom    3 type  1   force =     0.00001739   -0.00000000    0.00001739
     atom    4 type  1   force =     0.00000000    0.00001739    0.00001739
     atom    5 type  1   force =     0.00000000    0.00000000    0.00000000
     atom    6 type  1   force =    -0.00000084   -0.00000084    0.00000000
     atom    7 type  1   force =     0.00001739   -0.00000000   -0.00001739
     atom    8 type  1   force =     0.00000000    0.00001739   -0.00001739
     atom    9 type  1   force =     0.00000000    0.00000000    0.00000000
     atom   10 type  1   force =     0.00001739   -0.00001739    0.00000000
     atom   11 type  1   force =    -0.00000084    0.00000000   -0.00000084
     atom   12 type  1   force =    -0.00000000   -0.00001739    0.00001739
     atom   13 type  1   force =     0.00000000    0.00000000    0.00000000
     atom   14 type  1   force =    -0.00000084    0.00000084    0.00000000
     atom   15 type  1   force =    -0.00000084   -0.00000000    0.00000084
     atom   16 type  1   force =     0.00000000   -0.00001739   -0.00001739
     atom   17 type  1   force =     0.00000000    0.00000000    0.00000000
     atom   18 type  1   force =    -0.00001739    0.00001739    0.00000000
     atom   19 type  1   force =    -0.00001739   -0.00000000    0.00001739
     atom   20 type  1   force =    -0.00000000   -0.00000084   -0.00000084
     atom   21 type  1   force =     0.00000000    0.00000000    0.00000000
     atom   22 type  1   force =     0.00000084   -0.00000084   -0.00000000
     atom   23 type  1   force =    -0.00001739    0.00000000   -0.00001739
     atom   24 type  1   force =    -0.00000000   -0.00000084    0.00000084
     atom   25 type  1   force =     0.00000000    0.00000000    0.00000000
     atom   26 type  1   force =    -0.00001739   -0.00001739   -0.00000000
     atom   27 type  1   force =     0.00000084    0.00000000   -0.00000084
     atom   28 type  1   force =     0.00000000    0.00000084   -0.00000084
     atom   29 type  1   force =     0.00000000    0.00000000    0.00000000
     atom   30 type  1   force =     0.00000084    0.00000084   -0.00000000
     atom   31 type  1   force =     0.00000084   -0.00000000    0.00000084
     atom   32 type  1   force =     0.00000000    0.00000084    0.00000084

     Total force =     0.000085     Total SCF correction =     0.001067
     SCF correction compared to forces is large: reduce conv_thr to get better values

     Computing stress (Cartesian axis) and pressure

          total   stress  (Ry/bohr**3)                   (kbar)     P=      -87.61
  -0.00059555   0.00000000   0.00000000          -87.61        0.00        0.00
   0.00000000  -0.00059555   0.00000000            0.00      -87.61        0.00
   0.00000000   0.00000000  -0.00059555            0.00        0.00      -87.61

     Writing output data file /scratch/TyxhdmOultatuwMK.save/

     General routines

     Parallel routines

   This run was terminated on:  17:41:46  25Nov2021

   JOB DONE.