     Program PWSCF v.6.3 starts on  9Sep2020 at 15:54: 0

     R & G space division:  proc/nbgrp/npool/nimage =      40
     Reading input from wd/ec/ec_3_006.in
Warning: card &IONS ignored
Warning: card ION_DYNAMICS = 'BFGS', ignored
Warning: card / ignored
Warning: card &CELL ignored
Warning: card CELL_DYNAMICS = 'BFGS', ignored
Warning: card CELL_FACTOR = 2.0, ignored
Warning: card PRESS = 0.0, ignored
Warning: card / ignored

     Current dimensions of program PWSCF are:
     Max number of different atomic species (ntypx) = 10
     Max number of k-points (npk) =  40000
     Max angular momentum in pseudopotentials (lmaxx) =  3
               file Fe.pbe-spn-kjpaw_psl.1.0.0.UPF: wavefunction(s)  3P 3D renormalized
               file Fe.pbe-spn-kjpaw_psl.1.0.0.UPF: wavefunction(s)  3P 3D renormalized

     Subspace diagonalization in iterative solution of the eigenvalue problem:
     a serial algorithm will be used

     Found symmetry operation: I + (  0.0000  0.0000 -0.5000)
     This is a supercell, fractional translations are disabled

     bravais-lattice index     =            0
     lattice parameter (alat)  =      10.5935  a.u.
     unit-cell volume          =    1193.7864 (a.u.)^3
     number of atoms/cell      =           16
     number of atomic types    =            2
     number of electrons       =       256.00
     number of Kohn-Sham states=          154
     kinetic-energy cutoff     =      71.0000  Ry
     charge density cutoff     =     430.0000  Ry
     convergence threshold     =      1.0E-06
     mixing beta               =       0.1000
     number of iterations used =           10  plain     mixing
     Exchange-correlation      = SLA PW PBX PBC ( 1  4  3  4 0 0)

     celldm(1)=  10.593520  celldm(2)=   0.000000  celldm(3)=   0.000000
     celldm(4)=   0.000000  celldm(5)=   0.000000  celldm(6)=   0.000000

     crystal axes: (cart. coord. in units of alat)
               a(1) = (   1.000000   0.000000   0.000000 )
               a(2) = (   0.000000   1.000000   0.000000 )
               a(3) = (   0.000000   0.000000   1.004167 )

     reciprocal axes: (cart. coord. in units 2 pi/alat)
               b(1) = (  1.000000  0.000000  0.000000 )
               b(2) = (  0.000000  1.000000  0.000000 )
               b(3) = (  0.000000  0.000000  0.995851 )

     PseudoPot. # 1 for Fe read from file:
     /rds/homes/b/bxp912/pp/Fe.pbe-spn-kjpaw_psl.1.0.0.UPF
     MD5 check sum: 42f43b795421b414b0dc916aa790dbcb
     Pseudo is Projector augmented-wave + core cor, Zval = 16.0
     Generated using "atomic" code by A. Dal Corso v.6.3
     Shape of augmentation charge: PSQ
     Using radial grid of 1191 points,  6 beta functions with:
                l(1) =   0
                l(2) =   0
                l(3) =   1
                l(4) =   1
                l(5) =   2
                l(6) =   2
     Q(r) pseudized with 0 coefficients

     PseudoPot. # 2 for Fe read from file:
     /rds/homes/b/bxp912/pp/Fe.pbe-spn-kjpaw_psl.1.0.0.UPF
     MD5 check sum: 42f43b795421b414b0dc916aa790dbcb
     Pseudo is Projector augmented-wave + core cor, Zval = 16.0
     Generated using "atomic" code by A. Dal Corso v.6.3
     Shape of augmentation charge: PSQ
     Using radial grid of 1191 points,  6 beta functions with:
                l(1) =   0
                l(2) =   0
                l(3) =   1
                l(4) =   1
                l(5) =   2
                l(6) =   2
     Q(r) pseudized with 0 coefficients

     atomic species   valence    mass     pseudopotential
        Fe1           16.00    55.84500     Fe( 1.00)
        Fe2           16.00    55.84500     Fe( 1.00)

     Starting magnetic structure
     atomic species   magnetization
        Fe1          0.100
        Fe2          0.100

     16 Sym. Ops., with inversion, found

   Cartesian axes

     site n.     atom                  positions (alat units)
         1           Fe1 tau(   1) = (   0.0000000   0.0000000   0.0000000  )
         2           Fe2 tau(   2) = (   0.2500004   0.2500004   0.2510421  )
         3           Fe1 tau(   3) = (   0.0000000   0.0000000   0.5020833  )
         4           Fe2 tau(   4) = (   0.2500004   0.2500004   0.7531246  )
         5           Fe1 tau(   5) = (   0.0000000   0.5000000   0.0000000  )
         6           Fe2 tau(   6) = (   0.2500004   0.7499996   0.2510421  )
         7           Fe1 tau(   7) = (   0.0000000   0.5000000   0.5020833  )
         8           Fe2 tau(   8) = (   0.2500004   0.7499996   0.7531246  )
         9           Fe1 tau(   9) = (   0.5000000   0.0000000   0.0000000  )
        10           Fe2 tau(  10) = (   0.7499996   0.2500004   0.2510421  )
        11           Fe1 tau(  11) = (   0.5000000   0.0000000   0.5020833  )
        12           Fe2 tau(  12) = (   0.7499996   0.2500004   0.7531246  )
        13           Fe1 tau(  13) = (   0.5000000   0.5000000   0.0000000  )
        14           Fe2 tau(  14) = (   0.7499996   0.7499996   0.2510421  )
        15           Fe1 tau(  15) = (   0.5000000   0.5000000   0.5020833  )
        16           Fe2 tau(  16) = (   0.7499996   0.7499996   0.7531246  )

     number of k points=    75  Marzari-Vanderbilt smearing, width (Ry)=  0.0400
                       cart. coord. in units 2pi/alat
        k(    1) = (   0.0555556   0.0555556   0.0553250), wk =   0.0109739
        k(    2) = (   0.0555556   0.0555556   0.1659751), wk =   0.0109739
        k(    3) = (   0.0555556   0.0555556   0.2766252), wk =   0.0109739
        k(    4) = (   0.0555556   0.0555556   0.3872752), wk =   0.0109739
        k(    5) = (   0.0555556   0.0555556  -0.4979253), wk =   0.0054870
        k(    6) = (   0.0555556   0.1666667   0.0553250), wk =   0.0219479
        k(    7) = (   0.0555556   0.1666667   0.1659751), wk =   0.0219479
        k(    8) = (   0.0555556   0.1666667   0.2766252), wk =   0.0219479
        k(    9) = (   0.0555556   0.1666667   0.3872752), wk =   0.0219479
        k(   10) = (   0.0555556   0.1666667  -0.4979253), wk =   0.0109739
        k(   11) = (   0.0555556   0.2777778   0.0553250), wk =   0.0219479
        k(   12) = (   0.0555556   0.2777778   0.1659751), wk =   0.0219479
        k(   13) = (   0.0555556   0.2777778   0.2766252), wk =   0.0219479
        k(   14) = (   0.0555556   0.2777778   0.3872752), wk =   0.0219479
        k(   15) = (   0.0555556   0.2777778  -0.4979253), wk =   0.0109739
        k(   16) = (   0.0555556   0.3888889   0.0553250), wk =   0.0219479
        k(   17) = (   0.0555556   0.3888889   0.1659751), wk =   0.0219479
        k(   18) = (   0.0555556   0.3888889   0.2766252), wk =   0.0219479
        k(   19) = (   0.0555556   0.3888889   0.3872752), wk =   0.0219479
        k(   20) = (   0.0555556   0.3888889  -0.4979253), wk =   0.0109739
        k(   21) = (   0.0555556  -0.5000000   0.0553250), wk =   0.0109739
        k(   22) = (   0.0555556  -0.5000000   0.1659751), wk =   0.0109739
        k(   23) = (   0.0555556  -0.5000000   0.2766252), wk =   0.0109739
        k(   24) = (   0.0555556  -0.5000000   0.3872752), wk =   0.0109739
        k(   25) = (   0.0555556  -0.5000000  -0.4979253), wk =   0.0054870
        k(   26) = (   0.1666667   0.1666667   0.0553250), wk =   0.0109739
        k(   27) = (   0.1666667   0.1666667   0.1659751), wk =   0.0109739
        k(   28) = (   0.1666667   0.1666667   0.2766252), wk =   0.0109739
        k(   29) = (   0.1666667   0.1666667   0.3872752), wk =   0.0109739
        k(   30) = (   0.1666667   0.1666667  -0.4979253), wk =   0.0054870
        k(   31) = (   0.1666667   0.2777778   0.0553250), wk =   0.0219479
        k(   32) = (   0.1666667   0.2777778   0.1659751), wk =   0.0219479
        k(   33) = (   0.1666667   0.2777778   0.2766252), wk =   0.0219479
        k(   34) = (   0.1666667   0.2777778   0.3872752), wk =   0.0219479
        k(   35) = (   0.1666667   0.2777778  -0.4979253), wk =   0.0109739
        k(   36) = (   0.1666667   0.3888889   0.0553250), wk =   0.0219479
        k(   37) = (   0.1666667   0.3888889   0.1659751), wk =   0.0219479
        k(   38) = (   0.1666667   0.3888889   0.2766252), wk =   0.0219479
        k(   39) = (   0.1666667   0.3888889   0.3872752), wk =   0.0219479
        k(   40) = (   0.1666667   0.3888889  -0.4979253), wk =   0.0109739
        k(   41) = (   0.1666667  -0.5000000   0.0553250), wk =   0.0109739
        k(   42) = (   0.1666667  -0.5000000   0.1659751), wk =   0.0109739
        k(   43) = (   0.1666667  -0.5000000   0.2766252), wk =   0.0109739
        k(   44) = (   0.1666667  -0.5000000   0.3872752), wk =   0.0109739
        k(   45) = (   0.1666667  -0.5000000  -0.4979253), wk =   0.0054870
        k(   46) = (   0.2777778   0.2777778   0.0553250), wk =   0.0109739
        k(   47) = (   0.2777778   0.2777778   0.1659751), wk =   0.0109739
        k(   48) = (   0.2777778   0.2777778   0.2766252), wk =   0.0109739
        k(   49) = (   0.2777778   0.2777778   0.3872752), wk =   0.0109739
        k(   50) = (   0.2777778   0.2777778  -0.4979253), wk =   0.0054870
        k(   51) = (   0.2777778   0.3888889   0.0553250), wk =   0.0219479
        k(   52) = (   0.2777778   0.3888889   0.1659751), wk =   0.0219479
        k(   53) = (   0.2777778   0.3888889   0.2766252), wk =   0.0219479
        k(   54) = (   0.2777778   0.3888889   0.3872752), wk =   0.0219479
        k(   55) = (   0.2777778   0.3888889  -0.4979253), wk =   0.0109739
        k(   56) = (   0.2777778  -0.5000000   0.0553250), wk =   0.0109739
        k(   57) = (   0.2777778  -0.5000000   0.1659751), wk =   0.0109739
        k(   58) = (   0.2777778  -0.5000000   0.2766252), wk =   0.0109739
        k(   59) = (   0.2777778  -0.5000000   0.3872752), wk =   0.0109739
        k(   60) = (   0.2777778  -0.5000000  -0.4979253), wk =   0.0054870
        k(   61) = (   0.3888889   0.3888889   0.0553250), wk =   0.0109739
        k(   62) = (   0.3888889   0.3888889   0.1659751), wk =   0.0109739
        k(   63) = (   0.3888889   0.3888889   0.2766252), wk =   0.0109739
        k(   64) = (   0.3888889   0.3888889   0.3872752), wk =   0.0109739
        k(   65) = (   0.3888889   0.3888889  -0.4979253), wk =   0.0054870
        k(   66) = (   0.3888889  -0.5000000   0.0553250), wk =   0.0109739
        k(   67) = (   0.3888889  -0.5000000   0.1659751), wk =   0.0109739
        k(   68) = (   0.3888889  -0.5000000   0.2766252), wk =   0.0109739
        k(   69) = (   0.3888889  -0.5000000   0.3872752), wk =   0.0109739
        k(   70) = (   0.3888889  -0.5000000  -0.4979253), wk =   0.0054870
        k(   71) = (  -0.5000000  -0.5000000   0.0553250), wk =   0.0027435
        k(   72) = (  -0.5000000  -0.5000000   0.1659751), wk =   0.0027435
        k(   73) = (  -0.5000000  -0.5000000   0.2766252), wk =   0.0027435
        k(   74) = (  -0.5000000  -0.5000000   0.3872752), wk =   0.0027435
        k(   75) = (  -0.5000000  -0.5000000  -0.4979253), wk =   0.0013717

     Check: negative/imaginary core charge=   -0.000006    0.000000

     Initial potential from superposition of free atoms

     starting charge  255.99300, renormalised to  256.00000
     Starting wfcs are  160 randomized atomic wfcs
     Checking if some PAW data can be deallocated...

     Self-consistent Calculation

     iteration #  1     ecut=    71.00 Ry     beta= 0.10
     Davidson diagonalization with overlap
     ethr =  1.00E-02,  avg # of iterations =  3.3

     Threshold (ethr) on eigenvalues was too large:
     Diagonalizing with lowered threshold

     Davidson diagonalization with overlap
     ethr =  2.08E-04,  avg # of iterations =  3.6

     total energy              =   -5268.00787006 Ry
     Harris-Foulkes estimate   =   -5268.06868361 Ry
     estimated scf accuracy    <       0.61484415 Ry

     total magnetization       =    28.01 Bohr mag/cell
     absolute magnetization    =    28.12 Bohr mag/cell

[...]

     negative rho (up, down):  0.000E+00 1.090E-03

[...]

     total energy              =   -5268.19080314 Ry
     Harris-Foulkes estimate   =   -5268.19080266 Ry
     estimated scf accuracy    <       0.00000252 Ry

[...]

     iteration # 22     ecut=    71.00 Ry     beta= 0.10
     Davidson diagonalization with overlap
     ethr =  9.85E-10,  avg # of iterations =  1.8

[...]

     Magnetic moment per site:
     atom:    1    charge:   14.3697    magn:    2.1046    constr:    0.0000
     atom:    2    charge:   14.3698    magn:    2.1065    constr:    0.0000
     atom:    3    charge:   14.3697    magn:    2.1058    constr:    0.0000
     atom:    4    charge:   14.3698    magn:    2.1065    constr:    0.0000
     atom:    5    charge:   14.3699    magn:    2.1048    constr:    0.0000
     atom:    6    charge:   14.3698    magn:    2.1065    constr:    0.0000
     atom:    7    charge:   14.3699    magn:    2.1057    constr:    0.0000
     atom:    8    charge:   14.3698    magn:    2.1065    constr:    0.0000
     atom:    9    charge:   14.3699    magn:    2.1048    constr:    0.0000
     atom:   10    charge:   14.3698    magn:    2.1065    constr:    0.0000
     atom:   11    charge:   14.3699    magn:    2.1057    constr:    0.0000
     atom:   12    charge:   14.3698    magn:    2.1065    constr:    0.0000
     atom:   13    charge:   14.3698    magn:    2.1051    constr:    0.0000
     atom:   14    charge:   14.3698    magn:    2.1065    constr:    0.0000
     atom:   15    charge:   14.3698    magn:    2.1061    constr:    0.0000
     atom:   16    charge:   14.3698    magn:    2.1065    constr:    0.0000

     End of self-consistent calculation

     Number of k-points >= 100: set verbosity='high' to print the bands.

     the Fermi energy is    18.8749 ev

!    total energy              =   -5268.19080460 Ry
     Harris-Foulkes estimate   =   -5268.19080329 Ry
     estimated scf accuracy    <       0.00000086 Ry

     total all-electron energy =    -40728.935334 Ry

     The total energy is the sum of the following terms:

     one-electron contribution =   -1713.59549986 Ry
     hartree contribution      =    1024.49482508 Ry
     xc contribution           =    -444.21461056 Ry
     ewald contribution        =   -2810.33128625 Ry
     one-center paw contrib.   =   -1324.67023476 Ry
     smearing contrib. (-TS)   =       0.12600176 Ry

     total magnetization       =    32.97 Bohr mag/cell
     absolute magnetization    =    34.76 Bohr mag/cell

     convergence has been achieved in  22 iterations

     negative rho (up, down):  0.000E+00 2.487E-03

     Forces acting on atoms (cartesian axes, Ry/au):

     atom    1 type  1   force =     0.00000000    0.00000000    0.00000000
     atom    2 type  2   force =     0.00001512    0.00001512    0.00012639
     atom    3 type  1   force =     0.00000000    0.00000000    0.00000000
     atom    4 type  2   force =     0.00001512    0.00001512   -0.00012639
     atom    5 type  1   force =     0.00000000    0.00000000    0.00000000
     atom    6 type  2   force =     0.00001512   -0.00001512    0.00012639
     atom    7 type  1   force =     0.00000000    0.00000000    0.00000000
     atom    8 type  2   force =     0.00001512   -0.00001512   -0.00012639
     atom    9 type  1   force =     0.00000000    0.00000000    0.00000000
     atom   10 type  2   force =    -0.00001512    0.00001512    0.00012639
     atom   11 type  1   force =     0.00000000    0.00000000    0.00000000
     atom   12 type  2   force =    -0.00001512    0.00001512   -0.00012639
     atom   13 type  1   force =     0.00000000    0.00000000    0.00000000
     atom   14 type  2   force =    -0.00001512   -0.00001512    0.00012639
     atom   15 type  1   force =     0.00000000    0.00000000    0.00000000
     atom   16 type  2   force =    -0.00001512   -0.00001512   -0.00012639

     Total force =     0.000363     Total SCF correction =     0.005007
     SCF correction compared to forces is large: reduce conv_thr to get better values

     Computing stress (Cartesian axis) and pressure

     negative rho (up, down):  0.000E+00 2.487E-03
          total   stress  (Ry/bohr**3)                   (kbar)     P=  -12.60
  -0.00007374   0.00000000   0.00000000        -10.85      0.00      0.00
   0.00000000  -0.00007374   0.00000000          0.00    -10.85      0.00
   0.00000000   0.00000000  -0.00010953          0.00      0.00    -16.11

     Writing output data file FCnWXsDdgMxRFehM.save/

     General routines

     Parallel routines

   This run was terminated on:  16:12:53   9Sep2020

   JOB DONE.